<?xml version="1.0"?>
<VTKFile type="UnstructuredGrid" version="0.1" byte_order="LittleEndian">
<UnstructuredGrid>
<Piece NumberOfPoints="30618" NumberOfCells="10744">
<Points>
<DataArray type="Float64" NumberOfComponents="3" format="ascii">
-0.49427958746526202 -0.49999999999999512 0 -0.4943900888896422 -0.47349089190363358 0 -0.49427958746526202 -0.49999999999999512 0 -0.5 -0.5 0 -0.4943900888896422 -0.47349089190363358 0 -0.5 -0.5 0 -0.4943900888896422 -0.47349089190363358 0 -0.5 -0.44150235328842258 0 -0.49427958746526202 -0.49999999999999512 0 -0.4943900888896422 -0.47349089190363358 0 -0.48436842240857858 -0.48714093788813112 0 -0.49427958746526202 -0.49999999999999512 0 -0.47650045540741742 -0.5 0 -0.48436842240857858 -0.48714093788813112 0 -0.4943900888896422 -0.47349089190363358 0 -0.47066899942757451 -0.47576530412887819 0 -0.48436842240857858 -0.48714093788813112 0 -0.47066899942757451 -0.47576530412887819 0 -0.47650045540741742 -0.5 0 -0.48436842240857858 -0.48714093788813112 0 -0.47066899942757451 -0.47576530412887819 0 -0.45872132334957288 -0.49999999999999928 0 -0.45242967983978871 -0.4846708604340636 0 -0.47066899942757451 -0.47576530412887819 0 -0.47650045540741742 -0.5 0 -0.45872132334957288 -0.49999999999999928 0 -0.47066899942757451 -0.47576530412887819 0 -0.45872132334957288 -0.49999999999999928 0 -0.47066899942757451 -0.47576530412887819 0 -0.45242967983978871 -0.4846708604340636 0 -0.45249717469141032 -0.46588444847215849 0 -0.43763952177061649 -0.47770500498713542 0 -0.45242967983978871 -0.4846708604340636 0 -0.45249717469141032 -0.46588444847215849 0 -0.43763952177061649 -0.47770500498713542 0 -0.44291044788006362 -0.49999999999999939 0 -0.45242967983978871 -0.4846708604340636 0 -0.43763952177061649 -0.47770500498713542 0 -0.44291044788006362 -0.49999999999999939 0 -0.45872132334957288 -0.49999999999999928 0 -0.44291044788006362 -0.49999999999999939 0 -0.45242967983978871 -0.4846708604340636 0 -0.44838221886832419 -0.4464230337388379 0 -0.4323685956611692 -0.45541000997427139 0 -0.435988539966085 -0.44148905847597392 0 -0.44838221886832419 -0.4464230337388379 0 -0.44213238819953832 -0.43491600865963681 0 -0.435988539966085 -0.44148905847597392 0 -0.44838221886832419 -0.4464230337388379 0 -0.45249717469141032 -0.46588444847215849 0 -0.45755175660874181 -0.45423607616472811 0 -0.44838221886832419 -0.4464230337388379 0 -0.45249717469141032 -0.46588444847215849 0 -0.4323685956611692 -0.45541000997427139 0 -0.43763952177061649 -0.47770500498713542 0 -0.45249717469141032 -0.46588444847215849 0 -0.4323685956611692 -0.45541000997427139 0 -0.47066899942757451 -0.47576530412887819 0 -0.45249717469141032 -0.46588444847215849 0 -0.4675747862741928 -0.45726336772241771 0 -0.45249717469141032 -0.46588444847215849 0 -0.45755175660874181 -0.45423607616472811 0 -0.4675747862741928 -0.45726336772241771 0 -0.44838221886832419 -0.4464230337388379 0 -0.46897642374787268 -0.44262015471777721 0 -0.45660235518767722 -0.42786105997071933 0 -0.44838221886832419 -0.4464230337388379 0 -0.45755175660874181 -0.45423607616472811 0 -0.46897642374787268 -0.44262015471777721 0 -0.45755175660874181 -0.45423607616472811 0 -0.4675747862741928 -0.45726336772241771 0 -0.46897642374787268 -0.44262015471777721 0 -0.4943900888896422 -0.47349089190363358 0 -0.5 -0.44150235328842258 0 -0.49450059031402238 -0.44698178380727199 0 -0.46897642374787268 -0.44262015471777721 0 -0.48473746643246862 -0.43972512984246093 0 -0.48043585850414389 -0.43127077967876992 0 -0.46897642374787268 -0.44262015471777721 0 -0.4826166755055763 -0.45153060825775743 0 -0.48473746643246862 -0.43972512984246093 0 -0.4675747862741928 -0.45726336772241771 0 -0.46897642374787268 -0.44262015471777721 0 -0.4826166755055763 -0.45153060825775743 0 -0.47066899942757451 -0.47576530412887819 0 -0.4826166755055763 -0.45153060825775743 0 -0.4943900888896422 -0.47349089190363358 0 -0.47066899942757451 -0.47576530412887819 0 -0.4826166755055763 -0.45153060825775743 0 -0.47066899942757451 -0.47576530412887819 0 -0.4675747862741928 -0.45726336772241771 0 -0.4826166755055763 -0.45153060825775743 0 -0.4943900888896422 -0.47349089190363358 0 -0.49450059031402238 -0.44698178380727199 0 -0.4943900888896422 -0.47349089190363358 0 -0.4826166755055763 -0.45153060825775743 0 -0.49450059031402238 -0.44698178380727199 0 -0.4826166755055763 -0.45153060825775743 0 -0.48473746643246862 -0.43972512984246093 0 -0.49450059031402238 -0.44698178380727199 0 -0.5 -0.44150235328842258 0 -0.49461109173840262 -0.42047267571091063 0 -0.5 -0.39656953661894012 0 -0.49450059031402238 -0.44698178380727199 0 -0.49461109173840262 -0.42047267571091063 0 -0.48473746643246862 -0.43972512984246093 0 -0.49461109173840262 -0.42047267571091063 0 -0.48043585850414389 -0.43127077967876992 0 -0.5 -0.44150235328842258 0 -0.49450059031402238 -0.44698178380727199 0 -0.49461109173840262 -0.42047267571091063 0 -0.48473746643246862 -0.43972512984246093 0 -0.49450059031402238 -0.44698178380727199 0 -0.49461109173840262 -0.42047267571091063 0 -0.49461109173840262 -0.42047267571091063 0 -0.4947215931627828 -0.39396356761454909 0 -0.49461109173840262 -0.42047267571091063 0 -0.48393842445605872 -0.40713040098299402 0 -0.4947215931627828 -0.39396356761454909 0 -0.49461109173840262 -0.42047267571091063 0 -0.48393842445605872 -0.40713040098299402 0 -0.47214510592166908 -0.41939033492402211 0 -0.48393842445605872 -0.40713040098299402 0 -0.47214510592166908 -0.41939033492402211 0 -0.47427590700138023 -0.39469502568249409 0 -0.46897642374787268 -0.44262015471777721 0 -0.47214510592166908 -0.41939033492402211 0 -0.48043585850414389 -0.43127077967876992 0 -0.49461109173840262 -0.42047267571091063 0 -0.47214510592166908 -0.41939033492402211 0 -0.48043585850414389 -0.43127077967876992 0 -0.5 -0.39656953661894012 0 -0.4947215931627828 -0.39396356761454909 0 -0.48030453056746109 -0.36861144308094029 0 -0.49461109173840262 -0.42047267571091063 0 -0.5 -0.39656953661894012 0 -0.4947215931627828 -0.39396356761454909 0 -0.48393842445605872 -0.40713040098299402 0 -0.4947215931627828 -0.39396356761454909 0 -0.47427590700138023 -0.39469502568249409 0 -0.47427590700138023 -0.39469502568249409 0 -0.48030453056746109 -0.36861144308094029 0 -0.4947215931627828 -0.39396356761454909 0 -0.47427590700138023 -0.39469502568249409 0 -0.48030453056746109 -0.36861144308094029 0 -0.47427590700138023 -0.39469502568249409 0 -0.46334377193483078 -0.37842983215876019 0 -0.48030453056746109 -0.36861144308094029 0 -0.46334377193483078 -0.37842983215876019 0 -0.45726543839001688 -0.40541672899881109 0 -0.44416021803808919 -0.38243724496113263 0 -0.47427590700138023 -0.39469502568249409 0 -0.46334377193483078 -0.37842983215876019 0 -0.45726543839001688 -0.40541672899881109 0 -0.45726543839001688 -0.40541672899881109 0 -0.43814282409564848 -0.40387353522152758 0 -0.44416021803808919 -0.38243724496113263 0 -0.43814282409564848 -0.40387353522152758 0 -0.44416021803808919 -0.38243724496113263 0 -0.4329908326547659 -0.40007252460533121 0 -0.43814282409564848 -0.40387353522152758 0 -0.44416021803808919 -0.38243724496113263 0 -0.46897642374787268 -0.44262015471777721 0 -0.47214510592166908 -0.41939033492402211 0 -0.45660235518767722 -0.42786105997071933 0 -0.47214510592166908 -0.41939033492402211 0 -0.47427590700138023 -0.39469502568249409 0 -0.45726543839001688 -0.40541672899881109 0 -0.47214510592166908 -0.41939033492402211 0 -0.45726543839001688 -0.40541672899881109 0 -0.45660235518767722 -0.42786105997071933 0 -0.45726543839001688 -0.40541672899881109 0 -0.45660235518767722 -0.42786105997071933 0 -0.44309263043645408 -0.41812298423377797 0 -0.45726543839001688 -0.40541672899881109 0 -0.43814282409564848 -0.40387353522152758 0 -0.44309263043645408 -0.41812298423377797 0 -0.43814282409564848 -0.40387353522152758 0 -0.44309263043645408 -0.41812298423377797 0 -0.43209373842114163 -0.42530092927673752 0 -0.44838221886832419 -0.4464230337388379 0 -0.45660235518767722 -0.42786105997071933 0 -0.44213238819953832 -0.43491600865963681 0 -0.45660235518767722 -0.42786105997071933 0 -0.44213238819953832 -0.43491600865963681 0 -0.43132710435572019 -0.42815377149591122 0 -0.45660235518767722 -0.42786105997071933 0 -0.44309263043645408 -0.41812298423377797 0 -0.43132710435572019 -0.42815377149591122 0 -0.45660235518767722 -0.42786105997071933 0 -0.43132710435572019 -0.42815377149591122 0 -0.44213238819953832 -0.43491600865963681 0 -0.42986244815509678 -0.43337144475258638 0 -0.435988539966085 -0.44148905847597392 0 -0.44213238819953832 -0.43491600865963681 0 -0.42986244815509678 -0.43337144475258638 0 -0.43132710435572019 -0.42815377149591122 0 -0.42986244815509678 -0.43337144475258638 0 -0.43132710435572019 -0.42815377149591122 0 -0.42986244815509678 -0.43337144475258638 0 -0.42494843276815808 -0.42822764260015772 0 -0.42026026496879931 -0.43681168621285732 0 -0.42986244815509678 -0.43337144475258638 0 -0.42494843276815808 -0.42822764260015772 0 -0.43132710435572019 -0.42815377149591122 0 -0.42494843276815808 -0.42822764260015772 0 -0.43209373842114163 -0.42530092927673752 0 -0.42214799869492048 -0.41876725226122891 0 -0.42494843276815808 -0.42822764260015772 0 -0.43209373842114163 -0.42530092927673752 0 -0.42494843276815808 -0.42822764260015772 0 -0.43209373842114163 -0.42530092927673752 0 -0.43132710435572019 -0.42815377149591122 0 -0.42494843276815808 -0.42822764260015772 0 -0.43132710435572019 -0.42815377149591122 0 -0.44309263043645408 -0.41812298423377797 0 -0.43209373842114163 -0.42530092927673752 0 -0.43132710435572019 -0.42815377149591122 0 -0.43209373842114163 -0.42530092927673752 0 -0.43132710435572019 -0.42815377149591122 0 -0.43814282409564848 -0.40387353522152758 0 -0.43209373842114163 -0.42530092927673752 0 -0.43814282409564848 -0.40387353522152758 0 -0.43209373842114163 -0.42530092927673752 0 -0.42736227186559528 -0.41250939947999687 0 -0.43814282409564848 -0.40387353522152758 0 -0.42736227186559528 -0.41250939947999687 0 -0.42798743510346321 -0.40461924019690898 0 -0.42736227186559528 -0.41250939947999687 0 -0.42214799869492048 -0.41876725226122891 0 -0.41643936301280282 -0.409986040443582 0 -0.42736227186559528 -0.41250939947999687 0 -0.41643936301280282 -0.409986040443582 0 -0.42798743510346321 -0.40461924019690898 0 -0.43209373842114163 -0.42530092927673752 0 -0.42736227186559528 -0.41250939947999687 0 -0.42214799869492048 -0.41876725226122891 0 -0.41643936301280282 -0.409986040443582 0 -0.41319678457753078 -0.41966526467231158 0 -0.40068754056194861 -0.4128492080837643 0 -0.41643936301280282 -0.409986040443582 0 -0.40443020735863072 -0.40194112054031811 0 -0.40068754056194861 -0.4128492080837643 0 -0.42214799869492048 -0.41876725226122891 0 -0.41643936301280282 -0.409986040443582 0 -0.41319678457753078 -0.41966526467231158 0 -0.42494843276815808 -0.42822764260015772 0 -0.42026026496879931 -0.43681168621285732 0 -0.40375973713816599 -0.43690652084804732 0 -0.42494843276815808 -0.42822764260015772 0 -0.40375973713816599 -0.43690652084804732 0 -0.42494843276815808 -0.42822764260015772 0 -0.40375973713816599 -0.43690652084804732 0 -0.40176058784982421 -0.42849617997282502 0 -0.42494843276815808 -0.42822764260015772 0 -0.40176058784982421 -0.42849617997282502 0 -0.42494843276815808 -0.42822764260015772 0 -0.41319678457753078 -0.41966526467231158 0 -0.40176058784982421 -0.42849617997282502 0 -0.42494843276815808 -0.42822764260015772 0 -0.42214799869492048 -0.41876725226122891 0 -0.41319678457753078 -0.41966526467231158 0 -0.4329908326547659 -0.40007252460533121 0 -0.41903857325144328 -0.37691094697715488 0 -0.4329908326547659 -0.40007252460533121 0 -0.4179168883199279 -0.39116430956604842 0 -0.41903857325144328 -0.37691094697715488 0 -0.4326994291400702 -0.38209416684564063 0 -0.4329908326547659 -0.40007252460533121 0 -0.41903857325144328 -0.37691094697715488 0 -0.44416021803808919 -0.38243724496113263 0 -0.4326994291400702 -0.38209416684564063 0 -0.4329908326547659 -0.40007252460533121 0 -0.4326994291400702 -0.38209416684564063 0 -0.41903857325144328 -0.37691094697715488 0 -0.43460809261598232 -0.36895595083894339 0 -0.44416021803808919 -0.38243724496113263 0 -0.4326994291400702 -0.38209416684564063 0 -0.43460809261598232 -0.36895595083894339 0 -0.4329908326547659 -0.40007252460533121 0 -0.42169055226689678 -0.40123550737599678 0 -0.4179168883199279 -0.39116430956604842 0 -0.43814282409564848 -0.40387353522152758 0 -0.4329908326547659 -0.40007252460533121 0 -0.42798743510346321 -0.40461924019690898 0 -0.4329908326547659 -0.40007252460533121 0 -0.42798743510346321 -0.40461924019690898 0 -0.42169055226689678 -0.40123550737599678 0 -0.41643936301280282 -0.409986040443582 0 -0.42798743510346321 -0.40461924019690898 0 -0.42169055226689678 -0.40123550737599678 0 -0.40637138740796802 -0.39517449182144659 0 -0.4179168883199279 -0.39116430956604842 0 -0.40139199175968793 -0.38592718468705428 0 -0.41643936301280282 -0.409986040443582 0 -0.42169055226689678 -0.40123550737599678 0 -0.41336967967324528 -0.3999002939494784 0 -0.41643936301280282 -0.409986040443582 0 -0.41336967967324528 -0.3999002939494784 0 -0.40443020735863072 -0.40194112054031811 0 -0.41336967967324528 -0.3999002939494784 0 -0.40637138740796802 -0.39517449182144659 0 -0.40443020735863072 -0.40194112054031811 0 -0.41336967967324528 -0.3999002939494784 0 -0.40637138740796802 -0.39517449182144659 0 -0.4179168883199279 -0.39116430956604842 0 -0.42169055226689678 -0.40123550737599678 0 -0.41336967967324528 -0.3999002939494784 0 -0.4179168883199279 -0.39116430956604842 0 -0.4179168883199279 -0.39116430956604842 0 -0.40139199175968793 -0.38592718468705428 0 -0.4179168883199279 -0.39116430956604842 0 -0.41012997258942652 -0.38146265356513281 0 -0.40139199175968793 -0.38592718468705428 0 -0.4179168883199279 -0.39116430956604842 0 -0.41596140559408717 -0.38148427669336471 0 -0.41903857325144328 -0.37691094697715488 0 -0.4179168883199279 -0.39116430956604842 0 -0.41264357953851821 -0.38144664688815172 0 -0.41596140559408717 -0.38148427669336471 0 -0.4179168883199279 -0.39116430956604842 0 -0.41264357953851821 -0.38144664688815172 0 -0.41012997258942652 -0.38146265356513281 0 -0.41404820471788178 -0.37946069571912022 0 -0.41012997258942652 -0.38146265356513281 0 -0.41264357953851821 -0.38144664688815172 0 -0.41404820471788178 -0.37946069571912022 0 -0.41012997258942652 -0.38146265356513281 0 -0.41404820471788178 -0.37946069571912022 0 -0.41012997258942652 -0.38146265356513281 0 -0.40173768300816198 -0.36643993149899518 0 -0.41264357953851821 -0.38144664688815172 0 -0.41012997258942652 -0.38146265356513281 0 -0.41404820471788178 -0.37946069571912022 0 -0.41903857325144328 -0.37691094697715488 0 -0.41404820471788178 -0.37946069571912022 0 -0.41596140559408717 -0.38148427669336471 0 -0.41903857325144328 -0.37691094697715488 0 -0.41264357953851821 -0.38144664688815172 0 -0.41404820471788178 -0.37946069571912022 0 -0.41596140559408717 -0.38148427669336471 0 -0.41404820471788178 -0.37946069571912022 0 -0.41596140559408717 -0.38148427669336471 0 -0.41012997258942652 -0.38146265356513281 0 -0.39138945824891558 -0.38158199336868193 0 -0.40139199175968793 -0.38592718468705428 0 -0.39138945824891558 -0.38158199336868193 0 -0.40139199175968793 -0.38592718468705428 0 -0.38146018706309692 -0.39611102053173108 0 -0.41012997258942652 -0.38146265356513281 0 -0.39138945824891558 -0.38158199336868193 0 -0.40173768300816198 -0.36643993149899518 0 -0.41012997258942652 -0.38146265356513281 0 -0.39138945824891558 -0.38158199336868193 0 -0.41012997258942652 -0.38146265356513281 0 -0.40139199175968793 -0.38592718468705428 0 -0.39138945824891558 -0.38158199336868193 0 -0.40139199175968793 -0.38592718468705428 0 -0.40139199175968793 -0.38592718468705428 0 -0.39499960735806972 -0.39650442224569948 0 -0.38146018706309692 -0.39611102053173108 0 -0.40139199175968793 -0.38592718468705428 0 -0.38146018706309692 -0.39611102053173108 0 -0.40637138740796802 -0.39517449182144659 0 -0.39499960735806972 -0.39650442224569948 0 -0.40443020735863072 -0.40194112054031811 0 -0.40637138740796802 -0.39517449182144659 0 -0.40139199175968793 -0.38592718468705428 0 -0.39499960735806972 -0.39650442224569948 0 -0.39499960735806972 -0.39650442224569948 0 -0.40443020735863072 -0.40194112054031811 0 -0.39652584119055362 -0.40342912424259242 0 -0.40443020735863072 -0.40194112054031811 0 -0.39652584119055362 -0.40342912424259242 0 -0.40068754056194861 -0.4128492080837643 0 -0.39652584119055362 -0.40342912424259242 0 -0.38735877636819388 -0.40059869056111858 0 -0.38983809416569087 -0.40758335385593009 0 -0.39499960735806972 -0.39650442224569948 0 -0.39652584119055362 -0.40342912424259242 0 -0.38735877636819388 -0.40059869056111858 0 -0.38156916822041892 -0.40603200008561519 0 -0.38178229459812563 -0.40298695858946171 0 -0.38983809416569087 -0.40758335385593009 0 -0.38178229459812563 -0.40298695858946171 0 -0.38012172885428602 -0.39806952235009457 0 -0.38983809416569087 -0.40758335385593009 0 -0.38735877636819388 -0.40059869056111858 0 -0.38012172885428602 -0.39806952235009457 0 -0.38983809416569087 -0.40758335385593009 0 -0.38012172885428602 -0.39806952235009457 0 -0.38983809416569087 -0.40758335385593009 0 -0.38012172885428602 -0.39806952235009457 0 -0.37209094330423159 -0.40089808531996213 0 -0.37629487057870992 -0.40149067916431569 0 -0.38012172885428602 -0.39806952235009457 0 -0.37209094330423159 -0.40089808531996213 0 -0.38156916822041892 -0.40603200008561519 0 -0.38178229459812563 -0.40298695858946171 0 -0.37856432677971441 -0.40327293704996398 0 -0.38156916822041892 -0.40603200008561519 0 -0.37602613074463359 -0.40570926791912437 0 -0.37856432677971441 -0.40327293704996398 0 -0.37602613074463359 -0.40570926791912437 0 -0.37856432677971441 -0.40327293704996398 0 -0.37629487057870992 -0.40149067916431569 0 -0.37856432677971441 -0.40327293704996398 0 -0.37629487057870992 -0.40149067916431569 0 -0.37881815497051818 -0.39997697960570461 0 -0.37629487057870992 -0.40149067916431569 0 -0.37881815497051818 -0.39997697960570461 0 -0.38012172885428602 -0.39806952235009457 0 -0.37881815497051818 -0.39997697960570461 0 -0.38012172885428602 -0.39806952235009457 0 -0.38178229459812563 -0.40298695858946171 0 -0.37881815497051818 -0.39997697960570461 0 -0.38012172885428602 -0.39806952235009457 0 -0.38178229459812563 -0.40298695858946171 0 -0.37856432677971441 -0.40327293704996398 0 -0.37881815497051818 -0.39997697960570461 0 -0.38012172885428602 -0.39806952235009457 0 -0.37610551335983561 -0.39413702328477918 0 -0.37209094330423159 -0.40089808531996213 0 -0.38146018706309692 -0.39611102053173108 0 -0.37610551335983561 -0.39413702328477918 0 -0.38353069879127127 -0.38163203803623119 0 -0.38146018706309692 -0.39611102053173108 0 -0.38012172885428602 -0.39806952235009457 0 -0.37610551335983561 -0.39413702328477918 0 -0.38146018706309692 -0.39611102053173108 0 -0.38012172885428602 -0.39806952235009457 0 -0.38012172885428602 -0.39806952235009457 0 -0.37610551335983561 -0.39413702328477918 0 -0.39499960735806972 -0.39650442224569948 0 -0.38735877636819388 -0.40059869056111858 0 -0.38146018706309692 -0.39611102053173108 0 -0.38735877636819388 -0.40059869056111858 0 -0.38146018706309692 -0.39611102053173108 0 -0.38012172885428602 -0.39806952235009457 0 -0.39138945824891558 -0.38158199336868193 0 -0.38146018706309692 -0.39611102053173108 0 -0.38146018706309692 -0.39611102053173108 0 -0.38353069879127127 -0.38163203803623119 0 -0.38775448495095949 -0.38160514091903242 0 -0.39138945824891558 -0.38158199336868193 0 -0.38146018706309692 -0.39611102053173108 0 -0.38775448495095949 -0.38160514091903242 0 -0.37610551335983561 -0.39413702328477918 0 -0.38353069879127127 -0.38163203803623119 0 -0.38353069879127127 -0.38163203803623119 0 -0.36791003929668897 -0.37531597356073781 0 -0.38353069879127127 -0.38163203803623119 0 -0.37576852049830373 -0.37424143402576782 0 -0.36791003929668897 -0.37531597356073781 0 -0.38353069879127127 -0.38163203803623119 0 -0.38775448495095949 -0.38160514091903242 0 -0.39138945824891558 -0.38158199336868193 0 -0.38775448495095949 -0.38160514091903242 0 -0.39082733033514372 -0.43553780059387093 0 -0.40375973713816599 -0.43690652084804732 0 -0.40176058784982421 -0.42849617997282502 0 -0.41319678457753078 -0.41966526467231158 0 -0.40176058784982421 -0.42849617997282502 0 -0.40068754056194861 -0.4128492080837643 0 -0.40176058784982421 -0.42849617997282502 0 -0.40068754056194861 -0.4128492080837643 0 -0.38796072571873202 -0.41787067674187572 0 -0.40068754056194861 -0.4128492080837643 0 -0.38796072571873202 -0.41787067674187572 0 -0.38983809416569087 -0.40758335385593009 0 -0.39652584119055362 -0.40342912424259242 0 -0.40068754056194861 -0.4128492080837643 0 -0.38983809416569087 -0.40758335385593009 0 -0.38156916822041892 -0.40603200008561519 0 -0.38983809416569087 -0.40758335385593009 0 -0.38249496913699632 -0.41100015469591239 0 -0.38796072571873202 -0.41787067674187572 0 -0.38983809416569087 -0.40758335385593009 0 -0.38249496913699632 -0.41100015469591239 0 -0.38156916822041892 -0.40603200008561519 0 -0.37602613074463359 -0.40570926791912437 0 -0.38249496913699632 -0.41100015469591239 0 -0.38796072571873202 -0.41787067674187572 0 -0.38249496913699632 -0.41100015469591239 0 -0.37441041966644201 -0.41853044649732968 0 -0.38796072571873202 -0.41787067674187572 0 -0.37857274293149029 -0.42876471734549271 0 -0.37441041966644201 -0.41853044649732968 0 -0.39082733033514372 -0.43553780059387093 0 -0.37857274293149029 -0.42876471734549271 0 -0.38257104150817378 -0.44558539909593659 0 -0.40176058784982421 -0.42849617997282502 0 -0.38796072571873202 -0.41787067674187572 0 -0.37857274293149029 -0.42876471734549271 0 -0.40176058784982421 -0.42849617997282502 0 -0.37857274293149029 -0.42876471734549271 0 -0.39082733033514372 -0.43553780059387093 0 -0.40176058784982421 -0.42849617997282502 0 -0.37857274293149029 -0.42876471734549271 0 -0.37857274293149029 -0.42876471734549271 0 -0.38257104150817378 -0.44558539909593659 0 -0.36466736862266619 -0.43929361107495862 0 -0.40375973713816599 -0.43690652084804732 0 -0.38257104150817378 -0.44558539909593659 0 -0.40375973713816599 -0.43690652084804732 0 -0.38257104150817378 -0.44558539909593659 0 -0.39873322217020901 -0.44879301705899238 0 -0.38257104150817378 -0.44558539909593659 0 -0.39873322217020901 -0.44879301705899238 0 -0.39185116602312342 -0.46040899195533008 0 -0.39082733033514372 -0.43553780059387093 0 -0.40375973713816599 -0.43690652084804732 0 -0.38257104150817378 -0.44558539909593659 0 -0.39873322217020901 -0.44879301705899238 0 -0.40884565752670138 -0.44739205870809717 0 -0.40642776429331862 -0.45699343118294727 0 -0.40375973713816599 -0.43690652084804732 0 -0.39873322217020901 -0.44879301705899238 0 -0.40884565752670138 -0.44739205870809717 0 -0.39185116602312342 -0.46040899195533008 0 -0.40182839360969391 -0.46973105278735439 0 -0.40642776429331862 -0.45699343118294727 0 -0.39873322217020901 -0.44879301705899238 0 -0.39185116602312342 -0.46040899195533008 0 -0.40642776429331862 -0.45699343118294727 0 -0.38257104150817378 -0.44558539909593659 0 -0.39185116602312342 -0.46040899195533008 0 -0.3749125057523493 -0.4641870694620962 0 -0.39185116602312342 -0.46040899195533008 0 -0.38739682711329992 -0.47637139398093842 0 -0.3749125057523493 -0.4641870694620962 0 -0.38739682711329992 -0.47637139398093842 0 -0.36650464836053492 -0.47758333459014829 0 -0.3749125057523493 -0.4641870694620962 0 -0.38739682711329992 -0.47637139398093842 0 -0.38649563617076049 -0.5 0 -0.36650464836053492 -0.47758333459014829 0 -0.38649563617076049 -0.5 0 -0.40221786754911548 -0.48468690862955621 0 -0.41470304202541208 -0.5 0 -0.38739682711329992 -0.47637139398093842 0 -0.38649563617076049 -0.5 0 -0.40221786754911548 -0.48468690862955621 0 -0.39185116602312342 -0.46040899195533008 0 -0.38739682711329992 -0.47637139398093842 0 -0.40182839360969391 -0.46973105278735439 0 -0.38739682711329992 -0.47637139398093842 0 -0.40221786754911548 -0.48468690862955621 0 -0.40182839360969391 -0.46973105278735439 0 -0.40221786754911548 -0.48468690862955621 0 -0.40182839360969391 -0.46973105278735439 0 -0.41640034518153801 -0.4710884416934209 0 -0.40221786754911548 -0.48468690862955621 0 -0.41640034518153801 -0.4710884416934209 0 -0.41470304202541208 -0.5 0 -0.43763952177061649 -0.47770500498713542 0 -0.44291044788006362 -0.49999999999999939 0 -0.41470304202541208 -0.5 0 -0.43763952177061649 -0.47770500498713542 0 -0.41640034518153801 -0.4710884416934209 0 -0.41470304202541208 -0.5 0 -0.43763952177061649 -0.47770500498713542 0 -0.41640034518153801 -0.4710884416934209 0 -0.4323685956611692 -0.45541000997427139 0 -0.43763952177061649 -0.47770500498713542 0 -0.4323685956611692 -0.45541000997427139 0 -0.41640034518153801 -0.4710884416934209 0 -0.4323685956611692 -0.45541000997427139 0 -0.41872867018542492 -0.45179192289975101 0 -0.4323685956611692 -0.45541000997427139 0 -0.435988539966085 -0.44148905847597392 0 -0.42615181293618792 -0.44307742131274741 0 -0.42986244815509678 -0.43337144475258638 0 -0.435988539966085 -0.44148905847597392 0 -0.42615181293618792 -0.44307742131274741 0 -0.42986244815509678 -0.43337144475258638 0 -0.42026026496879931 -0.43681168621285732 0 -0.42615181293618792 -0.44307742131274741 0 -0.4323685956611692 -0.45541000997427139 0 -0.42615181293618792 -0.44307742131274741 0 -0.41872867018542492 -0.45179192289975101 0 -0.41872867018542492 -0.45179192289975101 0 -0.41657889384638791 -0.4424754015507481 0 -0.40884565752670138 -0.44739205870809717 0 -0.42026026496879931 -0.43681168621285732 0 -0.40375973713816599 -0.43690652084804732 0 -0.41657889384638791 -0.4424754015507481 0 -0.42615181293618792 -0.44307742131274741 0 -0.41872867018542492 -0.45179192289975101 0 -0.41657889384638791 -0.4424754015507481 0 -0.42026026496879931 -0.43681168621285732 0 -0.42615181293618792 -0.44307742131274741 0 -0.41657889384638791 -0.4424754015507481 0 -0.40375973713816599 -0.43690652084804732 0 -0.41657889384638791 -0.4424754015507481 0 -0.40884565752670138 -0.44739205870809717 0 -0.41872867018542492 -0.45179192289975101 0 -0.40884565752670138 -0.44739205870809717 0 -0.40642776429331862 -0.45699343118294727 0 -0.41640034518153801 -0.4710884416934209 0 -0.41872867018542492 -0.45179192289975101 0 -0.40642776429331862 -0.45699343118294727 0 -0.40182839360969391 -0.46973105278735439 0 -0.41640034518153801 -0.4710884416934209 0 -0.40642776429331862 -0.45699343118294727 0 -0.45211818340539273 -0.26309076008929921 0 -0.44165736388207272 -0.25360003737878889 0 -0.46465652818918263 -0.24483730068029039 0 -0.45211818340539273 -0.26309076008929921 0 -0.44165736388207272 -0.25360003737878889 0 -0.43680511815892142 -0.2660007677910407 0 -0.45211818340539273 -0.26309076008929921 0 -0.43957983862160288 -0.2813442194983079 0 -0.45211818340539273 -0.26309076008929921 0 -0.45386615352933152 -0.26317791563468229 0 -0.44300193479902689 -0.28147468360283379 0 -0.45211818340539273 -0.26309076008929921 0 -0.43957983862160288 -0.2813442194983079 0 -0.44300193479902689 -0.28147468360283379 0 -0.45386615352933152 -0.26317791563468229 0 -0.44300193479902689 -0.28147468360283379 0 -0.45211818340539273 -0.26309076008929921 0 -0.43957983862160288 -0.2813442194983079 0 -0.43680511815892142 -0.2660007677910407 0 -0.46540099386590911 -0.27613459344745273 0 -0.45386615352933152 -0.26317791563468229 0 -0.47789920225856231 -0.2654141115859287 0 -0.46540099386590911 -0.27613459344745273 0 -0.45386615352933152 -0.26317791563468229 0 -0.44300193479902689 -0.28147468360283379 0 -0.45211818340539273 -0.26309076008929921 0 -0.45386615352933152 -0.26317791563468229 0 -0.46465652818918263 -0.24483730068029039 0 -0.45211818340539273 -0.26309076008929921 0 -0.46465652818918263 -0.24483730068029039 0 -0.45386615352933152 -0.26317791563468229 0 -0.46465652818918263 -0.24483730068029039 0 -0.45386615352933152 -0.26317791563468229 0 -0.47789920225856231 -0.2654141115859287 0 -0.46465652818918263 -0.24483730068029039 0 -0.47789920225856231 -0.2654141115859287 0 -0.48570939693172899 -0.24902992718248729 0 -0.46465652818918263 -0.24483730068029039 0 -0.47789920225856231 -0.2654141115859287 0 -0.4909021497975728 -0.26136593096020788 0 -0.48570939693172899 -0.24902992718248729 0 -0.4909021497975728 -0.26136593096020788 0 -0.5 -0.25150281007534703 0 -0.5 -0.27951687499706851 0 -0.4909021497975728 -0.26136593096020788 0 -0.5 -0.25150281007534703 0 -0.48570939693172899 -0.24902992718248729 0 -0.47789920225856231 -0.2654141115859287 0 -0.5 -0.27951687499706851 0 -0.48508449486424082 -0.28732415172015657 0 -0.47789920225856231 -0.2654141115859287 0 -0.4909021497975728 -0.26136593096020788 0 -0.5 -0.27951687499706851 0 -0.46540099386590911 -0.27613459344745273 0 -0.47789920225856231 -0.2654141115859287 0 -0.48508449486424082 -0.28732415172015657 0 -0.46540099386590911 -0.27613459344745273 0 -0.4692524708352519 -0.29304891184013099 0 -0.48508449486424082 -0.28732415172015657 0 -0.4692524708352519 -0.29304891184013099 0 -0.48508449486424082 -0.28732415172015657 0 -0.48342094646859679 -0.29729694551662461 0 -0.5 -0.27951687499706851 0 -0.5 -0.30753093991878988 0 -0.49616219239740023 -0.30000131546641939 0 -0.5 -0.27951687499706851 0 -0.48508449486424082 -0.28732415172015657 0 -0.49616219239740023 -0.30000131546641939 0 -0.48508449486424082 -0.28732415172015657 0 -0.49616219239740023 -0.30000131546641939 0 -0.48342094646859679 -0.29729694551662461 0 -0.49616219239740023 -0.30000131546641939 0 -0.47988752038114357 -0.30743937284698208 0 -0.49124767326547109 -0.32126458797290303 0 -0.49616219239740023 -0.30000131546641939 0 -0.47988752038114357 -0.30743937284698208 0 -0.48342094646859679 -0.29729694551662461 0 -0.49616219239740023 -0.30000131546641939 0 -0.49124767326547109 -0.32126458797290303 0 -0.5 -0.30753093991878988 0 -0.49616219239740023 -0.30000131546641939 0 -0.49124767326547109 -0.32126458797290303 0 -0.4692524708352519 -0.29304891184013099 0 -0.47988752038114357 -0.30743937284698208 0 -0.46289418455034459 -0.31569959279366661 0 -0.4692524708352519 -0.29304891184013099 0 -0.47988752038114357 -0.30743937284698208 0 -0.48342094646859679 -0.29729694551662461 0 -0.4692524708352519 -0.29304891184013099 0 -0.46289418455034459 -0.31569959279366661 0 -0.4692524708352519 -0.29304891184013099 0 -0.45610231338702439 -0.30058860430122147 0 -0.46289418455034459 -0.31569959279366661 0 -0.45610231338702439 -0.30058860430122147 0 -0.44586848524951039 -0.31314063422893113 0 -0.46289418455034459 -0.31569959279366661 0 -0.46540099386590911 -0.27613459344745273 0 -0.45701344915610581 -0.28694014007387803 0 -0.44300193479902689 -0.28147468360283379 0 -0.46540099386590911 -0.27613459344745273 0 -0.4692524708352519 -0.29304891184013099 0 -0.45701344915610581 -0.28694014007387803 0 -0.4692524708352519 -0.29304891184013099 0 -0.45610231338702439 -0.30058860430122147 0 -0.45701344915610581 -0.28694014007387803 0 -0.45610231338702439 -0.30058860430122147 0 -0.44300193479902689 -0.28147468360283379 0 -0.43213771606872631 -0.29977145157098772 0 -0.43957983862160288 -0.2813442194983079 0 -0.44300193479902689 -0.28147468360283379 0 -0.43213771606872631 -0.29977145157098772 0 -0.45610231338702439 -0.30058860430122147 0 -0.45701344915610581 -0.28694014007387803 0 -0.44300193479902689 -0.28147468360283379 0 -0.44300193479902689 -0.28147468360283379 0 -0.43213771606872631 -0.29977145157098772 0 -0.45610231338702439 -0.30058860430122147 0 -0.43213771606872631 -0.29977145157098772 0 -0.45610231338702439 -0.30058860430122147 0 -0.44586848524951039 -0.31314063422893113 0 -0.43213771606872631 -0.29977145157098772 0 -0.44586848524951039 -0.31314063422893113 0 -0.44476508916493912 -0.32800798766852468 0 -0.46289418455034459 -0.31569959279366661 0 -0.44586848524951039 -0.31314063422893113 0 -0.44476508916493912 -0.32800798766852468 0 -0.43268999707831379 -0.32114889215997511 0 -0.44476508916493912 -0.32800798766852468 0 -0.45653589826543722 -0.33835027374720222 0 -0.43854709093312078 -0.34551838447463762 0 -0.44476508916493912 -0.32800798766852468 0 -0.43854709093312078 -0.34551838447463762 0 -0.43403437847741988 -0.33354869747312299 0 -0.45653589826543722 -0.33835027374720222 0 -0.47228809685679413 -0.34052311598912072 0 -0.46825538305703029 -0.35176440759005828 0 -0.45653589826543722 -0.33835027374720222 0 -0.47506093156469842 -0.3287229684348516 0 -0.47228809685679413 -0.34052311598912072 0 -0.44476508916493912 -0.32800798766852468 0 -0.45653589826543722 -0.33835027374720222 0 -0.46289418455034459 -0.31569959279366661 0 -0.45653589826543722 -0.33835027374720222 0 -0.46289418455034459 -0.31569959279366661 0 -0.47506093156469842 -0.3287229684348516 0 -0.45653589826543722 -0.33835027374720222 0 -0.46289418455034459 -0.31569959279366661 0 -0.4772725774404144 -0.31828163051210079 0 -0.49124767326547109 -0.32126458797290303 0 -0.47506093156469842 -0.3287229684348516 0 -0.47988752038114357 -0.30743937284698208 0 -0.46289418455034459 -0.31569959279366661 0 -0.4772725774404144 -0.31828163051210079 0 -0.46289418455034459 -0.31569959279366661 0 -0.4772725774404144 -0.31828163051210079 0 -0.47506093156469842 -0.3287229684348516 0 -0.47988752038114357 -0.30743937284698208 0 -0.4772725774404144 -0.31828163051210079 0 -0.49124767326547109 -0.32126458797290303 0 -0.5 -0.30753093991878988 0 -0.49124767326547109 -0.32126458797290303 0 -0.49999999999999961 -0.33554500484051131 0 -0.49124767326547109 -0.32126458797290303 0 -0.48633315413354011 -0.3425278604793861 0 -0.49124767326547109 -0.32126458797290303 0 -0.49999999999999961 -0.33554500484051131 0 -0.48633315413354011 -0.3425278604793861 0 -0.49999999999999961 -0.33554500484051131 0 -0.48633315413354011 -0.3425278604793861 0 -0.48633315413354011 -0.3425278604793861 0 -0.47506093156469842 -0.3287229684348516 0 -0.47228809685679413 -0.34052311598912072 0 -0.49124767326547109 -0.32126458797290303 0 -0.48633315413354011 -0.3425278604793861 0 -0.47506093156469842 -0.3287229684348516 0 -0.48633315413354011 -0.3425278604793861 0 -0.47228809685679413 -0.34052311598912072 0 -0.46825538305703029 -0.35176440759005828 0 -0.49999999999999961 -0.33554500484051131 0 -0.48633315413354011 -0.3425278604793861 0 -0.48030453056746109 -0.36861144308094029 0 -0.48633315413354011 -0.3425278604793861 0 -0.48030453056746109 -0.36861144308094029 0 -0.46825538305703029 -0.35176440759005828 0 -0.48633315413354011 -0.3425278604793861 0 -0.46825538305703029 -0.35176440759005828 0 -0.48633315413354011 -0.3425278604793861 0 -0.48030453056746109 -0.36861144308094029 0 -0.5 -0.39656953661894012 0 -0.49999999999999961 -0.33554500484051131 0 -0.48030453056746109 -0.36861144308094029 0 -0.46334377193483078 -0.37842983215876019 0 -0.48030453056746109 -0.36861144308094029 0 -0.46825538305703029 -0.35176440759005828 0 -0.46334377193483078 -0.37842983215876019 0 -0.46825538305703029 -0.35176440759005828 0 -0.45017761198052331 -0.36100095470073579 0 -0.45653589826543722 -0.33835027374720222 0 -0.45017761198052331 -0.36100095470073579 0 -0.45653589826543722 -0.33835027374720222 0 -0.46825538305703029 -0.35176440759005828 0 -0.45017761198052331 -0.36100095470073579 0 -0.46825538305703029 -0.35176440759005828 0 -0.45017761198052331 -0.36100095470073579 0 -0.45653589826543722 -0.33835027374720222 0 -0.43854709093312078 -0.34551838447463762 0 -0.45017761198052331 -0.36100095470073579 0 -0.43854709093312078 -0.34551838447463762 0 -0.45017761198052331 -0.36100095470073579 0 -0.43688840964749209 -0.35781554759345557 0 -0.45017761198052331 -0.36100095470073579 0 -0.43460809261598232 -0.36895595083894339 0 -0.43688840964749209 -0.35781554759345557 0 -0.45017761198052331 -0.36100095470073579 0 -0.43460809261598232 -0.36895595083894339 0 -0.44416021803808919 -0.38243724496113263 0 -0.45017761198052331 -0.36100095470073579 0 -0.43460809261598232 -0.36895595083894339 0 -0.44416021803808919 -0.38243724496113263 0 -0.45017761198052331 -0.36100095470073579 0 -0.46334377193483078 -0.37842983215876019 0 -0.44416021803808919 -0.38243724496113263 0 -0.45017761198052331 -0.36100095470073579 0 -0.41903857325144328 -0.37691094697715488 0 -0.43460809261598232 -0.36895595083894339 0 -0.42422084306034402 -0.35578690035950972 0 -0.41903857325144328 -0.37691094697715488 0 -0.43460809261598232 -0.36895595083894339 0 -0.43460809261598232 -0.36895595083894339 0 -0.43688840964749209 -0.35781554759345557 0 -0.42422084306034402 -0.35578690035950972 0 -0.43854709093312078 -0.34551838447463762 0 -0.42422084306034402 -0.35578690035950972 0 -0.42013533673330578 -0.33951952558935461 0 -0.43854709093312078 -0.34551838447463762 0 -0.43688840964749209 -0.35781554759345557 0 -0.42422084306034402 -0.35578690035950972 0 -0.40758067638829881 -0.35789015901873489 0 -0.42013533673330578 -0.33951952558935461 0 -0.42422084306034402 -0.35578690035950972 0 -0.40758067638829881 -0.35789015901873489 0 -0.42013533673330578 -0.33951952558935461 0 -0.40758067638829881 -0.35789015901873489 0 -0.4025685708709531 -0.34956976676792401 0 -0.42013533673330578 -0.33951952558935461 0 -0.41903857325144328 -0.37691094697715488 0 -0.40758067638829881 -0.35789015901873489 0 -0.40173768300816198 -0.36643993149899518 0 -0.41404820471788178 -0.37946069571912022 0 -0.41903857325144328 -0.37691094697715488 0 -0.40173768300816198 -0.36643993149899518 0 -0.41903857325144328 -0.37691094697715488 0 -0.42422084306034402 -0.35578690035950972 0 -0.40758067638829881 -0.35789015901873489 0 -0.41903857325144328 -0.37691094697715488 0 -0.40758067638829881 -0.35789015901873489 0 -0.41404820471788178 -0.37946069571912022 0 -0.40173768300816198 -0.36643993149899518 0 -0.39138945824891558 -0.38158199336868193 0 -0.38775448495095949 -0.38160514091903242 0 -0.39609514899832238 -0.36047185746617882 0 -0.39138945824891558 -0.38158199336868193 0 -0.40173768300816198 -0.36643993149899518 0 -0.39609514899832238 -0.36047185746617882 0 -0.40758067638829881 -0.35789015901873489 0 -0.40173768300816198 -0.36643993149899518 0 -0.40758067638829881 -0.35789015901873489 0 -0.40173768300816198 -0.36643993149899518 0 -0.39609514899832238 -0.36047185746617882 0 -0.40173768300816198 -0.36643993149899518 0 -0.39609514899832238 -0.36047185746617882 0 -0.39138945824891558 -0.38158199336868193 0 -0.40173768300816198 -0.36643993149899518 0 -0.38353069879127127 -0.38163203803623119 0 -0.38775448495095949 -0.38160514091903242 0 -0.39609514899832238 -0.36047185746617882 0 -0.38353069879127127 -0.38163203803623119 0 -0.39609514899832238 -0.36047185746617882 0 -0.37576852049830373 -0.37424143402576782 0 -0.37576852049830373 -0.37424143402576782 0 -0.38980029292032681 -0.3538138263344407 0 -0.39609514899832238 -0.36047185746617882 0 -0.37576852049830373 -0.37424143402576782 0 -0.38980029292032681 -0.3538138263344407 0 -0.38353069879127127 -0.38163203803623119 0 -0.39609514899832238 -0.36047185746617882 0 -0.37576852049830373 -0.37424143402576782 0 -0.38980029292032681 -0.3538138263344407 0 -0.37245563567842283 -0.36342144099550278 0 -0.37501505732771462 -0.35270295609204683 0 -0.38980029292032681 -0.3538138263344407 0 -0.37245563567842283 -0.36342144099550278 0 -0.37501505732771462 -0.35270295609204683 0 -0.38980029292032681 -0.3538138263344407 0 -0.37630104444955431 -0.33953575302191552 0 -0.38980029292032681 -0.3538138263344407 0 -0.3874425906513701 -0.34245666632481359 0 -0.37630104444955431 -0.33953575302191552 0 -0.38980029292032681 -0.3538138263344407 0 -0.37630104444955431 -0.33953575302191552 0 -0.38980029292032681 -0.3538138263344407 0 -0.39796499687501963 -0.34192756105832428 0 -0.3874425906513701 -0.34245666632481359 0 -0.38980029292032681 -0.3538138263344407 0 -0.39796499687501963 -0.34192756105832428 0 -0.38980029292032681 -0.3538138263344407 0 -0.4025685708709531 -0.34956976676792401 0 -0.39796499687501963 -0.34192756105832428 0 -0.39609514899832238 -0.36047185746617882 0 -0.38980029292032681 -0.3538138263344407 0 -0.4025685708709531 -0.34956976676792401 0 -0.39609514899832238 -0.36047185746617882 0 -0.38980029292032681 -0.3538138263344407 0 -0.40758067638829881 -0.35789015901873489 0 -0.4025685708709531 -0.34956976676792401 0 -0.39609514899832238 -0.36047185746617882 0 -0.4025685708709531 -0.34956976676792401 0 -0.40758067638829881 -0.35789015901873489 0 -0.39609514899832238 -0.36047185746617882 0 -0.4025685708709531 -0.34956976676792401 0 -0.4025685708709531 -0.34956976676792401 0 -0.39796499687501963 -0.34192756105832428 0 -0.39796499687501963 -0.34192756105832428 0 -0.38707883306085727 -0.32310268074594539 0 -0.39302444192435521 -0.32665020523696531 0 -0.39796499687501963 -0.34192756105832428 0 -0.41250324535641603 -0.32076261998282041 0 -0.39796499687501963 -0.34192756105832428 0 -0.38707883306085727 -0.32310268074594539 0 -0.39796499687501963 -0.34192756105832428 0 -0.39861901303234393 -0.32526976222302811 0 -0.41250324535641603 -0.32076261998282041 0 -0.4025685708709531 -0.34956976676792401 0 -0.39796499687501963 -0.34192756105832428 0 -0.4173531434698371 -0.32467060916945428 0 -0.39796499687501963 -0.34192756105832428 0 -0.39302444192435521 -0.32665020523696531 0 -0.39861901303234393 -0.32526976222302811 0 -0.39796499687501963 -0.34192756105832428 0 -0.3874425906513701 -0.34245666632481359 0 -0.38570402836057949 -0.33454952488457412 0 -0.39796499687501963 -0.34192756105832428 0 -0.38570402836057949 -0.33454952488457412 0 -0.38707883306085727 -0.32310268074594539 0 -0.3874425906513701 -0.34245666632481359 0 -0.38570402836057949 -0.33454952488457412 0 -0.37630104444955431 -0.33953575302191552 0 -0.38570402836057949 -0.33454952488457412 0 -0.38257566477560778 -0.32750665689071978 0 -0.38707883306085727 -0.32310268074594539 0 -0.38570402836057949 -0.33454952488457412 0 -0.37746168828861648 -0.32880316406910598 0 -0.37630104444955431 -0.33953575302191552 0 -0.38570402836057949 -0.33454952488457412 0 -0.37746168828861648 -0.32880316406910598 0 -0.38257566477560778 -0.32750665689071978 0 -0.38707883306085727 -0.32310268074594539 0 -0.37576395745092178 -0.3050725196501074 0 -0.38707883306085727 -0.32310268074594539 0 -0.37576395745092178 -0.3050725196501074 0 -0.37719713711566749 -0.31197748083789167 0 -0.37972485618422192 -0.31952152903519548 0 -0.38707883306085727 -0.32310268074594539 0 -0.37719713711566749 -0.31197748083789167 0 -0.37972485618422192 -0.31952152903519548 0 -0.37719713711566749 -0.31197748083789167 0 -0.37456534516798468 -0.31943469669369101 0 -0.37972485618422192 -0.31952152903519548 0 -0.38027246529026432 -0.32317389825498388 0 -0.37456534516798468 -0.31943469669369101 0 -0.37746168828861648 -0.32880316406910598 0 -0.38027246529026432 -0.32317389825498388 0 -0.37456534516798468 -0.31943469669369101 0 -0.37746168828861648 -0.32880316406910598 0 -0.38257566477560778 -0.32750665689071978 0 -0.38027246529026432 -0.32317389825498388 0 -0.37972485618422192 -0.31952152903519548 0 -0.38027246529026432 -0.32317389825498388 0 -0.38707883306085727 -0.32310268074594539 0 -0.38257566477560778 -0.32750665689071978 0 -0.38027246529026432 -0.32317389825498388 0 -0.38707883306085727 -0.32310268074594539 0 -0.3895493280880703 -0.32181092315052368 0 -0.38707883306085727 -0.32310268074594539 0 -0.39302444192435521 -0.32665020523696531 0 -0.3895493280880703 -0.32181092315052368 0 -0.38817922209955419 -0.31487003622919818 0 -0.39292420471281692 -0.32089260507692741 0 -0.3895493280880703 -0.32181092315052368 0 -0.3854068594836183 -0.31441721296606712 0 -0.38817922209955419 -0.31487003622919818 0 -0.3895493280880703 -0.32181092315052368 0 -0.38707883306085727 -0.32310268074594539 0 -0.3854068594836183 -0.31441721296606712 0 -0.38817922209955419 -0.31487003622919818 0 -0.39233623022453079 -0.31589900304218349 0 -0.38828454910218052 -0.30906118598004451 0 -0.39233623022453079 -0.31589900304218349 0 -0.39756756003884308 -0.31679974746756201 0 -0.39292420471281692 -0.32089260507692741 0 -0.38817922209955419 -0.31487003622919818 0 -0.39233623022453079 -0.31589900304218349 0 -0.39292420471281692 -0.32089260507692741 0 -0.39233623022453079 -0.31589900304218349 0 -0.39756756003884308 -0.31679974746756201 0 -0.39384318992161488 -0.31092517799495939 0 -0.39756756003884308 -0.31679974746756201 0 -0.39292420471281692 -0.32089260507692741 0 -0.39861901303234393 -0.32526976222302811 0 -0.3895493280880703 -0.32181092315052368 0 -0.39302444192435521 -0.32665020523696531 0 -0.39292420471281692 -0.32089260507692741 0 -0.39302444192435521 -0.32665020523696531 0 -0.39292420471281692 -0.32089260507692741 0 -0.39861901303234393 -0.32526976222302811 0 -0.39756756003884308 -0.31679974746756201 0 -0.39861901303234393 -0.32526976222302811 0 -0.41250324535641603 -0.32076261998282041 0 -0.39756756003884308 -0.31679974746756201 0 -0.41250324535641603 -0.32076261998282041 0 -0.39943253357619768 -0.3092473730742562 0 -0.4173531434698371 -0.32467060916945428 0 -0.41250324535641603 -0.32076261998282041 0 -0.42704149383781292 -0.2995976789073167 0 -0.39796499687501963 -0.34192756105832428 0 -0.4173531434698371 -0.32467060916945428 0 -0.41250324535641603 -0.32076261998282041 0 -0.4025685708709531 -0.34956976676792401 0 -0.4173531434698371 -0.32467060916945428 0 -0.42013533673330578 -0.33951952558935461 0 -0.4025685708709531 -0.34956976676792401 0 -0.4173531434698371 -0.32467060916945428 0 -0.4173531434698371 -0.32467060916945428 0 -0.42013533673330578 -0.33951952558935461 0 -0.43268999707831379 -0.32114889215997511 0 -0.42013533673330578 -0.33951952558935461 0 -0.43268999707831379 -0.32114889215997511 0 -0.42013533673330578 -0.33951952558935461 0 -0.43403437847741988 -0.33354869747312299 0 -0.43268999707831379 -0.32114889215997511 0 -0.43854709093312078 -0.34551838447463762 0 -0.42013533673330578 -0.33951952558935461 0 -0.43403437847741988 -0.33354869747312299 0 -0.44476508916493912 -0.32800798766852468 0 -0.43403437847741988 -0.33354869747312299 0 -0.43268999707831379 -0.32114889215997511 0 -0.4173531434698371 -0.32467060916945428 0 -0.43268999707831379 -0.32114889215997511 0 -0.43213771606872631 -0.29977145157098772 0 -0.44586848524951039 -0.31314063422893113 0 -0.43268999707831379 -0.32114889215997511 0 -0.43213771606872631 -0.29977145157098772 0 -0.4173531434698371 -0.32467060916945428 0 -0.43213771606872631 -0.29977145157098772 0 -0.4173531434698371 -0.32467060916945428 0 -0.42704149383781292 -0.2995976789073167 0 -0.43213771606872631 -0.29977145157098772 0 -0.42704149383781292 -0.2995976789073167 0 -0.43213771606872631 -0.29977145157098772 0 -0.43957983862160288 -0.2813442194983079 0 -0.42704149383781292 -0.2995976789073167 0 -0.41620122749958632 -0.28481054703811581 0 -0.43957983862160288 -0.2813442194983079 0 -0.42704149383781292 -0.2995976789073167 0 -0.43213771606872631 -0.29977145157098772 0 -0.43957983862160288 -0.2813442194983079 0 -0.42704149383781292 -0.2995976789073167 0 -0.42704149383781292 -0.2995976789073167 0 -0.40925521843592683 -0.29219363385722402 0 -0.40193077426190232 -0.29874144532295899 0 -0.42704149383781292 -0.2995976789073167 0 -0.41620122749958632 -0.28481054703811581 0 -0.40925521843592683 -0.29219363385722402 0 -0.41620122749958632 -0.28481054703811581 0 -0.4064106314034665 -0.28786033749410611 0 -0.40925521843592683 -0.29219363385722402 0 -0.41620122749958632 -0.28481054703811581 0 -0.4064106314034665 -0.28786033749410611 0 -0.40459857025975621 -0.28097081354976228 0 -0.42704149383781292 -0.2995976789073167 0 -0.40193077426190232 -0.29874144532295899 0 -0.41250324535641603 -0.32076261998282041 0 -0.42704149383781292 -0.2995976789073167 0 -0.40193077426190232 -0.29874144532295899 0 -0.41250324535641603 -0.32076261998282041 0 -0.42704149383781292 -0.2995976789073167 0 -0.41250324535641603 -0.32076261998282041 0 -0.39943253357619768 -0.3092473730742562 0 -0.40193077426190232 -0.29874144532295899 0 -0.40193077426190232 -0.29874144532295899 0 -0.39397115466413868 -0.30315074537586811 0 -0.37682005468599161 -0.29788521173860111 0 -0.39943253357619768 -0.3092473730742562 0 -0.40193077426190232 -0.29874144532295899 0 -0.39397115466413868 -0.30315074537586811 0 -0.39756756003884308 -0.31679974746756201 0 -0.39943253357619768 -0.3092473730742562 0 -0.39384318992161488 -0.31092517799495939 0 -0.39943253357619768 -0.3092473730742562 0 -0.39515669063330172 -0.30691697672544133 0 -0.39384318992161488 -0.31092517799495939 0 -0.39943253357619768 -0.3092473730742562 0 -0.39397115466413868 -0.30315074537586811 0 -0.39515669063330172 -0.30691697672544133 0 -0.39515669063330172 -0.30691697672544133 0 -0.39384318992161488 -0.31092517799495939 0 -0.39024404857921102 -0.30572650089527997 0 -0.39397115466413868 -0.30315074537586811 0 -0.39515669063330172 -0.30691697672544133 0 -0.39024404857921102 -0.30572650089527997 0 -0.39384318992161488 -0.31092517799495939 0 -0.38828454910218052 -0.30906118598004451 0 -0.39024404857921102 -0.30572650089527997 0 -0.39233623022453079 -0.31589900304218349 0 -0.39384318992161488 -0.31092517799495939 0 -0.38828454910218052 -0.30906118598004451 0 -0.38817922209955419 -0.31487003622919818 0 -0.38828454910218052 -0.30906118598004451 0 -0.37682005468599161 -0.29788521173860111 0 -0.3854068594836183 -0.31441721296606712 0 -0.38817922209955419 -0.31487003622919818 0 -0.37682005468599161 -0.29788521173860111 0 -0.39397115466413868 -0.30315074537586811 0 -0.39024404857921102 -0.30572650089527997 0 -0.37682005468599161 -0.29788521173860111 0 -0.40193077426190232 -0.29874144532295899 0 -0.37682005468599161 -0.29788521173860111 0 -0.38707883306085727 -0.32310268074594539 0 -0.3854068594836183 -0.31441721296606712 0 -0.37682005468599161 -0.29788521173860111 0 -0.38707883306085727 -0.32310268074594539 0 -0.37682005468599161 -0.29788521173860111 0 -0.37576395745092178 -0.3050725196501074 0 -0.38707883306085727 -0.32310268074594539 0 -0.37682005468599161 -0.29788521173860111 0 -0.38828454910218052 -0.30906118598004451 0 -0.39024404857921102 -0.30572650089527997 0 -0.37682005468599161 -0.29788521173860111 0 -0.40193077426190232 -0.29874144532295899 0 -0.37682005468599161 -0.29788521173860111 0 -0.38727793942999461 -0.29143138054805301 0 -0.37682005468599161 -0.29788521173860111 0 -0.37992505739110077 -0.285327891268156 0 -0.37089355010314762 -0.28331705945197572 0 -0.37682005468599161 -0.29788521173860111 0 -0.37992505739110077 -0.285327891268156 0 -0.38727793942999461 -0.29143138054805301 0 -0.38727793942999461 -0.29143138054805301 0 -0.3924898948206727 -0.28599182426682918 0 -0.38684870024465262 -0.28019709009285709 0 -0.37992505739110077 -0.285327891268156 0 -0.38727793942999461 -0.29143138054805301 0 -0.38684870024465262 -0.28019709009285709 0 -0.3924898948206727 -0.28599182426682918 0 -0.39318539860325191 -0.27833553320660309 0 -0.38684870024465262 -0.28019709009285709 0 -0.3924898948206727 -0.28599182426682918 0 -0.39946484360203771 -0.29301209464503369 0 -0.39318539860325191 -0.27833553320660309 0 -0.38727793942999461 -0.29143138054805301 0 -0.3924898948206727 -0.28599182426682918 0 -0.39529086302865168 -0.29229418619571867 0 -0.40193077426190232 -0.29874144532295899 0 -0.38727793942999461 -0.29143138054805301 0 -0.39529086302865168 -0.29229418619571867 0 -0.3924898948206727 -0.28599182426682918 0 -0.39529086302865168 -0.29229418619571867 0 -0.39946484360203771 -0.29301209464503369 0 -0.4064106314034665 -0.28786033749410611 0 -0.40925521843592683 -0.29219363385722402 0 -0.39946484360203771 -0.29301209464503369 0 -0.40925521843592683 -0.29219363385722402 0 -0.40193077426190232 -0.29874144532295899 0 -0.39946484360203771 -0.29301209464503369 0 -0.40193077426190232 -0.29874144532295899 0 -0.39529086302865168 -0.29229418619571867 0 -0.39946484360203771 -0.29301209464503369 0 -0.4064106314034665 -0.28786033749410611 0 -0.39946484360203771 -0.29301209464503369 0 -0.40459857025975621 -0.28097081354976228 0 -0.40459857025975621 -0.28097081354976228 0 -0.39871653422275 -0.26477063034798642 0 -0.40644367116261759 -0.26933550009943341 0 -0.39946484360203771 -0.29301209464503369 0 -0.40459857025975621 -0.28097081354976228 0 -0.39871653422275 -0.26477063034798642 0 -0.39946484360203771 -0.29301209464503369 0 -0.39871653422275 -0.26477063034798642 0 -0.39946484360203771 -0.29301209464503369 0 -0.39318539860325191 -0.27833553320660309 0 -0.39871653422275 -0.26477063034798642 0 -0.39318539860325191 -0.27833553320660309 0 -0.38840702012614647 -0.26770602668030929 0 -0.39871653422275 -0.26477063034798642 0 -0.39318539860325191 -0.27833553320660309 0 -0.38684870024465262 -0.28019709009285709 0 -0.38840702012614647 -0.26770602668030929 0 -0.38684870024465262 -0.28019709009285709 0 -0.38840702012614647 -0.26770602668030929 0 -0.37812768531643998 -0.2740521224023964 0 -0.38840702012614647 -0.26770602668030929 0 -0.37812768531643998 -0.2740521224023964 0 -0.37969836118369482 -0.26041778922000308 0 -0.37992505739110077 -0.285327891268156 0 -0.37812768531643998 -0.2740521224023964 0 -0.37089355010314762 -0.28331705945197572 0 -0.37992505739110077 -0.285327891268156 0 -0.38684870024465262 -0.28019709009285709 0 -0.37812768531643998 -0.2740521224023964 0 -0.37969836118369482 -0.26041778922000308 0 -0.39442967684708991 -0.25208667127465478 0 -0.37872015884544641 -0.2435614714605657 0 -0.37969836118369482 -0.26041778922000308 0 -0.36999160380854529 -0.25160890498862648 0 -0.37872015884544641 -0.2435614714605657 0 -0.38840702012614647 -0.26770602668030929 0 -0.37969836118369482 -0.26041778922000308 0 -0.39442967684708991 -0.25208667127465478 0 -0.37969836118369482 -0.26041778922000308 0 -0.39442967684708991 -0.25208667127465478 0 -0.39442967684708991 -0.25208667127465478 0 -0.39871653422275 -0.26477063034798642 0 -0.39796822484346261 -0.23652916605093899 0 -0.40220594800304021 -0.25293233307518609 0 -0.39871653422275 -0.26477063034798642 0 -0.40644367116261759 -0.26933550009943341 0 -0.40220594800304021 -0.25293233307518609 0 -0.39871653422275 -0.26477063034798642 0 -0.39796822484346261 -0.23652916605093899 0 -0.40220594800304021 -0.25293233307518609 0 -0.40644367116261759 -0.26933550009943341 0 -0.39871653422275 -0.26477063034798642 0 -0.39796822484346261 -0.23652916605093899 0 -0.38840702012614647 -0.26770602668030929 0 -0.39442967684708991 -0.25208667127465478 0 -0.39871653422275 -0.26477063034798642 0 -0.40220594800304021 -0.25293233307518609 0 -0.41459928595597673 -0.25790967448939001 0 -0.40644367116261759 -0.26933550009943341 0 -0.40220594800304021 -0.25293233307518609 0 -0.41459928595597673 -0.25790967448939001 0 -0.41466813127082142 -0.24184035413310251 0 -0.41459928595597673 -0.25790967448939001 0 -0.42775875008346192 -0.25507980811954323 0 -0.41466813127082142 -0.24184035413310251 0 -0.41459928595597673 -0.25790967448939001 0 -0.42191992925994232 -0.27036037701968468 0 -0.42775875008346192 -0.25507980811954323 0 -0.40644367116261759 -0.26933550009943341 0 -0.41206191028808969 -0.27659566112432887 0 -0.42191992925994232 -0.27036037701968468 0 -0.40459857025975621 -0.28097081354976228 0 -0.40644367116261759 -0.26933550009943341 0 -0.41206191028808969 -0.27659566112432887 0 -0.41620122749958632 -0.28481054703811581 0 -0.40459857025975621 -0.28097081354976228 0 -0.41206191028808969 -0.27659566112432887 0 -0.41620122749958632 -0.28481054703811581 0 -0.41206191028808969 -0.27659566112432887 0 -0.42191992925994232 -0.27036037701968468 0 -0.41459928595597673 -0.25790967448939001 0 -0.40644367116261759 -0.26933550009943341 0 -0.42191992925994232 -0.27036037701968468 0 -0.43957983862160288 -0.2813442194983079 0 -0.42191992925994232 -0.27036037701968468 0 -0.43680511815892142 -0.2660007677910407 0 -0.43957983862160288 -0.2813442194983079 0 -0.41620122749958632 -0.28481054703811581 0 -0.42191992925994232 -0.27036037701968468 0 -0.44165736388207272 -0.25360003737878889 0 -0.43680511815892142 -0.2660007677910407 0 -0.42775875008346192 -0.25507980811954323 0 -0.42191992925994232 -0.27036037701968468 0 -0.43680511815892142 -0.2660007677910407 0 -0.42775875008346192 -0.25507980811954323 0 -0.32577683519746242 -0.25897579210934468 0 -0.30798481169360081 -0.26465381523239789 0 -0.31421725341188372 -0.24977587129631751 0 -0.32577683519746242 -0.25897579210934468 0 -0.31511343508082401 -0.27781322935613839 0 -0.33065211668571071 -0.27437360408278932 0 -0.32577683519746242 -0.25897579210934468 0 -0.31511343508082401 -0.27781322935613839 0 -0.30798481169360081 -0.26465381523239789 0 -0.31511343508082401 -0.27781322935613839 0 -0.33065211668571071 -0.27437360408278932 0 -0.32673865940135971 -0.29036850998253821 0 -0.33065211668571071 -0.27437360408278932 0 -0.3425640544848888 -0.26114950363554529 0 -0.3458528524608297 -0.27955870857394483 0 -0.32577683519746242 -0.25897579210934468 0 -0.33065211668571071 -0.27437360408278932 0 -0.3425640544848888 -0.26114950363554529 0 -0.32577683519746242 -0.25897579210934468 0 -0.3425640544848888 -0.26114950363554529 0 -0.34161545739809862 -0.2441761224370865 0 -0.3425640544848888 -0.26114950363554529 0 -0.35707845064694121 -0.24935767075674509 0 -0.34161545739809862 -0.2441761224370865 0 -0.3425640544848888 -0.26114950363554529 0 -0.3649670455202999 -0.26874890716535171 0 -0.35707845064694121 -0.24935767075674509 0 -0.3649670455202999 -0.26874890716535171 0 -0.35707845064694121 -0.24935767075674509 0 -0.37969836118369482 -0.26041778922000308 0 -0.36999160380854529 -0.25160890498862648 0 -0.3649670455202999 -0.26874890716535171 0 -0.36999160380854529 -0.25160890498862648 0 -0.3649670455202999 -0.26874890716535171 0 -0.35707845064694121 -0.24935767075674509 0 -0.37969836118369482 -0.26041778922000308 0 -0.3649670455202999 -0.26874890716535171 0 -0.3649670455202999 -0.26874890716535171 0 -0.3458528524608297 -0.27955870857394483 0 -0.37089355010314762 -0.28331705945197572 0 -0.37812768531643998 -0.2740521224023964 0 -0.3649670455202999 -0.26874890716535171 0 -0.37089355010314762 -0.28331705945197572 0 -0.3649670455202999 -0.26874890716535171 0 -0.37089355010314762 -0.28331705945197572 0 -0.37812768531643998 -0.2740521224023964 0 -0.37969836118369482 -0.26041778922000308 0 -0.3649670455202999 -0.26874890716535171 0 -0.3649670455202999 -0.26874890716535171 0 -0.3458528524608297 -0.27955870857394483 0 -0.3425640544848888 -0.26114950363554529 0 -0.3649670455202999 -0.26874890716535171 0 -0.3458528524608297 -0.27955870857394483 0 -0.3458528524608297 -0.27955870857394483 0 -0.35490209917173382 -0.29713784607450577 0 -0.33298414365747597 -0.29639048041041038 0 -0.3458528524608297 -0.27955870857394483 0 -0.37089355010314762 -0.28331705945197572 0 -0.35490209917173382 -0.29713784607450577 0 -0.35490209917173382 -0.29713784607450577 0 -0.33298414365747597 -0.29639048041041038 0 -0.37682005468599161 -0.29788521173860111 0 -0.37089355010314762 -0.28331705945197572 0 -0.35490209917173382 -0.29713784607450577 0 -0.37682005468599161 -0.29788521173860111 0 -0.37089355010314762 -0.28331705945197572 0 -0.37682005468599161 -0.29788521173860111 0 -0.35490209917173382 -0.29713784607450577 0 -0.37682005468599161 -0.29788521173860111 0 -0.36188894867209143 -0.31041699320339777 0 -0.35490209917173382 -0.29713784607450577 0 -0.37576395745092178 -0.3050725196501074 0 -0.36188894867209143 -0.31041699320339777 0 -0.37031507652163809 -0.31287943285871039 0 -0.37576395745092178 -0.3050725196501074 0 -0.37719713711566749 -0.31197748083789167 0 -0.37031507652163809 -0.31287943285871039 0 -0.37682005468599161 -0.29788521173860111 0 -0.37576395745092178 -0.3050725196501074 0 -0.36188894867209143 -0.31041699320339777 0 -0.36188894867209143 -0.31041699320339777 0 -0.35490209917173382 -0.29713784607450577 0 -0.34709214139205768 -0.31270838654372951 0 -0.35490209917173382 -0.29713784607450577 0 -0.34179204247812539 -0.30372858581904438 0 -0.34709214139205768 -0.31270838654372951 0 -0.35490209917173382 -0.29713784607450577 0 -0.34179204247812539 -0.30372858581904438 0 -0.33298414365747597 -0.29639048041041038 0 -0.33218978569123447 -0.30867763024753198 0 -0.34179204247812539 -0.30372858581904438 0 -0.34709214139205768 -0.31270838654372951 0 -0.33218978569123447 -0.30867763024753198 0 -0.34179204247812539 -0.30372858581904438 0 -0.33298414365747597 -0.29639048041041038 0 -0.33218978569123447 -0.30867763024753198 0 -0.33298414365747597 -0.29639048041041038 0 -0.32551389594434832 -0.29891105756718273 0 -0.3458528524608297 -0.27955870857394483 0 -0.32673865940135971 -0.29036850998253821 0 -0.3458528524608297 -0.27955870857394483 0 -0.33298414365747597 -0.29639048041041038 0 -0.32673865940135971 -0.29036850998253821 0 -0.33065211668571071 -0.27437360408278932 0 -0.3458528524608297 -0.27955870857394483 0 -0.32673865940135971 -0.29036850998253821 0 -0.33298414365747597 -0.29639048041041038 0 -0.32673865940135971 -0.29036850998253821 0 -0.32551389594434832 -0.29891105756718273 0 -0.32673865940135971 -0.29036850998253821 0 -0.31615320843671613 -0.29356321322440693 0 -0.32551389594434832 -0.29891105756718273 0 -0.31511343508082401 -0.27781322935613839 0 -0.32673865940135971 -0.29036850998253821 0 -0.31615320843671613 -0.29356321322440693 0 -0.31615320843671613 -0.29356321322440693 0 -0.31950368253495531 -0.30555545397102613 0 -0.30878428388507118 -0.30170417431472779 0 -0.31950368253495531 -0.30555545397102613 0 -0.3116392313269683 -0.31227800665128408 0 -0.30878428388507118 -0.30170417431472779 0 -0.31950368253495531 -0.30555545397102613 0 -0.32244955285570731 -0.31946983399639112 0 -0.3116392313269683 -0.31227800665128408 0 -0.33218978569123447 -0.30867763024753198 0 -0.31950368253495531 -0.30555545397102613 0 -0.32244955285570731 -0.31946983399639112 0 -0.33218978569123447 -0.30867763024753198 0 -0.31950368253495531 -0.30555545397102613 0 -0.32551389594434832 -0.29891105756718273 0 -0.31615320843671613 -0.29356321322440693 0 -0.31950368253495531 -0.30555545397102613 0 -0.32551389594434832 -0.29891105756718273 0 -0.32244955285570731 -0.31946983399639112 0 -0.30629799224095122 -0.32640742927921629 0 -0.3116392313269683 -0.31227800665128408 0 -0.32244955285570731 -0.31946983399639112 0 -0.32074380139974629 -0.33343701228721029 0 -0.30629799224095122 -0.32640742927921629 0 -0.32244955285570731 -0.31946983399639112 0 -0.32074380139974629 -0.33343701228721029 0 -0.33561670872011118 -0.32538867032004731 0 -0.32074380139974629 -0.33343701228721029 0 -0.33040605641151349 -0.34939015350577979 0 -0.304947043925899 -0.34335287533409059 0 -0.32074380139974629 -0.33343701228721029 0 -0.33267344648675012 -0.33694306544023261 0 -0.33040605641151349 -0.34939015350577979 0 -0.32074380139974629 -0.33343701228721029 0 -0.33267344648675012 -0.33694306544023261 0 -0.33561670872011118 -0.32538867032004731 0 -0.33267344648675012 -0.33694306544023261 0 -0.34392721941562959 -0.33955642564789279 0 -0.33040605641151349 -0.34939015350577979 0 -0.33561670872011118 -0.32538867032004731 0 -0.349287455364583 -0.32600753078393868 0 -0.34392721941562959 -0.33955642564789279 0 -0.33267344648675012 -0.33694306544023261 0 -0.33561670872011118 -0.32538867032004731 0 -0.34392721941562959 -0.33955642564789279 0 -0.33218978569123447 -0.30867763024753198 0 -0.33561670872011118 -0.32538867032004731 0 -0.34709214139205768 -0.31270838654372951 0 -0.33218978569123447 -0.30867763024753198 0 -0.32244955285570731 -0.31946983399639112 0 -0.33561670872011118 -0.32538867032004731 0 -0.33561670872011118 -0.32538867032004731 0 -0.34709214139205768 -0.31270838654372951 0 -0.349287455364583 -0.32600753078393868 0 -0.36188894867209143 -0.31041699320339777 0 -0.349287455364583 -0.32600753078393868 0 -0.36280179597878331 -0.32525767970938912 0 -0.36188894867209143 -0.31041699320339777 0 -0.34709214139205768 -0.31270838654372951 0 -0.349287455364583 -0.32600753078393868 0 -0.36188894867209143 -0.31041699320339777 0 -0.36280179597878331 -0.32525767970938912 0 -0.37031507652163809 -0.31287943285871039 0 -0.37746168828861648 -0.32880316406910598 0 -0.36280179597878331 -0.32525767970938912 0 -0.37456534516798468 -0.31943469669369101 0 -0.36280179597878331 -0.32525767970938912 0 -0.37456534516798468 -0.31943469669369101 0 -0.37031507652163809 -0.31287943285871039 0 -0.37719713711566749 -0.31197748083789167 0 -0.37456534516798468 -0.31943469669369101 0 -0.37031507652163809 -0.31287943285871039 0 -0.37630104444955431 -0.33953575302191552 0 -0.36280179597878331 -0.32525767970938912 0 -0.35900277781907919 -0.33873387737807908 0 -0.37630104444955431 -0.33953575302191552 0 -0.35900277781907919 -0.33873387737807908 0 -0.3662355090989915 -0.348226851570058 0 -0.37746168828861648 -0.32880316406910598 0 -0.37630104444955431 -0.33953575302191552 0 -0.36280179597878331 -0.32525767970938912 0 -0.37630104444955431 -0.33953575302191552 0 -0.36280179597878331 -0.32525767970938912 0 -0.349287455364583 -0.32600753078393868 0 -0.36280179597878331 -0.32525767970938912 0 -0.35900277781907919 -0.33873387737807908 0 -0.349287455364583 -0.32600753078393868 0 -0.35900277781907919 -0.33873387737807908 0 -0.34392721941562959 -0.33955642564789279 0 -0.34392721941562959 -0.33955642564789279 0 -0.34378478126742867 -0.35168705731137051 0 -0.35474622765707731 -0.3530842238088211 0 -0.34378478126742867 -0.35168705731137051 0 -0.35474622765707731 -0.3530842238088211 0 -0.34605962158549469 -0.3647174262829882 0 -0.35474622765707731 -0.3530842238088211 0 -0.34605962158549469 -0.3647174262829882 0 -0.35474622765707731 -0.3530842238088211 0 -0.3645004591251928 -0.35797240650737622 0 -0.3557305472228397 -0.36248105220686111 0 -0.35900277781907919 -0.33873387737807908 0 -0.34392721941562959 -0.33955642564789279 0 -0.35474622765707731 -0.3530842238088211 0 -0.35900277781907919 -0.33873387737807908 0 -0.35474622765707731 -0.3530842238088211 0 -0.3662355090989915 -0.348226851570058 0 -0.35474622765707731 -0.3530842238088211 0 -0.3662355090989915 -0.348226851570058 0 -0.3645004591251928 -0.35797240650737622 0 -0.37501505732771462 -0.35270295609204683 0 -0.3662355090989915 -0.348226851570058 0 -0.3645004591251928 -0.35797240650737622 0 -0.37501505732771462 -0.35270295609204683 0 -0.3645004591251928 -0.35797240650737622 0 -0.37245563567842283 -0.36342144099550278 0 -0.37501505732771462 -0.35270295609204683 0 -0.37630104444955431 -0.33953575302191552 0 -0.3662355090989915 -0.348226851570058 0 -0.35160698284412462 -0.37014915498247181 0 -0.36791003929668897 -0.37531597356073781 0 -0.3617394449023093 -0.36648204945264778 0 -0.35160698284412462 -0.37014915498247181 0 -0.36791003929668897 -0.37531597356073781 0 -0.37245563567842283 -0.36342144099550278 0 -0.3617394449023093 -0.36648204945264778 0 -0.36791003929668897 -0.37531597356073781 0 -0.37576852049830373 -0.37424143402576782 0 -0.37245563567842283 -0.36342144099550278 0 -0.36791003929668897 -0.37531597356073781 0 -0.3645004591251928 -0.35797240650737622 0 -0.3617394449023093 -0.36648204945264778 0 -0.3557305472228397 -0.36248105220686111 0 -0.3645004591251928 -0.35797240650737622 0 -0.37245563567842283 -0.36342144099550278 0 -0.3617394449023093 -0.36648204945264778 0 -0.35474622765707731 -0.3530842238088211 0 -0.3557305472228397 -0.36248105220686111 0 -0.34605962158549469 -0.3647174262829882 0 -0.3617394449023093 -0.36648204945264778 0 -0.35160698284412462 -0.37014915498247181 0 -0.3557305472228397 -0.36248105220686111 0 -0.35160698284412462 -0.37014915498247181 0 -0.3557305472228397 -0.36248105220686111 0 -0.34605962158549469 -0.3647174262829882 0 -0.34605962158549469 -0.3647174262829882 0 -0.34384142010082153 -0.36768806715090302 0 -0.34148886242004811 -0.36564807466747679 0 -0.34605962158549469 -0.3647174262829882 0 -0.34384142010082153 -0.36768806715090302 0 -0.35160698284412462 -0.37014915498247181 0 -0.34384142010082153 -0.36768806715090302 0 -0.3473193197300139 -0.3757558619871843 0 -0.35160698284412462 -0.37014915498247181 0 -0.34384142010082153 -0.36768806715090302 0 -0.35160698284412462 -0.37014915498247181 0 -0.34605962158549469 -0.3647174262829882 0 -0.35160698284412462 -0.37014915498247181 0 -0.34605962158549469 -0.3647174262829882 0 -0.34384142010082153 -0.36768806715090302 0 -0.34384142010082153 -0.36768806715090302 0 -0.3394050004453173 -0.36792428240374231 0 -0.33667947897576161 -0.37727942084292682 0 -0.34384142010082153 -0.36768806715090302 0 -0.33667947897576161 -0.37727942084292682 0 -0.34384142010082153 -0.36768806715090302 0 -0.3473193197300139 -0.3757558619871843 0 -0.33667947897576161 -0.37727942084292682 0 -0.32081326145083022 -0.36031614808850881 0 -0.33667947897576161 -0.37727942084292682 0 -0.3394050004453173 -0.36792428240374231 0 -0.33336643958396978 -0.36601612799497002 0 -0.33667947897576161 -0.37727942084292682 0 -0.33336643958396978 -0.36601612799497002 0 -0.32081326145083022 -0.36031614808850881 0 -0.33667947897576161 -0.37727942084292682 0 -0.33132451367914112 -0.3606866026678322 0 -0.33336643958396978 -0.36601612799497002 0 -0.32081326145083022 -0.36031614808850881 0 -0.33132451367914112 -0.3606866026678322 0 -0.33336643958396978 -0.36601612799497002 0 -0.33697234037925838 -0.36236486777317728 0 -0.34605962158549469 -0.3647174262829882 0 -0.33697234037925838 -0.36236486777317728 0 -0.34148886242004811 -0.36564807466747679 0 -0.3394050004453173 -0.36792428240374231 0 -0.33697234037925838 -0.36236486777317728 0 -0.34148886242004811 -0.36564807466747679 0 -0.3394050004453173 -0.36792428240374231 0 -0.33336643958396978 -0.36601612799497002 0 -0.33697234037925838 -0.36236486777317728 0 -0.34384142010082153 -0.36768806715090302 0 -0.3394050004453173 -0.36792428240374231 0 -0.34148886242004811 -0.36564807466747679 0 -0.34605962158549469 -0.3647174262829882 0 -0.33040605641151349 -0.34939015350577979 0 -0.34378478126742867 -0.35168705731137051 0 -0.34605962158549469 -0.3647174262829882 0 -0.33040605641151349 -0.34939015350577979 0 -0.34605962158549469 -0.3647174262829882 0 -0.33697234037925838 -0.36236486777317728 0 -0.33040605641151349 -0.34939015350577979 0 -0.34392721941562959 -0.33955642564789279 0 -0.34378478126742867 -0.35168705731137051 0 -0.33040605641151349 -0.34939015350577979 0 -0.33132451367914112 -0.3606866026678322 0 -0.33697234037925838 -0.36236486777317728 0 -0.33040605641151349 -0.34939015350577979 0 -0.33040605641151349 -0.34939015350577979 0 -0.32081326145083022 -0.36031614808850881 0 -0.304947043925899 -0.34335287533409059 0 -0.32081326145083022 -0.36031614808850881 0 -0.304947043925899 -0.34335287533409059 0 -0.33132451367914112 -0.3606866026678322 0 -0.33040605641151349 -0.34939015350577979 0 -0.32081326145083022 -0.36031614808850881 0 -0.32440986188565729 -0.37270080156259489 0 -0.32081326145083022 -0.36031614808850881 0 -0.31106328263090982 -0.36800475596674848 0 -0.32440986188565729 -0.37270080156259489 0 -0.32081326145083022 -0.36031614808850881 0 -0.33667947897576161 -0.37727942084292682 0 -0.32440986188565729 -0.37270080156259489 0 -0.31106328263090982 -0.36800475596674848 0 -0.31317375432424149 -0.38208007184035081 0 -0.31106328263090982 -0.36800475596674848 0 -0.30477466129399572 -0.35837215094430408 0 -0.2945929359319488 -0.36760614731534108 0 -0.32081326145083022 -0.36031614808850881 0 -0.31106328263090982 -0.36800475596674848 0 -0.30477466129399572 -0.35837215094430408 0 -0.2945929359319488 -0.36760614731534108 0 -0.31317375432424149 -0.38208007184035081 0 -0.31106328263090982 -0.36800475596674848 0 -0.2945929359319488 -0.36760614731534108 0 -0.31317375432424149 -0.38208007184035081 0 -0.30477466129399572 -0.35837215094430408 0 -0.29245678253039098 -0.35258082801683138 0 -0.2945929359319488 -0.36760614731534108 0 -0.32081326145083022 -0.36031614808850881 0 -0.30477466129399572 -0.35837215094430408 0 -0.304947043925899 -0.34335287533409059 0 -0.30477466129399572 -0.35837215094430408 0 -0.29245678253039098 -0.35258082801683138 0 -0.304947043925899 -0.34335287533409059 0 -0.29245678253039098 -0.35258082801683138 0 -0.27601211753965582 -0.35313222279033191 0 -0.28440521569258082 -0.34149228361744682 0 -0.29245678253039098 -0.35258082801683138 0 -0.2945929359319488 -0.36760614731534108 0 -0.27601211753965582 -0.35313222279033191 0 -0.29245678253039098 -0.35258082801683138 0 -0.28440521569258082 -0.34149228361744682 0 -0.304947043925899 -0.34335287533409059 0 -0.2945929359319488 -0.36760614731534108 0 -0.27987861861344199 -0.36674592141788198 0 -0.27601211753965582 -0.35313222279033191 0 -0.2945929359319488 -0.36760614731534108 0 -0.27601211753965582 -0.35313222279033191 0 -0.2945929359319488 -0.36760614731534108 0 -0.27987861861344199 -0.36674592141788198 0 -0.2808665902171914 -0.38228580422035652 0 -0.26678221966742222 -0.3646399338773868 0 -0.2808665902171914 -0.38228580422035652 0 -0.27987861861344199 -0.36674592141788198 0 -0.26678221966742222 -0.3646399338773868 0 -0.2808665902171914 -0.38228580422035652 0 -0.27987861861344199 -0.36674592141788198 0 -0.26678221966742222 -0.3646399338773868 0 -0.27601211753965582 -0.35313222279033191 0 -0.26678221966742222 -0.3646399338773868 0 -0.25938421221386299 -0.38242260424217978 0 -0.2452998416640946 -0.36477673389921211 0 -0.25269784911765092 -0.34699406353441858 0 -0.27601211753965582 -0.35313222279033191 0 -0.25743129914736268 -0.33865829826532268 0 -0.26678221966742222 -0.3646399338773868 0 -0.25269784911765092 -0.34699406353441858 0 -0.27601211753965582 -0.35313222279033191 0 -0.26678221966742222 -0.3646399338773868 0 -0.25269784911765092 -0.34699406353441858 0 -0.26678221966742222 -0.3646399338773868 0 -0.25269784911765092 -0.34699406353441858 0 -0.2452998416640946 -0.36477673389921211 0 -0.27601211753965582 -0.35313222279033191 0 -0.25743129914736268 -0.33865829826532268 0 -0.27601211753965582 -0.35313222279033191 0 -0.27044436538280059 -0.34111632069956299 0 -0.25743129914736268 -0.33865829826532268 0 -0.27601211753965582 -0.35313222279033191 0 -0.27044436538280059 -0.34111632069956299 0 -0.28440521569258082 -0.34149228361744682 0 -0.27621603835147168 -0.33027839755104138 0 -0.27044436538280059 -0.34111632069956299 0 -0.28440521569258082 -0.34149228361744682 0 -0.27621603835147168 -0.33027839755104138 0 -0.26858322842119509 -0.33433735121453573 0 -0.26421331744216298 -0.32943061110636401 0 -0.27621603835147168 -0.33027839755104138 0 -0.26858322842119509 -0.33433735121453573 0 -0.27044436538280059 -0.34111632069956299 0 -0.26858322842119509 -0.33433735121453573 0 -0.27044436538280059 -0.34111632069956299 0 -0.26348614366539269 -0.33464536090729041 0 -0.25269784911765092 -0.34699406353441858 0 -0.2601150759189611 -0.3291651954159735 0 -0.25269784911765092 -0.34699406353441858 0 -0.2601150759189611 -0.3291651954159735 0 -0.25743129914736268 -0.33865829826532268 0 -0.27044436538280059 -0.34111632069956299 0 -0.26348614366539269 -0.33464536090729041 0 -0.25743129914736268 -0.33865829826532268 0 -0.26348614366539269 -0.33464536090729041 0 -0.2601150759189611 -0.3291651954159735 0 -0.25743129914736268 -0.33865829826532268 0 -0.26858322842119509 -0.33433735121453573 0 -0.26348614366539269 -0.33464536090729041 0 -0.26421331744216298 -0.32943061110636401 0 -0.26348614366539269 -0.33464536090729041 0 -0.26421331744216298 -0.32943061110636401 0 -0.2601150759189611 -0.3291651954159735 0 -0.25993101682886932 -0.31889206187407287 0 -0.25469452373499762 -0.30722313484128749 0 -0.2494260049788683 -0.31746489113439402 0 -0.2601150759189611 -0.3291651954159735 0 -0.25993101682886932 -0.31889206187407287 0 -0.2494260049788683 -0.31746489113439402 0 -0.26421331744216298 -0.32943061110636401 0 -0.2601150759189611 -0.3291651954159735 0 -0.25993101682886932 -0.31889206187407287 0 -0.26421331744216298 -0.32943061110636401 0 -0.25993101682886932 -0.31889206187407287 0 -0.27321460887603632 -0.30942632982525498 0 -0.27621603835147168 -0.33027839755104138 0 -0.28908082640096788 -0.32638960257967248 0 -0.27321460887603632 -0.30942632982525498 0 -0.26421331744216298 -0.32943061110636401 0 -0.27321460887603632 -0.30942632982525498 0 -0.28908082640096788 -0.32638960257967248 0 -0.27321460887603632 -0.30942632982525498 0 -0.27621603835147168 -0.33027839755104138 0 -0.26421331744216298 -0.32943061110636401 0 -0.27321460887603632 -0.30942632982525498 0 -0.28908082640096788 -0.32638960257967248 0 -0.29608772242085762 -0.30837888524759871 0 -0.27321460887603632 -0.30942632982525498 0 -0.28908082640096788 -0.32638960257967248 0 -0.28440521569258082 -0.34149228361744682 0 -0.304947043925899 -0.34335287533409059 0 -0.27621603835147168 -0.33027839755104138 0 -0.28908082640096788 -0.32638960257967248 0 -0.28440521569258082 -0.34149228361744682 0 -0.28908082640096788 -0.32638960257967248 0 -0.304947043925899 -0.34335287533409059 0 -0.32074380139974629 -0.33343701228721029 0 -0.304947043925899 -0.34335287533409059 0 -0.30629799224095122 -0.32640742927921629 0 -0.28908082640096788 -0.32638960257967248 0 -0.304947043925899 -0.34335287533409059 0 -0.30629799224095122 -0.32640742927921629 0 -0.30629799224095122 -0.32640742927921629 0 -0.3116392313269683 -0.31227800665128408 0 -0.29608772242085762 -0.30837888524759871 0 -0.28908082640096788 -0.32638960257967248 0 -0.30629799224095122 -0.32640742927921629 0 -0.29608772242085762 -0.30837888524759871 0 -0.30878428388507118 -0.30170417431472779 0 -0.30257535950331932 -0.29121923704559499 0 -0.29608772242085762 -0.30837888524759871 0 -0.3116392313269683 -0.31227800665128408 0 -0.30878428388507118 -0.30170417431472779 0 -0.29608772242085762 -0.30837888524759871 0 -0.31511343508082401 -0.27781322935613839 0 -0.31615320843671613 -0.29356321322440693 0 -0.30257535950331932 -0.29121923704559499 0 -0.31615320843671613 -0.29356321322440693 0 -0.30878428388507118 -0.30170417431472779 0 -0.30257535950331932 -0.29121923704559499 0 -0.31511343508082401 -0.27781322935613839 0 -0.30257535950331932 -0.29121923704559499 0 -0.30186967514470631 -0.27796386812733742 0 -0.30257535950331932 -0.29121923704559499 0 -0.28167541002104313 -0.29062322282537112 0 -0.29608772242085762 -0.30837888524759871 0 -0.30257535950331932 -0.29121923704559499 0 -0.28167541002104313 -0.29062322282537112 0 -0.30186967514470631 -0.27796386812733742 0 -0.28167541002104313 -0.29062322282537112 0 -0.29608772242085762 -0.30837888524759871 0 -0.27321460887603632 -0.30942632982525498 0 -0.28167541002104313 -0.29062322282537112 0 -0.27321460887603632 -0.30942632982525498 0 -0.28167541002104313 -0.29062322282537112 0 -0.27321460887603632 -0.30942632982525498 0 -0.25754389589834492 -0.29267207960278718 0 -0.27321460887603632 -0.30942632982525498 0 -0.25469452373499762 -0.30722313484128749 0 -0.25754389589834492 -0.29267207960278718 0 -0.27321460887603632 -0.30942632982525498 0 -0.25754389589834492 -0.29267207960278718 0 -0.25469452373499762 -0.30722313484128749 0 -0.25754389589834492 -0.29267207960278718 0 -0.24072416822125611 -0.30184362229434508 0 -0.25993101682886932 -0.31889206187407287 0 -0.27321460887603632 -0.30942632982525498 0 -0.25469452373499762 -0.30722313484128749 0 -0.28167541002104313 -0.29062322282537112 0 -0.25754389589834492 -0.29267207960278718 0 -0.26609549321717318 -0.27038600033383992 0 -0.28167541002104313 -0.29062322282537112 0 -0.26609549321717318 -0.27038600033383992 0 -0.29013621116605032 -0.27182011582548737 0 -0.25754389589834492 -0.29267207960278718 0 -0.26609549321717318 -0.27038600033383992 0 -0.24718685023563691 -0.27875123027958087 0 -0.26609549321717318 -0.27038600033383992 0 -0.2483490975252734 -0.26098873334868322 0 -0.24718685023563691 -0.27875123027958087 0 -0.26609549321717318 -0.27038600033383992 0 -0.2483490975252734 -0.26098873334868322 0 -0.2582168116042447 -0.2439014490639565 0 -0.26609549321717318 -0.27038600033383992 0 -0.28073519909821221 -0.25162370631188929 0 -0.2582168116042447 -0.2439014490639565 0 -0.26609549321717318 -0.27038600033383992 0 -0.28073519909821221 -0.25162370631188929 0 -0.29013621116605032 -0.27182011582548737 0 -0.28073519909821221 -0.25162370631188929 0 -0.29013621116605032 -0.27182011582548737 0 -0.29859701231105729 -0.25301700882560368 0 -0.29013621116605032 -0.27182011582548737 0 -0.29859701231105729 -0.25301700882560368 0 -0.28167541002104313 -0.29062322282537112 0 -0.29013621116605032 -0.27182011582548737 0 -0.28167541002104313 -0.29062322282537112 0 -0.29013621116605032 -0.27182011582548737 0 -0.30186967514470631 -0.27796386812733742 0 -0.29013621116605032 -0.27182011582548737 0 -0.30186967514470631 -0.27796386812733742 0 -0.30798481169360081 -0.26465381523239789 0 -0.31511343508082401 -0.27781322935613839 0 -0.30186967514470631 -0.27796386812733742 0 -0.30798481169360081 -0.26465381523239789 0 -0.29013621116605032 -0.27182011582548737 0 -0.30798481169360081 -0.26465381523239789 0 -0.29859701231105729 -0.25301700882560368 0 -0.30798481169360081 -0.26465381523239789 0 -0.29859701231105729 -0.25301700882560368 0 -0.31421725341188372 -0.24977587129631751 0 -0.33796228302189513 -0.4595255727132167 0 -0.33234589271538922 -0.44480996408757179 0 -0.32640026466812011 -0.46081896178250181 0 -0.33796228302189513 -0.4595255727132167 0 -0.33234589271538922 -0.44480996408757179 0 -0.35319602351827412 -0.45776170704885039 0 -0.33796228302189513 -0.4595255727132167 0 -0.32640026466812011 -0.46081896178250181 0 -0.33318196746883988 -0.47121638454265508 0 -0.33796228302189513 -0.4595255727132167 0 -0.33318196746883988 -0.47121638454265508 0 -0.34642386304625039 -0.46572223054776302 0 -0.33234589271538922 -0.44480996408757179 0 -0.35319602351827412 -0.45776170704885039 0 -0.34417399017822298 -0.44321594322297297 0 -0.33234589271538922 -0.44480996408757179 0 -0.35319602351827412 -0.45776170704885039 0 -0.33234589271538922 -0.44480996408757179 0 -0.34417399017822298 -0.44321594322297297 0 -0.3357600199570368 -0.42926052953436999 0 -0.33234589271538922 -0.44480996408757179 0 -0.3114957619125025 -0.43185822112629579 0 -0.33234589271538922 -0.44480996408757179 0 -0.31256905993156642 -0.45599936109409522 0 -0.3094409967240645 -0.4445248742670016 0 -0.33234589271538922 -0.44480996408757179 0 -0.3114957619125025 -0.43185822112629579 0 -0.3094409967240645 -0.4445248742670016 0 -0.31256905993156642 -0.45599936109409522 0 -0.32640026466812011 -0.46081896178250181 0 -0.31594212020290968 -0.47254352647497072 0 -0.32640026466812011 -0.46081896178250181 0 -0.31594212020290968 -0.47254352647497072 0 -0.33318196746883988 -0.47121638454265508 0 -0.33234589271538922 -0.44480996408757179 0 -0.31256905993156642 -0.45599936109409522 0 -0.32640026466812011 -0.46081896178250181 0 -0.31594212020290968 -0.47254352647497072 0 -0.32571643119753041 -0.48341426386358383 0 -0.33318196746883988 -0.47121638454265508 0 -0.31594212020290968 -0.47254352647497072 0 -0.32571643119753041 -0.48341426386358383 0 -0.3142379471820072 -0.49087834217350051 0 -0.32571643119753041 -0.48341426386358383 0 -0.3142379471820072 -0.49087834217350051 0 -0.33008082446145748 -0.5 0 -0.3142379471820072 -0.49087834217350051 0 -0.33008082446145748 -0.5 0 -0.30187341860680589 -0.5 0 -0.33008082446145748 -0.5 0 -0.33835912005968188 -0.48593346247900621 0 -0.35828823031610901 -0.5 0 -0.32571643119753041 -0.48341426386358383 0 -0.33008082446145748 -0.5 0 -0.33835912005968188 -0.48593346247900621 0 -0.33835912005968188 -0.48593346247900621 0 -0.33318196746883988 -0.47121638454265508 0 -0.35033712925844102 -0.47766396546025452 0 -0.33318196746883988 -0.47121638454265508 0 -0.35033712925844102 -0.47766396546025452 0 -0.34642386304625039 -0.46572223054776302 0 -0.32571643119753041 -0.48341426386358383 0 -0.33835912005968188 -0.48593346247900621 0 -0.33318196746883988 -0.47121638454265508 0 -0.35033712925844102 -0.47766396546025452 0 -0.36650464836053492 -0.47758333459014829 0 -0.36063794808603339 -0.46630538924086617 0 -0.35033712925844102 -0.47766396546025452 0 -0.36063794808603339 -0.46630538924086617 0 -0.34642386304625039 -0.46572223054776302 0 -0.33835912005968188 -0.48593346247900621 0 -0.35033712925844102 -0.47766396546025452 0 -0.35828823031610901 -0.5 0 -0.35033712925844102 -0.47766396546025452 0 -0.35828823031610901 -0.5 0 -0.36650464836053492 -0.47758333459014829 0 -0.38649563617076049 -0.5 0 -0.35828823031610901 -0.5 0 -0.36650464836053492 -0.47758333459014829 0 -0.36650464836053492 -0.47758333459014829 0 -0.3749125057523493 -0.4641870694620962 0 -0.36063794808603339 -0.46630538924086617 0 -0.38257104150817378 -0.44558539909593659 0 -0.3749125057523493 -0.4641870694620962 0 -0.36138234587818158 -0.45426427734382602 0 -0.3749125057523493 -0.4641870694620962 0 -0.36138234587818158 -0.45426427734382602 0 -0.36063794808603339 -0.46630538924086617 0 -0.36063794808603339 -0.46630538924086617 0 -0.35319602351827412 -0.45776170704885039 0 -0.34642386304625039 -0.46572223054776302 0 -0.36138234587818158 -0.45426427734382602 0 -0.35319602351827412 -0.45776170704885039 0 -0.35413130606104948 -0.44909707738868448 0 -0.36138234587818158 -0.45426427734382602 0 -0.36063794808603339 -0.46630538924086617 0 -0.35319602351827412 -0.45776170704885039 0 -0.33796228302189513 -0.4595255727132167 0 -0.35319602351827412 -0.45776170704885039 0 -0.34642386304625039 -0.46572223054776302 0 -0.34917789899954887 -0.43960621791601218 0 -0.34417399017822298 -0.44321594322297297 0 -0.3478317041277888 -0.43428891422125909 0 -0.34417399017822298 -0.44321594322297297 0 -0.35413130606104948 -0.44909707738868448 0 -0.35160182111049931 -0.44318126090920129 0 -0.34917789899954887 -0.43960621791601218 0 -0.34417399017822298 -0.44321594322297297 0 -0.35160182111049931 -0.44318126090920129 0 -0.34917789899954887 -0.43960621791601218 0 -0.35160182111049931 -0.44318126090920129 0 -0.35310408058168441 -0.43773875331061518 0 -0.35319602351827412 -0.45776170704885039 0 -0.34417399017822298 -0.44321594322297297 0 -0.35413130606104948 -0.44909707738868448 0 -0.36138234587818158 -0.45426427734382602 0 -0.35413130606104948 -0.44909707738868448 0 -0.3593008871480341 -0.44528990622411457 0 -0.35413130606104948 -0.44909707738868448 0 -0.35597289875446148 -0.442541016596669 0 -0.3593008871480341 -0.44528990622411457 0 -0.35597289875446148 -0.442541016596669 0 -0.3593008871480341 -0.44528990622411457 0 -0.35811375488379049 -0.43887755417772267 0 -0.35413130606104948 -0.44909707738868448 0 -0.35597289875446148 -0.442541016596669 0 -0.35160182111049931 -0.44318126090920129 0 -0.35597289875446148 -0.442541016596669 0 -0.35160182111049931 -0.44318126090920129 0 -0.35310408058168441 -0.43773875331061518 0 -0.35597289875446148 -0.442541016596669 0 -0.35310408058168441 -0.43773875331061518 0 -0.35811375488379049 -0.43887755417772267 0 -0.3593008871480341 -0.44528990622411457 0 -0.35811375488379049 -0.43887755417772267 0 -0.36466736862266619 -0.43929361107495862 0 -0.38257104150817378 -0.44558539909593659 0 -0.36138234587818158 -0.45426427734382602 0 -0.36466736862266619 -0.43929361107495862 0 -0.38257104150817378 -0.44558539909593659 0 -0.36138234587818158 -0.45426427734382602 0 -0.36138234587818158 -0.45426427734382602 0 -0.3593008871480341 -0.44528990622411457 0 -0.36466736862266619 -0.43929361107495862 0 -0.37857274293149029 -0.42876471734549271 0 -0.37441041966644201 -0.41853044649732968 0 -0.35538489801315631 -0.42903325471815951 0 -0.37857274293149029 -0.42876471734549271 0 -0.36466736862266619 -0.43929361107495862 0 -0.35538489801315631 -0.42903325471815951 0 -0.37857274293149029 -0.42876471734549271 0 -0.35538489801315631 -0.42903325471815951 0 -0.35811375488379049 -0.43887755417772267 0 -0.36466736862266619 -0.43929361107495862 0 -0.35620302754573391 -0.43383251126704991 0 -0.34839752669874718 -0.41300385642212029 0 -0.37209094330423159 -0.40089808531996213 0 -0.37441041966644201 -0.41853044649732968 0 -0.36549953895739912 -0.41199887396496521 0 -0.35538489801315631 -0.42903325471815951 0 -0.38249496913699632 -0.41100015469591239 0 -0.36549953895739912 -0.41199887396496521 0 -0.37602613074463359 -0.40570926791912437 0 -0.38249496913699632 -0.41100015469591239 0 -0.36549953895739912 -0.41199887396496521 0 -0.38249496913699632 -0.41100015469591239 0 -0.37441041966644201 -0.41853044649732968 0 -0.36549953895739912 -0.41199887396496521 0 -0.36549953895739912 -0.41199887396496521 0 -0.35538489801315631 -0.42903325471815951 0 -0.36549953895739912 -0.41199887396496521 0 -0.34839752669874718 -0.41300385642212029 0 -0.37209094330423159 -0.40089808531996213 0 -0.36549953895739912 -0.41199887396496521 0 -0.37209094330423159 -0.40089808531996213 0 -0.36549953895739912 -0.41199887396496521 0 -0.34839752669874718 -0.41300385642212029 0 -0.35538489801315631 -0.42903325471815951 0 -0.36549953895739912 -0.41199887396496521 0 -0.34839752669874718 -0.41300385642212029 0 -0.34839752669874718 -0.41300385642212029 0 -0.35538489801315631 -0.42903325471815951 0 -0.3357600199570368 -0.42926052953436999 0 -0.3478317041277888 -0.43428891422125909 0 -0.35538489801315631 -0.42903325471815951 0 -0.3357600199570368 -0.42926052953436999 0 -0.35538489801315631 -0.42903325471815951 0 -0.3357600199570368 -0.42926052953436999 0 -0.34917789899954887 -0.43960621791601218 0 -0.35310408058168441 -0.43773875331061518 0 -0.3478317041277888 -0.43428891422125909 0 -0.35310408058168441 -0.43773875331061518 0 -0.3478317041277888 -0.43428891422125909 0 -0.35306161513742162 -0.43384008959340059 0 -0.3478317041277888 -0.43428891422125909 0 -0.35306161513742162 -0.43384008959340059 0 -0.35538489801315631 -0.42903325471815951 0 -0.36466736862266619 -0.43929361107495862 0 -0.35620302754573391 -0.43383251126704991 0 -0.35538489801315631 -0.42903325471815951 0 -0.35306161513742162 -0.43384008959340059 0 -0.35620302754573391 -0.43383251126704991 0 -0.35538489801315631 -0.42903325471815951 0 -0.35310408058168441 -0.43773875331061518 0 -0.35306161513742162 -0.43384008959340059 0 -0.35620302754573391 -0.43383251126704991 0 -0.35310408058168441 -0.43773875331061518 0 -0.35811375488379049 -0.43887755417772267 0 -0.35620302754573391 -0.43383251126704991 0 -0.38353069879127127 -0.38163203803623119 0 -0.36346481754360999 -0.38175981779097429 0 -0.36791003929668897 -0.37531597356073781 0 -0.38353069879127127 -0.38163203803623119 0 -0.36346481754360999 -0.38175981779097429 0 -0.35160698284412462 -0.37014915498247181 0 -0.36346481754360999 -0.38175981779097429 0 -0.36791003929668897 -0.37531597356073781 0 -0.37610551335983561 -0.39413702328477918 0 -0.38353069879127127 -0.38163203803623119 0 -0.36346481754360999 -0.38175981779097429 0 -0.37610551335983561 -0.39413702328477918 0 -0.36346481754360999 -0.38175981779097429 0 -0.37610551335983561 -0.39413702328477918 0 -0.36346481754360999 -0.38175981779097429 0 -0.36560529781313122 -0.39247463880062672 0 -0.36346481754360999 -0.38175981779097429 0 -0.36560529781313122 -0.39247463880062672 0 -0.35703052239811178 -0.39769881565512172 0 -0.36560529781313122 -0.39247463880062672 0 -0.37209094330423159 -0.40089808531996213 0 -0.35703052239811178 -0.39769881565512172 0 -0.37610551335983561 -0.39413702328477918 0 -0.36560529781313122 -0.39247463880062672 0 -0.37209094330423159 -0.40089808531996213 0 -0.37610551335983561 -0.39413702328477918 0 -0.37209094330423159 -0.40089808531996213 0 -0.37602613074463359 -0.40570926791912437 0 -0.36549953895739912 -0.41199887396496521 0 -0.37209094330423159 -0.40089808531996213 0 -0.37602613074463359 -0.40570926791912437 0 -0.37629487057870992 -0.40149067916431569 0 -0.37209094330423159 -0.40089808531996213 0 -0.34839752669874718 -0.41300385642212029 0 -0.37209094330423159 -0.40089808531996213 0 -0.35703052239811178 -0.39769881565512172 0 -0.34839752669874718 -0.41300385642212029 0 -0.3475034212371978 -0.3977809036938752 0 -0.34022546423947331 -0.40183860272453797 0 -0.34839752669874718 -0.41300385642212029 0 -0.3475034212371978 -0.3977809036938752 0 -0.35703052239811178 -0.39769881565512172 0 -0.3475034212371978 -0.3977809036938752 0 -0.35703052239811178 -0.39769881565512172 0 -0.34623045780510991 -0.38749079344634257 0 -0.3475034212371978 -0.3977809036938752 0 -0.34623045780510991 -0.38749079344634257 0 -0.34159335278245839 -0.39476168625962771 0 -0.36346481754360999 -0.38175981779097429 0 -0.35703052239811178 -0.39769881565512172 0 -0.34623045780510991 -0.38749079344634257 0 -0.36346481754360999 -0.38175981779097429 0 -0.3473193197300139 -0.3757558619871843 0 -0.34100389918575219 -0.38190284916864559 0 -0.35160698284412462 -0.37014915498247181 0 -0.36346481754360999 -0.38175981779097429 0 -0.3473193197300139 -0.3757558619871843 0 -0.36346481754360999 -0.38175981779097429 0 -0.34100389918575219 -0.38190284916864559 0 -0.36346481754360999 -0.38175981779097429 0 -0.34623045780510991 -0.38749079344634257 0 -0.34100389918575219 -0.38190284916864559 0 -0.35160698284412462 -0.37014915498247181 0 -0.36346481754360999 -0.38175981779097429 0 -0.32440986188565729 -0.37270080156259489 0 -0.33318997219566882 -0.38195260834254191 0 -0.33667947897576161 -0.37727942084292682 0 -0.33318997219566882 -0.38195260834254191 0 -0.33667947897576161 -0.37727942084292682 0 -0.33318997219566882 -0.38195260834254191 0 -0.33667947897576161 -0.37727942084292682 0 -0.34100389918575219 -0.38190284916864559 0 -0.33318997219566882 -0.38195260834254191 0 -0.34100389918575219 -0.38190284916864559 0 -0.3473193197300139 -0.3757558619871843 0 -0.33667947897576161 -0.37727942084292682 0 -0.34100389918575219 -0.38190284916864559 0 -0.33667947897576161 -0.37727942084292682 0 -0.34100389918575219 -0.38190284916864559 0 -0.34623045780510991 -0.38749079344634257 0 -0.34100389918575219 -0.38190284916864559 0 -0.33841102596855821 -0.38947760426078792 0 -0.34623045780510991 -0.38749079344634257 0 -0.33841102596855821 -0.38947760426078792 0 -0.34159335278245839 -0.39476168625962771 0 -0.33318997219566882 -0.38195260834254191 0 -0.34100389918575219 -0.38190284916864559 0 -0.33841102596855821 -0.38947760426078792 0 -0.34623045780510991 -0.38749079344634257 0 -0.34100389918575219 -0.38190284916864559 0 -0.33318997219566882 -0.38195260834254191 0 -0.33841102596855821 -0.38947760426078792 0 -0.33274337939295218 -0.39158473010557698 0 -0.33318997219566882 -0.38195260834254191 0 -0.32576874152179608 -0.39189120557203078 0 -0.33318997219566882 -0.38195260834254191 0 -0.33274337939295218 -0.39158473010557698 0 -0.32576874152179608 -0.39189120557203078 0 -0.32912841244855839 -0.39450829284968242 0 -0.33559639466195301 -0.39722052717259471 0 -0.32788006366677641 -0.40250098545199881 0 -0.32912841244855839 -0.39450829284968242 0 -0.33274337939295218 -0.39158473010557698 0 -0.32576874152179608 -0.39189120557203078 0 -0.32912841244855839 -0.39450829284968242 0 -0.33559639466195301 -0.39722052717259471 0 -0.33274337939295218 -0.39158473010557698 0 -0.33841102596855821 -0.38947760426078792 0 -0.33559639466195301 -0.39722052717259471 0 -0.33274337939295218 -0.39158473010557698 0 -0.33841102596855821 -0.38947760426078792 0 -0.33559639466195301 -0.39722052717259471 0 -0.34159335278245839 -0.39476168625962771 0 -0.3475034212371978 -0.3977809036938752 0 -0.34159335278245839 -0.39476168625962771 0 -0.34022546423947331 -0.40183860272453797 0 -0.33559639466195301 -0.39722052717259471 0 -0.34159335278245839 -0.39476168625962771 0 -0.34022546423947331 -0.40183860272453797 0 -0.33559639466195301 -0.39722052717259471 0 -0.34022546423947331 -0.40183860272453797 0 -0.32788006366677641 -0.40250098545199881 0 -0.34022546423947331 -0.40183860272453797 0 -0.32788006366677641 -0.40250098545199881 0 -0.32831963194254171 -0.41418371360508938 0 -0.32788006366677641 -0.40250098545199881 0 -0.32576874152179608 -0.39189120557203078 0 -0.3082417371863363 -0.41536357078805991 0 -0.32576874152179608 -0.39189120557203078 0 -0.3082417371863363 -0.41536357078805991 0 -0.31067345205079122 -0.40297304657430971 0 -0.32576874152179608 -0.39189120557203078 0 -0.3082417371863363 -0.41536357078805991 0 -0.32576874152179608 -0.39189120557203078 0 -0.31035600328023122 -0.39454309529492188 0 -0.31067345205079122 -0.40297304657430971 0 -0.32912841244855839 -0.39450829284968242 0 -0.32788006366677641 -0.40250098545199881 0 -0.32576874152179608 -0.39189120557203078 0 -0.32912841244855839 -0.39450829284968242 0 -0.32576874152179608 -0.39189120557203078 0 -0.33318997219566882 -0.38195260834254191 0 -0.31317375432424149 -0.38208007184035081 0 -0.32440986188565729 -0.37270080156259489 0 -0.33318997219566882 -0.38195260834254191 0 -0.31317375432424149 -0.38208007184035081 0 -0.33318997219566882 -0.38195260834254191 0 -0.32576874152179608 -0.39189120557203078 0 -0.31317375432424149 -0.38208007184035081 0 -0.32576874152179608 -0.39189120557203078 0 -0.31317375432424149 -0.38208007184035081 0 -0.31035600328023122 -0.39454309529492188 0 -0.32576874152179608 -0.39189120557203078 0 -0.31317375432424149 -0.38208007184035081 0 -0.34417399017822298 -0.44321594322297297 0 -0.3478317041277888 -0.43428891422125909 0 -0.3357600199570368 -0.42926052953436999 0 -0.34839752669874718 -0.41300385642212029 0 -0.34022546423947331 -0.40183860272453797 0 -0.32831963194254171 -0.41418371360508938 0 -0.34839752669874718 -0.41300385642212029 0 -0.33226633429983238 -0.42124583038635088 0 -0.34839752669874718 -0.41300385642212029 0 -0.3357600199570368 -0.42926052953436999 0 -0.33226633429983238 -0.42124583038635088 0 -0.34839752669874718 -0.41300385642212029 0 -0.32831963194254171 -0.41418371360508938 0 -0.33226633429983238 -0.42124583038635088 0 -0.34839752669874718 -0.41300385642212029 0 -0.32831963194254171 -0.41418371360508938 0 -0.32831963194254171 -0.41418371360508938 0 -0.33226633429983238 -0.42124583038635088 0 -0.32271744639311822 -0.42156188657798022 0 -0.32788006366677641 -0.40250098545199881 0 -0.32831963194254171 -0.41418371360508938 0 -0.3082417371863363 -0.41536357078805991 0 -0.32831963194254171 -0.41418371360508938 0 -0.3142906732686378 -0.42168422233663161 0 -0.3082417371863363 -0.41536357078805991 0 -0.32831963194254171 -0.41418371360508938 0 -0.3082417371863363 -0.41536357078805991 0 -0.32831963194254171 -0.41418371360508938 0 -0.32271744639311822 -0.42156188657798022 0 -0.3142906732686378 -0.42168422233663161 0 -0.33234589271538922 -0.44480996408757179 0 -0.31613514190091718 -0.42948780435058093 0 -0.3114957619125025 -0.43185822112629579 0 -0.33234589271538922 -0.44480996408757179 0 -0.3357600199570368 -0.42926052953436999 0 -0.31613514190091718 -0.42948780435058093 0 -0.3142906732686378 -0.42168422233663161 0 -0.31613514190091718 -0.42948780435058093 0 -0.30783454039896002 -0.42958393323736038 0 -0.32271744639311822 -0.42156188657798022 0 -0.3142906732686378 -0.42168422233663161 0 -0.31613514190091718 -0.42948780435058093 0 -0.3357600199570368 -0.42926052953436999 0 -0.31613514190091718 -0.42948780435058093 0 -0.33226633429983238 -0.42124583038635088 0 -0.32271744639311822 -0.42156188657798022 0 -0.31613514190091718 -0.42948780435058093 0 -0.3357600199570368 -0.42926052953436999 0 -0.33226633429983238 -0.42124583038635088 0 -0.31613514190091718 -0.42948780435058093 0 -0.33226633429983238 -0.42124583038635088 0 -0.31613514190091718 -0.42948780435058093 0 -0.31613514190091718 -0.42948780435058093 0 -0.3114957619125025 -0.43185822112629579 0 -0.3114957619125025 -0.43185822112629579 0 -0.30783454039896002 -0.42958393323736038 0 -0.29634270858520939 -0.43960043062412468 0 -0.31613514190091718 -0.42948780435058093 0 -0.3114957619125025 -0.43185822112629579 0 -0.30783454039896002 -0.42958393323736038 0 -0.30331343782522491 -0.42196360581309772 0 -0.30783454039896002 -0.42958393323736038 0 -0.29157272882734891 -0.41634310820889481 0 -0.3114957619125025 -0.43185822112629579 0 -0.30783454039896002 -0.42958393323736038 0 -0.3114957619125025 -0.43185822112629579 0 -0.29634270858520939 -0.43960043062412468 0 -0.31613514190091718 -0.42948780435058093 0 -0.30783454039896002 -0.42958393323736038 0 -0.3142906732686378 -0.42168422233663161 0 -0.30331343782522491 -0.42196360581309772 0 -0.30783454039896002 -0.42958393323736038 0 -0.3142906732686378 -0.42168422233663161 0 -0.30331343782522491 -0.42196360581309772 0 -0.3082417371863363 -0.41536357078805991 0 -0.3082417371863363 -0.41536357078805991 0 -0.29157272882734891 -0.41634310820889481 0 -0.30331343782522491 -0.42196360581309772 0 -0.3082417371863363 -0.41536357078805991 0 -0.29157272882734891 -0.41634310820889481 0 -0.3082417371863363 -0.41536357078805991 0 -0.30512179815010648 -0.41267440077236472 0 -0.29157272882734891 -0.41634310820889481 0 -0.30331343782522491 -0.42196360581309772 0 -0.3082417371863363 -0.41536357078805991 0 -0.3082417371863363 -0.41536357078805991 0 -0.30512179815010648 -0.41267440077236472 0 -0.31067345205079122 -0.40297304657430971 0 -0.30512179815010648 -0.41267440077236472 0 -0.29157272882734891 -0.41634310820889481 0 -0.29482814950023328 -0.40830219942147938 0 -0.30783454039896002 -0.42958393323736038 0 -0.29157272882734891 -0.41634310820889481 0 -0.28412874470879912 -0.41485830032050902 0 -0.28962387683982849 -0.40671118620829788 0 -0.28412874470879912 -0.41485830032050902 0 -0.27887794756246431 -0.39894882893499961 0 -0.29157272882734891 -0.41634310820889481 0 -0.28962387683982849 -0.40671118620829788 0 -0.29482814950023328 -0.40830219942147938 0 -0.29157272882734891 -0.41634310820889481 0 -0.28962387683982849 -0.40671118620829788 0 -0.28412874470879912 -0.41485830032050902 0 -0.30783454039896002 -0.42958393323736038 0 -0.28525385456372598 -0.42984543912842699 0 -0.30783454039896002 -0.42958393323736038 0 -0.28412874470879912 -0.41485830032050902 0 -0.28525385456372598 -0.42984543912842699 0 -0.30783454039896002 -0.42958393323736038 0 -0.28525385456372598 -0.42984543912842699 0 -0.29634270858520939 -0.43960043062412468 0 -0.30783454039896002 -0.42958393323736038 0 -0.28412874470879912 -0.41485830032050902 0 -0.2945929359319488 -0.36760614731534108 0 -0.31317375432424149 -0.38208007184035081 0 -0.29702017227071648 -0.3821829380303548 0 -0.31317375432424149 -0.38208007184035081 0 -0.29702017227071648 -0.3821829380303548 0 -0.30212301116225498 -0.3917042965809297 0 -0.31317375432424149 -0.38208007184035081 0 -0.29702017227071648 -0.3821829380303548 0 -0.31317375432424149 -0.38208007184035081 0 -0.30212301116225498 -0.3917042965809297 0 -0.31035600328023122 -0.39454309529492188 0 -0.29702017227071648 -0.3821829380303548 0 -0.30212301116225498 -0.3917042965809297 0 -0.29299419418364941 -0.39748010249636018 0 -0.30212301116225498 -0.3917042965809297 0 -0.3038789801154857 -0.40039296044417289 0 -0.29299419418364941 -0.39748010249636018 0 -0.30212301116225498 -0.3917042965809297 0 -0.31035600328023122 -0.39454309529492188 0 -0.3038789801154857 -0.40039296044417289 0 -0.31035600328023122 -0.39454309529492188 0 -0.31067345205079122 -0.40297304657430971 0 -0.3038789801154857 -0.40039296044417289 0 -0.30512179815010648 -0.41267440077236472 0 -0.31067345205079122 -0.40297304657430971 0 -0.3038789801154857 -0.40039296044417289 0 -0.30512179815010648 -0.41267440077236472 0 -0.29482814950023328 -0.40830219942147938 0 -0.29299419418364941 -0.39748010249636018 0 -0.30512179815010648 -0.41267440077236472 0 -0.3038789801154857 -0.40039296044417289 0 -0.29299419418364941 -0.39748010249636018 0 -0.30512179815010648 -0.41267440077236472 0 -0.29299419418364941 -0.39748010249636018 0 -0.29299419418364941 -0.39748010249636018 0 -0.2808665902171914 -0.38228580422035652 0 -0.27887794756246431 -0.39894882893499961 0 -0.28962387683982849 -0.40671118620829788 0 -0.29482814950023328 -0.40830219942147938 0 -0.29299419418364941 -0.39748010249636018 0 -0.28962387683982849 -0.40671118620829788 0 -0.29299419418364941 -0.39748010249636018 0 -0.27887794756246431 -0.39894882893499961 0 -0.2945929359319488 -0.36760614731534108 0 -0.29702017227071648 -0.3821829380303548 0 -0.2808665902171914 -0.38228580422035652 0 -0.29702017227071648 -0.3821829380303548 0 -0.29299419418364941 -0.39748010249636018 0 -0.2808665902171914 -0.38228580422035652 0 -0.29702017227071648 -0.3821829380303548 0 -0.2808665902171914 -0.38228580422035652 0 -0.29299419418364941 -0.39748010249636018 0 -0.2808665902171914 -0.38228580422035652 0 -0.2808665902171914 -0.38228580422035652 0 -0.25938421221386299 -0.38242260424217978 0 -0.2808665902171914 -0.38228580422035652 0 -0.26988792475303891 -0.39094747620029929 0 -0.25938421221386299 -0.38242260424217978 0 -0.26678221966742222 -0.3646399338773868 0 -0.2808665902171914 -0.38228580422035652 0 -0.25938421221386299 -0.38242260424217978 0 -0.2808665902171914 -0.38228580422035652 0 -0.26988792475303891 -0.39094747620029929 0 -0.27887794756246431 -0.39894882893499961 0 -0.26988792475303891 -0.39094747620029929 0 -0.27887794756246431 -0.39894882893499961 0 -0.26042294901863672 -0.40013266740365983 0 -0.28412874470879912 -0.41485830032050902 0 -0.27887794756246431 -0.39894882893499961 0 -0.26042294901863672 -0.40013266740365983 0 -0.26988792475303891 -0.39094747620029929 0 -0.26042294901863672 -0.40013266740365983 0 -0.25938421221386299 -0.38242260424217978 0 -0.26042294901863672 -0.40013266740365983 0 -0.25613810139819221 -0.41434132836670989 0 -0.2431093376423632 -0.40266188506415568 0 -0.26042294901863672 -0.40013266740365983 0 -0.25938421221386299 -0.38242260424217978 0 -0.23671715332847421 -0.38540703448681102 0 -0.28525385456372598 -0.42984543912842699 0 -0.26866387832805422 -0.43084198424433162 0 -0.28118965525791628 -0.44734264012195318 0 -0.28525385456372598 -0.42984543912842699 0 -0.26866387832805422 -0.43084198424433162 0 -0.27009367185483962 -0.41675208124042978 0 -0.28412874470879912 -0.41485830032050902 0 -0.28525385456372598 -0.42984543912842699 0 -0.27009367185483962 -0.41675208124042978 0 -0.28412874470879912 -0.41485830032050902 0 -0.26042294901863672 -0.40013266740365983 0 -0.28412874470879912 -0.41485830032050902 0 -0.26042294901863672 -0.40013266740365983 0 -0.27009367185483962 -0.41675208124042978 0 -0.26866387832805422 -0.43084198424433162 0 -0.27009367185483962 -0.41675208124042978 0 -0.25613810139819221 -0.41434132836670989 0 -0.25613810139819221 -0.41434132836670989 0 -0.25359928648481211 -0.43037401697981981 0 -0.24230037244337599 -0.4175018590364884 0 -0.26042294901863672 -0.40013266740365983 0 -0.27009367185483962 -0.41675208124042978 0 -0.25613810139819221 -0.41434132836670989 0 -0.26866387832805422 -0.43084198424433162 0 -0.25613810139819221 -0.41434132836670989 0 -0.26866387832805422 -0.43084198424433162 0 -0.25613810139819221 -0.41434132836670989 0 -0.25359928648481211 -0.43037401697981981 0 -0.26866387832805422 -0.43084198424433162 0 -0.25359928648481211 -0.43037401697981981 0 -0.2656706707878026 -0.4425776952979022 0 -0.25359928648481211 -0.43037401697981981 0 -0.25354060653463212 -0.44613406553729051 0 -0.2656706707878026 -0.4425776952979022 0 -0.25359928648481211 -0.43037401697981981 0 -0.25354060653463212 -0.44613406553729051 0 -0.2438451496940687 -0.43907002470141299 0 -0.25354060653463212 -0.44613406553729051 0 -0.26694214283005818 -0.45462217802476412 0 -0.2656706707878026 -0.4425776952979022 0 -0.25354060653463212 -0.44613406553729051 0 -0.25269463040220203 -0.46190171592757828 0 -0.26694214283005818 -0.45462217802476412 0 -0.25269463040220203 -0.46190171592757828 0 -0.26694214283005818 -0.45462217802476412 0 -0.27127733714919139 -0.47586075624730118 0 -0.25269463040220203 -0.46190171592757828 0 -0.26694214283005818 -0.45462217802476412 0 -0.26694214283005818 -0.45462217802476412 0 -0.28051910777735523 -0.46464962051151848 0 -0.27127733714919139 -0.47586075624730118 0 -0.26694214283005818 -0.45462217802476412 0 -0.28051910777735523 -0.46464962051151848 0 -0.28118965525791628 -0.44734264012195318 0 -0.26866387832805422 -0.43084198424433162 0 -0.2656706707878026 -0.4425776952979022 0 -0.28118965525791628 -0.44734264012195318 0 -0.26866387832805422 -0.43084198424433162 0 -0.28118965525791628 -0.44734264012195318 0 -0.26694214283005818 -0.45462217802476412 0 -0.2656706707878026 -0.4425776952979022 0 -0.28118965525791628 -0.44734264012195318 0 -0.26694214283005818 -0.45462217802476412 0 -0.28118965525791628 -0.44734264012195318 0 -0.28525385456372598 -0.42984543912842699 0 -0.28118965525791628 -0.44734264012195318 0 -0.29634270858520939 -0.43960043062412468 0 -0.28118965525791628 -0.44734264012195318 0 -0.29634270858520939 -0.43960043062412468 0 -0.28118965525791628 -0.44734264012195318 0 -0.29634270858520939 -0.43960043062412468 0 -0.29945124434374348 -0.45131555945098001 0 -0.28118965525791628 -0.44734264012195318 0 -0.2977138012199616 -0.4691104911477269 0 -0.28118965525791628 -0.44734264012195318 0 -0.29945124434374348 -0.45131555945098001 0 -0.2977138012199616 -0.4691104911477269 0 -0.28051910777735523 -0.46464962051151848 0 -0.28118965525791628 -0.44734264012195318 0 -0.2977138012199616 -0.4691104911477269 0 -0.31256905993156642 -0.45599936109409522 0 -0.29945124434374348 -0.45131555945098001 0 -0.2977138012199616 -0.4691104911477269 0 -0.31256905993156642 -0.45599936109409522 0 -0.31594212020290968 -0.47254352647497072 0 -0.2977138012199616 -0.4691104911477269 0 -0.31256905993156642 -0.45599936109409522 0 -0.3094409967240645 -0.4445248742670016 0 -0.29945124434374348 -0.45131555945098001 0 -0.3114957619125025 -0.43185822112629579 0 -0.29634270858520939 -0.43960043062412468 0 -0.3094409967240645 -0.4445248742670016 0 -0.29634270858520939 -0.43960043062412468 0 -0.3094409967240645 -0.4445248742670016 0 -0.29945124434374348 -0.45131555945098001 0 -0.3142379471820072 -0.49087834217350051 0 -0.29783156266692112 -0.48522413338081982 0 -0.30187341860680589 -0.5 0 -0.3142379471820072 -0.49087834217350051 0 -0.29783156266692112 -0.48522413338081982 0 -0.2977138012199616 -0.4691104911477269 0 -0.31594212020290968 -0.47254352647497072 0 -0.3142379471820072 -0.49087834217350051 0 -0.2977138012199616 -0.4691104911477269 0 -0.3142379471820072 -0.49087834217350051 0 -0.2977138012199616 -0.4691104911477269 0 -0.28051910777735523 -0.46464962051151848 0 -0.2977138012199616 -0.4691104911477269 0 -0.28547260242964922 -0.47631203701584812 0 -0.29783156266692112 -0.48522413338081982 0 -0.2977138012199616 -0.4691104911477269 0 -0.28547260242964922 -0.47631203701584812 0 -0.28547260242964922 -0.47631203701584812 0 -0.28986004389618147 -0.48981979656702318 0 -0.27127733714919139 -0.47586075624730118 0 -0.29783156266692112 -0.48522413338081982 0 -0.28547260242964922 -0.47631203701584812 0 -0.28986004389618147 -0.48981979656702318 0 -0.30187341860680589 -0.5 0 -0.28986004389618147 -0.48981979656702318 0 -0.2736660127521543 -0.5 0 -0.29783156266692112 -0.48522413338081982 0 -0.30187341860680589 -0.5 0 -0.28986004389618147 -0.48981979656702318 0 -0.28986004389618147 -0.48981979656702318 0 -0.2736660127521543 -0.5 0 -0.27127733714919139 -0.47586075624730118 0 -0.2736660127521543 -0.5 0 -0.27127733714919139 -0.47586075624730118 0 -0.25894985238314572 -0.48237709588318323 0 -0.28986004389618147 -0.48981979656702318 0 -0.27127733714919139 -0.47586075624730118 0 -0.28051910777735523 -0.46464962051151848 0 -0.28547260242964922 -0.47631203701584812 0 -0.27127733714919139 -0.47586075624730118 0 -0.25269463040220203 -0.46190171592757828 0 -0.25894985238314572 -0.48237709588318323 0 -0.2452663440960669 -0.48013845744446582 0 -0.25269463040220203 -0.46190171592757828 0 -0.27127733714919139 -0.47586075624730118 0 -0.25269463040220203 -0.46190171592757828 0 -0.27127733714919139 -0.47586075624730118 0 -0.25894985238314572 -0.48237709588318323 0 -0.2736660127521543 -0.5 0 -0.25894985238314572 -0.48237709588318323 0 -0.2518449375161152 -0.49398454979657291 0 -0.2736660127521543 -0.5 0 -0.2518449375161152 -0.49398454979657291 0 -0.24545860689750271 -0.5 0 -0.25894985238314572 -0.48237709588318323 0 -0.2518449375161152 -0.49398454979657291 0 -0.2452663440960669 -0.48013845744446582 0 -0.2518449375161152 -0.49398454979657291 0 -0.2307928657777267 -0.48891641965364391 0 -0.2518449375161152 -0.49398454979657291 0 -0.2452663440960669 -0.48013845744446582 0 -0.2307928657777267 -0.48891641965364391 0 -0.2518449375161152 -0.49398454979657291 0 -0.24545860689750271 -0.5 0 -0.2307928657777267 -0.48891641965364391 0 -0.2452663440960669 -0.48013845744446582 0 -0.23121771222076951 -0.4728750027191454 0 -0.2307928657777267 -0.48891641965364391 0 -0.25269463040220203 -0.46190171592757828 0 -0.2452663440960669 -0.48013845744446582 0 -0.23121771222076951 -0.4728750027191454 0 -0.23121771222076951 -0.4728750027191454 0 -0.2307928657777267 -0.48891641965364391 0 -0.20974079403933829 -0.48384828951071468 0 -0.23121771222076951 -0.4728750027191454 0 -0.2159840481136181 -0.46956363033528908 0 -0.20974079403933829 -0.48384828951071468 0 -0.23121771222076951 -0.4728750027191454 0 -0.20974079403933829 -0.48384828951071468 0 -0.24545860689750271 -0.5 0 -0.2307928657777267 -0.48891641965364391 0 -0.21725120104285109 -0.5 0 -0.2307928657777267 -0.48891641965364391 0 -0.20974079403933829 -0.48384828951071468 0 -0.2307928657777267 -0.48891641965364391 0 -0.21725120104285109 -0.5 0 -0.20974079403933829 -0.48384828951071468 0 -0.25354060653463212 -0.44613406553729051 0 -0.25269463040220203 -0.46190171592757828 0 -0.23721599773282709 -0.450274407782012 0 -0.25354060653463212 -0.44613406553729051 0 -0.2438451496940687 -0.43907002470141299 0 -0.23721599773282709 -0.450274407782012 0 -0.2438451496940687 -0.43907002470141299 0 -0.23721599773282709 -0.450274407782012 0 -0.2347235744381061 -0.43699032632131868 0 -0.25269463040220203 -0.46190171592757828 0 -0.23721599773282709 -0.450274407782012 0 -0.23097902662785419 -0.46071537305467791 0 -0.25269463040220203 -0.46190171592757828 0 -0.23121771222076951 -0.4728750027191454 0 -0.23097902662785419 -0.46071537305467791 0 -0.25269463040220203 -0.46190171592757828 0 -0.23121771222076951 -0.4728750027191454 0 -0.25269463040220203 -0.46190171592757828 0 -0.23721599773282709 -0.450274407782012 0 -0.23097902662785419 -0.46071537305467791 0 -0.22320557245757189 -0.45136192584780271 0 -0.2159840481136181 -0.46956363033528908 0 -0.23121771222076951 -0.4728750027191454 0 -0.23097902662785419 -0.46071537305467791 0 -0.2159840481136181 -0.46956363033528908 0 -0.23721599773282709 -0.450274407782012 0 -0.23097902662785419 -0.46071537305467791 0 -0.22320557245757189 -0.45136192584780271 0 -0.22320557245757189 -0.45136192584780271 0 -0.22173736506345271 -0.43864709963644488 0 -0.21698213822720461 -0.43284430329106749 0 -0.22320557245757189 -0.45136192584780271 0 -0.21698213822720461 -0.43284430329106749 0 -0.23721599773282709 -0.450274407782012 0 -0.22320557245757189 -0.45136192584780271 0 -0.22173736506345271 -0.43864709963644488 0 -0.23721599773282709 -0.450274407782012 0 -0.22173736506345271 -0.43864709963644488 0 -0.23721599773282709 -0.450274407782012 0 -0.22173736506345271 -0.43864709963644488 0 -0.2347235744381061 -0.43699032632131868 0 -0.22320557245757189 -0.45136192584780271 0 -0.20700894554624619 -0.45681697418164519 0 -0.21698213822720461 -0.43284430329106749 0 -0.20700894554624619 -0.45681697418164519 0 -0.19303707249135671 -0.43059430015364047 0 -0.21698213822720461 -0.43284430329106749 0 -0.20700894554624619 -0.45681697418164519 0 -0.21698213822720461 -0.43284430329106749 0 -0.22320557245757189 -0.45136192584780271 0 -0.20700894554624619 -0.45681697418164519 0 -0.2159840481136181 -0.46956363033528908 0 -0.20700894554624619 -0.45681697418164519 0 -0.19703575286528649 -0.48078964507222238 0 -0.18502875603026461 -0.46494473610867582 0 -0.20700894554624619 -0.45681697418164519 0 -0.18502875603026461 -0.46494473610867582 0 -0.18271469687031749 -0.44845454828740711 0 -0.20700894554624619 -0.45681697418164519 0 -0.18271469687031749 -0.44845454828740711 0 -0.19303707249135671 -0.43059430015364047 0 -0.21725120104285109 -0.5 0 -0.20974079403933829 -0.48384828951071468 0 -0.19199021277984149 -0.49291766423347888 0 -0.20700894554624619 -0.45681697418164519 0 -0.2159840481136181 -0.46956363033528908 0 -0.19703575286528649 -0.48078964507222238 0 -0.2159840481136181 -0.46956363033528908 0 -0.20974079403933829 -0.48384828951071468 0 -0.19703575286528649 -0.48078964507222238 0 -0.20974079403933829 -0.48384828951071468 0 -0.19703575286528649 -0.48078964507222238 0 -0.20700894554624619 -0.45681697418164519 0 -0.19703575286528649 -0.48078964507222238 0 -0.21725120104285109 -0.5 0 -0.19199021277984149 -0.49291766423347888 0 -0.18904379518819939 -0.49999999999999578 0 -0.20974079403933829 -0.48384828951071468 0 -0.19703575286528649 -0.48078964507222238 0 -0.19199021277984149 -0.49291766423347888 0 -0.20974079403933829 -0.48384828951071468 0 -0.19199021277984149 -0.49291766423347888 0 -0.19703575286528649 -0.48078964507222238 0 -0.19199021277984149 -0.49291766423347888 0 -0.1806501400470899 -0.48733198327772198 0 -0.19703575286528649 -0.48078964507222238 0 -0.19199021277984149 -0.49291766423347888 0 -0.19199021277984149 -0.49291766423347888 0 -0.18904379518819939 -0.49999999999999578 0 -0.19199021277984149 -0.49291766423347888 0 -0.17812866439603481 -0.49999999999999267 0 -0.19199021277984149 -0.49291766423347888 0 -0.18904379518819939 -0.49999999999999578 0 -0.17812866439603481 -0.49999999999999267 0 -0.19199021277984149 -0.49291766423347888 0 -0.1806501400470899 -0.48733198327772198 0 -0.17812866439603481 -0.49999999999999267 0 -0.1806501400470899 -0.48733198327772198 0 -0.17812866439603481 -0.49999999999999267 0 -0.16526627315450881 -0.48681942287300078 0 -0.17812866439603481 -0.49999999999999267 0 -0.16526627315450881 -0.48681942287300078 0 -0.15384562597277671 -0.5 0 -0.16526627315450881 -0.48681942287300078 0 -0.15867829181438209 -0.47351517086903511 0 -0.14808882950896779 -0.48760950596642599 0 -0.16526627315450881 -0.48681942287300078 0 -0.15867829181438209 -0.47351517086903511 0 -0.17205258504960549 -0.47477513270279981 0 -0.15867829181438209 -0.47351517086903511 0 -0.17205258504960549 -0.47477513270279981 0 -0.1689107827671488 -0.46150338438528649 0 -0.19703575286528649 -0.48078964507222238 0 -0.17205258504960549 -0.47477513270279981 0 -0.19703575286528649 -0.48078964507222238 0 -0.17205258504960549 -0.47477513270279981 0 -0.18502875603026461 -0.46494473610867582 0 -0.19703575286528649 -0.48078964507222238 0 -0.1806501400470899 -0.48733198327772198 0 -0.17205258504960549 -0.47477513270279981 0 -0.1806501400470899 -0.48733198327772198 0 -0.16526627315450881 -0.48681942287300078 0 -0.17205258504960549 -0.47477513270279981 0 -0.17205258504960549 -0.47477513270279981 0 -0.18502875603026461 -0.46494473610867582 0 -0.1689107827671488 -0.46150338438528649 0 -0.18502875603026461 -0.46494473610867582 0 -0.18271469687031749 -0.44845454828740711 0 -0.1689107827671488 -0.46150338438528649 0 -0.18271469687031749 -0.44845454828740711 0 -0.16138963394859521 -0.44868252298987232 0 -0.1689107827671488 -0.46150338438528649 0 -0.18271469687031749 -0.44845454828740711 0 -0.16138963394859521 -0.44868252298987232 0 -0.16224644553901921 -0.42839564420087312 0 -0.16138963394859521 -0.44868252298987232 0 -0.1689107827671488 -0.46150338438528649 0 -0.15360073288972831 -0.45864819535392959 0 -0.15867829181438209 -0.47351517086903511 0 -0.1689107827671488 -0.46150338438528649 0 -0.15360073288972831 -0.45864819535392959 0 -0.15867829181438209 -0.47351517086903511 0 -0.14088984691242101 -0.46372891927135518 0 -0.15360073288972831 -0.45864819535392959 0 -0.14088984691242101 -0.46372891927135518 0 -0.15360073288972831 -0.45864819535392959 0 -0.14071409195337639 -0.4434269833400809 0 -0.16138963394859521 -0.44868252298987232 0 -0.15360073288972831 -0.45864819535392959 0 -0.14071409195337639 -0.4434269833400809 0 -0.16138963394859521 -0.44868252298987232 0 -0.14071409195337639 -0.4434269833400809 0 -0.16224644553901921 -0.42839564420087312 0 -0.14071409195337639 -0.4434269833400809 0 -0.11918173836773351 -0.45845832247928869 0 -0.14071409195337639 -0.4434269833400809 0 -0.11918173836773351 -0.45845832247928869 0 -0.1184149235461696 -0.43970471758753887 0 -0.14088984691242101 -0.46372891927135518 0 -0.14071409195337639 -0.4434269833400809 0 -0.11918173836773351 -0.45845832247928869 0 -0.14088984691242101 -0.46372891927135518 0 -0.1272556728232932 -0.47013049556587211 0 -0.11918173836773351 -0.45845832247928869 0 -0.13278436477725561 -0.4823434472460234 0 -0.1272556728232932 -0.47013049556587211 0 -0.1161667412357628 -0.47599129326682099 0 -0.14088984691242101 -0.46372891927135518 0 -0.13278436477725561 -0.4823434472460234 0 -0.1272556728232932 -0.47013049556587211 0 -0.13278436477725561 -0.4823434472460234 0 -0.12956258754951869 -0.5 0 -0.14808882950896779 -0.48760950596642599 0 -0.12956258754951869 -0.5 0 -0.15384562597277671 -0.5 0 -0.14808882950896779 -0.48760950596642599 0 -0.16526627315450881 -0.48681942287300078 0 -0.15384562597277671 -0.5 0 -0.14808882950896779 -0.48760950596642599 0 -0.15867829181438209 -0.47351517086903511 0 -0.14088984691242101 -0.46372891927135518 0 -0.13278436477725561 -0.4823434472460234 0 -0.15867829181438209 -0.47351517086903511 0 -0.13278436477725561 -0.4823434472460234 0 -0.14808882950896779 -0.48760950596642599 0 -0.15867829181438209 -0.47351517086903511 0 -0.13278436477725561 -0.4823434472460234 0 -0.15300746566076209 -0.38310001254620968 0 -0.12942966304821441 -0.38325015625522552 0 -0.14208280055258729 -0.40634727148710198 0 -0.15300746566076209 -0.38310001254620968 0 -0.14208280055258729 -0.40634727148710198 0 -0.1624749046322673 -0.40200193298372783 0 -0.15300746566076209 -0.38310001254620968 0 -0.12942966304821441 -0.38325015625522552 0 -0.15300746566076209 -0.38310001254620968 0 -0.12942966304821441 -0.38325015625522552 0 -0.13644034466196819 -0.36544341997203661 0 -0.12942966304821441 -0.38325015625522552 0 -0.14208280055258729 -0.40634727148710198 0 -0.1246151037146196 -0.40215144471962733 0 -0.13370262722300191 -0.42485153358840111 0 -0.14208280055258729 -0.40634727148710198 0 -0.1246151037146196 -0.40215144471962733 0 -0.14071409195337639 -0.4434269833400809 0 -0.13370262722300191 -0.42485153358840111 0 -0.1184149235461696 -0.43970471758753887 0 -0.14071409195337639 -0.4434269833400809 0 -0.13370262722300191 -0.42485153358840111 0 -0.16224644553901921 -0.42839564420087312 0 -0.14071409195337639 -0.4434269833400809 0 -0.16224644553901921 -0.42839564420087312 0 -0.14208280055258729 -0.40634727148710198 0 -0.16224644553901921 -0.42839564420087312 0 -0.1624749046322673 -0.40200193298372783 0 -0.13370262722300191 -0.42485153358840111 0 -0.14208280055258729 -0.40634727148710198 0 -0.16224644553901921 -0.42839564420087312 0 -0.16224644553901921 -0.42839564420087312 0 -0.180697604208819 -0.40923231675122879 0 -0.1624749046322673 -0.40200193298372783 0 -0.18271469687031749 -0.44845454828740711 0 -0.16224644553901921 -0.42839564420087312 0 -0.19303707249135671 -0.43059430015364047 0 -0.16224644553901921 -0.42839564420087312 0 -0.180697604208819 -0.40923231675122879 0 -0.19303707249135671 -0.43059430015364047 0 -0.180697604208819 -0.40923231675122879 0 -0.1624749046322673 -0.40200193298372783 0 -0.17658526827330981 -0.3829498688371939 0 -0.180697604208819 -0.40923231675122879 0 -0.17658526827330981 -0.3829498688371939 0 -0.19000778267581911 -0.39514046875386671 0 -0.15300746566076209 -0.38310001254620968 0 -0.1624749046322673 -0.40200193298372783 0 -0.17658526827330981 -0.3829498688371939 0 -0.15300746566076209 -0.38310001254620968 0 -0.17658526827330981 -0.3829498688371939 0 -0.17658526827330981 -0.3829498688371939 0 -0.20016307088585741 -0.38279972512817662 0 -0.19000778267581911 -0.39514046875386671 0 -0.17658526827330981 -0.3829498688371939 0 -0.20016307088585741 -0.38279972512817662 0 -0.20016307088585741 -0.38279972512817662 0 -0.19000778267581911 -0.39514046875386671 0 -0.2085726045565329 -0.4078220142096215 0 -0.180697604208819 -0.40923231675122879 0 -0.19000778267581911 -0.39514046875386671 0 -0.2085726045565329 -0.4078220142096215 0 -0.20016307088585741 -0.38279972512817662 0 -0.2085726045565329 -0.4078220142096215 0 -0.20016307088585741 -0.38279972512817662 0 -0.2161772785324636 -0.38269774647594651 0 -0.2085726045565329 -0.4078220142096215 0 -0.2161772785324636 -0.38269774647594651 0 -0.2085726045565329 -0.4078220142096215 0 -0.22410163367487609 -0.3935296463770066 0 -0.20016307088585741 -0.38279972512817662 0 -0.2161772785324636 -0.38269774647594651 0 -0.20016307088585741 -0.38279972512817662 0 -0.2161772785324636 -0.38269774647594651 0 -0.2146411550785581 -0.37365584976636601 0 -0.2161772785324636 -0.38269774647594651 0 -0.22424182443051541 -0.37765757455433779 0 -0.2146411550785581 -0.37365584976636601 0 -0.180697604208819 -0.40923231675122879 0 -0.19303707249135671 -0.43059430015364047 0 -0.2085726045565329 -0.4078220142096215 0 -0.2085726045565329 -0.4078220142096215 0 -0.21698213822720461 -0.43284430329106749 0 -0.2268496457778397 -0.40912566888893942 0 -0.2085726045565329 -0.4078220142096215 0 -0.21698213822720461 -0.43284430329106749 0 -0.19303707249135671 -0.43059430015364047 0 -0.2085726045565329 -0.4078220142096215 0 -0.21698213822720461 -0.43284430329106749 0 -0.21698213822720461 -0.43284430329106749 0 -0.22992583861702739 -0.42769779631454868 0 -0.2268496457778397 -0.40912566888893942 0 -0.22173736506345271 -0.43864709963644488 0 -0.22992583861702739 -0.42769779631454868 0 -0.2347235744381061 -0.43699032632131868 0 -0.22173736506345271 -0.43864709963644488 0 -0.21698213822720461 -0.43284430329106749 0 -0.22992583861702739 -0.42769779631454868 0 -0.22992583861702739 -0.42769779631454868 0 -0.2268496457778397 -0.40912566888893942 0 -0.24230037244337599 -0.4175018590364884 0 -0.21698213822720461 -0.43284430329106749 0 -0.2268496457778397 -0.40912566888893942 0 -0.2268496457778397 -0.40912566888893942 0 -0.24230037244337599 -0.4175018590364884 0 -0.2431093376423632 -0.40266188506415568 0 -0.25613810139819221 -0.41434132836670989 0 -0.24230037244337599 -0.4175018590364884 0 -0.2431093376423632 -0.40266188506415568 0 -0.22992583861702739 -0.42769779631454868 0 -0.24230037244337599 -0.4175018590364884 0 -0.24089352108315501 -0.42926230317217479 0 -0.25359928648481211 -0.43037401697981981 0 -0.24230037244337599 -0.4175018590364884 0 -0.24089352108315501 -0.42926230317217479 0 -0.25359928648481211 -0.43037401697981981 0 -0.2438451496940687 -0.43907002470141299 0 -0.24089352108315501 -0.42926230317217479 0 -0.22992583861702739 -0.42769779631454868 0 -0.24089352108315501 -0.42926230317217479 0 -0.2347235744381061 -0.43699032632131868 0 -0.2438451496940687 -0.43907002470141299 0 -0.24089352108315501 -0.42926230317217479 0 -0.2347235744381061 -0.43699032632131868 0 -0.2161772785324636 -0.38269774647594651 0 -0.23219148617906979 -0.38259576782371391 0 -0.22424182443051541 -0.37765757455433779 0 -0.2161772785324636 -0.38269774647594651 0 -0.23219148617906979 -0.38259576782371391 0 -0.22410163367487609 -0.3935296463770066 0 -0.2161772785324636 -0.38269774647594651 0 -0.23219148617906979 -0.38259576782371391 0 -0.23219148617906979 -0.38259576782371391 0 -0.22410163367487609 -0.3935296463770066 0 -0.23671715332847421 -0.38540703448681102 0 -0.23219148617906979 -0.38259576782371391 0 -0.22424182443051541 -0.37765757455433779 0 -0.23334431644894679 -0.37067442711117121 0 -0.23219148617906979 -0.38259576782371391 0 -0.22424182443051541 -0.37765757455433779 0 -0.2268496457778397 -0.40912566888893942 0 -0.23671715332847421 -0.38540703448681102 0 -0.2268496457778397 -0.40912566888893942 0 -0.22410163367487609 -0.3935296463770066 0 -0.23671715332847421 -0.38540703448681102 0 -0.2085726045565329 -0.4078220142096215 0 -0.2268496457778397 -0.40912566888893942 0 -0.22410163367487609 -0.3935296463770066 0 -0.2268496457778397 -0.40912566888893942 0 -0.2431093376423632 -0.40266188506415568 0 -0.23671715332847421 -0.38540703448681102 0 -0.26042294901863672 -0.40013266740365983 0 -0.2431093376423632 -0.40266188506415568 0 -0.23671715332847421 -0.38540703448681102 0 -0.26042294901863672 -0.40013266740365983 0 -0.23671715332847421 -0.38540703448681102 0 -0.25938421221386299 -0.38242260424217978 0 -0.23671715332847421 -0.38540703448681102 0 -0.23790183421053479 -0.38255940426400398 0 -0.25938421221386299 -0.38242260424217978 0 -0.23790183421053479 -0.38255940426400398 0 -0.25938421221386299 -0.38242260424217978 0 -0.23790183421053479 -0.38255940426400398 0 -0.2452998416640946 -0.36477673389921211 0 -0.23219148617906979 -0.38259576782371391 0 -0.23671715332847421 -0.38540703448681102 0 -0.23790183421053479 -0.38255940426400398 0 -0.23219148617906979 -0.38259576782371391 0 -0.23671715332847421 -0.38540703448681102 0 -0.23671715332847421 -0.38540703448681102 0 -0.23790183421053479 -0.38255940426400398 0 -0.23219148617906979 -0.38259576782371391 0 -0.23790183421053479 -0.38255940426400398 0 -0.23334431644894679 -0.37067442711117121 0 -0.23219148617906979 -0.38259576782371391 0 -0.23790183421053479 -0.38255940426400398 0 -0.2452998416640946 -0.36477673389921211 0 -0.23334431644894679 -0.37067442711117121 0 -0.236612272716479 -0.35196393625907768 0 -0.23790183421053479 -0.38255940426400398 0 -0.2452998416640946 -0.36477673389921211 0 -0.23790183421053479 -0.38255940426400398 0 -0.2452998416640946 -0.36477673389921211 0 -0.23334431644894679 -0.37067442711117121 0 -0.22424182443051541 -0.37765757455433779 0 -0.23334431644894679 -0.37067442711117121 0 -0.2233560944082246 -0.363712965125564 0 -0.23334431644894679 -0.37067442711117121 0 -0.2233560944082246 -0.363712965125564 0 -0.236612272716479 -0.35196393625907768 0 -0.22424182443051541 -0.37765757455433779 0 -0.2233560944082246 -0.363712965125564 0 -0.2146411550785581 -0.37365584976636601 0 -0.2233560944082246 -0.363712965125564 0 -0.22090871978274521 -0.34750939462453567 0 -0.236612272716479 -0.35196393625907768 0 -0.25269784911765092 -0.34699406353441858 0 -0.2452998416640946 -0.36477673389921211 0 -0.25269784911765092 -0.34699406353441858 0 -0.2452998416640946 -0.36477673389921211 0 -0.236612272716479 -0.35196393625907768 0 -0.25269784911765092 -0.34699406353441858 0 -0.2601150759189611 -0.3291651954159735 0 -0.2357068878863986 -0.32570661601735368 0 -0.25269784911765092 -0.34699406353441858 0 -0.236612272716479 -0.35196393625907768 0 -0.2357068878863986 -0.32570661601735368 0 -0.25269784911765092 -0.34699406353441858 0 -0.2357068878863986 -0.32570661601735368 0 -0.2601150759189611 -0.3291651954159735 0 -0.2357068878863986 -0.32570661601735368 0 -0.2494260049788683 -0.31746489113439402 0 -0.2357068878863986 -0.32570661601735368 0 -0.2494260049788683 -0.31746489113439402 0 -0.24072416822125611 -0.30184362229434508 0 -0.2357068878863986 -0.32570661601735368 0 -0.2119173650848751 -0.32804843985645959 0 -0.21871592665514519 -0.30441916850028972 0 -0.2357068878863986 -0.32570661601735368 0 -0.21871592665514519 -0.30441916850028972 0 -0.22090871978274521 -0.34750939462453567 0 -0.236612272716479 -0.35196393625907768 0 -0.2357068878863986 -0.32570661601735368 0 -0.22090871978274521 -0.34750939462453567 0 -0.2357068878863986 -0.32570661601735368 0 -0.2119173650848751 -0.32804843985645959 0 -0.22090871978274521 -0.34750939462453567 0 -0.2119173650848751 -0.32804843985645959 0 -0.20038300345158319 -0.34252625431289602 0 -0.2119173650848751 -0.32804843985645959 0 -0.19064882261902269 -0.32209845877770238 0 -0.21871592665514519 -0.30441916850028972 0 -0.2119173650848751 -0.32804843985645959 0 -0.19064882261902269 -0.32209845877770238 0 -0.20038300345158319 -0.34252625431289602 0 -0.19064882261902269 -0.32209845877770238 0 -0.20038300345158319 -0.34252625431289602 0 -0.1786038551756757 -0.34069824763179102 0 -0.20038300345158319 -0.34252625431289602 0 -0.19095175091145111 -0.35539174743908392 0 -0.20926750713572939 -0.36141123754780358 0 -0.20038300345158319 -0.34252625431289602 0 -0.19095175091145111 -0.35539174743908392 0 -0.1786038551756757 -0.34069824763179102 0 -0.20016307088585741 -0.38279972512817662 0 -0.19095175091145111 -0.35539174743908392 0 -0.20926750713572939 -0.36141123754780358 0 -0.17658526827330981 -0.3829498688371939 0 -0.20016307088585741 -0.38279972512817662 0 -0.19095175091145111 -0.35539174743908392 0 -0.20016307088585741 -0.38279972512817662 0 -0.19095175091145111 -0.35539174743908392 0 -0.20016307088585741 -0.38279972512817662 0 -0.20926750713572939 -0.36141123754780358 0 -0.2146411550785581 -0.37365584976636601 0 -0.2233560944082246 -0.363712965125564 0 -0.20926750713572939 -0.36141123754780358 0 -0.2146411550785581 -0.37365584976636601 0 -0.2233560944082246 -0.363712965125564 0 -0.22090871978274521 -0.34750939462453567 0 -0.20926750713572939 -0.36141123754780358 0 -0.22090871978274521 -0.34750939462453567 0 -0.20038300345158319 -0.34252625431289602 0 -0.20926750713572939 -0.36141123754780358 0 -0.23269942211958819 -0.26632599736311829 0 -0.2113475615474098 -0.26183595308539898 0 -0.22937054978906041 -0.24331512362502869 0 -0.2483490975252734 -0.26098873334868322 0 -0.23269942211958819 -0.26632599736311829 0 -0.22937054978906041 -0.24331512362502869 0 -0.2483490975252734 -0.26098873334868322 0 -0.24718685023563691 -0.27875123027958087 0 -0.23269942211958819 -0.26632599736311829 0 -0.24718685023563691 -0.27875123027958087 0 -0.23269942211958819 -0.26632599736311829 0 -0.22621925119092889 -0.28512311723799683 0 -0.23269942211958819 -0.26632599736311829 0 -0.22621925119092889 -0.28512311723799683 0 -0.2113475615474098 -0.26183595308539898 0 -0.24718685023563691 -0.27875123027958087 0 -0.22621925119092889 -0.28512311723799683 0 -0.24072416822125611 -0.30184362229434508 0 -0.25754389589834492 -0.29267207960278718 0 -0.24718685023563691 -0.27875123027958087 0 -0.24072416822125611 -0.30184362229434508 0 -0.25469452373499762 -0.30722313484128749 0 -0.2494260049788683 -0.31746489113439402 0 -0.24072416822125611 -0.30184362229434508 0 -0.22621925119092889 -0.28512311723799683 0 -0.24072416822125611 -0.30184362229434508 0 -0.21871592665514519 -0.30441916850028972 0 -0.2357068878863986 -0.32570661601735368 0 -0.24072416822125611 -0.30184362229434508 0 -0.21871592665514519 -0.30441916850028972 0 -0.21871592665514519 -0.30441916850028972 0 -0.20172496542389179 -0.28313172098322592 0 -0.18547182867621881 -0.29890397395307688 0 -0.19064882261902269 -0.32209845877770238 0 -0.21871592665514519 -0.30441916850028972 0 -0.18547182867621881 -0.29890397395307688 0 -0.20172496542389179 -0.28313172098322592 0 -0.17865973542483601 -0.28159672660659713 0 -0.18547182867621881 -0.29890397395307688 0 -0.22621925119092889 -0.28512311723799683 0 -0.21871592665514519 -0.30441916850028972 0 -0.20172496542389179 -0.28313172098322592 0 -0.21871592665514519 -0.30441916850028972 0 -0.20172496542389179 -0.28313172098322592 0 -0.22621925119092889 -0.28512311723799683 0 -0.20172496542389179 -0.28313172098322592 0 -0.2113475615474098 -0.26183595308539898 0 -0.20172496542389179 -0.28313172098322592 0 -0.2113475615474098 -0.26183595308539898 0 -0.18473400419263841 -0.26184427346616201 0 -0.20172496542389179 -0.28313172098322592 0 -0.18473400419263841 -0.26184427346616201 0 -0.20172496542389179 -0.28313172098322592 0 -0.18473400419263841 -0.26184427346616201 0 -0.17865973542483601 -0.28159672660659713 0 -0.2113475615474098 -0.26183595308539898 0 -0.18473400419263841 -0.26184427346616201 0 -0.1994177047143332 -0.2432145052078287 0 -0.18473400419263841 -0.26184427346616201 0 -0.15229660666407671 -0.25401824511238591 0 -0.16774304296138501 -0.24055682594909811 0 -0.18473400419263841 -0.26184427346616201 0 -0.1593348892574955 -0.27433293932196051 0 -0.15229660666407671 -0.25401824511238591 0 -0.18473400419263841 -0.26184427346616201 0 -0.16774304296138501 -0.24055682594909811 0 -0.18473400419263841 -0.26184427346616201 0 -0.1593348892574955 -0.27433293932196051 0 -0.17865973542483601 -0.28159672660659713 0 -0.1593348892574955 -0.27433293932196051 0 -0.17865973542483601 -0.28159672660659713 0 -0.1628273235241636 -0.29929742573166879 0 -0.17865973542483601 -0.28159672660659713 0 -0.18547182867621881 -0.29890397395307688 0 -0.1628273235241636 -0.29929742573166879 0 -0.18547182867621881 -0.29890397395307688 0 -0.1628273235241636 -0.29929742573166879 0 -0.16388410446163609 -0.32460269768425593 0 -0.1628273235241636 -0.29929742573166879 0 -0.13242221189995379 -0.30543756500551722 0 -0.16388410446163609 -0.32460269768425593 0 -0.13242221189995379 -0.30543756500551722 0 -0.14127367617284931 -0.28459822767558379 0 -0.1188334035936548 -0.28113848219864679 0 -0.1628273235241636 -0.29929742573166879 0 -0.13242221189995379 -0.30543756500551722 0 -0.14127367617284931 -0.28459822767558379 0 -0.1593348892574955 -0.27433293932196051 0 -0.1628273235241636 -0.29929742573166879 0 -0.14127367617284931 -0.28459822767558379 0 -0.1593348892574955 -0.27433293932196051 0 -0.14127367617284931 -0.28459822767558379 0 -0.132950552588979 -0.26278472612012599 0 -0.14127367617284931 -0.28459822767558379 0 -0.132950552588979 -0.26278472612012599 0 -0.1188334035936548 -0.28113848219864679 0 -0.132950552588979 -0.26278472612012599 0 -0.1192340303868117 -0.24478318800158869 0 -0.13450504990001219 -0.2438564190910647 0 -0.132950552588979 -0.26278472612012599 0 -0.15229660666407671 -0.25401824511238591 0 -0.13450504990001219 -0.2438564190910647 0 -0.1593348892574955 -0.27433293932196051 0 -0.132950552588979 -0.26278472612012599 0 -0.15229660666407671 -0.25401824511238591 0 -0.15300746566076209 -0.38310001254620968 0 -0.17658526827330981 -0.3829498688371939 0 -0.16187875486605491 -0.35541355732776547 0 -0.17658526827330981 -0.3829498688371939 0 -0.19095175091145111 -0.35539174743908392 0 -0.16187875486605491 -0.35541355732776547 0 -0.19095175091145111 -0.35539174743908392 0 -0.16187875486605491 -0.35541355732776547 0 -0.1786038551756757 -0.34069824763179102 0 -0.19064882261902269 -0.32209845877770238 0 -0.1786038551756757 -0.34069824763179102 0 -0.16388410446163609 -0.32460269768425593 0 -0.19064882261902269 -0.32209845877770238 0 -0.18547182867621881 -0.29890397395307688 0 -0.16388410446163609 -0.32460269768425593 0 -0.16187875486605491 -0.35541355732776547 0 -0.1786038551756757 -0.34069824763179102 0 -0.16388410446163609 -0.32460269768425593 0 -0.13242221189995379 -0.30543756500551722 0 -0.16388410446163609 -0.32460269768425593 0 -0.13821757510299509 -0.3384513750534191 0 -0.13242221189995379 -0.30543756500551722 0 -0.13821757510299509 -0.3384513750534191 0 -0.1101747460075988 -0.32953608121607292 0 -0.16187875486605491 -0.35541355732776547 0 -0.16388410446163609 -0.32460269768425593 0 -0.13821757510299509 -0.3384513750534191 0 -0.13821757510299509 -0.3384513750534191 0 -0.13644034466196819 -0.36544341997203661 0 -0.1196241940514999 -0.3542658853942362 0 -0.16187875486605491 -0.35541355732776547 0 -0.13821757510299509 -0.3384513750534191 0 -0.13644034466196819 -0.36544341997203661 0 -0.15300746566076209 -0.38310001254620968 0 -0.16187875486605491 -0.35541355732776547 0 -0.13644034466196819 -0.36544341997203661 0 -0.12942966304821441 -0.38325015625522552 0 -0.13644034466196819 -0.36544341997203661 0 -0.1177797586078463 -0.37381446098417098 0 -0.13644034466196819 -0.36544341997203661 0 -0.1177797586078463 -0.37381446098417098 0 -0.1196241940514999 -0.3542658853942362 0 -0.1177797586078463 -0.37381446098417098 0 -0.10407214500130089 -0.36661499140206938 0 -0.1196241940514999 -0.3542658853942362 0 -0.1177797586078463 -0.37381446098417098 0 -0.10407214500130089 -0.36661499140206938 0 -0.1034929330021967 -0.38313049756236911 0 -0.10407214500130089 -0.36661499140206938 0 -0.092143069441117886 -0.37288061806212591 0 -0.1034929330021967 -0.38313049756236911 0 -0.10407214500130089 -0.36661499140206938 0 -0.092143069441117886 -0.37288061806212591 0 -0.090292011953311629 -0.3597231114641114 0 -0.10407214500130089 -0.36661499140206938 0 -0.10297576120334009 -0.35054559799579871 0 -0.1196241940514999 -0.3542658853942362 0 -0.10297576120334009 -0.35054559799579871 0 -0.091874738774876785 -0.34065851114568052 0 -0.090292011953311629 -0.3597231114641114 0 -0.10407214500130089 -0.36661499140206938 0 -0.10297576120334009 -0.35054559799579871 0 -0.090292011953311629 -0.3597231114641114 0 -0.10297576120334009 -0.35054559799579871 0 -0.1196241940514999 -0.3542658853942362 0 -0.1101747460075988 -0.32953608121607292 0 -0.13821757510299509 -0.3384513750534191 0 -0.1196241940514999 -0.3542658853942362 0 -0.1101747460075988 -0.32953608121607292 0 -0.1101747460075988 -0.32953608121607292 0 -0.085227450549862166 -0.32028838060126541 0 -0.10233633129899709 -0.29788694174330338 0 -0.1101747460075988 -0.32953608121607292 0 -0.091874738774876785 -0.34065851114568052 0 -0.085227450549862166 -0.32028838060126541 0 -0.10297576120334009 -0.35054559799579871 0 -0.1101747460075988 -0.32953608121607292 0 -0.091874738774876785 -0.34065851114568052 0 -0.091874738774876785 -0.34065851114568052 0 -0.085227450549862166 -0.32028838060126541 0 -0.076063335717399538 -0.33750887212749098 0 -0.085227450549862166 -0.32028838060126541 0 -0.063011241542060503 -0.32804507108198161 0 -0.072947339386401744 -0.29815403057856332 0 -0.063011241542060503 -0.32804507108198161 0 -0.076063335717399538 -0.33750887212749098 0 -0.056103847272524453 -0.34401699257208418 0 -0.085227450549862166 -0.32028838060126541 0 -0.063011241542060503 -0.32804507108198161 0 -0.076063335717399538 -0.33750887212749098 0 -0.076063335717399538 -0.33750887212749098 0 -0.071250752086046532 -0.35335887697158019 0 -0.056103847272524453 -0.34401699257208418 0 -0.071250752086046532 -0.35335887697158019 0 -0.076899216694667677 -0.36865863427987439 0 -0.059008804616476777 -0.3736816009534113 0 -0.071250752086046532 -0.35335887697158019 0 -0.076899216694667677 -0.36865863427987439 0 -0.090292011953311629 -0.3597231114641114 0 -0.076899216694667677 -0.36865863427987439 0 -0.092143069441117886 -0.37288061806212591 0 -0.090292011953311629 -0.3597231114641114 0 -0.091874738774876785 -0.34065851114568052 0 -0.071250752086046532 -0.35335887697158019 0 -0.090292011953311629 -0.3597231114641114 0 -0.091874738774876785 -0.34065851114568052 0 -0.076063335717399538 -0.33750887212749098 0 -0.071250752086046532 -0.35335887697158019 0 -0.10928029933534041 -0.25911330461652088 0 -0.093765691765433312 -0.25258281812082478 0 -0.1064059993424292 -0.23999004584722569 0 -0.10928029933534041 -0.25911330461652088 0 -0.093765691765433312 -0.25258281812082478 0 -0.091378819945462819 -0.27405960529517892 0 -0.132950552588979 -0.26278472612012599 0 -0.10928029933534041 -0.25911330461652088 0 -0.1192340303868117 -0.24478318800158869 0 -0.132950552588979 -0.26278472612012599 0 -0.10928029933534041 -0.25911330461652088 0 -0.1188334035936548 -0.28113848219864679 0 -0.10928029933534041 -0.25911330461652088 0 -0.1188334035936548 -0.28113848219864679 0 -0.091378819945462819 -0.27405960529517892 0 -0.13242221189995379 -0.30543756500551722 0 -0.1101747460075988 -0.32953608121607292 0 -0.10233633129899709 -0.29788694174330338 0 -0.1188334035936548 -0.28113848219864679 0 -0.10233633129899709 -0.29788694174330338 0 -0.091378819945462819 -0.27405960529517892 0 -0.13242221189995379 -0.30543756500551722 0 -0.1188334035936548 -0.28113848219864679 0 -0.10233633129899709 -0.29788694174330338 0 -0.085227450549862166 -0.32028838060126541 0 -0.10233633129899709 -0.29788694174330338 0 -0.072947339386401744 -0.29815403057856332 0 -0.10233633129899709 -0.29788694174330338 0 -0.072947339386401744 -0.29815403057856332 0 -0.072947339386401744 -0.29815403057856332 0 -0.068721828444096633 -0.2698787542887045 0 -0.051386271478722378 -0.27925540101153468 0 -0.10233633129899709 -0.29788694174330338 0 -0.072947339386401744 -0.29815403057856332 0 -0.091378819945462819 -0.27405960529517892 0 -0.091378819945462819 -0.27405960529517892 0 -0.068721828444096633 -0.2698787542887045 0 -0.079465288233698042 -0.25846821731041458 0 -0.072947339386401744 -0.29815403057856332 0 -0.091378819945462819 -0.27405960529517892 0 -0.068721828444096633 -0.2698787542887045 0 -0.068721828444096633 -0.2698787542887045 0 -0.065421878849430556 -0.25167039592025259 0 -0.079465288233698042 -0.25846821731041458 0 -0.093765691765433312 -0.25258281812082478 0 -0.091378819945462819 -0.27405960529517892 0 -0.079465288233698042 -0.25846821731041458 0 -0.093765691765433312 -0.25258281812082478 0 -0.079465288233698042 -0.25846821731041458 0 -0.078278243085297239 -0.23951664672932549 0 -0.036856198389287782 -0.25899730250271491 0 -0.027326811110253871 -0.25121816526868662 0 -0.040785035177160277 -0.24958968680164759 0 -0.036856198389287782 -0.25899730250271491 0 -0.03708476385319625 -0.2699613192856723 0 -0.027769846617742091 -0.26444130564156609 0 -0.036856198389287782 -0.25899730250271491 0 -0.051314535188086402 -0.25977603551600209 0 -0.03708476385319625 -0.2699613192856723 0 -0.036856198389287782 -0.25899730250271491 0 -0.051314535188086402 -0.25977603551600209 0 -0.040785035177160277 -0.24958968680164759 0 -0.051314535188086402 -0.25977603551600209 0 -0.052406799216804557 -0.24459198769464191 0 -0.040785035177160277 -0.24958968680164759 0 -0.068721828444096633 -0.2698787542887045 0 -0.065421878849430556 -0.25167039592025259 0 -0.051314535188086402 -0.25977603551600209 0 -0.065421878849430556 -0.25167039592025259 0 -0.051314535188086402 -0.25977603551600209 0 -0.052406799216804557 -0.24459198769464191 0 -0.068721828444096633 -0.2698787542887045 0 -0.051314535188086402 -0.25977603551600209 0 -0.051386271478722378 -0.27925540101153468 0 -0.051386271478722378 -0.27925540101153468 0 -0.03708476385319625 -0.2699613192856723 0 -0.030508603843899348 -0.2838920637904252 0 -0.051314535188086402 -0.25977603551600209 0 -0.051386271478722378 -0.27925540101153468 0 -0.03708476385319625 -0.2699613192856723 0 -0.051386271478722378 -0.27925540101153468 0 -0.043558347473806387 -0.2984211194138231 0 -0.030508603843899348 -0.2838920637904252 0 -0.072947339386401744 -0.29815403057856332 0 -0.051386271478722378 -0.27925540101153468 0 -0.043558347473806387 -0.2984211194138231 0 -0.072947339386401744 -0.29815403057856332 0 -0.043558347473806387 -0.2984211194138231 0 -0.072947339386401744 -0.29815403057856332 0 -0.043558347473806387 -0.2984211194138231 0 -0.051420852876661483 -0.31380047181538612 0 -0.043558347473806387 -0.2984211194138231 0 -0.051420852876661483 -0.31380047181538612 0 -0.030582351458593698 -0.31403506648659951 0 -0.014169355561211039 -0.29868820824908299 0 -0.030582351458593698 -0.31403506648659951 0 -0.0093546214437348063 -0.3154421594820554 0 -0.043558347473806387 -0.2984211194138231 0 -0.014169355561211039 -0.29868820824908299 0 -0.030582351458593698 -0.31403506648659951 0 -0.043558347473806387 -0.2984211194138231 0 -0.014169355561211039 -0.29868820824908299 0 -0.014169355561211039 -0.29868820824908299 0 -0.0093546214437348063 -0.3154421594820554 0 0.0025702240157044749 -0.30194718224499639 0 -0.014169355561211039 -0.29868820824908299 0 0.0025702240157044749 -0.30194718224499639 0 0.001953977901653102 -0.28749824366549498 0 -0.014169355561211039 -0.29868820824908299 0 -0.01355692824822796 -0.28271954505438091 0 0.001953977901653102 -0.28749824366549498 0 -0.01355692824822796 -0.28271954505438091 0 -0.002131649244152236 -0.27375645946249172 0 0.001953977901653102 -0.28749824366549498 0 -0.014169355561211039 -0.29868820824908299 0 -0.01355692824822796 -0.28271954505438091 0 -0.030508603843899348 -0.2838920637904252 0 -0.043558347473806387 -0.2984211194138231 0 -0.014169355561211039 -0.29868820824908299 0 -0.030508603843899348 -0.2838920637904252 0 -0.01355692824822796 -0.28271954505438091 0 -0.030508603843899348 -0.2838920637904252 0 -0.0232959564482321 -0.27430678972805739 0 -0.03708476385319625 -0.2699613192856723 0 -0.030508603843899348 -0.2838920637904252 0 -0.0232959564482321 -0.27430678972805739 0 -0.03708476385319625 -0.2699613192856723 0 -0.0232959564482321 -0.27430678972805739 0 -0.027769846617742091 -0.26444130564156609 0 -0.0232959564482321 -0.27430678972805739 0 -0.01453475649827142 -0.26699160201657218 0 -0.027769846617742091 -0.26444130564156609 0 -0.0232959564482321 -0.27430678972805739 0 -0.01264771782334753 -0.27382178896806042 0 -0.01453475649827142 -0.26699160201657218 0 -0.01355692824822796 -0.28271954505438091 0 -0.0232959564482321 -0.27430678972805739 0 -0.01264771782334753 -0.27382178896806042 0 -0.01355692824822796 -0.28271954505438091 0 -0.01264771782334753 -0.27382178896806042 0 -0.002131649244152236 -0.27375645946249172 0 -0.002131649244152236 -0.27375645946249172 0 -0.0028944004114581372 -0.26277522582270341 0 0.0049597396345670026 -0.26452376434945218 0 -0.002131649244152236 -0.27375645946249172 0 -0.0081433199175628083 -0.26887389345264789 0 -0.0028944004114581372 -0.26277522582270341 0 -0.01264771782334753 -0.27382178896806042 0 -0.002131649244152236 -0.27375645946249172 0 -0.0081433199175628083 -0.26887389345264789 0 -0.01264771782334753 -0.27382178896806042 0 -0.0081433199175628083 -0.26887389345264789 0 -0.01453475649827142 -0.26699160201657218 0 -0.0081433199175628083 -0.26887389345264789 0 -0.01453475649827142 -0.26699160201657218 0 -0.012379740604400009 -0.25371681360357518 0 -0.0081433199175628083 -0.26887389345264789 0 -0.012379740604400009 -0.25371681360357518 0 -0.0081433199175628083 -0.26887389345264789 0 -0.0050603712554523096 -0.25502580822232418 0 -0.012379740604400009 -0.25371681360357518 0 -0.0081433199175628083 -0.26887389345264789 0 -0.0028944004114581372 -0.26277522582270341 0 -0.0050603712554523096 -0.25502580822232418 0 -0.0028944004114581372 -0.26277522582270341 0 -0.0050603712554523096 -0.25502580822232418 0 0.0049597396345670026 -0.26452376434945218 0 -0.0050603712554523096 -0.25502580822232418 0 -0.012379740604400009 -0.25371681360357518 0 -0.01487672558591642 -0.24478309253466149 0 -0.01453475649827142 -0.26699160201657218 0 -0.027326811110253871 -0.25121816526868662 0 -0.01453475649827142 -0.26699160201657218 0 -0.027769846617742091 -0.26444130564156609 0 -0.027326811110253871 -0.25121816526868662 0 -0.01453475649827142 -0.26699160201657218 0 -0.012379740604400009 -0.25371681360357518 0 -0.027326811110253871 -0.25121816526868662 0 -0.036856198389287782 -0.25899730250271491 0 -0.027769846617742091 -0.26444130564156609 0 -0.027326811110253871 -0.25121816526868662 0 -0.039399855887372083 -0.348894598899534 0 -0.034096369460313788 -0.36339656310703322 0 -0.051971925864546728 -0.35666972650072859 0 -0.039399855887372083 -0.348894598899534 0 -0.034096369460313788 -0.36339656310703322 0 -0.026210886027733249 -0.34369915139989571 0 -0.039399855887372083 -0.348894598899534 0 -0.034096369460313788 -0.36339656310703322 0 -0.034096369460313788 -0.36339656310703322 0 -0.059008804616476777 -0.3736816009534113 0 -0.034096369460313788 -0.36339656310703322 0 -0.059008804616476777 -0.3736816009534113 0 -0.054792379857709787 -0.38521108099946061 0 -0.071250752086046532 -0.35335887697158019 0 -0.059008804616476777 -0.3736816009534113 0 -0.051971925864546728 -0.35666972650072859 0 -0.034096369460313788 -0.36339656310703322 0 -0.059008804616476777 -0.3736816009534113 0 -0.051971925864546728 -0.35666972650072859 0 -0.039399855887372083 -0.348894598899534 0 -0.056103847272524453 -0.34401699257208418 0 -0.051971925864546728 -0.35666972650072859 0 -0.071250752086046532 -0.35335887697158019 0 -0.056103847272524453 -0.34401699257208418 0 -0.051971925864546728 -0.35666972650072859 0 -0.063011241542060503 -0.32804507108198161 0 -0.056103847272524453 -0.34401699257208418 0 -0.04119870814000013 -0.33100814093665459 0 -0.063011241542060503 -0.32804507108198161 0 -0.072947339386401744 -0.29815403057856332 0 -0.051420852876661483 -0.31380047181538612 0 -0.063011241542060503 -0.32804507108198161 0 -0.051420852876661483 -0.31380047181538612 0 -0.04119870814000013 -0.33100814093665459 0 -0.04119870814000013 -0.33100814093665459 0 -0.030582351458593698 -0.31403506648659951 0 -0.022582582343139011 -0.32698802181857289 0 -0.051420852876661483 -0.31380047181538612 0 -0.04119870814000013 -0.33100814093665459 0 -0.030582351458593698 -0.31403506648659951 0 -0.039399855887372083 -0.348894598899534 0 -0.04119870814000013 -0.33100814093665459 0 -0.026210886027733249 -0.34369915139989571 0 -0.039399855887372083 -0.348894598899534 0 -0.056103847272524453 -0.34401699257208418 0 -0.04119870814000013 -0.33100814093665459 0 -0.04119870814000013 -0.33100814093665459 0 -0.026210886027733249 -0.34369915139989571 0 -0.022582582343139011 -0.32698802181857289 0 -0.026210886027733249 -0.34369915139989571 0 -0.022582582343139011 -0.32698802181857289 0 -0.008605873932596356 -0.33624452634938418 0 -0.030582351458593698 -0.31403506648659951 0 -0.022582582343139011 -0.32698802181857289 0 -0.0093546214437348063 -0.3154421594820554 0 -0.022582582343139011 -0.32698802181857289 0 -0.0093546214437348063 -0.3154421594820554 0 -0.008605873932596356 -0.33624452634938418 0 -0.0093546214437348063 -0.3154421594820554 0 -0.008605873932596356 -0.33624452634938418 0 0.0035141492887302548 -0.32519051246028208 0 -0.0019921573348008 -0.35014241775074068 0 -0.018044263397557131 -0.35676949042888739 0 -0.0042332821090469977 -0.36931681778231101 0 -0.0019921573348008 -0.35014241775074068 0 -0.018044263397557131 -0.35676949042888739 0 -0.008605873932596356 -0.33624452634938418 0 -0.0019921573348008 -0.35014241775074068 0 -0.018044263397557131 -0.35676949042888739 0 -0.026210886027733249 -0.34369915139989571 0 -0.008605873932596356 -0.33624452634938418 0 -0.018044263397557131 -0.35676949042888739 0 -0.034096369460313788 -0.36339656310703322 0 -0.026210886027733249 -0.34369915139989571 0 -0.018044263397557131 -0.35676949042888739 0 -0.034096369460313788 -0.36339656310703322 0 -0.018044263397557131 -0.35676949042888739 0 -0.034096369460313788 -0.36339656310703322 0 -0.018686911073243041 -0.37245057318461761 0 -0.025663519942779139 -0.38645552319913151 0 -0.034096369460313788 -0.36339656310703322 0 -0.025663519942779139 -0.38645552319913151 0 -0.034096369460313788 -0.36339656310703322 0 -0.018044263397557131 -0.35676949042888739 0 -0.018686911073243041 -0.37245057318461761 0 -0.018044263397557131 -0.35676949042888739 0 -0.018686911073243041 -0.37245057318461761 0 -0.0042332821090469977 -0.36931681778231101 0 -0.0042332821090469977 -0.36931681778231101 0 -0.0014384839491562609 -0.38294108750953337 0 -0.01293018069981793 -0.38699951650140929 0 -0.018686911073243041 -0.37245057318461761 0 -0.0042332821090469977 -0.36931681778231101 0 -0.01293018069981793 -0.38699951650140929 0 -0.0014384839491562609 -0.38294108750953337 0 -0.01063129593948554 -0.39508981091663592 0 0.011472045166716269 -0.38952867199447438 0 -0.0014384839491562609 -0.38294108750953337 0 -0.01293018069981793 -0.38699951650140929 0 -0.01063129593948554 -0.39508981091663592 0 -0.01063129593948554 -0.39508981091663592 0 -0.0091670491733258502 -0.407137417147723 0 0.011472045166716269 -0.38952867199447438 0 -0.01063129593948554 -0.39508981091663592 0 -0.018873559194732051 -0.4050221338792524 0 -0.0091670491733258502 -0.407137417147723 0 -0.018873559194732051 -0.4050221338792524 0 -0.02836285586948685 -0.40056267234101323 0 -0.025663519942779139 -0.38645552319913151 0 -0.018873559194732051 -0.4050221338792524 0 -0.025663519942779139 -0.38645552319913151 0 -0.01063129593948554 -0.39508981091663592 0 -0.018873559194732051 -0.4050221338792524 0 -0.025663519942779139 -0.38645552319913151 0 -0.018873559194732051 -0.4050221338792524 0 -0.02836285586948685 -0.40056267234101323 0 -0.030977517198131951 -0.41001184184548872 0 -0.018686911073243041 -0.37245057318461761 0 -0.01293018069981793 -0.38699951650140929 0 -0.025663519942779139 -0.38645552319913151 0 -0.01293018069981793 -0.38699951650140929 0 -0.01063129593948554 -0.39508981091663592 0 -0.025663519942779139 -0.38645552319913151 0 -0.01293018069981793 -0.38699951650140929 0 -0.025663519942779139 -0.38645552319913151 0 -0.025663519942779139 -0.38645552319913151 0 -0.054792379857709787 -0.38521108099946061 0 -0.034096369460313788 -0.36339656310703322 0 -0.025663519942779139 -0.38645552319913151 0 -0.054792379857709787 -0.38521108099946061 0 -0.025663519942779139 -0.38645552319913151 0 -0.040378871001035203 -0.4023619242499753 0 -0.054792379857709787 -0.38521108099946061 0 -0.02836285586948685 -0.40056267234101323 0 -0.025663519942779139 -0.38645552319913151 0 -0.040378871001035203 -0.4023619242499753 0 -0.02836285586948685 -0.40056267234101323 0 -0.040378871001035203 -0.4023619242499753 0 -0.030977517198131951 -0.41001184184548872 0 -0.054792379857709787 -0.38521108099946061 0 -0.059825167014939118 -0.40722915412089022 0 -0.072775681732521871 -0.39584784537067902 0 -0.040378871001035203 -0.4023619242499753 0 -0.054792379857709787 -0.38521108099946061 0 -0.059825167014939118 -0.40722915412089022 0 -0.042229656958243142 -0.42347410177567479 0 -0.050515785400197619 -0.44529677996352279 0 -0.072027503688391378 -0.4304363902392051 0 -0.040378871001035203 -0.4023619242499753 0 -0.059825167014939118 -0.40722915412089022 0 -0.042229656958243142 -0.42347410177567479 0 -0.059825167014939118 -0.40722915412089022 0 -0.042229656958243142 -0.42347410177567479 0 -0.072027503688391378 -0.4304363902392051 0 -0.040378871001035203 -0.4023619242499753 0 -0.042229656958243142 -0.42347410177567479 0 -0.030977517198131951 -0.41001184184548872 0 -0.042229656958243142 -0.42347410177567479 0 -0.030977517198131951 -0.41001184184548872 0 -0.025042642967162548 -0.41863837698152778 0 -0.042229656958243142 -0.42347410177567479 0 -0.02466563579619491 -0.43258924065094212 0 -0.036391946892689743 -0.43794750258320281 0 -0.042229656958243142 -0.42347410177567479 0 -0.036391946892689743 -0.43794750258320281 0 -0.050515785400197619 -0.44529677996352279 0 -0.042229656958243142 -0.42347410177567479 0 -0.02466563579619491 -0.43258924065094212 0 -0.025042642967162548 -0.41863837698152778 0 -0.02466563579619491 -0.43258924065094212 0 -0.01208359844668536 -0.42358874455937362 0 -0.01135633175650611 -0.44080857306714882 0 -0.02466563579619491 -0.43258924065094212 0 -0.025042642967162548 -0.41863837698152778 0 -0.01208359844668536 -0.42358874455937362 0 -0.018873559194732051 -0.4050221338792524 0 -0.025042642967162548 -0.41863837698152778 0 -0.01208359844668536 -0.42358874455937362 0 -0.018873559194732051 -0.4050221338792524 0 -0.030977517198131951 -0.41001184184548872 0 -0.025042642967162548 -0.41863837698152778 0 -0.0091670491733258502 -0.407137417147723 0 -0.01208359844668536 -0.42358874455937362 0 0.0037810136158822729 -0.41791708709875131 0 -0.018873559194732051 -0.4050221338792524 0 -0.01208359844668536 -0.42358874455937362 0 -0.018873559194732051 -0.4050221338792524 0 -0.0091670491733258502 -0.407137417147723 0 -0.01208359844668536 -0.42358874455937362 0 -0.0091670491733258502 -0.407137417147723 0 0.005108664055598287 -0.40528738143041459 0 0.0037810136158822729 -0.41791708709875131 0 -0.01208359844668536 -0.42358874455937362 0 -0.01135633175650611 -0.44080857306714882 0 0.00079488181500260609 -0.42987501851034571 0 -0.01208359844668536 -0.42358874455937362 0 0.0037810136158822729 -0.41791708709875131 0 0.00079488181500260609 -0.42987501851034571 0 -0.01135633175650611 -0.44080857306714882 0 -0.0057475739345891896 -0.4549207533069245 0 -0.026821380350943221 -0.45052187300253432 0 -0.01135633175650611 -0.44080857306714882 0 -0.0057475739345891896 -0.4549207533069245 0 0.0068165806591294316 -0.44348526320397952 0 -0.01135633175650611 -0.44080857306714882 0 0.00079488181500260609 -0.42987501851034571 0 0.0068165806591294316 -0.44348526320397952 0 -0.0057475739345891896 -0.4549207533069245 0 -0.01053281578453142 -0.47284051234843588 0 0.013156077559905371 -0.46694754491252372 0 -0.0057475739345891896 -0.4549207533069245 0 -0.026821380350943221 -0.45052187300253432 0 -0.01053281578453142 -0.47284051234843588 0 -0.026821380350943221 -0.45052187300253432 0 -0.01053281578453142 -0.47284051234843588 0 -0.034221709128968207 -0.47873347978434821 0 -0.02466563579619491 -0.43258924065094212 0 -0.026821380350943221 -0.45052187300253432 0 -0.036391946892689743 -0.43794750258320281 0 -0.02466563579619491 -0.43258924065094212 0 -0.01135633175650611 -0.44080857306714882 0 -0.026821380350943221 -0.45052187300253432 0 -0.01053281578453142 -0.47284051234843588 0 -0.021528721160628209 -0.5 0 0.0082051736105589468 -0.5 0 -0.01053281578453142 -0.47284051234843588 0 -0.034221709128968207 -0.47873347978434821 0 -0.01053281578453142 -0.47284051234843588 0 -0.021528721160628209 -0.5 0 -0.034221709128968207 -0.47873347978434821 0 -0.021528721160628209 -0.5 0 -0.034221709128968207 -0.47873347978434821 0 -0.051262615931815303 -0.5 0 -0.059523740010860512 -0.4805696461841214 0 -0.046928985533113317 -0.46386793679958732 0 -0.064864185923778739 -0.46315270411222448 0 -0.034221709128968207 -0.47873347978434821 0 -0.059523740010860512 -0.4805696461841214 0 -0.046928985533113317 -0.46386793679958732 0 -0.034221709128968207 -0.47873347978434821 0 -0.059523740010860512 -0.4805696461841214 0 -0.051262615931815303 -0.5 0 -0.026821380350943221 -0.45052187300253432 0 -0.036391946892689743 -0.43794750258320281 0 -0.050515785400197619 -0.44529677996352279 0 -0.026821380350943221 -0.45052187300253432 0 -0.034221709128968207 -0.47873347978434821 0 -0.046928985533113317 -0.46386793679958732 0 -0.026821380350943221 -0.45052187300253432 0 -0.046928985533113317 -0.46386793679958732 0 -0.050515785400197619 -0.44529677996352279 0 -0.046928985533113317 -0.46386793679958732 0 -0.050515785400197619 -0.44529677996352279 0 -0.064864185923778739 -0.46315270411222448 0 -0.050515785400197619 -0.44529677996352279 0 -0.067207280617084753 -0.44732106669938188 0 -0.064864185923778739 -0.46315270411222448 0 -0.050515785400197619 -0.44529677996352279 0 -0.067207280617084753 -0.44732106669938188 0 -0.072027503688391378 -0.4304363902392051 0 -0.067207280617084753 -0.44732106669938188 0 -0.082815891533118816 -0.45534181676778152 0 -0.072027503688391378 -0.4304363902392051 0 -0.067207280617084753 -0.44732106669938188 0 -0.064864185923778739 -0.46315270411222448 0 -0.082815891533118816 -0.45534181676778152 0 -0.064864185923778739 -0.46315270411222448 0 -0.082815891533118816 -0.45534181676778152 0 -0.078868432844485067 -0.47766375640856817 0 -0.082815891533118816 -0.45534181676778152 0 -0.098405376953540707 -0.43777035074814158 0 -0.072027503688391378 -0.4304363902392051 0 -0.059523740010860512 -0.4805696461841214 0 -0.078868432844485067 -0.47766375640856817 0 -0.080996510703002414 -0.50000000000000011 0 -0.059523740010860512 -0.4805696461841214 0 -0.051262615931815303 -0.5 0 -0.080996510703002414 -0.50000000000000011 0 -0.059523740010860512 -0.4805696461841214 0 -0.064864185923778739 -0.46315270411222448 0 -0.078868432844485067 -0.47766375640856817 0 -0.082815891533118816 -0.45534181676778152 0 -0.078868432844485067 -0.47766375640856817 0 -0.097649384782090676 -0.47348966161849648 0 -0.078868432844485067 -0.47766375640856817 0 -0.091101191517426794 -0.4855812854125191 0 -0.097649384782090676 -0.47348966161849648 0 -0.080996510703002414 -0.50000000000000011 0 -0.091101191517426794 -0.4855812854125191 0 -0.106890437740129 -0.49117172362301192 0 -0.078868432844485067 -0.47766375640856817 0 -0.080996510703002414 -0.50000000000000011 0 -0.091101191517426794 -0.4855812854125191 0 -0.080996510703002414 -0.50000000000000011 0 -0.106890437740129 -0.49117172362301192 0 -0.080996510703002414 -0.50000000000000011 0 -0.1052795491262605 -0.5 0 -0.106890437740129 -0.49117172362301192 0 -0.091101191517426794 -0.4855812854125191 0 -0.106890437740129 -0.49117172362301192 0 -0.097649384782090676 -0.47348966161849648 0 -0.106890437740129 -0.49117172362301192 0 -0.097649384782090676 -0.47348966161849648 0 -0.1161667412357628 -0.47599129326682099 0 -0.097649384782090676 -0.47348966161849648 0 -0.1161667412357628 -0.47599129326682099 0 -0.11918173836773351 -0.45845832247928869 0 -0.13278436477725561 -0.4823434472460234 0 -0.106890437740129 -0.49117172362301192 0 -0.1161667412357628 -0.47599129326682099 0 -0.13278436477725561 -0.4823434472460234 0 -0.12956258754951869 -0.5 0 -0.106890437740129 -0.49117172362301192 0 -0.12956258754951869 -0.5 0 -0.1052795491262605 -0.5 0 -0.106890437740129 -0.49117172362301192 0 -0.13278436477725561 -0.4823434472460234 0 -0.106890437740129 -0.49117172362301192 0 -0.098405376953540707 -0.43777035074814158 0 -0.1032934630365307 -0.45295297384024952 0 -0.1184149235461696 -0.43970471758753887 0 -0.082815891533118816 -0.45534181676778152 0 -0.098405376953540707 -0.43777035074814158 0 -0.1032934630365307 -0.45295297384024952 0 -0.082815891533118816 -0.45534181676778152 0 -0.097649384782090676 -0.47348966161849648 0 -0.1032934630365307 -0.45295297384024952 0 -0.097649384782090676 -0.47348966161849648 0 -0.11918173836773351 -0.45845832247928869 0 -0.097649384782090676 -0.47348966161849648 0 -0.1032934630365307 -0.45295297384024952 0 -0.11918173836773351 -0.45845832247928869 0 -0.1272556728232932 -0.47013049556587211 0 -0.1161667412357628 -0.47599129326682099 0 -0.11918173836773351 -0.45845832247928869 0 -0.1032934630365307 -0.45295297384024952 0 -0.11918173836773351 -0.45845832247928869 0 -0.1184149235461696 -0.43970471758753887 0 -0.13370262722300191 -0.42485153358840111 0 -0.1184149235461696 -0.43970471758753887 0 -0.116306788879599 -0.41668109890019722 0 -0.098405376953540707 -0.43777035074814158 0 -0.1184149235461696 -0.43970471758753887 0 -0.116306788879599 -0.41668109890019722 0 -0.098405376953540707 -0.43777035074814158 0 -0.097023176649951706 -0.41709708103231641 0 -0.116306788879599 -0.41668109890019722 0 -0.097023176649951706 -0.41709708103231641 0 -0.116306788879599 -0.41668109890019722 0 -0.1080069522975812 -0.4033851446609884 0 -0.097023176649951706 -0.41709708103231641 0 -0.1080069522975812 -0.4033851446609884 0 -0.093849536080233595 -0.40171885712620059 0 -0.116306788879599 -0.41668109890019722 0 -0.1246151037146196 -0.40215144471962733 0 -0.1080069522975812 -0.4033851446609884 0 -0.13370262722300191 -0.42485153358840111 0 -0.116306788879599 -0.41668109890019722 0 -0.1246151037146196 -0.40215144471962733 0 -0.12942966304821441 -0.38325015625522552 0 -0.1246151037146196 -0.40215144471962733 0 -0.11435095473318441 -0.38971939249289739 0 -0.1246151037146196 -0.40215144471962733 0 -0.11435095473318441 -0.38971939249289739 0 -0.1080069522975812 -0.4033851446609884 0 -0.12942966304821441 -0.38325015625522552 0 -0.1177797586078463 -0.37381446098417098 0 -0.11435095473318441 -0.38971939249289739 0 -0.1177797586078463 -0.37381446098417098 0 -0.11435095473318441 -0.38971939249289739 0 -0.1034929330021967 -0.38313049756236911 0 -0.1034929330021967 -0.38313049756236911 0 -0.09434009405236482 -0.38826803727453157 0 -0.083921239772640238 -0.38396663879978871 0 -0.11435095473318441 -0.38971939249289739 0 -0.1034929330021967 -0.38313049756236911 0 -0.1028080940331122 -0.39324438582339738 0 -0.1034929330021967 -0.38313049756236911 0 -0.09434009405236482 -0.38826803727453157 0 -0.1028080940331122 -0.39324438582339738 0 -0.11435095473318441 -0.38971939249289739 0 -0.1080069522975812 -0.4033851446609884 0 -0.1028080940331122 -0.39324438582339738 0 -0.09434009405236482 -0.38826803727453157 0 -0.1028080940331122 -0.39324438582339738 0 -0.093849536080233595 -0.40171885712620059 0 -0.1080069522975812 -0.4033851446609884 0 -0.1028080940331122 -0.39324438582339738 0 -0.093849536080233595 -0.40171885712620059 0 -0.093849536080233595 -0.40171885712620059 0 -0.084931705096709012 -0.39557720875243713 0 -0.079771973845784508 -0.40808466519098552 0 -0.09434009405236482 -0.38826803727453157 0 -0.093849536080233595 -0.40171885712620059 0 -0.084931705096709012 -0.39557720875243713 0 -0.084931705096709012 -0.39557720875243713 0 -0.083921239772640238 -0.38396663879978871 0 -0.072775681732521871 -0.39584784537067902 0 -0.084931705096709012 -0.39557720875243713 0 -0.072775681732521871 -0.39584784537067902 0 -0.079771973845784508 -0.40808466519098552 0 -0.1034929330021967 -0.38313049756236911 0 -0.083921239772640238 -0.38396663879978871 0 -0.092143069441117886 -0.37288061806212591 0 -0.1034929330021967 -0.38313049756236911 0 -0.083921239772640238 -0.38396663879978871 0 -0.09434009405236482 -0.38826803727453157 0 -0.083921239772640238 -0.38396663879978871 0 -0.09434009405236482 -0.38826803727453157 0 -0.084931705096709012 -0.39557720875243713 0 -0.083921239772640238 -0.38396663879978871 0 -0.076899216694667677 -0.36865863427987439 0 -0.092143069441117886 -0.37288061806212591 0 -0.083921239772640238 -0.38396663879978871 0 -0.076899216694667677 -0.36865863427987439 0 -0.059008804616476777 -0.3736816009534113 0 -0.083921239772640238 -0.38396663879978871 0 -0.059008804616476777 -0.3736816009534113 0 -0.054792379857709787 -0.38521108099946061 0 -0.083921239772640238 -0.38396663879978871 0 -0.054792379857709787 -0.38521108099946061 0 -0.083921239772640238 -0.38396663879978871 0 -0.054792379857709787 -0.38521108099946061 0 -0.083921239772640238 -0.38396663879978871 0 -0.072775681732521871 -0.39584784537067902 0 -0.059008804616476777 -0.3736816009534113 0 -0.083921239772640238 -0.38396663879978871 0 -0.059825167014939118 -0.40722915412089022 0 -0.072775681732521871 -0.39584784537067902 0 -0.079771973845784508 -0.40808466519098552 0 -0.059825167014939118 -0.40722915412089022 0 -0.072027503688391378 -0.4304363902392051 0 -0.079771973845784508 -0.40808466519098552 0 -0.098405376953540707 -0.43777035074814158 0 -0.097023176649951706 -0.41709708103231641 0 -0.072027503688391378 -0.4304363902392051 0 -0.097023176649951706 -0.41709708103231641 0 -0.072027503688391378 -0.4304363902392051 0 -0.079771973845784508 -0.40808466519098552 0 -0.097023176649951706 -0.41709708103231641 0 -0.093849536080233595 -0.40171885712620059 0 -0.079771973845784508 -0.40808466519098552 0 -0.080332479827855185 -0.089132189148723034 0 -0.087659787804267197 -0.1053579589647711 0 -0.098653139325870498 -0.078072759780639212 0 -0.080332479827855185 -0.089132189148723034 0 -0.08392236851191634 -0.073343044769479643 0 -0.098653139325870498 -0.078072759780639212 0 -0.087659787804267197 -0.1053579589647711 0 -0.098653139325870498 -0.078072759780639212 0 -0.093078549589984544 -0.062615985124124363 0 -0.08392236851191634 -0.073343044769479643 0 -0.074194079442307964 -0.055813170303027348 0 -0.093078549589984544 -0.062615985124124363 0 -0.08392236851191634 -0.073343044769479643 0 -0.098653139325870498 -0.078072759780639212 0 -0.069502852475768331 -0.077808897141633637 0 -0.074194079442307964 -0.055813170303027348 0 -0.056896828677456698 -0.064957726782933892 0 -0.08392236851191634 -0.073343044769479643 0 -0.069502852475768331 -0.077808897141633637 0 -0.074194079442307964 -0.055813170303027348 0 -0.069502852475768331 -0.077808897141633637 0 -0.074194079442307964 -0.055813170303027348 0 -0.080332479827855185 -0.089132189148723034 0 -0.08392236851191634 -0.073343044769479643 0 -0.069502852475768331 -0.077808897141633637 0 -0.080332479827855185 -0.089132189148723034 0 -0.069502852475768331 -0.077808897141633637 0 -0.064978262980951509 -0.095744309556548293 0 -0.069502852475768331 -0.077808897141633637 0 -0.064978262980951509 -0.095744309556548293 0 -0.053466751150831528 -0.085728027791416223 0 -0.064978262980951509 -0.095744309556548293 0 -0.069413139924847295 -0.1120169614824971 0 -0.055973796613101583 -0.11154457769597879 0 -0.064978262980951509 -0.095744309556548293 0 -0.075595917634480286 -0.1005628547881349 0 -0.069413139924847295 -0.1120169614824971 0 -0.075595917634480286 -0.1005628547881349 0 -0.069413139924847295 -0.1120169614824971 0 -0.087659787804267197 -0.1053579589647711 0 -0.080332479827855185 -0.089132189148723034 0 -0.064978262980951509 -0.095744309556548293 0 -0.075595917634480286 -0.1005628547881349 0 -0.069413139924847295 -0.1120169614824971 0 -0.072499038737136423 -0.12336773177227039 0 -0.087659787804267197 -0.1053579589647711 0 -0.063965210873385206 -0.121372291062271 0 -0.069413139924847295 -0.1120169614824971 0 -0.072499038737136423 -0.12336773177227039 0 -0.063965210873385206 -0.121372291062271 0 -0.069413139924847295 -0.1120169614824971 0 -0.055973796613101583 -0.11154457769597879 0 -0.093729858762440374 -0.11631984424608149 0 -0.087659787804267197 -0.1053579589647711 0 -0.076666436282660663 -0.13264315814890179 0 -0.087659787804267197 -0.1053579589647711 0 -0.076666436282660663 -0.13264315814890179 0 -0.072499038737136423 -0.12336773177227039 0 -0.087659787804267197 -0.1053579589647711 0 -0.076666436282660663 -0.13264315814890179 0 -0.093729858762440374 -0.11631984424608149 0 -0.076666436282660663 -0.13264315814890179 0 -0.096101065320712109 -0.1258911452360538 0 -0.080332479827855185 -0.089132189148723034 0 -0.075595917634480286 -0.1005628547881349 0 -0.087659787804267197 -0.1053579589647711 0 -0.087659787804267197 -0.1053579589647711 0 -0.1004265812101162 -0.1089643198262948 0 -0.1006655882856296 -0.09175432640411825 0 -0.1004265812101162 -0.1089643198262948 0 -0.11487650466180439 -0.1160490357388697 0 -0.1006655882856296 -0.09175432640411825 0 -0.11487650466180439 -0.1160490357388697 0 -0.1117238545323833 -0.101270295352793 0 -0.1006655882856296 -0.09175432640411825 0 -0.11487650466180439 -0.1160490357388697 0 -0.1006655882856296 -0.09175432640411825 0 -0.10451846741591179 -0.1170766955469076 0 -0.11649007265168369 -0.1188075605425003 0 -0.096101065320712109 -0.1258911452360538 0 -0.11649007265168369 -0.1188075605425003 0 -0.096101065320712109 -0.1258911452360538 0 -0.093729858762440374 -0.11631984424608149 0 -0.10451846741591179 -0.1170766955469076 0 -0.096101065320712109 -0.1258911452360538 0 -0.093729858762440374 -0.11631984424608149 0 -0.087659787804267197 -0.1053579589647711 0 -0.1004265812101162 -0.1089643198262948 0 -0.093729858762440374 -0.11631984424608149 0 -0.1004265812101162 -0.1089643198262948 0 -0.10451846741591179 -0.1170766955469076 0 -0.1004265812101162 -0.1089643198262948 0 -0.10451846741591179 -0.1170766955469076 0 -0.11487650466180439 -0.1160490357388697 0 -0.10451846741591179 -0.1170766955469076 0 -0.11649007265168369 -0.1188075605425003 0 -0.11487650466180439 -0.1160490357388697 0 -0.11649007265168369 -0.1188075605425003 0 -0.11487650466180439 -0.1160490357388697 0 -0.11649007265168369 -0.1188075605425003 0 -0.11487650466180439 -0.1160490357388697 0 -0.12599987765418549 -0.11550364740632391 0 -0.11487650466180439 -0.1160490357388697 0 -0.12182531397588869 -0.1044134543712442 0 -0.12599987765418549 -0.11550364740632391 0 -0.11649007265168369 -0.1188075605425003 0 -0.12599987765418549 -0.11550364740632391 0 -0.11649007265168369 -0.1188075605425003 0 -0.12599987765418549 -0.11550364740632391 0 -0.1252704192176744 -0.1172440966648565 0 -0.11487650466180439 -0.1160490357388697 0 -0.1117238545323833 -0.101270295352793 0 -0.12182531397588869 -0.1044134543712442 0 -0.11487650466180439 -0.1160490357388697 0 -0.1117238545323833 -0.101270295352793 0 -0.1117238545323833 -0.101270295352793 0 -0.12182531397588869 -0.1044134543712442 0 -0.12067370026095731 -0.092005587950159118 0 -0.1117238545323833 -0.101270295352793 0 -0.12067370026095731 -0.092005587950159118 0 -0.1096737611153919 -0.085603154438093937 0 -0.12067370026095731 -0.092005587950159118 0 -0.1179915177927765 -0.081714148456293267 0 -0.12737817104852411 -0.080741270387750683 0 -0.1179915177927765 -0.081714148456293267 0 -0.1096737611153919 -0.085603154438093937 0 -0.1121838893690176 -0.075324773267663084 0 -0.12067370026095731 -0.092005587950159118 0 -0.1179915177927765 -0.081714148456293267 0 -0.1096737611153919 -0.085603154438093937 0 -0.087659787804267197 -0.1053579589647711 0 -0.1006655882856296 -0.09175432640411825 0 -0.098653139325870498 -0.078072759780639212 0 -0.1117238545323833 -0.101270295352793 0 -0.1096737611153919 -0.085603154438093937 0 -0.1006655882856296 -0.09175432640411825 0 -0.1096737611153919 -0.085603154438093937 0 -0.098653139325870498 -0.078072759780639212 0 -0.1121838893690176 -0.075324773267663084 0 -0.1096737611153919 -0.085603154438093937 0 -0.1006655882856296 -0.09175432640411825 0 -0.098653139325870498 -0.078072759780639212 0 -0.093078549589984544 -0.062615985124124363 0 -0.098653139325870498 -0.078072759780639212 0 -0.10811729135418539 -0.065091756711675844 0 -0.098653139325870498 -0.078072759780639212 0 -0.10811729135418539 -0.065091756711675844 0 -0.1121838893690176 -0.075324773267663084 0 -0.10811729135418539 -0.065091756711675844 0 -0.1121838893690176 -0.075324773267663084 0 -0.1232756904161693 -0.070411489051666373 0 -0.1179915177927765 -0.081714148456293267 0 -0.1121838893690176 -0.075324773267663084 0 -0.1232756904161693 -0.070411489051666373 0 -0.1179915177927765 -0.081714148456293267 0 -0.1232756904161693 -0.070411489051666373 0 -0.12737817104852411 -0.080741270387750683 0 -0.10811729135418539 -0.065091756711675844 0 -0.1232756904161693 -0.070411489051666373 0 -0.12131955324210091 -0.059181462630683621 0 -0.12131955324210091 -0.059181462630683621 0 -0.1197314047957487 -0.044466417495601512 0 -0.1050545945384474 -0.053665832172193451 0 -0.10811729135418539 -0.065091756711675844 0 -0.12131955324210091 -0.059181462630683621 0 -0.1050545945384474 -0.053665832172193451 0 -0.12131955324210091 -0.059181462630683621 0 -0.1197314047957487 -0.044466417495601512 0 -0.1315211872564446 -0.050314657740016588 0 -0.1197314047957487 -0.044466417495601512 0 -0.1068389650378473 -0.041887213400145028 0 -0.1185057960264221 -0.028529017004706999 0 -0.1197314047957487 -0.044466417495601512 0 -0.1185057960264221 -0.028529017004706999 0 -0.13361245343545181 -0.030305793086055629 0 -0.1197314047957487 -0.044466417495601512 0 -0.1068389650378473 -0.041887213400145028 0 -0.1050545945384474 -0.053665832172193451 0 -0.1068389650378473 -0.041887213400145028 0 -0.093783258566811134 -0.025165556691727101 0 -0.092485611966423034 -0.037114626304880938 0 -0.1068389650378473 -0.041887213400145028 0 -0.090434917852185284 -0.047588291663230448 0 -0.092485611966423034 -0.037114626304880938 0 -0.093078549589984544 -0.062615985124124363 0 -0.1050545945384474 -0.053665832172193451 0 -0.090434917852185284 -0.047588291663230448 0 -0.1068389650378473 -0.041887213400145028 0 -0.1050545945384474 -0.053665832172193451 0 -0.090434917852185284 -0.047588291663230448 0 -0.093078549589984544 -0.062615985124124363 0 -0.10811729135418539 -0.065091756711675844 0 -0.1050545945384474 -0.053665832172193451 0 -0.1236122261121546 -0.0078425818954372464 0 -0.10868121072477301 -0.016513669919031759 0 -0.1099986790197032 0.001632030897992919 0 -0.1236122261121546 -0.0078425818954372464 0 -0.10868121072477301 -0.016513669919031759 0 -0.1068389650378473 -0.041887213400145028 0 -0.1185057960264221 -0.028529017004706999 0 -0.10868121072477301 -0.016513669919031759 0 -0.1236122261121546 -0.0078425818954372464 0 -0.1185057960264221 -0.028529017004706999 0 -0.10868121072477301 -0.016513669919031759 0 -0.1068389650378473 -0.041887213400145028 0 -0.104837062895502 -0.02019526763349536 0 -0.10868121072477301 -0.016513669919031759 0 -0.1068389650378473 -0.041887213400145028 0 -0.10868121072477301 -0.016513669919031759 0 -0.1068389650378473 -0.041887213400145028 0 -0.093783258566811134 -0.025165556691727101 0 -0.104837062895502 -0.02019526763349536 0 -0.093783258566811134 -0.025165556691727101 0 -0.10868121072477301 -0.016513669919031759 0 -0.093783258566811134 -0.025165556691727101 0 -0.10868121072477301 -0.016513669919031759 0 -0.095747033840698895 -0.01524308727968717 0 -0.093783258566811134 -0.025165556691727101 0 -0.104837062895502 -0.02019526763349536 0 -0.10868121072477301 -0.016513669919031759 0 -0.104837062895502 -0.02019526763349536 0 -0.10868121072477301 -0.016513669919031759 0 -0.10868121072477301 -0.016513669919031759 0 -0.1099986790197032 0.001632030897992919 0 -0.10868121072477301 -0.016513669919031759 0 -0.097318817554363779 -0.0057286893867275063 0 -0.1099986790197032 0.001632030897992919 0 -0.10868121072477301 -0.016513669919031759 0 -0.095747033840698895 -0.01524308727968717 0 -0.097318817554363779 -0.0057286893867275063 0 -0.097318817554363779 -0.0057286893867275063 0 -0.083204848516847923 -0.01356443312126232 0 -0.087524390624848222 0.006688577221896419 0 -0.083204848516847923 -0.01356443312126232 0 -0.087524390624848222 0.006688577221896419 0 -0.083204848516847923 -0.01356443312126232 0 -0.065966226425225663 -0.0060274066981548767 0 -0.087524390624848222 0.006688577221896419 0 -0.095747033840698895 -0.01524308727968717 0 -0.097318817554363779 -0.0057286893867275063 0 -0.083204848516847923 -0.01356443312126232 0 -0.083204848516847923 -0.01356443312126232 0 -0.07434952191593272 -0.025061702399879319 0 -0.078885306408848499 -0.033817443464421199 0 -0.093783258566811134 -0.025165556691727101 0 -0.083204848516847923 -0.01356443312126232 0 -0.078885306408848499 -0.033817443464421199 0 -0.083204848516847923 -0.01356443312126232 0 -0.078885306408848499 -0.033817443464421199 0 -0.093783258566811134 -0.025165556691727101 0 -0.095747033840698895 -0.01524308727968717 0 -0.083204848516847923 -0.01356443312126232 0 -0.093783258566811134 -0.025165556691727101 0 -0.078885306408848499 -0.033817443464421199 0 -0.07434952191593272 -0.025061702399879319 0 -0.065966226425225663 -0.0060274066981548767 0 -0.069170669720302794 -0.035546986895945307 0 -0.065966226425225663 -0.0060274066981548767 0 -0.069170669720302794 -0.035546986895945307 0 -0.060499849025326763 -0.027113091598361162 0 -0.065966226425225663 -0.0060274066981548767 0 -0.069170669720302794 -0.035546986895945307 0 -0.083204848516847923 -0.01356443312126232 0 -0.07434952191593272 -0.025061702399879319 0 -0.065966226425225663 -0.0060274066981548767 0 -0.093078549589984544 -0.062615985124124363 0 -0.090434917852185284 -0.047588291663230448 0 -0.074194079442307964 -0.055813170303027348 0 -0.090434917852185284 -0.047588291663230448 0 -0.078885306408848499 -0.033817443464421199 0 -0.074194079442307964 -0.055813170303027348 0 -0.090434917852185284 -0.047588291663230448 0 -0.092485611966423034 -0.037114626304880938 0 -0.078885306408848499 -0.033817443464421199 0 -0.093783258566811134 -0.025165556691727101 0 -0.092485611966423034 -0.037114626304880938 0 -0.078885306408848499 -0.033817443464421199 0 -0.078885306408848499 -0.033817443464421199 0 -0.074194079442307964 -0.055813170303027348 0 -0.070330568719734213 -0.04601515277555971 0 -0.074520558508438778 -0.036352241819612927 0 -0.069170669720302794 -0.035546986895945307 0 -0.078885306408848499 -0.033817443464421199 0 -0.070330568719734213 -0.04601515277555971 0 -0.074194079442307964 -0.055813170303027348 0 -0.078885306408848499 -0.033817443464421199 0 -0.070330568719734213 -0.04601515277555971 0 -0.074520558508438778 -0.036352241819612927 0 -0.07434952191593272 -0.025061702399879319 0 -0.074520558508438778 -0.036352241819612927 0 -0.069170669720302794 -0.035546986895945307 0 -0.07434952191593272 -0.025061702399879319 0 -0.078885306408848499 -0.033817443464421199 0 -0.074520558508438778 -0.036352241819612927 0 -0.078885306408848499 -0.033817443464421199 0 -0.074520558508438778 -0.036352241819612927 0 -0.069170669720302794 -0.035546986895945307 0 -0.063362765034716981 -0.039125320738808887 0 -0.060499849025326763 -0.027113091598361162 0 -0.070330568719734213 -0.04601515277555971 0 -0.069170669720302794 -0.035546986895945307 0 -0.063362765034716981 -0.039125320738808887 0 -0.070330568719734213 -0.04601515277555971 0 -0.063362765034716981 -0.039125320738808887 0 -0.059858302453952031 -0.048952151576379901 0 -0.070330568719734213 -0.04601515277555971 0 -0.074194079442307964 -0.055813170303027348 0 -0.059858302453952031 -0.048952151576379901 0 -0.074194079442307964 -0.055813170303027348 0 -0.059858302453952031 -0.048952151576379901 0 -0.056896828677456698 -0.064957726782933892 0 -0.059858302453952031 -0.048952151576379901 0 -0.044923942794737923 -0.054691691027005551 0 -0.056896828677456698 -0.064957726782933892 0 -0.059858302453952031 -0.048952151576379901 0 -0.049734296148808359 -0.042485020192698987 0 -0.044923942794737923 -0.054691691027005551 0 -0.059858302453952031 -0.048952151576379901 0 -0.056954435254269083 -0.037999220847798339 0 -0.049734296148808359 -0.042485020192698987 0 -0.063362765034716981 -0.039125320738808887 0 -0.059858302453952031 -0.048952151576379901 0 -0.056954435254269083 -0.037999220847798339 0 -0.063362765034716981 -0.039125320738808887 0 -0.056954435254269083 -0.037999220847798339 0 -0.060499849025326763 -0.027113091598361162 0 -0.056954435254269083 -0.037999220847798339 0 -0.047200384798774982 -0.033276672805742737 0 -0.049734296148808359 -0.042485020192698987 0 -0.056954435254269083 -0.037999220847798339 0 -0.047200384798774982 -0.033276672805742737 0 -0.052646608023139009 -0.028133593701314161 0 -0.049734296148808359 -0.042485020192698987 0 -0.038309454021287423 -0.037485304465473157 0 -0.044923942794737923 -0.054691691027005551 0 -0.047200384798774982 -0.033276672805742737 0 -0.038309454021287423 -0.037485304465473157 0 -0.041340635405623813 -0.023634308371219701 0 -0.047200384798774982 -0.033276672805742737 0 -0.049734296148808359 -0.042485020192698987 0 -0.038309454021287423 -0.037485304465473157 0 -0.038309454021287423 -0.037485304465473157 0 -0.03208775864781041 -0.029071100487059381 0 -0.02346135141751398 -0.035355058972579741 0 -0.038309454021287423 -0.037485304465473157 0 -0.044923942794737923 -0.054691691027005551 0 -0.02964595896144296 -0.052602220053598318 0 -0.044923942794737923 -0.054691691027005551 0 -0.02964595896144296 -0.052602220053598318 0 -0.02933827121860667 -0.069671405985324328 0 -0.065966226425225663 -0.0060274066981548767 0 -0.052851520708108592 -0.013709279578128279 0 -0.060499849025326763 -0.027113091598361162 0 -0.065966226425225663 -0.0060274066981548767 0 -0.052851520708108592 -0.013709279578128279 0 -0.041285176168578859 0.002941795093874656 0 -0.052851520708108592 -0.013709279578128279 0 -0.052646608023139009 -0.028133593701314161 0 -0.041340635405623813 -0.023634308371219701 0 -0.052851520708108592 -0.013709279578128279 0 -0.060499849025326763 -0.027113091598361162 0 -0.052646608023139009 -0.028133593701314161 0 -0.056954435254269083 -0.037999220847798339 0 -0.060499849025326763 -0.027113091598361162 0 -0.052646608023139009 -0.028133593701314161 0 -0.047200384798774982 -0.033276672805742737 0 -0.052646608023139009 -0.028133593701314161 0 -0.041340635405623813 -0.023634308371219701 0 -0.041340635405623813 -0.023634308371219701 0 -0.03208775864781041 -0.029071100487059381 0 -0.025239593746816429 -0.019809730138964948 0 -0.041340635405623813 -0.023634308371219701 0 -0.035761471768298317 -0.01187809368403442 0 -0.025239593746816429 -0.019809730138964948 0 -0.052851520708108592 -0.013709279578128279 0 -0.041340635405623813 -0.023634308371219701 0 -0.035761471768298317 -0.01187809368403442 0 -0.038309454021287423 -0.037485304465473157 0 -0.041340635405623813 -0.023634308371219701 0 -0.03208775864781041 -0.029071100487059381 0 -0.052851520708108592 -0.013709279578128279 0 -0.035761471768298317 -0.01187809368403442 0 -0.041285176168578859 0.002941795093874656 0 -0.035761471768298317 -0.01187809368403442 0 -0.018090432812363919 -0.0051789454257338127 0 -0.041285176168578859 0.002941795093874656 0 -0.035761471768298317 -0.01187809368403442 0 -0.018090432812363919 -0.0051789454257338127 0 -0.025239593746816429 -0.019809730138964948 0 -0.018090432812363919 -0.0051789454257338127 0 -0.025239593746816429 -0.019809730138964948 0 -0.013061188317162169 -0.01291647294893521 0 -0.025239593746816429 -0.019809730138964948 0 -0.011210459174411659 -0.020702551241823321 0 -0.013061188317162169 -0.01291647294893521 0 -0.03208775864781041 -0.029071100487059381 0 -0.025239593746816429 -0.019809730138964948 0 -0.02346135141751398 -0.035355058972579741 0 -0.025239593746816429 -0.019809730138964948 0 -0.011210459174411659 -0.020702551241823321 0 -0.02346135141751398 -0.035355058972579741 0 -0.011210459174411659 -0.020702551241823321 0 -0.02346135141751398 -0.035355058972579741 0 -0.003476286599935095 -0.036271506326322138 0 -0.011210459174411659 -0.020702551241823321 0 -0.003476286599935095 -0.036271506326322138 0 0.0014199230119024339 -0.021574900853890581 0 -0.011210459174411659 -0.020702551241823321 0 0.0006213327713558641 -0.0089396406014967747 0 0.0014199230119024339 -0.021574900853890581 0 -0.001488115343110989 -0.0087397640735148233 0 -0.01693898921702304 0.0117618500821222 0 0.002394805847480138 -0.0071764921779012506 0 -0.018090432812363919 -0.0051789454257338127 0 -0.001488115343110989 -0.0087397640735148233 0 -0.01693898921702304 0.0117618500821222 0 -0.018090432812363919 -0.0051789454257338127 0 -0.013061188317162169 -0.01291647294893521 0 -0.001488115343110989 -0.0087397640735148233 0 -0.011210459174411659 -0.020702551241823321 0 -0.013061188317162169 -0.01291647294893521 0 -0.001488115343110989 -0.0087397640735148233 0 -0.011210459174411659 -0.020702551241823321 0 -0.001488115343110989 -0.0087397640735148233 0 0.0006213327713558641 -0.0089396406014967747 0 -0.011210459174411659 -0.020702551241823321 0 0.0006213327713558641 -0.0089396406014967747 0 -0.001488115343110989 -0.0087397640735148233 0 0.0006213327713558641 -0.0089396406014967747 0 -0.02964595896144296 -0.052602220053598318 0 -0.01526094355706222 -0.064007872731860899 0 -0.02933827121860667 -0.069671405985324328 0 -0.02964595896144296 -0.052602220053598318 0 -0.01441383554066036 -0.048546622235137428 0 -0.01526094355706222 -0.064007872731860899 0 -0.02964595896144296 -0.052602220053598318 0 -0.02346135141751398 -0.035355058972579741 0 -0.01441383554066036 -0.048546622235137428 0 -0.038309454021287423 -0.037485304465473157 0 -0.02964595896144296 -0.052602220053598318 0 -0.02346135141751398 -0.035355058972579741 0 -0.003476286599935095 -0.036271506326322138 0 -0.00022463716734756899 -0.054496453091326037 0 -0.01441383554066036 -0.048546622235137428 0 -0.02346135141751398 -0.035355058972579741 0 -0.003476286599935095 -0.036271506326322138 0 -0.01441383554066036 -0.048546622235137428 0 -0.00022463716734756899 -0.054496453091326037 0 -0.01441383554066036 -0.048546622235137428 0 -0.01526094355706222 -0.064007872731860899 0 -0.00022463716734756899 -0.054496453091326037 0 -0.01526094355706222 -0.064007872731860899 0 0.003886405537072308 -0.074985287574065307 0 -0.01526094355706222 -0.064007872731860899 0 -0.020242120847587721 -0.083511357097035596 0 0.003886405537072308 -0.074985287574065307 0 -0.0041979068999104599 -0.092692987180200151 0 -0.020242120847587721 -0.083511357097035596 0 0.003886405537072308 -0.074985287574065307 0 -0.020242120847587721 -0.083511357097035596 0 -0.037149979327061843 -0.086545702414286968 0 -0.027814197350204149 -0.1002222595639333 0 -0.020242120847587721 -0.083511357097035596 0 -0.02933827121860667 -0.069671405985324328 0 -0.037149979327061843 -0.086545702414286968 0 -0.0041979068999104599 -0.092692987180200151 0 -0.020242120847587721 -0.083511357097035596 0 -0.027814197350204149 -0.1002222595639333 0 -0.01526094355706222 -0.064007872731860899 0 -0.020242120847587721 -0.083511357097035596 0 -0.02933827121860667 -0.069671405985324328 0 -0.044923942794737923 -0.054691691027005551 0 -0.02933827121860667 -0.069671405985324328 0 -0.043795121567553899 -0.073512069705660321 0 -0.02933827121860667 -0.069671405985324328 0 -0.043795121567553899 -0.073512069705660321 0 -0.037149979327061843 -0.086545702414286968 0 -0.043795121567553899 -0.073512069705660321 0 -0.037149979327061843 -0.086545702414286968 0 -0.053466751150831528 -0.085728027791416223 0 -0.037149979327061843 -0.086545702414286968 0 -0.053466751150831528 -0.085728027791416223 0 -0.046895924631556341 -0.099640457450003272 0 -0.064978262980951509 -0.095744309556548293 0 -0.053466751150831528 -0.085728027791416223 0 -0.046895924631556341 -0.099640457450003272 0 -0.069502852475768331 -0.077808897141633637 0 -0.053466751150831528 -0.085728027791416223 0 -0.056896828677456698 -0.064957726782933892 0 -0.043795121567553899 -0.073512069705660321 0 -0.053466751150831528 -0.085728027791416223 0 -0.056896828677456698 -0.064957726782933892 0 -0.044923942794737923 -0.054691691027005551 0 -0.043795121567553899 -0.073512069705660321 0 -0.056896828677456698 -0.064957726782933892 0 -0.055973796613101583 -0.11154457769597879 0 -0.041972484009239593 -0.11125691353498 0 -0.051469099840166933 -0.12560748285855791 0 -0.063965210873385206 -0.121372291062271 0 -0.055973796613101583 -0.11154457769597879 0 -0.051469099840166933 -0.12560748285855791 0 -0.064978262980951509 -0.095744309556548293 0 -0.055973796613101583 -0.11154457769597879 0 -0.046895924631556341 -0.099640457450003272 0 -0.055973796613101583 -0.11154457769597879 0 -0.046895924631556341 -0.099640457450003272 0 -0.041972484009239593 -0.11125691353498 0 -0.046895924631556341 -0.099640457450003272 0 -0.041972484009239593 -0.11125691353498 0 -0.027814197350204149 -0.1002222595639333 0 -0.037149979327061843 -0.086545702414286968 0 -0.046895924631556341 -0.099640457450003272 0 -0.027814197350204149 -0.1002222595639333 0 -0.027958050649480481 -0.11798595469309241 0 -0.051469099840166933 -0.12560748285855791 0 -0.041972484009239593 -0.11125691353498 0 -0.027958050649480481 -0.11798595469309241 0 -0.051469099840166933 -0.12560748285855791 0 -0.041972484009239593 -0.11125691353498 0 -0.027958050649480481 -0.11798595469309241 0 -0.027814197350204149 -0.1002222595639333 0 -0.027958050649480481 -0.11798595469309241 0 -0.051469099840166933 -0.12560748285855791 0 -0.035009396245865847 -0.13138946507283039 0 -0.027958050649480481 -0.11798595469309241 0 -0.027814197350204149 -0.1002222595639333 0 -0.004447001458793981 -0.1103644265276268 0 -0.027958050649480481 -0.11798595469309241 0 -0.004447001458793981 -0.1103644265276268 0 -0.0041979068999104599 -0.092692987180200151 0 -0.027814197350204149 -0.1002222595639333 0 -0.004447001458793981 -0.1103644265276268 0 -0.027958050649480481 -0.11798595469309241 0 -0.004447001458793981 -0.1103644265276268 0 -0.0095835093286126792 -0.13067357323387099 0 -0.0095835093286126792 -0.13067357323387099 0 -0.02380622872257708 -0.13863305153198521 0 -0.011420010772425999 -0.14358906931216731 0 -0.0095835093286126792 -0.13067357323387099 0 -0.02380622872257708 -0.13863305153198521 0 -0.035009396245865847 -0.13138946507283039 0 -0.0095835093286126792 -0.13067357323387099 0 -0.035009396245865847 -0.13138946507283039 0 -0.027958050649480481 -0.11798595469309241 0 -0.0095835093286126792 -0.13067357323387099 0 -0.035009396245865847 -0.13138946507283039 0 -0.02380622872257708 -0.13863305153198521 0 -0.02156928320199206 -0.15178510772423359 0 -0.048274716116422638 -0.14250705937413011 0 -0.02380622872257708 -0.13863305153198521 0 -0.02156928320199206 -0.15178510772423359 0 -0.011420010772425999 -0.14358906931216731 0 -0.02156928320199206 -0.15178510772423359 0 0.0051361497124387812 -0.16106315607433669 0 0.00014451492137988051 -0.1496259991592768 0 -0.0095835093286126792 -0.13067357323387099 0 -0.011420010772425999 -0.14358906931216731 0 0.00014451492137988051 -0.1496259991592768 0 -0.02156928320199206 -0.15178510772423359 0 -0.011420010772425999 -0.14358906931216731 0 0.00014451492137988051 -0.1496259991592768 0 -0.011473423231508561 -0.16625464439919799 0 -0.001198061652550745 -0.17280609881212911 0 0.0051361497124387812 -0.16106315607433669 0 -0.011473423231508561 -0.16625464439919799 0 0.0051361497124387812 -0.16106315607433669 0 -0.02156928320199206 -0.15178510772423359 0 -0.011473423231508561 -0.16625464439919799 0 0.0051361497124387812 -0.16106315607433669 0 -0.02156928320199206 -0.15178510772423359 0 0.0051361497124387812 -0.16106315607433669 0 -0.011473423231508561 -0.16625464439919799 0 -0.011684220618858611 -0.1828185141711022 0 -0.001198061652550745 -0.17280609881212911 0 -0.011684220618858611 -0.1828185141711022 0 -0.001198061652550745 -0.17280609881212911 0 0.0039750345954989988 -0.18651425943902311 0 -0.011684220618858611 -0.1828185141711022 0 -0.028082996175455729 -0.1714461327240597 0 -0.02834353692262364 -0.19660149069868879 0 -0.011473423231508561 -0.16625464439919799 0 -0.011684220618858611 -0.1828185141711022 0 -0.028082996175455729 -0.1714461327240597 0 -0.028082996175455729 -0.1714461327240597 0 -0.035076942590977253 -0.17251068978070239 0 -0.02834353692262364 -0.19660149069868879 0 -0.011473423231508561 -0.16625464439919799 0 -0.028082996175455729 -0.1714461327240597 0 -0.011473423231508561 -0.16625464439919799 0 -0.022251169661310358 -0.16246870980996381 0 -0.028082996175455729 -0.1714461327240597 0 -0.02156928320199206 -0.15178510772423359 0 -0.011473423231508561 -0.16625464439919799 0 -0.022251169661310358 -0.16246870980996381 0 -0.022251169661310358 -0.16246870980996381 0 -0.028082996175455729 -0.1714461327240597 0 -0.031809345178707003 -0.1640816166355436 0 -0.02156928320199206 -0.15178510772423359 0 -0.022251169661310358 -0.16246870980996381 0 -0.031809345178707003 -0.1640816166355436 0 -0.02156928320199206 -0.15178510772423359 0 -0.031809345178707003 -0.1640816166355436 0 -0.040578875443760723 -0.15702635465982459 0 -0.031809345178707003 -0.1640816166355436 0 -0.043296803998745907 -0.16925270511447771 0 -0.040578875443760723 -0.15702635465982459 0 -0.031809345178707003 -0.1640816166355436 0 -0.043296803998745907 -0.16925270511447771 0 -0.035076942590977253 -0.17251068978070239 0 -0.028082996175455729 -0.1714461327240597 0 -0.031809345178707003 -0.1640816166355436 0 -0.035076942590977253 -0.17251068978070239 0 -0.043296803998745907 -0.16925270511447771 0 -0.040578875443760723 -0.15702635465982459 0 -0.04778301199147586 -0.16221110159835439 0 -0.035076942590977253 -0.17251068978070239 0 -0.045101912546314182 -0.17781348514508699 0 -0.045384173352602211 -0.1896086705553881 0 -0.035076942590977253 -0.17251068978070239 0 -0.02834353692262364 -0.19660149069868879 0 -0.035076942590977253 -0.17251068978070239 0 -0.02834353692262364 -0.19660149069868879 0 -0.045384173352602211 -0.1896086705553881 0 -0.043296803998745907 -0.16925270511447771 0 -0.035076942590977253 -0.17251068978070239 0 -0.045101912546314182 -0.17781348514508699 0 -0.043296803998745907 -0.16925270511447771 0 -0.045101912546314182 -0.17781348514508699 0 -0.050116399936897628 -0.17439367801967379 0 -0.053826302631423108 -0.18719098183538219 0 -0.0513777658433901 -0.18144884671813011 0 -0.045384173352602211 -0.1896086705553881 0 -0.045101912546314182 -0.17781348514508699 0 -0.0513777658433901 -0.18144884671813011 0 -0.045384173352602211 -0.1896086705553881 0 -0.053826302631423108 -0.18719098183538219 0 -0.0513777658433901 -0.18144884671813011 0 -0.05724186851000123 -0.18306086139846869 0 -0.050116399936897628 -0.17439367801967379 0 -0.056462731779267583 -0.17707926816758701 0 -0.053733136905861317 -0.1679726515631198 0 -0.0513777658433901 -0.18144884671813011 0 -0.050116399936897628 -0.17439367801967379 0 -0.056462731779267583 -0.17707926816758701 0 -0.045101912546314182 -0.17781348514508699 0 -0.0513777658433901 -0.18144884671813011 0 -0.050116399936897628 -0.17439367801967379 0 -0.061772453938110018 -0.1722676601875073 0 -0.056462731779267583 -0.17707926816758701 0 -0.064464826801710964 -0.18158017590305259 0 -0.061772453938110018 -0.1722676601875073 0 -0.056462731779267583 -0.17707926816758701 0 -0.053733136905861317 -0.1679726515631198 0 -0.056462731779267583 -0.17707926816758701 0 -0.05724186851000123 -0.18306086139846869 0 -0.064464826801710964 -0.18158017590305259 0 -0.0513777658433901 -0.18144884671813011 0 -0.056462731779267583 -0.17707926816758701 0 -0.05724186851000123 -0.18306086139846869 0 -0.05724186851000123 -0.18306086139846869 0 -0.060077715494214402 -0.1880050343681916 0 -0.064464826801710964 -0.18158017590305259 0 -0.053826302631423108 -0.18719098183538219 0 -0.05724186851000123 -0.18306086139846869 0 -0.060077715494214402 -0.1880050343681916 0 -0.04778301199147586 -0.16221110159835439 0 -0.053733136905861317 -0.1679726515631198 0 -0.054318116428342743 -0.1550095253668563 0 -0.040578875443760723 -0.15702635465982459 0 -0.04778301199147586 -0.16221110159835439 0 -0.054318116428342743 -0.1550095253668563 0 -0.043296803998745907 -0.16925270511447771 0 -0.04778301199147586 -0.16221110159835439 0 -0.053733136905861317 -0.1679726515631198 0 -0.043296803998745907 -0.16925270511447771 0 -0.050116399936897628 -0.17439367801967379 0 -0.053733136905861317 -0.1679726515631198 0 -0.061772453938110018 -0.1722676601875073 0 -0.053733136905861317 -0.1679726515631198 0 -0.064150653413557149 -0.1630994165534029 0 -0.053733136905861317 -0.1679726515631198 0 -0.054318116428342743 -0.1550095253668563 0 -0.064150653413557149 -0.1630994165534029 0 -0.054318116428342743 -0.1550095253668563 0 -0.06193597557114254 -0.14487761168208729 0 -0.07017092070895159 -0.14876485096333639 0 -0.040578875443760723 -0.15702635465982459 0 -0.054318116428342743 -0.1550095253668563 0 -0.048274716116422638 -0.14250705937413011 0 -0.054318116428342743 -0.1550095253668563 0 -0.048274716116422638 -0.14250705937413011 0 -0.06193597557114254 -0.14487761168208729 0 -0.048274716116422638 -0.14250705937413011 0 -0.06193597557114254 -0.14487761168208729 0 -0.074980149030852788 -0.13322901102402521 0 -0.048274716116422638 -0.14250705937413011 0 -0.074980149030852788 -0.13322901102402521 0 -0.048274716116422638 -0.14250705937413011 0 -0.060435283163119087 -0.13210535691178979 0 -0.035009396245865847 -0.13138946507283039 0 -0.060435283163119087 -0.13210535691178979 0 -0.051469099840166933 -0.12560748285855791 0 -0.035009396245865847 -0.13138946507283039 0 -0.060435283163119087 -0.13210535691178979 0 -0.051469099840166933 -0.12560748285855791 0 -0.074980149030852788 -0.13322901102402521 0 -0.048274716116422638 -0.14250705937413011 0 -0.060435283163119087 -0.13210535691178979 0 -0.074980149030852788 -0.13322901102402521 0 -0.060435283163119087 -0.13210535691178979 0 -0.035009396245865847 -0.13138946507283039 0 -0.02380622872257708 -0.13863305153198521 0 -0.048274716116422638 -0.14250705937413011 0 -0.035009396245865847 -0.13138946507283039 0 -0.02156928320199206 -0.15178510772423359 0 -0.048274716116422638 -0.14250705937413011 0 -0.02156928320199206 -0.15178510772423359 0 -0.040578875443760723 -0.15702635465982459 0 -0.048274716116422638 -0.14250705937413011 0 -0.012379740604400009 -0.25371681360357518 0 -0.01487672558591642 -0.24478309253466149 0 -0.032983601381048028 -0.2367885997845538 0 -0.012379740604400009 -0.25371681360357518 0 -0.032983601381048028 -0.2367885997845538 0 -0.012379740604400009 -0.25371681360357518 0 -0.027326811110253871 -0.25121816526868662 0 -0.032983601381048028 -0.2367885997845538 0 -0.012379740604400009 -0.25371681360357518 0 -0.01487672558591642 -0.24478309253466149 0 -0.0050603712554523096 -0.25502580822232418 0 -0.01487672558591642 -0.24478309253466149 0 -0.0012779613340340411 -0.24176494305706761 0 -0.01487672558591642 -0.24478309253466149 0 -0.0012779613340340411 -0.24176494305706761 0 -0.0098443816872556354 -0.23359128343904409 0 -0.01487672558591642 -0.24478309253466149 0 -0.0098443816872556354 -0.23359128343904409 0 -0.02161013125427003 -0.22069229161667511 0 -0.0098443816872556354 -0.23359128343904409 0 -0.0016127085748020571 -0.22712480654777251 0 -0.02161013125427003 -0.22069229161667511 0 -0.0012779613340340411 -0.24176494305706761 0 -0.0098443816872556354 -0.23359128343904409 0 -0.0016127085748020571 -0.22712480654777251 0 -0.02161013125427003 -0.22069229161667511 0 -0.037749047324124332 -0.2222456785719269 0 -0.032983601381048028 -0.2367885997845538 0 -0.01487672558591642 -0.24478309253466149 0 -0.02161013125427003 -0.22069229161667511 0 -0.01487672558591642 -0.24478309253466149 0 -0.02161013125427003 -0.22069229161667511 0 -0.032983601381048028 -0.2367885997845538 0 -0.02161013125427003 -0.22069229161667511 0 -0.0048422933519348798 -0.20657909219758999 0 -0.02834353692262364 -0.19660149069868879 0 -0.02161013125427003 -0.22069229161667511 0 -0.02834353692262364 -0.19660149069868879 0 -0.04042466355054887 -0.21142906939722611 0 -0.02161013125427003 -0.22069229161667511 0 -0.02834353692262364 -0.19660149069868879 0 -0.0016127085748020571 -0.22712480654777251 0 -0.02161013125427003 -0.22069229161667511 0 -0.0048422933519348798 -0.20657909219758999 0 -0.011684220618858611 -0.1828185141711022 0 -0.0048422933519348798 -0.20657909219758999 0 -0.02834353692262364 -0.19660149069868879 0 -0.011684220618858611 -0.1828185141711022 0 -0.0048422933519348798 -0.20657909219758999 0 0.0039750345954989988 -0.18651425943902311 0 -0.02834353692262364 -0.19660149069868879 0 -0.045384173352602211 -0.1896086705553881 0 -0.048680880466514129 -0.20143667782743011 0 -0.045384173352602211 -0.1896086705553881 0 -0.054600152190027743 -0.1938329285883432 0 -0.048680880466514129 -0.20143667782743011 0 -0.053826302631423108 -0.18719098183538219 0 -0.045384173352602211 -0.1896086705553881 0 -0.054600152190027743 -0.1938329285883432 0 -0.053826302631423108 -0.18719098183538219 0 -0.054600152190027743 -0.1938329285883432 0 -0.060077715494214402 -0.1880050343681916 0 -0.054600152190027743 -0.1938329285883432 0 -0.062207823669324508 -0.19415899925277841 0 -0.060077715494214402 -0.1880050343681916 0 -0.05727161150443684 -0.20059064904333551 0 -0.063912376375580449 -0.2061057797213553 0 -0.063099371948942468 -0.19895763039768499 0 -0.062207823669324508 -0.19415899925277841 0 -0.05727161150443684 -0.20059064904333551 0 -0.063099371948942468 -0.19895763039768499 0 -0.054600152190027743 -0.1938329285883432 0 -0.062207823669324508 -0.19415899925277841 0 -0.05727161150443684 -0.20059064904333551 0 -0.054600152190027743 -0.1938329285883432 0 -0.05727161150443684 -0.20059064904333551 0 -0.048680880466514129 -0.20143667782743011 0 -0.05727161150443684 -0.20059064904333551 0 -0.048680880466514129 -0.20143667782743011 0 -0.053253465001542127 -0.20792698589572001 0 -0.052910920334218993 -0.21967129177291539 0 -0.069612749235620427 -0.2166114240769427 0 -0.064663204576268285 -0.2095762323379651 0 -0.048680880466514129 -0.20143667782743011 0 -0.053253465001542127 -0.20792698589572001 0 -0.04042466355054887 -0.21142906939722611 0 -0.05727161150443684 -0.20059064904333551 0 -0.053253465001542127 -0.20792698589572001 0 -0.063912376375580449 -0.2061057797213553 0 -0.053253465001542127 -0.20792698589572001 0 -0.052910920334218993 -0.21967129177291539 0 -0.063912376375580449 -0.2061057797213553 0 -0.052910920334218993 -0.21967129177291539 0 -0.064663204576268285 -0.2095762323379651 0 -0.052910920334218993 -0.21967129177291539 0 -0.063912376375580449 -0.2061057797213553 0 -0.064663204576268285 -0.2095762323379651 0 -0.052910920334218993 -0.21967129177291539 0 -0.063912376375580449 -0.2061057797213553 0 -0.053253465001542127 -0.20792698589572001 0 -0.04042466355054887 -0.21142906939722611 0 -0.052910920334218993 -0.21967129177291539 0 -0.02834353692262364 -0.19660149069868879 0 -0.048680880466514129 -0.20143667782743011 0 -0.04042466355054887 -0.21142906939722611 0 -0.02161013125427003 -0.22069229161667511 0 -0.04042466355054887 -0.21142906939722611 0 -0.037749047324124332 -0.2222456785719269 0 -0.04042466355054887 -0.21142906939722611 0 -0.037749047324124332 -0.2222456785719269 0 -0.052910920334218993 -0.21967129177291539 0 -0.037749047324124332 -0.2222456785719269 0 -0.052910920334218993 -0.21967129177291539 0 -0.032983601381048028 -0.2367885997845538 0 -0.052910920334218993 -0.21967129177291539 0 -0.032983601381048028 -0.2367885997845538 0 -0.052910920334218993 -0.21967129177291539 0 -0.032983601381048028 -0.2367885997845538 0 -0.040118865722236351 -0.23544472852080089 0 -0.052910920334218993 -0.21967129177291539 0 -0.040118865722236351 -0.23544472852080089 0 -0.052910920334218993 -0.21967129177291539 0 -0.054603171266369793 -0.23243375726732241 0 -0.069083472660325121 -0.22748117926656231 0 -0.052910920334218993 -0.21967129177291539 0 -0.054603171266369793 -0.23243375726732241 0 -0.040118865722236351 -0.23544472852080089 0 -0.054603171266369793 -0.23243375726732241 0 -0.062344578928600528 -0.23779073398242739 0 -0.069083472660325121 -0.22748117926656231 0 -0.054603171266369793 -0.23243375726732241 0 -0.052406799216804557 -0.24459198769464191 0 -0.040118865722236351 -0.23544472852080089 0 -0.054603171266369793 -0.23243375726732241 0 -0.062344578928600528 -0.23779073398242739 0 -0.052406799216804557 -0.24459198769464191 0 -0.065421878849430556 -0.25167039592025259 0 -0.062344578928600528 -0.23779073398242739 0 -0.052406799216804557 -0.24459198769464191 0 -0.027326811110253871 -0.25121816526868662 0 -0.040785035177160277 -0.24958968680164759 0 -0.040118865722236351 -0.23544472852080089 0 -0.027326811110253871 -0.25121816526868662 0 -0.032983601381048028 -0.2367885997845538 0 -0.040118865722236351 -0.23544472852080089 0 -0.027326811110253871 -0.25121816526868662 0 -0.040118865722236351 -0.23544472852080089 0 -0.052406799216804557 -0.24459198769464191 0 -0.040785035177160277 -0.24958968680164759 0 -0.040118865722236351 -0.23544472852080089 0 -0.078278243085297239 -0.23951664672932549 0 -0.086153706899138552 -0.22983104630755541 0 -0.09423246880553815 -0.23787512664900909 0 -0.093765691765433312 -0.25258281812082478 0 -0.078278243085297239 -0.23951664672932549 0 -0.09423246880553815 -0.23787512664900909 0 -0.062344578928600528 -0.23779073398242739 0 -0.078278243085297239 -0.23951664672932549 0 -0.069083472660325121 -0.22748117926656231 0 -0.065421878849430556 -0.25167039592025259 0 -0.062344578928600528 -0.23779073398242739 0 -0.078278243085297239 -0.23951664672932549 0 -0.065421878849430556 -0.25167039592025259 0 -0.079465288233698042 -0.25846821731041458 0 -0.078278243085297239 -0.23951664672932549 0 -0.052910920334218993 -0.21967129177291539 0 -0.069083472660325121 -0.22748117926656231 0 -0.069612749235620427 -0.2166114240769427 0 -0.078278243085297239 -0.23951664672932549 0 -0.069083472660325121 -0.22748117926656231 0 -0.086153706899138552 -0.22983104630755541 0 -0.069083472660325121 -0.22748117926656231 0 -0.082890498454507591 -0.21890744373665691 0 -0.069612749235620427 -0.2166114240769427 0 -0.082890498454507591 -0.21890744373665691 0 -0.086153706899138552 -0.22983104630755541 0 -0.098908818798469189 -0.22405916704643611 0 -0.082890498454507591 -0.21890744373665691 0 -0.092414465742116453 -0.21356058677725129 0 -0.098908818798469189 -0.22405916704643611 0 -0.069083472660325121 -0.22748117926656231 0 -0.082890498454507591 -0.21890744373665691 0 -0.086153706899138552 -0.22983104630755541 0 -0.086153706899138552 -0.22983104630755541 0 -0.098908818798469189 -0.22405916704643611 0 -0.09423246880553815 -0.23787512664900909 0 -0.082890498454507591 -0.21890744373665691 0 -0.092414465742116453 -0.21356058677725129 0 -0.085039292724931326 -0.20636870672523311 0 -0.092414465742116453 -0.21356058677725129 0 -0.085039292724931326 -0.20636870672523311 0 -0.094924882140715844 -0.2023400251814354 0 -0.085039292724931326 -0.20636870672523311 0 -0.076791362556699633 -0.2103212049296195 0 -0.076415488818317417 -0.19948117290301459 0 -0.082890498454507591 -0.21890744373665691 0 -0.085039292724931326 -0.20636870672523311 0 -0.076791362556699633 -0.2103212049296195 0 -0.082890498454507591 -0.21890744373665691 0 -0.069612749235620427 -0.2166114240769427 0 -0.076791362556699633 -0.2103212049296195 0 -0.069612749235620427 -0.2166114240769427 0 -0.07187070129672643 -0.20899750856188551 0 -0.076791362556699633 -0.2103212049296195 0 -0.069612749235620427 -0.2166114240769427 0 -0.064663204576268285 -0.2095762323379651 0 -0.07187070129672643 -0.20899750856188551 0 -0.063912376375580449 -0.2061057797213553 0 -0.064663204576268285 -0.2095762323379651 0 -0.076415488818317417 -0.19948117290301459 0 -0.064663204576268285 -0.2095762323379651 0 -0.07187070129672643 -0.20899750856188551 0 -0.076415488818317417 -0.19948117290301459 0 -0.07187070129672643 -0.20899750856188551 0 -0.076791362556699633 -0.2103212049296195 0 -0.076415488818317417 -0.19948117290301459 0 -0.064663204576268285 -0.2095762323379651 0 -0.076415488818317417 -0.19948117290301459 0 -0.063912376375580449 -0.2061057797213553 0 -0.076415488818317417 -0.19948117290301459 0 -0.074913832416942036 -0.19254026766979529 0 -0.063912376375580449 -0.2061057797213553 0 -0.074913832416942036 -0.19254026766979529 0 -0.063912376375580449 -0.2061057797213553 0 -0.067162409966087119 -0.19576756974744089 0 -0.074913832416942036 -0.19254026766979529 0 -0.063912376375580449 -0.2061057797213553 0 -0.067162409966087119 -0.19576756974744089 0 -0.063099371948942468 -0.19895763039768499 0 -0.062207823669324508 -0.19415899925277841 0 -0.067162409966087119 -0.19576756974744089 0 -0.063099371948942468 -0.19895763039768499 0 -0.062207823669324508 -0.19415899925277841 0 -0.060077715494214402 -0.1880050343681916 0 -0.067992112858964282 -0.18866012404393079 0 -0.062207823669324508 -0.19415899925277841 0 -0.067162409966087119 -0.19576756974744089 0 -0.067992112858964282 -0.18866012404393079 0 -0.067162409966087119 -0.19576756974744089 0 -0.067992112858964282 -0.18866012404393079 0 -0.074913832416942036 -0.19254026766979529 0 -0.067992112858964282 -0.18866012404393079 0 -0.074913832416942036 -0.19254026766979529 0 -0.075495957942860306 -0.18151306003065079 0 -0.076415488818317417 -0.19948117290301459 0 -0.074913832416942036 -0.19254026766979529 0 -0.086799058637230975 -0.19360180682342101 0 -0.074913832416942036 -0.19254026766979529 0 -0.086799058637230975 -0.19360180682342101 0 -0.081197999186964104 -0.18678207382066461 0 -0.085039292724931326 -0.20636870672523311 0 -0.076415488818317417 -0.19948117290301459 0 -0.086799058637230975 -0.19360180682342101 0 -0.085039292724931326 -0.20636870672523311 0 -0.086799058637230975 -0.19360180682342101 0 -0.094924882140715844 -0.2023400251814354 0 -0.086799058637230975 -0.19360180682342101 0 -0.095726771505572558 -0.1875603531079979 0 -0.094924882140715844 -0.2023400251814354 0 -0.094924882140715844 -0.2023400251814354 0 -0.111160472432858 -0.1885386204747187 0 -0.094924882140715844 -0.2023400251814354 0 -0.111160472432858 -0.1885386204747187 0 -0.1114495577303883 -0.20340811176391119 0 -0.095726771505572558 -0.1875603531079979 0 -0.094924882140715844 -0.2023400251814354 0 -0.111160472432858 -0.1885386204747187 0 -0.111160472432858 -0.1885386204747187 0 -0.1221143178041114 -0.19234248283227301 0 -0.1210277983726237 -0.20080419496638871 0 -0.1221143178041114 -0.19234248283227301 0 -0.1210277983726237 -0.20080419496638871 0 -0.1287375196768317 -0.1989974444917289 0 -0.111160472432858 -0.1885386204747187 0 -0.1210277983726237 -0.20080419496638871 0 -0.1114495577303883 -0.20340811176391119 0 -0.1210277983726237 -0.20080419496638871 0 -0.1114495577303883 -0.20340811176391119 0 -0.1178360582138414 -0.2087755546500478 0 -0.1114495577303883 -0.20340811176391119 0 -0.1178360582138414 -0.2087755546500478 0 -0.1085815399970629 -0.214445376318082 0 -0.1210277983726237 -0.20080419496638871 0 -0.1178360582138414 -0.2087755546500478 0 -0.1261734044947341 -0.20832382066201691 0 -0.1178360582138414 -0.2087755546500478 0 -0.121947990474398 -0.21689626953984009 0 -0.1261734044947341 -0.20832382066201691 0 -0.1178360582138414 -0.2087755546500478 0 -0.121947990474398 -0.21689626953984009 0 -0.1085815399970629 -0.214445376318082 0 -0.092414465742116453 -0.21356058677725129 0 -0.094924882140715844 -0.2023400251814354 0 -0.1085815399970629 -0.214445376318082 0 -0.092414465742116453 -0.21356058677725129 0 -0.1085815399970629 -0.214445376318082 0 -0.098908818798469189 -0.22405916704643611 0 -0.094924882140715844 -0.2023400251814354 0 -0.1114495577303883 -0.20340811176391119 0 -0.1085815399970629 -0.214445376318082 0 -0.098908818798469189 -0.22405916704643611 0 -0.1146679177639674 -0.22763479024990699 0 -0.1064059993424292 -0.23999004584722569 0 -0.098908818798469189 -0.22405916704643611 0 -0.1064059993424292 -0.23999004584722569 0 -0.09423246880553815 -0.23787512664900909 0 -0.1085815399970629 -0.214445376318082 0 -0.098908818798469189 -0.22405916704643611 0 -0.1146679177639674 -0.22763479024990699 0 -0.1146679177639674 -0.22763479024990699 0 -0.1192340303868117 -0.24478318800158869 0 -0.13163987617815839 -0.22779776194380719 0 -0.121947990474398 -0.21689626953984009 0 -0.1085815399970629 -0.214445376318082 0 -0.1146679177639674 -0.22763479024990699 0 -0.121947990474398 -0.21689626953984009 0 -0.1146679177639674 -0.22763479024990699 0 -0.13163987617815839 -0.22779776194380719 0 -0.10928029933534041 -0.25911330461652088 0 -0.1192340303868117 -0.24478318800158869 0 -0.1064059993424292 -0.23999004584722569 0 -0.1146679177639674 -0.22763479024990699 0 -0.1192340303868117 -0.24478318800158869 0 -0.1064059993424292 -0.23999004584722569 0 -0.093765691765433312 -0.25258281812082478 0 -0.1064059993424292 -0.23999004584722569 0 -0.09423246880553815 -0.23787512664900909 0 -0.087025139202339175 -0.14924119698846519 0 -0.093760481790990557 -0.16258763704399551 0 -0.10010201785652401 -0.1437821866573995 0 -0.087025139202339175 -0.14924119698846519 0 -0.083645274202728603 -0.1360379667205176 0 -0.10010201785652401 -0.1437821866573995 0 -0.078981128367974607 -0.14447571604620801 0 -0.087025139202339175 -0.14924119698846519 0 -0.083645274202728603 -0.1360379667205176 0 -0.078981128367974607 -0.14447571604620801 0 -0.087025139202339175 -0.14924119698846519 0 -0.078636793793478016 -0.15932247847420561 0 -0.083645274202728603 -0.1360379667205176 0 -0.10010201785652401 -0.1437821866573995 0 -0.096101065320712109 -0.1258911452360538 0 -0.076666436282660663 -0.13264315814890179 0 -0.096101065320712109 -0.1258911452360538 0 -0.083645274202728603 -0.1360379667205176 0 -0.076666436282660663 -0.13264315814890179 0 -0.096101065320712109 -0.1258911452360538 0 -0.078981128367974607 -0.14447571604620801 0 -0.083645274202728603 -0.1360379667205176 0 -0.074980149030852788 -0.13322901102402521 0 -0.083645274202728603 -0.1360379667205176 0 -0.074980149030852788 -0.13322901102402521 0 -0.076666436282660663 -0.13264315814890179 0 -0.083645274202728603 -0.1360379667205176 0 -0.074980149030852788 -0.13322901102402521 0 -0.063965210873385206 -0.121372291062271 0 -0.051469099840166933 -0.12560748285855791 0 -0.074980149030852788 -0.13322901102402521 0 -0.051469099840166933 -0.12560748285855791 0 -0.074980149030852788 -0.13322901102402521 0 -0.074980149030852788 -0.13322901102402521 0 -0.076666436282660663 -0.13264315814890179 0 -0.072499038737136423 -0.12336773177227039 0 -0.074980149030852788 -0.13322901102402521 0 -0.076666436282660663 -0.13264315814890179 0 -0.063965210873385206 -0.121372291062271 0 -0.072499038737136423 -0.12336773177227039 0 -0.074980149030852788 -0.13322901102402521 0 -0.054318116428342743 -0.1550095253668563 0 -0.07017092070895159 -0.14876485096333639 0 -0.064150653413557149 -0.1630994165534029 0 -0.06193597557114254 -0.14487761168208729 0 -0.074980149030852788 -0.13322901102402521 0 -0.07017092070895159 -0.14876485096333639 0 -0.078981128367974607 -0.14447571604620801 0 -0.074980149030852788 -0.13322901102402521 0 -0.07017092070895159 -0.14876485096333639 0 -0.074980149030852788 -0.13322901102402521 0 -0.07017092070895159 -0.14876485096333639 0 -0.078981128367974607 -0.14447571604620801 0 -0.07017092070895159 -0.14876485096333639 0 -0.078636793793478016 -0.15932247847420561 0 -0.061772453938110018 -0.1722676601875073 0 -0.064150653413557149 -0.1630994165534029 0 -0.070050920790153071 -0.171606788750374 0 -0.064150653413557149 -0.1630994165534029 0 -0.070050920790153071 -0.171606788750374 0 -0.078636793793478016 -0.15932247847420561 0 -0.070050920790153071 -0.171606788750374 0 -0.079209040401629252 -0.1719092953843511 0 -0.078636793793478016 -0.15932247847420561 0 -0.07017092070895159 -0.14876485096333639 0 -0.064150653413557149 -0.1630994165534029 0 -0.078636793793478016 -0.15932247847420561 0 -0.060077715494214402 -0.1880050343681916 0 -0.067992112858964282 -0.18866012404393079 0 -0.064464826801710964 -0.18158017590305259 0 -0.067992112858964282 -0.18866012404393079 0 -0.064464826801710964 -0.18158017590305259 0 -0.075495957942860306 -0.18151306003065079 0 -0.061772453938110018 -0.1722676601875073 0 -0.070050920790153071 -0.171606788750374 0 -0.064464826801710964 -0.18158017590305259 0 -0.070050920790153071 -0.171606788750374 0 -0.064464826801710964 -0.18158017590305259 0 -0.075495957942860306 -0.18151306003065079 0 -0.070050920790153071 -0.171606788750374 0 -0.075495957942860306 -0.18151306003065079 0 -0.079209040401629252 -0.1719092953843511 0 -0.074913832416942036 -0.19254026766979529 0 -0.075495957942860306 -0.18151306003065079 0 -0.081197999186964104 -0.18678207382066461 0 -0.08758314775082314 -0.17947316075879149 0 -0.093760481790990557 -0.16258763704399551 0 -0.099296370832405903 -0.1778108956523228 0 -0.075495957942860306 -0.18151306003065079 0 -0.081197999186964104 -0.18678207382066461 0 -0.08758314775082314 -0.17947316075879149 0 -0.086799058637230975 -0.19360180682342101 0 -0.081197999186964104 -0.18678207382066461 0 -0.08758314775082314 -0.17947316075879149 0 -0.075495957942860306 -0.18151306003065079 0 -0.079209040401629252 -0.1719092953843511 0 -0.08758314775082314 -0.17947316075879149 0 -0.086799058637230975 -0.19360180682342101 0 -0.095726771505572558 -0.1875603531079979 0 -0.08758314775082314 -0.17947316075879149 0 -0.079209040401629252 -0.1719092953843511 0 -0.08758314775082314 -0.17947316075879149 0 -0.093760481790990557 -0.16258763704399551 0 -0.079209040401629252 -0.1719092953843511 0 -0.078636793793478016 -0.15932247847420561 0 -0.093760481790990557 -0.16258763704399551 0 -0.087025139202339175 -0.14924119698846519 0 -0.078636793793478016 -0.15932247847420561 0 -0.093760481790990557 -0.16258763704399551 0 -0.093760481790990557 -0.16258763704399551 0 -0.10825098068178519 -0.1708947068761103 0 -0.099296370832405903 -0.1778108956523228 0 -0.093760481790990557 -0.16258763704399551 0 -0.10825098068178519 -0.1708947068761103 0 -0.1079275826681496 -0.15587426481125419 0 -0.111160472432858 -0.1885386204747187 0 -0.10825098068178519 -0.1708947068761103 0 -0.099296370832405903 -0.1778108956523228 0 -0.095726771505572558 -0.1875603531079979 0 -0.08758314775082314 -0.17947316075879149 0 -0.099296370832405903 -0.1778108956523228 0 -0.095726771505572558 -0.1875603531079979 0 -0.111160472432858 -0.1885386204747187 0 -0.099296370832405903 -0.1778108956523228 0 -0.111160472432858 -0.1885386204747187 0 -0.12739606272500029 -0.17473721576800191 0 -0.111160472432858 -0.1885386204747187 0 -0.1221143178041114 -0.19234248283227301 0 -0.12739606272500029 -0.17473721576800191 0 -0.111160472432858 -0.1885386204747187 0 -0.10825098068178519 -0.1708947068761103 0 -0.12739606272500029 -0.17473721576800191 0 -0.1214658785418825 -0.14693817404560541 0 -0.12739606272500029 -0.17473721576800191 0 -0.1214658785418825 -0.14693817404560541 0 -0.1079275826681496 -0.15587426481125419 0 -0.12739606272500029 -0.17473721576800191 0 -0.10825098068178519 -0.1708947068761103 0 -0.1079275826681496 -0.15587426481125419 0 -0.12739606272500029 -0.17473721576800191 0 -0.1214658785418825 -0.14693817404560541 0 -0.10010201785652401 -0.1437821866573995 0 -0.10830116401947081 -0.1339376595655668 0 -0.1214658785418825 -0.14693817404560541 0 -0.10010201785652401 -0.1437821866573995 0 -0.1079275826681496 -0.15587426481125419 0 -0.093760481790990557 -0.16258763704399551 0 -0.10010201785652401 -0.1437821866573995 0 -0.1079275826681496 -0.15587426481125419 0 -0.10010201785652401 -0.1437821866573995 0 -0.10830116401947081 -0.1339376595655668 0 -0.096101065320712109 -0.1258911452360538 0 -0.11649007265168369 -0.1188075605425003 0 -0.10830116401947081 -0.1339376595655668 0 -0.096101065320712109 -0.1258911452360538 0 -0.11649007265168369 -0.1188075605425003 0 -0.12922628187284879 -0.14058113888636839 0 -0.1252704192176744 -0.1172440966648565 0 -0.11649007265168369 -0.1188075605425003 0 -0.12922628187284879 -0.14058113888636839 0 -0.11649007265168369 -0.1188075605425003 0 -0.1214658785418825 -0.14693817404560541 0 -0.11649007265168369 -0.1188075605425003 0 -0.1214658785418825 -0.14693817404560541 0 -0.10830116401947081 -0.1339376595655668 0 -0.11649007265168369 -0.1188075605425003 0 -0.1214658785418825 -0.14693817404560541 0 -0.12922628187284879 -0.14058113888636839 0 -0.12922628187284879 -0.14058113888636839 0 -0.1355018371655794 -0.1265678790332187 0 -0.1252704192176744 -0.1172440966648565 0 -0.12922628187284879 -0.14058113888636839 0 -0.1355018371655794 -0.1265678790332187 0 -0.14553009116939669 -0.13537661130197329 0 -0.1355018371655794 -0.1265678790332187 0 -0.14553009116939669 -0.13537661130197329 0 -0.14420813470266419 -0.11805716313719079 0 -0.14553009116939669 -0.13537661130197329 0 -0.15056350488257919 -0.15504324471534639 0 -0.1628079644011253 -0.13038477387159439 0 -0.14553009116939669 -0.13537661130197329 0 -0.1628079644011253 -0.13038477387159439 0 -0.14420813470266419 -0.11805716313719079 0 -0.12922628187284879 -0.14058113888636839 0 -0.14553009116939669 -0.13537661130197329 0 -0.15056350488257919 -0.15504324471534639 0 -0.12922628187284879 -0.14058113888636839 0 -0.15056350488257919 -0.15504324471534639 0 -0.14196249109401421 -0.16235471723023651 0 -0.1214658785418825 -0.14693817404560541 0 -0.12922628187284879 -0.14058113888636839 0 -0.14196249109401421 -0.16235471723023651 0 -0.12922628187284879 -0.14058113888636839 0 -0.14196249109401421 -0.16235471723023651 0 -0.1214658785418825 -0.14693817404560541 0 -0.12739606272500029 -0.17473721576800191 0 -0.14196249109401421 -0.16235471723023651 0 -0.12739606272500029 -0.17473721576800191 0 -0.14196249109401421 -0.16235471723023651 0 -0.14465078136409831 -0.16695056657522339 0 -0.12739606272500029 -0.17473721576800191 0 -0.14196249109401421 -0.16235471723023651 0 -0.14465078136409831 -0.16695056657522339 0 -0.1314192587983791 -0.19359683159909061 0 -0.12739606272500029 -0.17473721576800191 0 -0.14465078136409831 -0.16695056657522339 0 -0.1314192587983791 -0.19359683159909061 0 -0.12739606272500029 -0.17473721576800191 0 -0.1314192587983791 -0.19359683159909061 0 -0.1221143178041114 -0.19234248283227301 0 -0.12739606272500029 -0.17473721576800191 0 -0.1314192587983791 -0.19359683159909061 0 -0.1506253399441001 -0.18191391990730801 0 -0.14704446987800041 -0.17104277042357799 0 -0.1314192587983791 -0.19359683159909061 0 -0.14704446987800041 -0.17104277042357799 0 -0.14465078136409831 -0.16695056657522339 0 -0.1314192587983791 -0.19359683159909061 0 -0.1506253399441001 -0.18191391990730801 0 -0.14704446987800041 -0.17104277042357799 0 -0.15648019532635571 -0.17138255085024329 0 -0.1506253399441001 -0.18191391990730801 0 -0.16533888001856381 -0.18602690419207779 0 -0.1512090652639769 -0.1911736867042346 0 -0.15056350488257919 -0.15504324471534639 0 -0.14196249109401421 -0.16235471723023651 0 -0.15056350488257919 -0.15504324471534639 0 -0.14196249109401421 -0.16235471723023651 0 -0.14465078136409831 -0.16695056657522339 0 -0.15056350488257919 -0.15504324471534639 0 -0.14465078136409831 -0.16695056657522339 0 -0.14196249109401421 -0.16235471723023651 0 -0.14465078136409831 -0.16695056657522339 0 -0.14704446987800041 -0.17104277042357799 0 -0.14465078136409831 -0.16695056657522339 0 -0.14704446987800041 -0.17104277042357799 0 -0.14465078136409831 -0.16695056657522339 0 -0.15229814259742869 -0.1644326064251338 0 -0.14704446987800041 -0.17104277042357799 0 -0.15229814259742869 -0.1644326064251338 0 -0.15648019532635571 -0.17138255085024329 0 -0.15056350488257919 -0.15504324471534639 0 -0.14465078136409831 -0.16695056657522339 0 -0.15229814259742869 -0.1644326064251338 0 -0.15056350488257919 -0.15504324471534639 0 -0.15229814259742869 -0.1644326064251338 0 -0.16275176153611051 -0.15774389956127821 0 -0.16275176153611051 -0.15774389956127821 0 -0.15648019532635571 -0.17138255085024329 0 -0.17757024440875549 -0.16111115580157981 0 -0.15229814259742869 -0.1644326064251338 0 -0.16275176153611051 -0.15774389956127821 0 -0.15648019532635571 -0.17138255085024329 0 -0.15648019532635571 -0.17138255085024329 0 -0.18421608521209271 -0.17558962027652111 0 -0.15648019532635571 -0.17138255085024329 0 -0.16533888001856381 -0.18602690419207779 0 -0.18421608521209271 -0.17558962027652111 0 -0.1506253399441001 -0.18191391990730801 0 -0.15648019532635571 -0.17138255085024329 0 -0.16533888001856381 -0.18602690419207779 0 -0.16533888001856381 -0.18602690419207779 0 -0.18421608521209271 -0.17558962027652111 0 -0.1786295148813212 -0.19556646452315241 0 -0.15648019532635571 -0.17138255085024329 0 -0.18421608521209271 -0.17558962027652111 0 -0.17757024440875549 -0.16111115580157981 0 -0.18421608521209271 -0.17558962027652111 0 -0.17757024440875549 -0.16111115580157981 0 -0.1979143625406167 -0.1642252661741595 0 -0.17521357040146851 -0.14833135074901779 0 -0.18000311622314791 -0.13001748444371289 0 -0.188845491435889 -0.14939424719825839 0 -0.17757024440875549 -0.16111115580157981 0 -0.17521357040146851 -0.14833135074901779 0 -0.188845491435889 -0.14939424719825839 0 -0.18000311622314791 -0.13001748444371289 0 -0.1628079644011253 -0.13038477387159439 0 -0.18027610093587751 -0.1196181089702751 0 -0.17521357040146851 -0.14833135074901779 0 -0.18000311622314791 -0.13001748444371289 0 -0.16528331055286391 -0.14253036457953011 0 -0.18000311622314791 -0.13001748444371289 0 -0.16528331055286391 -0.14253036457953011 0 -0.18000311622314791 -0.13001748444371289 0 -0.1628079644011253 -0.13038477387159439 0 -0.16528331055286391 -0.14253036457953011 0 -0.15056350488257919 -0.15504324471534639 0 -0.1628079644011253 -0.13038477387159439 0 -0.15056350488257919 -0.15504324471534639 0 -0.1628079644011253 -0.13038477387159439 0 -0.16528331055286391 -0.14253036457953011 0 -0.15056350488257919 -0.15504324471534639 0 -0.16275176153611051 -0.15774389956127821 0 -0.16528331055286391 -0.14253036457953011 0 -0.15056350488257919 -0.15504324471534639 0 -0.16528331055286391 -0.14253036457953011 0 -0.16275176153611051 -0.15774389956127821 0 -0.17521357040146851 -0.14833135074901779 0 -0.16528331055286391 -0.14253036457953011 0 -0.16275176153611051 -0.15774389956127821 0 -0.17757024440875549 -0.16111115580157981 0 -0.17521357040146851 -0.14833135074901779 0 -0.15229660666407671 -0.25401824511238591 0 -0.14920126421366381 -0.23878179657915319 0 -0.13450504990001219 -0.2438564190910647 0 -0.1192340303868117 -0.24478318800158869 0 -0.13450504990001219 -0.2438564190910647 0 -0.13163987617815839 -0.22779776194380719 0 -0.14920126421366381 -0.23878179657915319 0 -0.13450504990001219 -0.2438564190910647 0 -0.13163987617815839 -0.22779776194380719 0 -0.121947990474398 -0.21689626953984009 0 -0.13163987617815839 -0.22779776194380719 0 -0.12955498125585521 -0.21362166548107719 0 -0.13163987617815839 -0.22779776194380719 0 -0.14668655776667011 -0.2223990925877565 0 -0.13817373448855541 -0.2139466733801943 0 -0.14920126421366381 -0.23878179657915319 0 -0.13163987617815839 -0.22779776194380719 0 -0.14668655776667011 -0.2223990925877565 0 -0.14920126421366381 -0.23878179657915319 0 -0.14668655776667011 -0.2223990925877565 0 -0.1666111544691056 -0.22171119925505031 0 -0.14668655776667011 -0.2223990925877565 0 -0.14920765704353961 -0.2069242839694774 0 -0.1666111544691056 -0.22171119925505031 0 -0.14920765704353961 -0.2069242839694774 0 -0.13817373448855541 -0.2139466733801943 0 -0.13929463799343569 -0.2052160077695602 0 -0.14920765704353961 -0.2069242839694774 0 -0.13929463799343569 -0.2052160077695602 0 -0.1420465959208794 -0.1984943042809322 0 -0.14668655776667011 -0.2223990925877565 0 -0.14920765704353961 -0.2069242839694774 0 -0.13817373448855541 -0.2139466733801943 0 -0.13163987617815839 -0.22779776194380719 0 -0.13817373448855541 -0.2139466733801943 0 -0.12955498125585521 -0.21362166548107719 0 -0.13817373448855541 -0.2139466733801943 0 -0.12955498125585521 -0.21362166548107719 0 -0.1326745573724277 -0.20747677911892251 0 -0.121947990474398 -0.21689626953984009 0 -0.12955498125585521 -0.21362166548107719 0 -0.1261734044947341 -0.20832382066201691 0 -0.1210277983726237 -0.20080419496638871 0 -0.12833971984693959 -0.20340181913978941 0 -0.1261734044947341 -0.20832382066201691 0 -0.12955498125585521 -0.21362166548107719 0 -0.1261734044947341 -0.20832382066201691 0 -0.1326745573724277 -0.20747677911892251 0 -0.12833971984693959 -0.20340181913978941 0 -0.1261734044947341 -0.20832382066201691 0 -0.1326745573724277 -0.20747677911892251 0 -0.12833971984693959 -0.20340181913978941 0 -0.1326745573724277 -0.20747677911892251 0 -0.13308531931808101 -0.2014068564598902 0 -0.13817373448855541 -0.2139466733801943 0 -0.1326745573724277 -0.20747677911892251 0 -0.13929463799343569 -0.2052160077695602 0 -0.1326745573724277 -0.20747677911892251 0 -0.13929463799343569 -0.2052160077695602 0 -0.13308531931808101 -0.2014068564598902 0 -0.13929463799343569 -0.2052160077695602 0 -0.13308531931808101 -0.2014068564598902 0 -0.1420465959208794 -0.1984943042809322 0 -0.13308531931808101 -0.2014068564598902 0 -0.1314192587983791 -0.19359683159909061 0 -0.1420465959208794 -0.1984943042809322 0 -0.12833971984693959 -0.20340181913978941 0 -0.13308531931808101 -0.2014068564598902 0 -0.1287375196768317 -0.1989974444917289 0 -0.13308531931808101 -0.2014068564598902 0 -0.1287375196768317 -0.1989974444917289 0 -0.1314192587983791 -0.19359683159909061 0 -0.13308531931808101 -0.2014068564598902 0 -0.1314192587983791 -0.19359683159909061 0 -0.1287375196768317 -0.1989974444917289 0 -0.1314192587983791 -0.19359683159909061 0 -0.1210277983726237 -0.20080419496638871 0 -0.12833971984693959 -0.20340181913978941 0 -0.1287375196768317 -0.1989974444917289 0 -0.1221143178041114 -0.19234248283227301 0 -0.1287375196768317 -0.1989974444917289 0 -0.1314192587983791 -0.19359683159909061 0 -0.1314192587983791 -0.19359683159909061 0 -0.1420465959208794 -0.1984943042809322 0 -0.1512090652639769 -0.1911736867042346 0 -0.14920765704353961 -0.2069242839694774 0 -0.1512090652639769 -0.1911736867042346 0 -0.16613147043060339 -0.2018841564818957 0 -0.14920765704353961 -0.2069242839694774 0 -0.1420465959208794 -0.1984943042809322 0 -0.1512090652639769 -0.1911736867042346 0 -0.1506253399441001 -0.18191391990730801 0 -0.1314192587983791 -0.19359683159909061 0 -0.1512090652639769 -0.1911736867042346 0 -0.16533888001856381 -0.18602690419207779 0 -0.1512090652639769 -0.1911736867042346 0 -0.16613147043060339 -0.2018841564818957 0 -0.16533888001856381 -0.18602690419207779 0 -0.16613147043060339 -0.2018841564818957 0 -0.1786295148813212 -0.19556646452315241 0 -0.1786295148813212 -0.19556646452315241 0 -0.17958500981378461 -0.2107334264309661 0 -0.1981990761364697 -0.20254736480388241 0 -0.18421608521209271 -0.17558962027652111 0 -0.1786295148813212 -0.19556646452315241 0 -0.1981990761364697 -0.20254736480388241 0 -0.16613147043060339 -0.2018841564818957 0 -0.1786295148813212 -0.19556646452315241 0 -0.17958500981378461 -0.2107334264309661 0 -0.17958500981378461 -0.2107334264309661 0 -0.1666111544691056 -0.22171119925505031 0 -0.19116993277822331 -0.22279453133759641 0 -0.16613147043060339 -0.2018841564818957 0 -0.17958500981378461 -0.2107334264309661 0 -0.1666111544691056 -0.22171119925505031 0 -0.14920765704353961 -0.2069242839694774 0 -0.16613147043060339 -0.2018841564818957 0 -0.1666111544691056 -0.22171119925505031 0 -0.16774304296138501 -0.24055682594909811 0 -0.1994177047143332 -0.2432145052078287 0 -0.19116993277822331 -0.22279453133759641 0 -0.18473400419263841 -0.26184427346616201 0 -0.16774304296138501 -0.24055682594909811 0 -0.1994177047143332 -0.2432145052078287 0 -0.14920126421366381 -0.23878179657915319 0 -0.1666111544691056 -0.22171119925505031 0 -0.16774304296138501 -0.24055682594909811 0 -0.1666111544691056 -0.22171119925505031 0 -0.16774304296138501 -0.24055682594909811 0 -0.19116993277822331 -0.22279453133759641 0 -0.15229660666407671 -0.25401824511238591 0 -0.14920126421366381 -0.23878179657915319 0 -0.16774304296138501 -0.24055682594909811 0 -0.1994177047143332 -0.2432145052078287 0 -0.21214113701728249 -0.228940323783688 0 -0.22937054978906041 -0.24331512362502869 0 -0.2113475615474098 -0.26183595308539898 0 -0.1994177047143332 -0.2432145052078287 0 -0.22937054978906041 -0.24331512362502869 0 -0.1994177047143332 -0.2432145052078287 0 -0.19116993277822331 -0.22279453133759641 0 -0.21214113701728249 -0.228940323783688 0 -0.19116993277822331 -0.22279453133759641 0 -0.21214113701728249 -0.228940323783688 0 -0.21151629669390881 -0.21291663877559669 0 -0.21214113701728249 -0.228940323783688 0 -0.21151629669390881 -0.21291663877559669 0 -0.2275824975951227 -0.2207461827585098 0 -0.21151629669390881 -0.21291663877559669 0 -0.1981990761364697 -0.20254736480388241 0 -0.21430725265311781 -0.19815896184605211 0 -0.21151629669390881 -0.21291663877559669 0 -0.21430725265311781 -0.19815896184605211 0 -0.22569788398323701 -0.20431246812385209 0 -0.19116993277822331 -0.22279453133759641 0 -0.21151629669390881 -0.21291663877559669 0 -0.1981990761364697 -0.20254736480388241 0 -0.17958500981378461 -0.2107334264309661 0 -0.19116993277822331 -0.22279453133759641 0 -0.1981990761364697 -0.20254736480388241 0 -0.21430725265311781 -0.19815896184605211 0 -0.2251169230399053 -0.19244957551320049 0 -0.21195197509782959 -0.17979668970279891 0 -0.1981990761364697 -0.20254736480388241 0 -0.21430725265311781 -0.19815896184605211 0 -0.21195197509782959 -0.17979668970279891 0 -0.21430725265311781 -0.19815896184605211 0 -0.2251169230399053 -0.19244957551320049 0 -0.22569788398323701 -0.20431246812385209 0 -0.2251169230399053 -0.19244957551320049 0 -0.23600322778131949 -0.19814692121484651 0 -0.22569788398323701 -0.20431246812385209 0 -0.2251169230399053 -0.19244957551320049 0 -0.23600322778131949 -0.19814692121484651 0 -0.23968786498356659 -0.18400375912907671 0 -0.23600322778131949 -0.19814692121484651 0 -0.23968786498356659 -0.18400375912907671 0 -0.25047429362874257 -0.200219847641955 0 -0.23600322778131949 -0.19814692121484651 0 -0.23949462900920199 -0.21027573078813011 0 -0.25047429362874257 -0.200219847641955 0 -0.23949462900920199 -0.21027573078813011 0 -0.25247744799357308 -0.21261594090752481 0 -0.25047429362874257 -0.200219847641955 0 -0.23949462900920199 -0.21027573078813011 0 -0.24510877540263959 -0.22548599802342939 0 -0.25247744799357308 -0.21261594090752481 0 -0.23949462900920199 -0.21027573078813011 0 -0.22569788398323701 -0.20431246812385209 0 -0.2275824975951227 -0.2207461827585098 0 -0.21151629669390881 -0.21291663877559669 0 -0.22569788398323701 -0.20431246812385209 0 -0.2275824975951227 -0.2207461827585098 0 -0.23600322778131949 -0.19814692121484651 0 -0.23949462900920199 -0.21027573078813011 0 -0.22569788398323701 -0.20431246812385209 0 -0.21214113701728249 -0.228940323783688 0 -0.2275824975951227 -0.2207461827585098 0 -0.22937054978906041 -0.24331512362502869 0 -0.2275824975951227 -0.2207461827585098 0 -0.24510877540263959 -0.22548599802342939 0 -0.22937054978906041 -0.24331512362502869 0 -0.23949462900920199 -0.21027573078813011 0 -0.2275824975951227 -0.2207461827585098 0 -0.24510877540263959 -0.22548599802342939 0 -0.24510877540263959 -0.22548599802342939 0 -0.22937054978906041 -0.24331512362502869 0 -0.2582168116042447 -0.2439014490639565 0 -0.2483490975252734 -0.26098873334868322 0 -0.22937054978906041 -0.24331512362502869 0 -0.2582168116042447 -0.2439014490639565 0 -0.2067502249108786 -0.1536135545564879 0 -0.21547877813771771 -0.14332314171572449 0 -0.20152593766547949 -0.13633519349348669 0 -0.2067502249108786 -0.1536135545564879 0 -0.21547877813771771 -0.14332314171572449 0 -0.22184111984059729 -0.15282479907953789 0 -0.21547877813771771 -0.14332314171572449 0 -0.21860961385214961 -0.13100792014620721 0 -0.20152593766547949 -0.13633519349348669 0 -0.21860961385214961 -0.13100792014620721 0 -0.20152593766547949 -0.13633519349348669 0 -0.2099810947540583 -0.12129541974841899 0 -0.18000311622314791 -0.13001748444371289 0 -0.20152593766547949 -0.13633519349348669 0 -0.19534617212360411 -0.121013351703841 0 -0.18000311622314791 -0.13001748444371289 0 -0.20152593766547949 -0.13633519349348669 0 -0.188845491435889 -0.14939424719825839 0 -0.20152593766547949 -0.13633519349348669 0 -0.2099810947540583 -0.12129541974841899 0 -0.19534617212360411 -0.121013351703841 0 -0.2067502249108786 -0.1536135545564879 0 -0.188845491435889 -0.14939424719825839 0 -0.1979143625406167 -0.1642252661741595 0 -0.2067502249108786 -0.1536135545564879 0 -0.20152593766547949 -0.13633519349348669 0 -0.188845491435889 -0.14939424719825839 0 -0.17757024440875549 -0.16111115580157981 0 -0.188845491435889 -0.14939424719825839 0 -0.1979143625406167 -0.1642252661741595 0 -0.18421608521209271 -0.17558962027652111 0 -0.1981990761364697 -0.20254736480388241 0 -0.21195197509782959 -0.17979668970279891 0 -0.18421608521209271 -0.17558962027652111 0 -0.21195197509782959 -0.17979668970279891 0 -0.18421608521209271 -0.17558962027652111 0 -0.1979143625406167 -0.1642252661741595 0 -0.21195197509782959 -0.17979668970279891 0 -0.1979143625406167 -0.1642252661741595 0 -0.21195197509782959 -0.17979668970279891 0 -0.2165382263276793 -0.1649867273485818 0 -0.2067502249108786 -0.1536135545564879 0 -0.1979143625406167 -0.1642252661741595 0 -0.2165382263276793 -0.1649867273485818 0 -0.2067502249108786 -0.1536135545564879 0 -0.2165382263276793 -0.1649867273485818 0 -0.22184111984059729 -0.15282479907953789 0 -0.2165382263276793 -0.1649867273485818 0 -0.2313091397970973 -0.16435086132264101 0 -0.233842168872713 -0.17694121357944129 0 -0.2165382263276793 -0.1649867273485818 0 -0.2313091397970973 -0.16435086132264101 0 -0.22184111984059729 -0.15282479907953789 0 -0.21195197509782959 -0.17979668970279891 0 -0.233842168872713 -0.17694121357944129 0 -0.23968786498356659 -0.18400375912907671 0 -0.2251169230399053 -0.19244957551320049 0 -0.21195197509782959 -0.17979668970279891 0 -0.23968786498356659 -0.18400375912907671 0 -0.21195197509782959 -0.17979668970279891 0 -0.2165382263276793 -0.1649867273485818 0 -0.233842168872713 -0.17694121357944129 0 -0.21195197509782959 -0.17979668970279891 0 -0.23968786498356659 -0.18400375912907671 0 -0.233842168872713 -0.17694121357944129 0 -0.25982868842644607 -0.17021686968691641 0 -0.233842168872713 -0.17694121357944129 0 -0.23968786498356659 -0.18400375912907671 0 -0.25982868842644607 -0.17021686968691641 0 -0.2313091397970973 -0.16435086132264101 0 -0.24566481473353391 -0.1652464025747532 0 -0.25343568279415951 -0.15224923159364789 0 -0.233842168872713 -0.17694121357944129 0 -0.24566481473353391 -0.1652464025747532 0 -0.25982868842644607 -0.17021686968691641 0 -0.2313091397970973 -0.16435086132264101 0 -0.25343568279415951 -0.15224923159364789 0 -0.2313091397970973 -0.16435086132264101 0 -0.233842168872713 -0.17694121357944129 0 -0.24566481473353391 -0.1652464025747532 0 -0.2313091397970973 -0.16435086132264101 0 -0.23261035815430561 -0.14322336329666011 0 -0.25343568279415951 -0.15224923159364789 0 -0.23261035815430561 -0.14322336329666011 0 -0.2478381125959237 -0.13014188093155071 0 -0.25343568279415951 -0.15224923159364789 0 -0.21547877813771771 -0.14332314171572449 0 -0.23261035815430561 -0.14322336329666011 0 -0.22184111984059729 -0.15282479907953789 0 -0.2313091397970973 -0.16435086132264101 0 -0.23261035815430561 -0.14322336329666011 0 -0.22184111984059729 -0.15282479907953789 0 -0.21547877813771771 -0.14332314171572449 0 -0.21860961385214961 -0.13100792014620721 0 -0.23261035815430561 -0.14322336329666011 0 -0.21860961385214961 -0.13100792014620721 0 -0.23261035815430561 -0.14322336329666011 0 -0.23267318929165751 -0.1266142136656879 0 -0.23261035815430561 -0.14322336329666011 0 -0.23267318929165751 -0.1266142136656879 0 -0.2478381125959237 -0.13014188093155071 0 -0.2478381125959237 -0.13014188093155071 0 -0.2401350799320488 -0.1157431384930437 0 -0.25439292330372432 -0.11161035632906929 0 -0.23267318929165751 -0.1266142136656879 0 -0.2478381125959237 -0.13014188093155071 0 -0.2401350799320488 -0.1157431384930437 0 -0.2401350799320488 -0.1157431384930437 0 -0.2438502060585381 -0.1028583717612334 0 -0.25439292330372432 -0.11161035632906929 0 -0.2438502060585381 -0.1028583717612334 0 -0.2453315870002564 -0.095437246693633959 0 -0.2525882024947626 -0.098821099717938107 0 -0.2453315870002564 -0.095437246693633959 0 -0.25144169010332901 -0.091633326375329338 0 -0.2525882024947626 -0.098821099717938107 0 -0.2438502060585381 -0.1028583717612334 0 -0.2453315870002564 -0.095437246693633959 0 -0.23922762562760841 -0.098169318759804947 0 -0.23922762562760841 -0.098169318759804947 0 -0.23518849288928181 -0.10695649013526939 0 -0.23134854976794339 -0.097632931289006297 0 -0.2453315870002564 -0.095437246693633959 0 -0.23922762562760841 -0.098169318759804947 0 -0.2404192924220224 -0.087961553919881613 0 -0.23922762562760841 -0.098169318759804947 0 -0.23134854976794339 -0.097632931289006297 0 -0.2404192924220224 -0.087961553919881613 0 -0.2438502060585381 -0.1028583717612334 0 -0.23922762562760841 -0.098169318759804947 0 -0.23518849288928181 -0.10695649013526939 0 -0.2401350799320488 -0.1157431384930437 0 -0.2438502060585381 -0.1028583717612334 0 -0.23518849288928181 -0.10695649013526939 0 -0.23518849288928181 -0.10695649013526939 0 -0.23134854976794339 -0.097632931289006297 0 -0.22417278192385959 -0.11295476546097789 0 -0.23134854976794339 -0.097632931289006297 0 -0.22417278192385959 -0.11295476546097789 0 -0.2186303362545719 -0.093883136955868224 0 -0.2401350799320488 -0.1157431384930437 0 -0.23518849288928181 -0.10695649013526939 0 -0.22417278192385959 -0.11295476546097789 0 -0.21860961385214961 -0.13100792014620721 0 -0.23267318929165751 -0.1266142136656879 0 -0.22417278192385959 -0.11295476546097789 0 -0.23267318929165751 -0.1266142136656879 0 -0.2401350799320488 -0.1157431384930437 0 -0.22417278192385959 -0.11295476546097789 0 -0.24388885687392389 -0.071688150345257468 0 -0.2338744138803254 -0.062312468216533988 0 -0.2476323682116322 -0.061520987214930753 0 -0.24388885687392389 -0.071688150345257468 0 -0.2476323682116322 -0.061520987214930753 0 -0.2529882333064245 -0.070973901803662365 0 -0.24388885687392389 -0.071688150345257468 0 -0.24682403554985069 -0.077092069586417622 0 -0.2529882333064245 -0.070973901803662365 0 -0.24388885687392389 -0.071688150345257468 0 -0.24682403554985069 -0.077092069586417622 0 -0.23610695818539329 -0.077097104601848404 0 -0.24388885687392389 -0.071688150345257468 0 -0.23610695818539329 -0.077097104601848404 0 -0.2338744138803254 -0.062312468216533988 0 -0.2404192924220224 -0.087961553919881613 0 -0.23434786935979859 -0.086445608359767251 0 -0.25855249999409979 -0.079349971077516485 0 -0.23434786935979859 -0.086445608359767251 0 -0.25855249999409979 -0.079349971077516485 0 -0.24682403554985069 -0.077092069586417622 0 -0.23434786935979859 -0.086445608359767251 0 -0.25855249999409979 -0.079349971077516485 0 -0.24682403554985069 -0.077092069586417622 0 -0.23610695818539329 -0.077097104601848404 0 -0.23434786935979859 -0.086445608359767251 0 -0.2404192924220224 -0.087961553919881613 0 -0.25356789490128989 -0.088072195653340249 0 -0.25144169010332901 -0.091633326375329338 0 -0.2453315870002564 -0.095437246693633959 0 -0.2404192924220224 -0.087961553919881613 0 -0.25144169010332901 -0.091633326375329338 0 -0.23134854976794339 -0.097632931289006297 0 -0.2404192924220224 -0.087961553919881613 0 -0.2186303362545719 -0.093883136955868224 0 -0.23434786935979859 -0.086445608359767251 0 -0.21819510633345421 -0.084818126690887299 0 -0.2186303362545719 -0.093883136955868224 0 -0.23434786935979859 -0.086445608359767251 0 -0.22784347827361409 -0.07844521728239337 0 -0.21819510633345421 -0.084818126690887299 0 -0.2404192924220224 -0.087961553919881613 0 -0.2186303362545719 -0.093883136955868224 0 -0.2404192924220224 -0.087961553919881613 0 -0.23434786935979859 -0.086445608359767251 0 -0.2186303362545719 -0.093883136955868224 0 -0.23610695818539329 -0.077097104601848404 0 -0.23434786935979859 -0.086445608359767251 0 -0.22784347827361409 -0.07844521728239337 0 -0.22561928727888081 -0.069226289525945936 0 -0.21465014164525181 -0.057056120614390499 0 -0.2338744138803254 -0.062312468216533988 0 -0.23610695818539329 -0.077097104601848404 0 -0.22784347827361409 -0.07844521728239337 0 -0.22561928727888081 -0.069226289525945936 0 -0.22784347827361409 -0.07844521728239337 0 -0.22561928727888081 -0.069226289525945936 0 -0.21562144440981909 -0.071220536914563426 0 -0.23610695818539329 -0.077097104601848404 0 -0.22561928727888081 -0.069226289525945936 0 -0.2338744138803254 -0.062312468216533988 0 -0.20283299924243431 -0.077387366601351398 0 -0.20047874574939811 -0.054521575326106748 0 -0.21465014164525181 -0.057056120614390499 0 -0.22784347827361409 -0.07844521728239337 0 -0.20283299924243431 -0.077387366601351398 0 -0.21562144440981909 -0.071220536914563426 0 -0.20283299924243431 -0.077387366601351398 0 -0.21465014164525181 -0.057056120614390499 0 -0.22784347827361409 -0.07844521728239337 0 -0.21562144440981909 -0.071220536914563426 0 -0.20283299924243431 -0.077387366601351398 0 -0.20283299924243431 -0.077387366601351398 0 -0.21465014164525181 -0.057056120614390499 0 -0.22561928727888081 -0.069226289525945936 0 -0.21562144440981909 -0.071220536914563426 0 -0.21465014164525181 -0.057056120614390499 0 -0.22784347827361409 -0.07844521728239337 0 -0.21819510633345421 -0.084818126690887299 0 -0.20283299924243431 -0.077387366601351398 0 -0.21819510633345421 -0.084818126690887299 0 -0.20732084853685229 -0.087929304255056254 0 -0.20283299924243431 -0.077387366601351398 0 -0.21819510633345421 -0.084818126690887299 0 -0.20732084853685229 -0.087929304255056254 0 -0.2186303362545719 -0.093883136955868224 0 -0.19866559760639321 -0.08455732909318063 0 -0.19684138008712149 -0.099804719991854848 0 -0.1822294403993594 -0.091272888294312293 0 -0.19866559760639321 -0.08455732909318063 0 -0.18940645687904581 -0.076819473560781115 0 -0.1822294403993594 -0.091272888294312293 0 -0.20732084853685229 -0.087929304255056254 0 -0.19866559760639321 -0.08455732909318063 0 -0.19684138008712149 -0.099804719991854848 0 -0.20732084853685229 -0.087929304255056254 0 -0.19866559760639321 -0.08455732909318063 0 -0.20283299924243431 -0.077387366601351398 0 -0.19866559760639321 -0.08455732909318063 0 -0.20283299924243431 -0.077387366601351398 0 -0.18940645687904581 -0.076819473560781115 0 -0.19866559760639321 -0.08455732909318063 0 -0.20283299924243431 -0.077387366601351398 0 -0.20283299924243431 -0.077387366601351398 0 -0.18940645687904581 -0.076819473560781115 0 -0.20047874574939811 -0.054521575326106748 0 -0.18940645687904581 -0.076819473560781115 0 -0.18709502764393729 -0.061773717592220383 0 -0.20047874574939811 -0.054521575326106748 0 -0.18940645687904581 -0.076819473560781115 0 -0.20047874574939811 -0.054521575326106748 0 -0.20283299924243431 -0.077387366601351398 0 -0.18940645687904581 -0.076819473560781115 0 -0.22417278192385959 -0.11295476546097789 0 -0.2099810947540583 -0.12129541974841899 0 -0.20756026250284701 -0.1093706759350784 0 -0.21860961385214961 -0.13100792014620721 0 -0.22417278192385959 -0.11295476546097789 0 -0.2099810947540583 -0.12129541974841899 0 -0.2099810947540583 -0.12129541974841899 0 -0.20756026250284701 -0.1093706759350784 0 -0.19534617212360411 -0.121013351703841 0 -0.2186303362545719 -0.093883136955868224 0 -0.19684138008712149 -0.099804719991854848 0 -0.20732084853685229 -0.087929304255056254 0 -0.2186303362545719 -0.093883136955868224 0 -0.19684138008712149 -0.099804719991854848 0 -0.2186303362545719 -0.093883136955868224 0 -0.20756026250284701 -0.1093706759350784 0 -0.19684138008712149 -0.099804719991854848 0 -0.22417278192385959 -0.11295476546097789 0 -0.2186303362545719 -0.093883136955868224 0 -0.20756026250284701 -0.1093706759350784 0 -0.20756026250284701 -0.1093706759350784 0 -0.19684138008712149 -0.099804719991854848 0 -0.18817082801183779 -0.1109486318043842 0 -0.20756026250284701 -0.1093706759350784 0 -0.18817082801183779 -0.1109486318043842 0 -0.19534617212360411 -0.121013351703841 0 -0.18817082801183779 -0.1109486318043842 0 -0.19534617212360411 -0.121013351703841 0 -0.18027610093587751 -0.1196181089702751 0 -0.18000311622314791 -0.13001748444371289 0 -0.19534617212360411 -0.121013351703841 0 -0.18027610093587751 -0.1196181089702751 0 -0.1628079644011253 -0.13038477387159439 0 -0.18027610093587751 -0.1196181089702751 0 -0.17505242391967141 -0.10572630302784269 0 -0.18817082801183779 -0.1109486318043842 0 -0.18027610093587751 -0.1196181089702751 0 -0.17505242391967141 -0.10572630302784269 0 -0.1628079644011253 -0.13038477387159439 0 -0.16568054242800659 -0.1082732985805344 0 -0.17505242391967141 -0.10572630302784269 0 -0.1628079644011253 -0.13038477387159439 0 -0.16568054242800659 -0.1082732985805344 0 -0.1559183975343586 -0.1153029742025357 0 -0.1628079644011253 -0.13038477387159439 0 -0.17505242391967141 -0.10572630302784269 0 -0.15766897324155929 -0.10201766098942321 0 -0.16769957127680751 -0.09718714727553697 0 -0.15631644193457139 -0.088857398989056272 0 -0.15766897324155929 -0.10201766098942321 0 -0.16568054242800659 -0.1082732985805344 0 -0.16769957127680751 -0.09718714727553697 0 -0.15766897324155929 -0.10201766098942321 0 -0.16568054242800659 -0.1082732985805344 0 -0.1559183975343586 -0.1153029742025357 0 -0.16568054242800659 -0.1082732985805344 0 -0.16769957127680751 -0.09718714727553697 0 -0.17505242391967141 -0.10572630302784269 0 -0.16568054242800659 -0.1082732985805344 0 -0.17505242391967141 -0.10572630302784269 0 -0.19684138008712149 -0.099804719991854848 0 -0.18817082801183779 -0.1109486318043842 0 -0.17505242391967141 -0.10572630302784269 0 -0.19684138008712149 -0.099804719991854848 0 -0.17505242391967141 -0.10572630302784269 0 -0.16769957127680751 -0.09718714727553697 0 -0.17505242391967141 -0.10572630302784269 0 -0.1822294403993594 -0.091272888294312293 0 -0.19684138008712149 -0.099804719991854848 0 -0.17505242391967141 -0.10572630302784269 0 -0.1822294403993594 -0.091272888294312293 0 -0.17505242391967141 -0.10572630302784269 0 -0.1822294403993594 -0.091272888294312293 0 -0.16769957127680751 -0.09718714727553697 0 -0.1822294403993594 -0.091272888294312293 0 -0.16622085479676199 -0.075838808419480111 0 -0.18940645687904581 -0.076819473560781115 0 -0.1822294403993594 -0.091272888294312293 0 -0.16622085479676199 -0.075838808419480111 0 -0.18940645687904581 -0.076819473560781115 0 -0.1822294403993594 -0.091272888294312293 0 -0.18940645687904581 -0.076819473560781115 0 -0.16622085479676199 -0.075838808419480111 0 -0.18940645687904581 -0.076819473560781115 0 -0.17672291357829811 -0.064990721505459842 0 -0.16622085479676199 -0.075838808419480111 0 -0.18940645687904581 -0.076819473560781115 0 -0.17672291357829811 -0.064990721505459842 0 -0.18709502764393729 -0.061773717592220383 0 -0.17672291357829811 -0.064990721505459842 0 -0.16622085479676199 -0.075838808419480111 0 -0.16458020880549121 -0.059492387506912943 0 -0.16622085479676199 -0.075838808419480111 0 -0.15646239569026699 -0.065906604111614212 0 -0.16458020880549121 -0.059492387506912943 0 -0.16769957127680751 -0.09718714727553697 0 -0.16622085479676199 -0.075838808419480111 0 -0.15631644193457139 -0.088857398989056272 0 -0.15631644193457139 -0.088857398989056272 0 -0.14677991412428701 -0.093732051016317916 0 -0.1430352527144782 -0.074858143278179051 0 -0.16622085479676199 -0.075838808419480111 0 -0.15631644193457139 -0.088857398989056272 0 -0.1430352527144782 -0.074858143278179051 0 -0.14677991412428701 -0.093732051016317916 0 -0.1430352527144782 -0.074858143278179051 0 -0.13451756518433111 -0.095180895342251215 0 -0.1430352527144782 -0.074858143278179051 0 -0.1411001381629465 -0.060647222888288201 0 -0.15201326644433669 -0.053437077241884359 0 -0.16622085479676199 -0.075838808419480111 0 -0.15646239569026699 -0.065906604111614212 0 -0.1430352527144782 -0.074858143278179051 0 -0.16622085479676199 -0.075838808419480111 0 -0.1430352527144782 -0.074858143278179051 0 -0.1430352527144782 -0.074858143278179051 0 -0.15201326644433669 -0.053437077241884359 0 -0.15646239569026699 -0.065906604111614212 0 -0.1430352527144782 -0.074858143278179051 0 -0.15201326644433669 -0.053437077241884359 0 -0.13708859775349791 -0.067653843581906681 0 -0.130794656111274 -0.068530613083725267 0 -0.13379805028672059 -0.060142641530726633 0 -0.1430352527144782 -0.074858143278179051 0 -0.13708859775349791 -0.067653843581906681 0 -0.1411001381629465 -0.060647222888288201 0 -0.13708859775349791 -0.067653843581906681 0 -0.13379805028672059 -0.060142641530726633 0 -0.1411001381629465 -0.060647222888288201 0 -0.13708859775349791 -0.067653843581906681 0 -0.13568082893985359 -0.07454707837658528 0 -0.130794656111274 -0.068530613083725267 0 -0.1430352527144782 -0.074858143278179051 0 -0.13708859775349791 -0.067653843581906681 0 -0.13568082893985359 -0.07454707837658528 0 -0.1430352527144782 -0.074858143278179051 0 -0.13568082893985359 -0.07454707837658528 0 -0.1232756904161693 -0.070411489051666373 0 -0.130794656111274 -0.068530613083725267 0 -0.12737817104852411 -0.080741270387750683 0 -0.13568082893985359 -0.07454707837658528 0 -0.130794656111274 -0.068530613083725267 0 -0.12737817104852411 -0.080741270387750683 0 -0.12131955324210091 -0.059181462630683621 0 -0.130794656111274 -0.068530613083725267 0 -0.13379805028672059 -0.060142641530726633 0 -0.1232756904161693 -0.070411489051666373 0 -0.12131955324210091 -0.059181462630683621 0 -0.130794656111274 -0.068530613083725267 0 -0.13568082893985359 -0.07454707837658528 0 -0.12737817104852411 -0.080741270387750683 0 -0.13451756518433111 -0.095180895342251215 0 -0.1430352527144782 -0.074858143278179051 0 -0.13568082893985359 -0.07454707837658528 0 -0.13451756518433111 -0.095180895342251215 0 -0.1430352527144782 -0.074858143278179051 0 -0.13451756518433111 -0.095180895342251215 0 -0.12067370026095731 -0.092005587950159118 0 -0.12737817104852411 -0.080741270387750683 0 -0.13451756518433111 -0.095180895342251215 0 -0.13451756518433111 -0.095180895342251215 0 -0.12599987765418549 -0.11550364740632391 0 -0.13451756518433111 -0.095180895342251215 0 -0.139855014945965 -0.1081270544919556 0 -0.13238394533585049 -0.1132856834133564 0 -0.13451756518433111 -0.095180895342251215 0 -0.12599987765418549 -0.11550364740632391 0 -0.13238394533585049 -0.1132856834133564 0 -0.12182531397588869 -0.1044134543712442 0 -0.13451756518433111 -0.095180895342251215 0 -0.12599987765418549 -0.11550364740632391 0 -0.12182531397588869 -0.1044134543712442 0 -0.12067370026095731 -0.092005587950159118 0 -0.13451756518433111 -0.095180895342251215 0 -0.12599987765418549 -0.11550364740632391 0 -0.1252704192176744 -0.1172440966648565 0 -0.13114171751694609 -0.1183715484722116 0 -0.12599987765418549 -0.11550364740632391 0 -0.1252704192176744 -0.1172440966648565 0 -0.12599987765418549 -0.11550364740632391 0 -0.13238394533585049 -0.1132856834133564 0 -0.12599987765418549 -0.11550364740632391 0 -0.13238394533585049 -0.1132856834133564 0 -0.13114171751694609 -0.1183715484722116 0 -0.1355018371655794 -0.1265678790332187 0 -0.1252704192176744 -0.1172440966648565 0 -0.13114171751694609 -0.1183715484722116 0 -0.1355018371655794 -0.1265678790332187 0 -0.13114171751694609 -0.1183715484722116 0 -0.14420813470266419 -0.11805716313719079 0 -0.139855014945965 -0.1081270544919556 0 -0.13238394533585049 -0.1132856834133564 0 -0.14420813470266419 -0.11805716313719079 0 -0.13238394533585049 -0.1132856834133564 0 -0.13114171751694609 -0.1183715484722116 0 -0.14420813470266419 -0.11805716313719079 0 -0.139855014945965 -0.1081270544919556 0 -0.14420813470266419 -0.11805716313719079 0 -0.1483104145610141 -0.1059844760750239 0 -0.1628079644011253 -0.13038477387159439 0 -0.14420813470266419 -0.11805716313719079 0 -0.1559183975343586 -0.1153029742025357 0 -0.14420813470266419 -0.11805716313719079 0 -0.1559183975343586 -0.1153029742025357 0 -0.1483104145610141 -0.1059844760750239 0 -0.15766897324155929 -0.10201766098942321 0 -0.1559183975343586 -0.1153029742025357 0 -0.1483104145610141 -0.1059844760750239 0 -0.15766897324155929 -0.10201766098942321 0 -0.15631644193457139 -0.088857398989056272 0 -0.14677991412428701 -0.093732051016317916 0 -0.15766897324155929 -0.10201766098942321 0 -0.14677991412428701 -0.093732051016317916 0 -0.1483104145610141 -0.1059844760750239 0 -0.14677991412428701 -0.093732051016317916 0 -0.13451756518433111 -0.095180895342251215 0 -0.1483104145610141 -0.1059844760750239 0 -0.13451756518433111 -0.095180895342251215 0 -0.139855014945965 -0.1081270544919556 0 -0.1483104145610141 -0.1059844760750239 0 -0.1452248522035206 -0.0135074852317284 0 -0.13361245343545181 -0.030305793086055629 0 -0.1484749629479134 -0.038477035386196637 0 -0.1452248522035206 -0.0135074852317284 0 -0.1484749629479134 -0.038477035386196637 0 -0.16099128017419639 -0.03201601120559007 0 -0.1452248522035206 -0.0135074852317284 0 -0.1660829110182864 -0.0110115892886907 0 -0.1564869492866878 -0.00059129627401754796 0 -0.1452248522035206 -0.0135074852317284 0 -0.1564869492866878 -0.00059129627401754796 0 -0.1433170204333889 0.0042533116210359059 0 -0.1452248522035206 -0.0135074852317284 0 -0.13137048688310951 -0.003337023478303953 0 -0.1433170204333889 0.0042533116210359059 0 -0.1236122261121546 -0.0078425818954372464 0 -0.1452248522035206 -0.0135074852317284 0 -0.13137048688310951 -0.003337023478303953 0 -0.1236122261121546 -0.0078425818954372464 0 -0.13137048688310951 -0.003337023478303953 0 -0.1236122261121546 -0.0078425818954372464 0 -0.13361245343545181 -0.030305793086055629 0 -0.1236122261121546 -0.0078425818954372464 0 -0.1185057960264221 -0.028529017004706999 0 -0.13361245343545181 -0.030305793086055629 0 -0.1236122261121546 -0.0078425818954372464 0 -0.1452248522035206 -0.0135074852317284 0 -0.13361245343545181 -0.030305793086055629 0 -0.13361245343545181 -0.030305793086055629 0 -0.14346563865851419 -0.05243870800993642 0 -0.1197314047957487 -0.044466417495601512 0 -0.13361245343545181 -0.030305793086055629 0 -0.1315211872564446 -0.050314657740016588 0 -0.13361245343545181 -0.030305793086055629 0 -0.1315211872564446 -0.050314657740016588 0 -0.14346563865851419 -0.05243870800993642 0 -0.12131955324210091 -0.059181462630683621 0 -0.1315211872564446 -0.050314657740016588 0 -0.13379805028672059 -0.060142641530726633 0 -0.1315211872564446 -0.050314657740016588 0 -0.1374712535911565 -0.055885807542241962 0 -0.14346563865851419 -0.05243870800993642 0 -0.1315211872564446 -0.050314657740016588 0 -0.1374712535911565 -0.055885807542241962 0 -0.13379805028672059 -0.060142641530726633 0 -0.1374712535911565 -0.055885807542241962 0 -0.13379805028672059 -0.060142641530726633 0 -0.1411001381629465 -0.060647222888288201 0 -0.1411001381629465 -0.060647222888288201 0 -0.14346563865851419 -0.05243870800993642 0 -0.15201326644433669 -0.053437077241884359 0 -0.1374712535911565 -0.055885807542241962 0 -0.1411001381629465 -0.060647222888288201 0 -0.14346563865851419 -0.05243870800993642 0 -0.14346563865851419 -0.05243870800993642 0 -0.15201326644433669 -0.053437077241884359 0 -0.1484749629479134 -0.038477035386196637 0 -0.15201326644433669 -0.053437077241884359 0 -0.1484749629479134 -0.038477035386196637 0 -0.16099128017419639 -0.03201601120559007 0 -0.13361245343545181 -0.030305793086055629 0 -0.14346563865851419 -0.05243870800993642 0 -0.1484749629479134 -0.038477035386196637 0 -0.15201326644433669 -0.053437077241884359 0 -0.16099128017419639 -0.03201601120559007 0 -0.15201326644433669 -0.053437077241884359 0 -0.16099128017419639 -0.03201601120559007 0 -0.16622336588392531 -0.046665464390732471 0 -0.16099128017419639 -0.03201601120559007 0 -0.17705927752236811 -0.038294319471390781 0 -0.1772337338696203 -0.023645926918309929 0 -0.16099128017419639 -0.03201601120559007 0 -0.16622336588392531 -0.046665464390732471 0 -0.17705927752236811 -0.038294319471390781 0 -0.15646239569026699 -0.065906604111614212 0 -0.15201326644433669 -0.053437077241884359 0 -0.16458020880549121 -0.059492387506912943 0 -0.15201326644433669 -0.053437077241884359 0 -0.16622336588392531 -0.046665464390732471 0 -0.16458020880549121 -0.059492387506912943 0 -0.16622336588392531 -0.046665464390732471 0 -0.16458020880549121 -0.059492387506912943 0 -0.17631201976625371 -0.05102922044790497 0 -0.17672291357829811 -0.064990721505459842 0 -0.16458020880549121 -0.059492387506912943 0 -0.17631201976625371 -0.05102922044790497 0 -0.17631201976625371 -0.05102922044790497 0 -0.18709502764393729 -0.061773717592220383 0 -0.18868425509965489 -0.047684834797198213 0 -0.17672291357829811 -0.064990721505459842 0 -0.17631201976625371 -0.05102922044790497 0 -0.18709502764393729 -0.061773717592220383 0 -0.16622336588392531 -0.046665464390732471 0 -0.17631201976625371 -0.05102922044790497 0 -0.17705927752236811 -0.038294319471390781 0 -0.17631201976625371 -0.05102922044790497 0 -0.17705927752236811 -0.038294319471390781 0 -0.18868425509965489 -0.047684834797198213 0 -0.17705927752236811 -0.038294319471390781 0 -0.18868425509965489 -0.047684834797198213 0 -0.19198493650835269 -0.034148616047928453 0 -0.17705927752236811 -0.038294319471390781 0 -0.1772337338696203 -0.023645926918309929 0 -0.19198493650835269 -0.034148616047928453 0 -0.1772337338696203 -0.023645926918309929 0 -0.18418091461086311 -0.0067458590849352237 0 -0.19781487964127609 -0.018046172764705552 0 -0.16099128017419639 -0.03201601120559007 0 -0.1772337338696203 -0.023645926918309929 0 -0.1660829110182864 -0.0110115892886907 0 -0.1452248522035206 -0.0135074852317284 0 -0.16099128017419639 -0.03201601120559007 0 -0.1660829110182864 -0.0110115892886907 0 -0.1660829110182864 -0.0110115892886907 0 -0.1564869492866878 -0.00059129627401754796 0 -0.17208342559322409 0.0058404778805985873 0 -0.1660829110182864 -0.0110115892886907 0 -0.18418091461086311 -0.0067458590849352237 0 -0.17208342559322409 0.0058404778805985873 0 -0.1772337338696203 -0.023645926918309929 0 -0.1660829110182864 -0.0110115892886907 0 -0.18418091461086311 -0.0067458590849352237 0 -0.18418091461086311 -0.0067458590849352237 0 -0.2008908429601583 -0.001101000049535744 0 -0.19781487964127609 -0.018046172764705552 0 -0.19781487964127609 -0.018046172764705552 0 -0.19198493650835269 -0.034148616047928453 0 -0.21155103461974961 -0.032223677091432062 0 -0.1772337338696203 -0.023645926918309929 0 -0.19781487964127609 -0.018046172764705552 0 -0.19198493650835269 -0.034148616047928453 0 -0.19781487964127609 -0.018046172764705552 0 -0.21155103461974961 -0.032223677091432062 0 -0.21882158577424271 -0.0103131571922281 0 -0.2008908429601583 -0.001101000049535744 0 -0.19781487964127609 -0.018046172764705552 0 -0.21882158577424271 -0.0103131571922281 0 -0.18709502764393729 -0.061773717592220383 0 -0.18868425509965489 -0.047684834797198213 0 -0.20047874574939811 -0.054521575326106748 0 -0.18868425509965489 -0.047684834797198213 0 -0.20047874574939811 -0.054521575326106748 0 -0.19817474299428881 -0.04214467581566636 0 -0.19817474299428881 -0.04214467581566636 0 -0.19198493650835269 -0.034148616047928453 0 -0.21155103461974961 -0.032223677091432062 0 -0.18868425509965489 -0.047684834797198213 0 -0.19817474299428881 -0.04214467581566636 0 -0.19198493650835269 -0.034148616047928453 0 -0.20047874574939811 -0.054521575326106748 0 -0.21155103461974961 -0.032223677091432062 0 -0.20047874574939811 -0.054521575326106748 0 -0.19817474299428881 -0.04214467581566636 0 -0.21155103461974961 -0.032223677091432062 0 -0.21155103461974961 -0.032223677091432062 0 -0.21465014164525181 -0.057056120614390499 0 -0.22646728404806721 -0.036724874627428489 0 -0.20047874574939811 -0.054521575326106748 0 -0.21155103461974961 -0.032223677091432062 0 -0.21465014164525181 -0.057056120614390499 0 -0.21465014164525181 -0.057056120614390499 0 -0.2338744138803254 -0.062312468216533988 0 -0.22646728404806721 -0.036724874627428489 0 -0.2338744138803254 -0.062312468216533988 0 -0.22646728404806721 -0.036724874627428489 0 -0.21465014164525181 -0.057056120614390499 0 -0.22646728404806721 -0.036724874627428489 0 -0.22646728404806721 -0.036724874627428489 0 -0.2401414722927224 -0.032241302373577058 0 -0.24278742868549399 -0.046838078323859687 0 -0.2401414722927224 -0.032241302373577058 0 -0.25378175816230958 -0.02436733484642779 0 -0.25219715932032732 -0.038265850071314 0 -0.2401414722927224 -0.032241302373577058 0 -0.24278742868549399 -0.046838078323859687 0 -0.25219715932032732 -0.038265850071314 0 -0.2338744138803254 -0.062312468216533988 0 -0.22646728404806721 -0.036724874627428489 0 -0.24278742868549399 -0.046838078323859687 0 -0.24278742868549399 -0.046838078323859687 0 -0.2476323682116322 -0.061520987214930753 0 -0.25620744044593469 -0.049667056832747067 0 -0.2338744138803254 -0.062312468216533988 0 -0.24278742868549399 -0.046838078323859687 0 -0.2476323682116322 -0.061520987214930753 0 -0.21882158577424271 -0.0103131571922281 0 -0.2374946151573453 -0.01775248911154621 0 -0.23546354233931949 0.0078270751002715265 0 -0.22646728404806721 -0.036724874627428489 0 -0.2374946151573453 -0.01775248911154621 0 -0.21155103461974961 -0.032223677091432062 0 -0.22646728404806721 -0.036724874627428489 0 -0.21882158577424271 -0.0103131571922281 0 -0.22646728404806721 -0.036724874627428489 0 -0.21882158577424271 -0.0103131571922281 0 -0.22646728404806721 -0.036724874627428489 0 -0.21882158577424271 -0.0103131571922281 0 -0.2374946151573453 -0.01775248911154621 0 -0.2374946151573453 -0.01775248911154621 0 -0.25227296286688322 -0.0076793426536460041 0 -0.25378175816230958 -0.02436733484642779 0 -0.2401414722927224 -0.032241302373577058 0 -0.2374946151573453 -0.01775248911154621 0 -0.25378175816230958 -0.02436733484642779 0 -0.22646728404806721 -0.036724874627428489 0 -0.2401414722927224 -0.032241302373577058 0 -0.2374946151573453 -0.01775248911154621 0 -0.2374946151573453 -0.01775248911154621 0 -0.25227296286688322 -0.0076793426536460041 0 -0.23546354233931949 0.0078270751002715265 0 -0.25227296286688322 -0.0076793426536460041 0 -0.27504786807920711 -0.016522946018952021 0 -0.26249405175029211 0.007662734938978108 0 -0.25227296286688322 -0.0076793426536460041 0 -0.25378175816230958 -0.02436733484642779 0 -0.27504786807920711 -0.016522946018952021 0 -0.25378175816230958 -0.02436733484642779 0 -0.27504786807920711 -0.016522946018952021 0 -0.26471526887818231 -0.03538659961621915 0 -0.27504786807920711 -0.016522946018952021 0 -0.27907013255445939 -0.03491531901183742 0 -0.26471526887818231 -0.03538659961621915 0 -0.27504786807920711 -0.016522946018952021 0 -0.26249405175029211 0.007662734938978108 0 -0.29088909275279012 0.0052797473078289572 0 -0.27504786807920711 -0.016522946018952021 0 -0.29710775469227729 -0.014596668466157351 0 -0.29088909275279012 0.0052797473078289572 0 -0.27504786807920711 -0.016522946018952021 0 -0.29121836233921761 -0.027938763998333869 0 -0.27907013255445939 -0.03491531901183742 0 -0.27504786807920711 -0.016522946018952021 0 -0.29121836233921761 -0.027938763998333869 0 -0.29710775469227729 -0.014596668466157351 0 -0.29710775469227729 -0.014596668466157351 0 -0.31759413704845219 -0.011310857140017521 0 -0.31311363369768291 -0.03310849193739672 0 -0.29121836233921761 -0.027938763998333869 0 -0.29710775469227729 -0.014596668466157351 0 -0.31311363369768291 -0.03310849193739672 0 -0.29710775469227729 -0.014596668466157351 0 -0.30518798685158838 -0.0020929360932298849 0 -0.29088909275279012 0.0052797473078289572 0 -0.29710775469227729 -0.014596668466157351 0 -0.30518798685158838 -0.0020929360932298849 0 -0.31759413704845219 -0.011310857140017521 0 -0.3114594072847322 -0.049306726894047262 0 -0.29175242267246138 -0.04055039455732605 0 -0.29253753360804391 -0.057483018047446738 0 -0.3114594072847322 -0.049306726894047262 0 -0.29253753360804391 -0.057483018047446738 0 -0.30696176126270219 -0.065158696513015008 0 -0.3114594072847322 -0.049306726894047262 0 -0.29175242267246138 -0.04055039455732605 0 -0.31311363369768291 -0.03310849193739672 0 -0.29175242267246138 -0.04055039455732605 0 -0.31311363369768291 -0.03310849193739672 0 -0.3114594072847322 -0.049306726894047262 0 -0.29175242267246138 -0.04055039455732605 0 -0.29121836233921761 -0.027938763998333869 0 -0.29175242267246138 -0.04055039455732605 0 -0.31311363369768291 -0.03310849193739672 0 -0.29175242267246138 -0.04055039455732605 0 -0.27907013255445939 -0.03491531901183742 0 -0.29121836233921761 -0.027938763998333869 0 -0.29175242267246138 -0.04055039455732605 0 -0.27907013255445939 -0.03491531901183742 0 -0.29175242267246138 -0.04055039455732605 0 -0.29253753360804391 -0.057483018047446738 0 -0.27994708571901822 -0.057980160189140359 0 -0.27994708571901822 -0.057980160189140359 0 -0.26824156593179532 -0.048741199197032549 0 -0.26874039246249382 -0.069271675174266092 0 -0.29175242267246138 -0.04055039455732605 0 -0.27994708571901822 -0.057980160189140359 0 -0.26824156593179532 -0.048741199197032549 0 -0.29175242267246138 -0.04055039455732605 0 -0.26824156593179532 -0.048741199197032549 0 -0.27907013255445939 -0.03491531901183742 0 -0.29175242267246138 -0.04055039455732605 0 -0.26824156593179532 -0.048741199197032549 0 -0.26824156593179532 -0.048741199197032549 0 -0.27907013255445939 -0.03491531901183742 0 -0.26471526887818231 -0.03538659961621915 0 -0.26824156593179532 -0.048741199197032549 0 -0.26471526887818231 -0.03538659961621915 0 -0.25620744044593469 -0.049667056832747067 0 -0.24278742868549399 -0.046838078323859687 0 -0.25219715932032732 -0.038265850071314 0 -0.25620744044593469 -0.049667056832747067 0 -0.26471526887818231 -0.03538659961621915 0 -0.25219715932032732 -0.038265850071314 0 -0.25620744044593469 -0.049667056832747067 0 -0.25378175816230958 -0.02436733484642779 0 -0.26471526887818231 -0.03538659961621915 0 -0.25219715932032732 -0.038265850071314 0 -0.26824156593179532 -0.048741199197032549 0 -0.25818533518880471 -0.062204128102381351 0 -0.26874039246249382 -0.069271675174266092 0 -0.26824156593179532 -0.048741199197032549 0 -0.25818533518880471 -0.062204128102381351 0 -0.25620744044593469 -0.049667056832747067 0 -0.2476323682116322 -0.061520987214930753 0 -0.25818533518880471 -0.062204128102381351 0 -0.25620744044593469 -0.049667056832747067 0 -0.2476323682116322 -0.061520987214930753 0 -0.25818533518880471 -0.062204128102381351 0 -0.2529882333064245 -0.070973901803662365 0 -0.25818533518880471 -0.062204128102381351 0 -0.25865454608389071 -0.0715458776642144 0 -0.2529882333064245 -0.070973901803662365 0 -0.25818533518880471 -0.062204128102381351 0 -0.25865454608389071 -0.0715458776642144 0 -0.26874039246249382 -0.069271675174266092 0 -0.25865454608389071 -0.0715458776642144 0 -0.25855249999409979 -0.079349971077516485 0 -0.26874039246249382 -0.069271675174266092 0 -0.24682403554985069 -0.077092069586417622 0 -0.25425482873356642 -0.074740455032952721 0 -0.25855249999409979 -0.079349971077516485 0 -0.25865454608389071 -0.0715458776642144 0 -0.25425482873356642 -0.074740455032952721 0 -0.25855249999409979 -0.079349971077516485 0 -0.25865454608389071 -0.0715458776642144 0 -0.25425482873356642 -0.074740455032952721 0 -0.2529882333064245 -0.070973901803662365 0 -0.24682403554985069 -0.077092069586417622 0 -0.25425482873356642 -0.074740455032952721 0 -0.2529882333064245 -0.070973901803662365 0 -0.2404192924220224 -0.087961553919881613 0 -0.25356789490128989 -0.088072195653340249 0 -0.26220824858947278 -0.082039970883894989 0 -0.2404192924220224 -0.087961553919881613 0 -0.26220824858947278 -0.082039970883894989 0 -0.2404192924220224 -0.087961553919881613 0 -0.26220824858947278 -0.082039970883894989 0 -0.25855249999409979 -0.079349971077516485 0 -0.25356789490128989 -0.088072195653340249 0 -0.25144169010332901 -0.091633326375329338 0 -0.26020234849033591 -0.090653931434255125 0 -0.25144169010332901 -0.091633326375329338 0 -0.26020234849033591 -0.090653931434255125 0 -0.2525882024947626 -0.098821099717938107 0 -0.26020234849033591 -0.090653931434255125 0 -0.26220824858947278 -0.082039970883894989 0 -0.26803774644364831 -0.088990216861234941 0 -0.26020234849033591 -0.090653931434255125 0 -0.26803774644364831 -0.088990216861234941 0 -0.26237563885443332 -0.099092169843888092 0 -0.25356789490128989 -0.088072195653340249 0 -0.26020234849033591 -0.090653931434255125 0 -0.26220824858947278 -0.082039970883894989 0 -0.26220824858947278 -0.082039970883894989 0 -0.25855249999409979 -0.079349971077516485 0 -0.27123440961567508 -0.082288547260032208 0 -0.27123440961567508 -0.082288547260032208 0 -0.26803774644364831 -0.088990216861234941 0 -0.28416808666832472 -0.090876464884104322 0 -0.26220824858947278 -0.082039970883894989 0 -0.27123440961567508 -0.082288547260032208 0 -0.26803774644364831 -0.088990216861234941 0 -0.27123440961567508 -0.082288547260032208 0 -0.28275713062840102 -0.072254333795265746 0 -0.28416808666832472 -0.090876464884104322 0 -0.26803774644364831 -0.088990216861234941 0 -0.26237563885443332 -0.099092169843888092 0 -0.28416808666832472 -0.090876464884104322 0 -0.25855249999409979 -0.079349971077516485 0 -0.28275713062840102 -0.072254333795265746 0 -0.25855249999409979 -0.079349971077516485 0 -0.26874039246249382 -0.069271675174266092 0 -0.28275713062840102 -0.072254333795265746 0 -0.25855249999409979 -0.079349971077516485 0 -0.27123440961567508 -0.082288547260032208 0 -0.28275713062840102 -0.072254333795265746 0 -0.27994708571901822 -0.057980160189140359 0 -0.26874039246249382 -0.069271675174266092 0 -0.28275713062840102 -0.072254333795265746 0 -0.2478381125959237 -0.13014188093155071 0 -0.26471173226585809 -0.1241277151614352 0 -0.25439292330372432 -0.11161035632906929 0 -0.26471173226585809 -0.1241277151614352 0 -0.25439292330372432 -0.11161035632906929 0 -0.26925149092450551 -0.1104881183943958 0 -0.25439292330372432 -0.11161035632906929 0 -0.26237563885443332 -0.099092169843888092 0 -0.26925149092450551 -0.1104881183943958 0 -0.25439292330372432 -0.11161035632906929 0 -0.2525882024947626 -0.098821099717938107 0 -0.26237563885443332 -0.099092169843888092 0 -0.2438502060585381 -0.1028583717612334 0 -0.25439292330372432 -0.11161035632906929 0 -0.2525882024947626 -0.098821099717938107 0 -0.26020234849033591 -0.090653931434255125 0 -0.2525882024947626 -0.098821099717938107 0 -0.26237563885443332 -0.099092169843888092 0 -0.26237563885443332 -0.099092169843888092 0 -0.26925149092450551 -0.1104881183943958 0 -0.28416808666832472 -0.090876464884104322 0 -0.26237563885443332 -0.099092169843888092 0 -0.28416808666832472 -0.090876464884104322 0 -0.26925149092450551 -0.1104881183943958 0 -0.28362018306611941 -0.1149768545032684 0 -0.28416808666832472 -0.090876464884104322 0 -0.26471173226585809 -0.1241277151614352 0 -0.26925149092450551 -0.1104881183943958 0 -0.28362018306611941 -0.1149768545032684 0 -0.28362018306611941 -0.1149768545032684 0 -0.30012398023346848 -0.099943372585857088 0 -0.29756340944960558 -0.1135198660677226 0 -0.28362018306611941 -0.1149768545032684 0 -0.29756340944960558 -0.1135198660677226 0 -0.29768876878828382 -0.12804597213566191 0 -0.28362018306611941 -0.1149768545032684 0 -0.30012398023346848 -0.099943372585857088 0 -0.28416808666832472 -0.090876464884104322 0 -0.30012398023346848 -0.099943372585857088 0 -0.30783691459248808 -0.106447779092323 0 -0.31567959952596442 -0.097557764174788134 0 -0.30012398023346848 -0.099943372585857088 0 -0.30783691459248808 -0.106447779092323 0 -0.29756340944960558 -0.1135198660677226 0 -0.31981531178534578 -0.1159443424066684 0 -0.31168640084693722 -0.1309238984722621 0 -0.29768876878828382 -0.12804597213566191 0 -0.31097561465500489 -0.1146061177684144 0 -0.31981531178534578 -0.1159443424066684 0 -0.29768876878828382 -0.12804597213566191 0 -0.31981531178534578 -0.1159443424066684 0 -0.29768876878828382 -0.12804597213566191 0 -0.30783691459248808 -0.106447779092323 0 -0.29756340944960558 -0.1135198660677226 0 -0.31097561465500489 -0.1146061177684144 0 -0.30783691459248808 -0.106447779092323 0 -0.31097561465500489 -0.1146061177684144 0 -0.31588048179209449 -0.1075745667651056 0 -0.29756340944960558 -0.1135198660677226 0 -0.31097561465500489 -0.1146061177684144 0 -0.29768876878828382 -0.12804597213566191 0 -0.29253753360804391 -0.057483018047446738 0 -0.28275713062840102 -0.072254333795265746 0 -0.30696176126270219 -0.065158696513015008 0 -0.28275713062840102 -0.072254333795265746 0 -0.30696176126270219 -0.065158696513015008 0 -0.29253753360804391 -0.057483018047446738 0 -0.27994708571901822 -0.057980160189140359 0 -0.28275713062840102 -0.072254333795265746 0 -0.28275713062840102 -0.072254333795265746 0 -0.28416808666832472 -0.090876464884104322 0 -0.30596053448221622 -0.082660759924320565 0 -0.30012398023346848 -0.099943372585857088 0 -0.28416808666832472 -0.090876464884104322 0 -0.30596053448221622 -0.082660759924320565 0 -0.28416808666832472 -0.090876464884104322 0 -0.30596053448221622 -0.082660759924320565 0 -0.30012398023346848 -0.099943372585857088 0 -0.30596053448221622 -0.082660759924320565 0 -0.31567959952596442 -0.097557764174788134 0 -0.28275713062840102 -0.072254333795265746 0 -0.30596053448221622 -0.082660759924320565 0 -0.30696176126270219 -0.065158696513015008 0 -0.30696176126270219 -0.065158696513015008 0 -0.32775298229610761 -0.074445054964536822 0 -0.33116639189700398 -0.058063059230765962 0 -0.30596053448221622 -0.082660759924320565 0 -0.30696176126270219 -0.065158696513015008 0 -0.32775298229610761 -0.074445054964536822 0 -0.30596053448221622 -0.082660759924320565 0 -0.32775298229610761 -0.074445054964536822 0 -0.30596053448221622 -0.082660759924320565 0 -0.32775298229610761 -0.074445054964536822 0 -0.32362127966136711 -0.087321124884110049 0 -0.30596053448221622 -0.082660759924320565 0 -0.32362127966136711 -0.087321124884110049 0 -0.31567959952596442 -0.097557764174788134 0 -0.32362127966136711 -0.087321124884110049 0 -0.31567959952596442 -0.097557764174788134 0 -0.33099901797333198 -0.096034161481027461 0 -0.32775298229610761 -0.074445054964536822 0 -0.32362127966136711 -0.087321124884110049 0 -0.33771426402921512 -0.08590788387587725 0 -0.32775298229610761 -0.074445054964536822 0 -0.33771426402921512 -0.08590788387587725 0 -0.3410929925936918 -0.075329856076351967 0 -0.32362127966136711 -0.087321124884110049 0 -0.33771426402921512 -0.08590788387587725 0 -0.33099901797333198 -0.096034161481027461 0 -0.33771426402921512 -0.08590788387587725 0 -0.34583111956259749 -0.098435285946989581 0 -0.34764631593145701 -0.084003956848892683 0 -0.33771426402921512 -0.08590788387587725 0 -0.33099901797333198 -0.096034161481027461 0 -0.34583111956259749 -0.098435285946989581 0 -0.33771426402921512 -0.08590788387587725 0 -0.3410929925936918 -0.075329856076351967 0 -0.34764631593145701 -0.084003956848892683 0 -0.32775298229610761 -0.074445054964536822 0 -0.34954543010999922 -0.066229350004753773 0 -0.32775298229610761 -0.074445054964536822 0 -0.34954543010999922 -0.066229350004753773 0 -0.33116639189700398 -0.058063059230765962 0 -0.32775298229610761 -0.074445054964536822 0 -0.3410929925936918 -0.075329856076351967 0 -0.34954543010999922 -0.066229350004753773 0 -0.31981531178534578 -0.1159443424066684 0 -0.33811662782018509 -0.1187149432167614 0 -0.32501708124079648 -0.13103464252731351 0 -0.31097561465500489 -0.1146061177684144 0 -0.31981531178534578 -0.1159443424066684 0 -0.31588048179209449 -0.1075745667651056 0 -0.31097561465500489 -0.1146061177684144 0 -0.31981531178534578 -0.1159443424066684 0 -0.31981531178534578 -0.1159443424066684 0 -0.32413251233690038 -0.10459203082738 0 -0.33754729440195652 -0.1062462215562652 0 -0.31981531178534578 -0.1159443424066684 0 -0.32413251233690038 -0.10459203082738 0 -0.31588048179209449 -0.1075745667651056 0 -0.32413251233690038 -0.10459203082738 0 -0.31588048179209449 -0.1075745667651056 0 -0.31567959952596442 -0.097557764174788134 0 -0.30783691459248808 -0.106447779092323 0 -0.31588048179209449 -0.1075745667651056 0 -0.31567959952596442 -0.097557764174788134 0 -0.32413251233690038 -0.10459203082738 0 -0.31567959952596442 -0.097557764174788134 0 -0.33099901797333198 -0.096034161481027461 0 -0.33754729440195652 -0.1062462215562652 0 -0.33811662782018509 -0.1187149432167614 0 -0.34583111956259749 -0.098435285946989581 0 -0.33099901797333198 -0.096034161481027461 0 -0.33754729440195652 -0.1062462215562652 0 -0.34583111956259749 -0.098435285946989581 0 -0.32413251233690038 -0.10459203082738 0 -0.33099901797333198 -0.096034161481027461 0 -0.33754729440195652 -0.1062462215562652 0 -0.31981531178534578 -0.1159443424066684 0 -0.33754729440195652 -0.1062462215562652 0 -0.31981531178534578 -0.1159443424066684 0 -0.33754729440195652 -0.1062462215562652 0 -0.33811662782018509 -0.1187149432167614 0 -0.31981531178534578 -0.1159443424066684 0 -0.33811662782018509 -0.1187149432167614 0 -0.33811662782018509 -0.1187149432167614 0 -0.32501708124079648 -0.13103464252731351 0 -0.33811662782018509 -0.1187149432167614 0 -0.35957868311145441 -0.098530575294378642 0 -0.36560935282136869 -0.1228770136391782 0 -0.33811662782018509 -0.1187149432167614 0 -0.36560935282136869 -0.1228770136391782 0 -0.33811662782018509 -0.1187149432167614 0 -0.35957868311145441 -0.098530575294378642 0 -0.33811662782018509 -0.1187149432167614 0 -0.34583111956259749 -0.098435285946989581 0 -0.35957868311145441 -0.098530575294378642 0 -0.37338072534044958 -0.1015395423542827 0 -0.35957868311145441 -0.098530575294378642 0 -0.36560935282136869 -0.1228770136391782 0 -0.37338072534044958 -0.1015395423542827 0 -0.35957868311145441 -0.098530575294378642 0 -0.3750868287242039 -0.083945666598845156 0 -0.35957868311145441 -0.098530575294378642 0 -0.36560935282136869 -0.1228770136391782 0 -0.37338072534044958 -0.1015395423542827 0 -0.36560935282136869 -0.1228770136391782 0 -0.38088751658449588 -0.11177605152490321 0 -0.35337645997328532 -0.073491557988243944 0 -0.34954543010999922 -0.066229350004753773 0 -0.36110028685175177 -0.071363477205066639 0 -0.34954543010999922 -0.066229350004753773 0 -0.36113753062154968 -0.061859153573384271 0 -0.35391811348297447 -0.060268720819388867 0 -0.34954543010999922 -0.066229350004753773 0 -0.36113753062154968 -0.061859153573384271 0 -0.34954543010999922 -0.066229350004753773 0 -0.36110028685175177 -0.071363477205066639 0 -0.36113753062154968 -0.061859153573384271 0 -0.34954543010999922 -0.066229350004753773 0 -0.36110028685175177 -0.071363477205066639 0 -0.3410929925936918 -0.075329856076351967 0 -0.34954543010999922 -0.066229350004753773 0 -0.34762887643352081 -0.074048264607039227 0 -0.3410929925936918 -0.075329856076351967 0 -0.34762887643352081 -0.074048264607039227 0 -0.34764631593145701 -0.084003956848892683 0 -0.35337645997328532 -0.073491557988243944 0 -0.34762887643352081 -0.074048264607039227 0 -0.34764631593145701 -0.084003956848892683 0 -0.35337645997328532 -0.073491557988243944 0 -0.34954543010999922 -0.066229350004753773 0 -0.34762887643352081 -0.074048264607039227 0 -0.35957868311145441 -0.098530575294378642 0 -0.35337645997328532 -0.073491557988243944 0 -0.34764631593145701 -0.084003956848892683 0 -0.35957868311145441 -0.098530575294378642 0 -0.35337645997328532 -0.073491557988243944 0 -0.34583111956259749 -0.098435285946989581 0 -0.35957868311145441 -0.098530575294378642 0 -0.34764631593145701 -0.084003956848892683 0 -0.35957868311145441 -0.098530575294378642 0 -0.36565466293458038 -0.077117114018749447 0 -0.3750868287242039 -0.083945666598845156 0 -0.35957868311145441 -0.098530575294378642 0 -0.35337645997328532 -0.073491557988243944 0 -0.36565466293458038 -0.077117114018749447 0 -0.35957868311145441 -0.098530575294378642 0 -0.3750868287242039 -0.083945666598845156 0 -0.36565466293458038 -0.077117114018749447 0 -0.37683012181080239 -0.068733301298065499 0 -0.3750868287242039 -0.083945666598845156 0 -0.36565466293458038 -0.077117114018749447 0 -0.36795559713598469 -0.066638105727896774 0 -0.37683012181080239 -0.068733301298065499 0 -0.36565466293458038 -0.077117114018749447 0 -0.36110028685175177 -0.071363477205066639 0 -0.36795559713598469 -0.066638105727896774 0 -0.35337645997328532 -0.073491557988243944 0 -0.36565466293458038 -0.077117114018749447 0 -0.36110028685175177 -0.071363477205066639 0 -0.36110028685175177 -0.071363477205066639 0 -0.36795559713598469 -0.066638105727896774 0 -0.36113753062154968 -0.061859153573384271 0 -0.36795559713598469 -0.066638105727896774 0 -0.37470589733927712 -0.0545527271000322 0 -0.37683012181080239 -0.068733301298065499 0 -0.35650250053147359 -0.050635726844241939 0 -0.37707154236451451 -0.044605869900925722 0 -0.37470589733927712 -0.0545527271000322 0 -0.35650250053147359 -0.050635726844241939 0 -0.36795559713598469 -0.066638105727896774 0 -0.37470589733927712 -0.0545527271000322 0 -0.36113753062154968 -0.061859153573384271 0 -0.37470589733927712 -0.0545527271000322 0 -0.35650250053147359 -0.050635726844241939 0 -0.37707154236451451 -0.044605869900925722 0 -0.37470589733927712 -0.0545527271000322 0 -0.35970252298352262 -0.056514655867325403 0 -0.35650250053147359 -0.050635726844241939 0 -0.37470589733927712 -0.0545527271000322 0 -0.35970252298352262 -0.056514655867325403 0 -0.36113753062154968 -0.061859153573384271 0 -0.35391811348297447 -0.060268720819388867 0 -0.35527395769833642 -0.05300159300784036 0 -0.33116639189700398 -0.058063059230765962 0 -0.35527395769833642 -0.05300159300784036 0 -0.35507992259877907 -0.051052758492802497 0 -0.33116639189700398 -0.058063059230765962 0 -0.34954543010999922 -0.066229350004753773 0 -0.35391811348297447 -0.060268720819388867 0 -0.33116639189700398 -0.058063059230765962 0 -0.35970252298352262 -0.056514655867325403 0 -0.36113753062154968 -0.061859153573384271 0 -0.35391811348297447 -0.060268720819388867 0 -0.35970252298352262 -0.056514655867325403 0 -0.35391811348297447 -0.060268720819388867 0 -0.35527395769833642 -0.05300159300784036 0 -0.35650250053147359 -0.050635726844241939 0 -0.35507992259877907 -0.051052758492802497 0 -0.3484308880043866 -0.044087332347355908 0 -0.35970252298352262 -0.056514655867325403 0 -0.35650250053147359 -0.050635726844241939 0 -0.35527395769833642 -0.05300159300784036 0 -0.35650250053147359 -0.050635726844241939 0 -0.35527395769833642 -0.05300159300784036 0 -0.35650250053147359 -0.050635726844241939 0 -0.35527395769833642 -0.05300159300784036 0 -0.35507992259877907 -0.051052758492802497 0 -0.35650250053147359 -0.050635726844241939 0 -0.35507992259877907 -0.051052758492802497 0 -0.35507992259877907 -0.051052758492802497 0 -0.33978397050626657 -0.048324977944356091 0 -0.35507992259877907 -0.051052758492802497 0 -0.3484308880043866 -0.044087332347355908 0 -0.33978397050626657 -0.048324977944356091 0 -0.35650250053147359 -0.050635726844241939 0 -0.3501214739100334 -0.034607419809747728 0 -0.3484308880043866 -0.044087332347355908 0 -0.35650250053147359 -0.050635726844241939 0 -0.3501214739100334 -0.034607419809747728 0 -0.36684988365240911 -0.03070925546092473 0 -0.3501214739100334 -0.034607419809747728 0 -0.3484308880043866 -0.044087332347355908 0 -0.33506880487583801 -0.038565334792038719 0 -0.35650250053147359 -0.050635726844241939 0 -0.36684988365240911 -0.03070925546092473 0 -0.37707154236451451 -0.044605869900925722 0 -0.35650250053147359 -0.050635726844241939 0 -0.36684988365240911 -0.03070925546092473 0 -0.36684988365240911 -0.03070925546092473 0 -0.37719726677334758 -0.010782784077609161 0 -0.36684988365240911 -0.03070925546092473 0 -0.35583605574812599 -0.018224686697538489 0 -0.37719726677334758 -0.010782784077609161 0 -0.35583605574812599 -0.018224686697538489 0 -0.37719726677334758 -0.010782784077609161 0 -0.37145675818362223 0.001704133189072726 0 -0.35583605574812599 -0.018224686697538489 0 -0.37719726677334758 -0.010782784077609161 0 -0.35583605574812599 -0.018224686697538489 0 -0.35182631000740072 0.0068229147672093007 0 -0.37145675818362223 0.001704133189072726 0 -0.35583605574812599 -0.018224686697538489 0 -0.33449922093445961 -0.0040818700918973123 0 -0.35182631000740072 0.0068229147672093007 0 -0.3501214739100334 -0.034607419809747728 0 -0.35583605574812599 -0.018224686697538489 0 -0.33447484472290451 -0.025666589317467611 0 -0.3501214739100334 -0.034607419809747728 0 -0.36684988365240911 -0.03070925546092473 0 -0.35583605574812599 -0.018224686697538489 0 -0.35583605574812599 -0.018224686697538489 0 -0.33447484472290451 -0.025666589317467611 0 -0.35583605574812599 -0.018224686697538489 0 -0.33447484472290451 -0.025666589317467611 0 -0.33449922093445961 -0.0040818700918973123 0 -0.33447484472290451 -0.025666589317467611 0 -0.33449922093445961 -0.0040818700918973123 0 -0.31759413704845219 -0.011310857140017521 0 -0.33449922093445961 -0.0040818700918973123 0 -0.31759413704845219 -0.011310857140017521 0 -0.32049615199215492 0.0045280339304297253 0 -0.30518798685158838 -0.0020929360932298849 0 -0.31759413704845219 -0.011310857140017521 0 -0.32049615199215492 0.0045280339304297253 0 -0.33447484472290451 -0.025666589317467611 0 -0.31759413704845219 -0.011310857140017521 0 -0.31311363369768291 -0.03310849193739672 0 -0.33447484472290451 -0.025666589317467611 0 -0.31311363369768291 -0.03310849193739672 0 -0.3114594072847322 -0.049306726894047262 0 -0.31311363369768291 -0.03310849193739672 0 -0.32448801841375452 -0.045597197395908257 0 -0.33447484472290451 -0.025666589317467611 0 -0.31311363369768291 -0.03310849193739672 0 -0.33506880487583801 -0.038565334792038719 0 -0.31311363369768291 -0.03310849193739672 0 -0.32448801841375452 -0.045597197395908257 0 -0.33506880487583801 -0.038565334792038719 0 -0.3114594072847322 -0.049306726894047262 0 -0.32448801841375452 -0.045597197395908257 0 -0.33116639189700398 -0.058063059230765962 0 -0.30696176126270219 -0.065158696513015008 0 -0.33116639189700398 -0.058063059230765962 0 -0.3114594072847322 -0.049306726894047262 0 -0.33116639189700398 -0.058063059230765962 0 -0.3114594072847322 -0.049306726894047262 0 -0.30696176126270219 -0.065158696513015008 0 -0.33116639189700398 -0.058063059230765962 0 -0.32448801841375452 -0.045597197395908257 0 -0.33116639189700398 -0.058063059230765962 0 -0.33978397050626657 -0.048324977944356091 0 -0.34954543010999922 -0.066229350004753773 0 -0.33116639189700398 -0.058063059230765962 0 -0.35507992259877907 -0.051052758492802497 0 -0.33116639189700398 -0.058063059230765962 0 -0.33978397050626657 -0.048324977944356091 0 -0.35507992259877907 -0.051052758492802497 0 -0.33116639189700398 -0.058063059230765962 0 -0.32448801841375452 -0.045597197395908257 0 -0.33978397050626657 -0.048324977944356091 0 -0.3501214739100334 -0.034607419809747728 0 -0.33447484472290451 -0.025666589317467611 0 -0.33506880487583801 -0.038565334792038719 0 -0.3484308880043866 -0.044087332347355908 0 -0.33978397050626657 -0.048324977944356091 0 -0.33506880487583801 -0.038565334792038719 0 -0.32448801841375452 -0.045597197395908257 0 -0.33978397050626657 -0.048324977944356091 0 -0.33506880487583801 -0.038565334792038719 0 -0.29859701231105729 -0.25301700882560368 0 -0.3071375446623259 -0.2335196387236223 0 -0.31421725341188372 -0.24977587129631751 0 -0.29859701231105729 -0.25301700882560368 0 -0.3071375446623259 -0.2335196387236223 0 -0.29138670340076089 -0.23873921836977791 0 -0.3071375446623259 -0.2335196387236223 0 -0.29268109579257923 -0.22411955864172181 0 -0.3060605016315725 -0.21226103782782971 0 -0.3071375446623259 -0.2335196387236223 0 -0.3060605016315725 -0.21226103782782971 0 -0.32042736925848198 -0.22641527486886631 0 -0.3071375446623259 -0.2335196387236223 0 -0.29268109579257923 -0.22411955864172181 0 -0.29138670340076089 -0.23873921836977791 0 -0.29268109579257923 -0.22411955864172181 0 -0.27778266513963018 -0.23141617934605249 0 -0.2809246376312578 -0.20830770343947971 0 -0.29268109579257923 -0.22411955864172181 0 -0.29138670340076089 -0.23873921836977791 0 -0.27778266513963018 -0.23141617934605249 0 -0.28073519909821221 -0.25162370631188929 0 -0.29138670340076089 -0.23873921836977791 0 -0.27778266513963018 -0.23141617934605249 0 -0.28073519909821221 -0.25162370631188929 0 -0.29859701231105729 -0.25301700882560368 0 -0.29138670340076089 -0.23873921836977791 0 -0.28073519909821221 -0.25162370631188929 0 -0.2582168116042447 -0.2439014490639565 0 -0.27778266513963018 -0.23141617934605249 0 -0.24510877540263959 -0.22548599802342939 0 -0.2582168116042447 -0.2439014490639565 0 -0.26321090898949828 -0.22136191750140799 0 -0.24510877540263959 -0.22548599802342939 0 -0.26321090898949828 -0.22136191750140799 0 -0.25247744799357308 -0.21261594090752481 0 -0.26321090898949828 -0.22136191750140799 0 -0.27778266513963018 -0.23141617934605249 0 -0.2809246376312578 -0.20830770343947971 0 -0.2582168116042447 -0.2439014490639565 0 -0.26321090898949828 -0.22136191750140799 0 -0.27778266513963018 -0.23141617934605249 0 -0.26321090898949828 -0.22136191750140799 0 -0.2809246376312578 -0.20830770343947971 0 -0.26409863293778341 -0.20573621058270139 0 -0.26321090898949828 -0.22136191750140799 0 -0.26409863293778341 -0.20573621058270139 0 -0.25247744799357308 -0.21261594090752481 0 -0.26409863293778341 -0.20573621058270139 0 -0.25247744799357308 -0.21261594090752481 0 -0.25047429362874257 -0.200219847641955 0 -0.26409863293778341 -0.20573621058270139 0 -0.25047429362874257 -0.200219847641955 0 -0.26742375486930359 -0.1882108285553544 0 -0.25047429362874257 -0.200219847641955 0 -0.26742375486930359 -0.1882108285553544 0 -0.23968786498356659 -0.18400375912907671 0 -0.25047429362874257 -0.200219847641955 0 -0.26742375486930359 -0.1882108285553544 0 -0.2809246376312578 -0.20830770343947971 0 -0.26742375486930359 -0.1882108285553544 0 -0.29199909585561379 -0.19193849570898799 0 -0.26742375486930359 -0.1882108285553544 0 -0.29199909585561379 -0.19193849570898799 0 -0.2809246376312578 -0.20830770343947971 0 -0.26409863293778341 -0.20573621058270139 0 -0.26742375486930359 -0.1882108285553544 0 -0.2809246376312578 -0.20830770343947971 0 -0.3060605016315725 -0.21226103782782971 0 -0.2809246376312578 -0.20830770343947971 0 -0.29199909585561379 -0.19193849570898799 0 -0.3060605016315725 -0.21226103782782971 0 -0.29268109579257923 -0.22411955864172181 0 -0.2809246376312578 -0.20830770343947971 0 -0.3060605016315725 -0.21226103782782971 0 -0.29199909585561379 -0.19193849570898799 0 -0.3060605016315725 -0.21226103782782971 0 -0.3165744368419241 -0.19566616286262159 0 -0.29199909585561379 -0.19193849570898799 0 -0.3165744368419241 -0.19566616286262159 0 -0.29199909585561379 -0.19193849570898799 0 -0.29938476110462459 -0.18143496863655581 0 -0.3165744368419241 -0.19566616286262159 0 -0.29938476110462459 -0.18143496863655581 0 -0.31036357984341878 -0.17729064654437279 0 -0.3165744368419241 -0.19566616286262159 0 -0.29938476110462459 -0.18143496863655581 0 -0.30228981993539911 -0.17082195765291869 0 -0.28961274120160779 -0.1724895052286107 0 -0.29938476110462459 -0.18143496863655581 0 -0.31036357984341878 -0.17729064654437279 0 -0.30228981993539911 -0.17082195765291869 0 -0.31036357984341878 -0.17729064654437279 0 -0.31099079812705838 -0.16810657065420029 0 -0.30228981993539911 -0.17082195765291869 0 -0.31099079812705838 -0.16810657065420029 0 -0.31180172753391222 -0.15676818190186689 0 -0.30228981993539911 -0.17082195765291869 0 -0.31180172753391222 -0.15676818190186689 0 -0.28961274120160779 -0.1724895052286107 0 -0.31180172753391222 -0.15676818190186689 0 -0.28581520798017918 -0.16349252579439161 0 -0.31180172753391222 -0.15676818190186689 0 -0.28581520798017918 -0.16349252579439161 0 -0.30248732557626462 -0.14891872701938649 0 -0.31180172753391222 -0.15676818190186689 0 -0.30228981993539911 -0.17082195765291869 0 -0.28961274120160779 -0.1724895052286107 0 -0.31180172753391222 -0.15676818190186689 0 -0.28581520798017918 -0.16349252579439161 0 -0.28961274120160779 -0.1724895052286107 0 -0.28581520798017918 -0.16349252579439161 0 -0.28961274120160779 -0.1724895052286107 0 -0.27455339795200551 -0.17354596063111 0 -0.29199909585561379 -0.19193849570898799 0 -0.29938476110462459 -0.18143496863655581 0 -0.28961274120160779 -0.1724895052286107 0 -0.26742375486930359 -0.1882108285553544 0 -0.29199909585561379 -0.19193849570898799 0 -0.28961274120160779 -0.1724895052286107 0 -0.26742375486930359 -0.1882108285553544 0 -0.28961274120160779 -0.1724895052286107 0 -0.26742375486930359 -0.1882108285553544 0 -0.28961274120160779 -0.1724895052286107 0 -0.27455339795200551 -0.17354596063111 0 -0.26742375486930359 -0.1882108285553544 0 -0.27455339795200551 -0.17354596063111 0 -0.25982868842644607 -0.17021686968691641 0 -0.23968786498356659 -0.18400375912907671 0 -0.26742375486930359 -0.1882108285553544 0 -0.23968786498356659 -0.18400375912907671 0 -0.26742375486930359 -0.1882108285553544 0 -0.25982868842644607 -0.17021686968691641 0 -0.25982868842644607 -0.17021686968691641 0 -0.27013136078807137 -0.15645680560504849 0 -0.25343568279415951 -0.15224923159364789 0 -0.24566481473353391 -0.1652464025747532 0 -0.25982868842644607 -0.17021686968691641 0 -0.25343568279415951 -0.15224923159364789 0 -0.28581520798017918 -0.16349252579439161 0 -0.25982868842644607 -0.17021686968691641 0 -0.27013136078807137 -0.15645680560504849 0 -0.28581520798017918 -0.16349252579439161 0 -0.27455339795200551 -0.17354596063111 0 -0.25982868842644607 -0.17021686968691641 0 -0.28581520798017918 -0.16349252579439161 0 -0.27013136078807137 -0.15645680560504849 0 -0.281048741890911 -0.15139895950123519 0 -0.28581520798017918 -0.16349252579439161 0 -0.25982868842644607 -0.17021686968691641 0 -0.27013136078807137 -0.15645680560504849 0 -0.281048741890911 -0.15139895950123519 0 -0.27556222579122169 -0.14014760186465491 0 -0.27013136078807137 -0.15645680560504849 0 -0.25343568279415951 -0.15224923159364789 0 -0.27556222579122169 -0.14014760186465491 0 -0.25343568279415951 -0.15224923159364789 0 -0.26038693836179072 -0.13666660738782219 0 -0.27556222579122169 -0.14014760186465491 0 -0.25343568279415951 -0.15224923159364789 0 -0.27556222579122169 -0.14014760186465491 0 -0.2478381125959237 -0.13014188093155071 0 -0.26471173226585809 -0.1241277151614352 0 -0.26038693836179072 -0.13666660738782219 0 -0.2478381125959237 -0.13014188093155071 0 -0.25343568279415951 -0.15224923159364789 0 -0.26038693836179072 -0.13666660738782219 0 -0.26471173226585809 -0.1241277151614352 0 -0.28362018306611941 -0.1149768545032684 0 -0.27556222579122169 -0.14014760186465491 0 -0.26471173226585809 -0.1241277151614352 0 -0.26038693836179072 -0.13666660738782219 0 -0.27556222579122169 -0.14014760186465491 0 -0.27556222579122169 -0.14014760186465491 0 -0.29268617300417199 -0.1454989047408457 0 -0.29768876878828382 -0.12804597213566191 0 -0.28362018306611941 -0.1149768545032684 0 -0.27556222579122169 -0.14014760186465491 0 -0.29768876878828382 -0.12804597213566191 0 -0.27556222579122169 -0.14014760186465491 0 -0.29768876878828382 -0.12804597213566191 0 -0.28581520798017918 -0.16349252579439161 0 -0.29268617300417199 -0.1454989047408457 0 -0.30248732557626462 -0.14891872701938649 0 -0.28581520798017918 -0.16349252579439161 0 -0.281048741890911 -0.15139895950123519 0 -0.29268617300417199 -0.1454989047408457 0 -0.281048741890911 -0.15139895950123519 0 -0.27556222579122169 -0.14014760186465491 0 -0.29268617300417199 -0.1454989047408457 0 -0.29268617300417199 -0.1454989047408457 0 -0.30248732557626462 -0.14891872701938649 0 -0.30370630156068762 -0.1389224563049837 0 -0.31180172753391222 -0.15676818190186689 0 -0.30248732557626462 -0.14891872701938649 0 -0.31398283958777989 -0.14122477915676221 0 -0.30248732557626462 -0.14891872701938649 0 -0.30370630156068762 -0.1389224563049837 0 -0.31398283958777989 -0.14122477915676221 0 -0.29268617300417199 -0.1454989047408457 0 -0.29768876878828382 -0.12804597213566191 0 -0.30370630156068762 -0.1389224563049837 0 -0.31168640084693722 -0.1309238984722621 0 -0.30370630156068762 -0.1389224563049837 0 -0.31398283958777989 -0.14122477915676221 0 -0.31168640084693722 -0.1309238984722621 0 -0.29768876878828382 -0.12804597213566191 0 -0.30370630156068762 -0.1389224563049837 0 -0.32501708124079648 -0.13103464252731351 0 -0.31398283958777989 -0.14122477915676221 0 -0.32769326224381667 -0.1455087240973956 0 -0.31981531178534578 -0.1159443424066684 0 -0.31168640084693722 -0.1309238984722621 0 -0.32501708124079648 -0.13103464252731351 0 -0.31168640084693722 -0.1309238984722621 0 -0.32501708124079648 -0.13103464252731351 0 -0.31398283958777989 -0.14122477915676221 0 -0.31180172753391222 -0.15676818190186689 0 -0.32298463198440808 -0.15387446252221321 0 -0.32769326224381667 -0.1455087240973956 0 -0.31180172753391222 -0.15676818190186689 0 -0.32769326224381667 -0.1455087240973956 0 -0.31180172753391222 -0.15676818190186689 0 -0.31398283958777989 -0.14122477915676221 0 -0.32769326224381667 -0.1455087240973956 0 -0.31180172753391222 -0.15676818190186689 0 -0.32298463198440808 -0.15387446252221321 0 -0.32298463198440808 -0.15387446252221321 0 -0.33102430582003672 -0.15284086827415069 0 -0.32912678435276249 -0.16184097596254959 0 -0.32298463198440808 -0.15387446252221321 0 -0.32769326224381667 -0.1455087240973956 0 -0.33102430582003672 -0.15284086827415069 0 -0.32769326224381667 -0.1455087240973956 0 -0.33779330298695009 -0.14738175250870711 0 -0.34358479695372102 -0.13424926629292419 0 -0.32769326224381667 -0.1455087240973956 0 -0.33102430582003672 -0.15284086827415069 0 -0.33779330298695009 -0.14738175250870711 0 -0.33779330298695009 -0.14738175250870711 0 -0.34838845348846031 -0.14833884467229949 0 -0.33902784532518498 -0.15634369213364299 0 -0.33102430582003672 -0.15284086827415069 0 -0.33779330298695009 -0.14738175250870711 0 -0.33902784532518498 -0.15634369213364299 0 -0.33779330298695009 -0.14738175250870711 0 -0.34358479695372102 -0.13424926629292419 0 -0.34838845348846031 -0.14833884467229949 0 -0.32501708124079648 -0.13103464252731351 0 -0.32769326224381667 -0.1455087240973956 0 -0.34358479695372102 -0.13424926629292419 0 -0.33811662782018509 -0.1187149432167614 0 -0.32501708124079648 -0.13103464252731351 0 -0.34358479695372102 -0.13424926629292419 0 -0.32769326224381667 -0.1455087240973956 0 -0.34358479695372102 -0.13424926629292419 0 -0.33811662782018509 -0.1187149432167614 0 -0.36560935282136869 -0.1228770136391782 0 -0.34358479695372102 -0.13424926629292419 0 -0.36560935282136869 -0.1228770136391782 0 -0.34358479695372102 -0.13424926629292419 0 -0.35789225520722451 -0.13996819740399649 0 -0.36560935282136869 -0.1228770136391782 0 -0.37179133304014322 -0.14783430818272611 0 -0.38404989885292651 -0.1400792958384918 0 -0.36560935282136869 -0.1228770136391782 0 -0.37179133304014322 -0.14783430818272611 0 -0.36560935282136869 -0.1228770136391782 0 -0.35789225520722451 -0.13996819740399649 0 -0.37179133304014322 -0.14783430818272611 0 -0.35789225520722451 -0.13996819740399649 0 -0.37179133304014322 -0.14783430818272611 0 -0.35884313601860912 -0.15417852746750099 0 -0.35884313601860912 -0.15417852746750099 0 -0.34838845348846031 -0.14833884467229949 0 -0.34888414490412811 -0.1629439357986564 0 -0.35789225520722451 -0.13996819740399649 0 -0.35884313601860912 -0.15417852746750099 0 -0.34838845348846031 -0.14833884467229949 0 -0.34358479695372102 -0.13424926629292419 0 -0.35789225520722451 -0.13996819740399649 0 -0.34838845348846031 -0.14833884467229949 0 -0.34838845348846031 -0.14833884467229949 0 -0.34888414490412811 -0.1629439357986564 0 -0.33902784532518498 -0.15634369213364299 0 -0.34888414490412811 -0.1629439357986564 0 -0.34454825898434782 -0.17720191583282571 0 -0.33836769259919219 -0.1670464993373886 0 -0.34888414490412811 -0.1629439357986564 0 -0.35381843126239348 -0.1726746577785957 0 -0.34454825898434782 -0.17720191583282571 0 -0.34888414490412811 -0.1629439357986564 0 -0.36338268495294579 -0.16800377969191779 0 -0.35381843126239348 -0.1726746577785957 0 -0.35884313601860912 -0.15417852746750099 0 -0.34888414490412811 -0.1629439357986564 0 -0.36338268495294579 -0.16800377969191779 0 -0.37179133304014322 -0.14783430818272611 0 -0.37797331325891809 -0.17279160272627381 0 -0.37179133304014322 -0.14783430818272611 0 -0.35884313601860912 -0.15417852746750099 0 -0.36338268495294579 -0.16800377969191779 0 -0.37179133304014322 -0.14783430818272611 0 -0.36338268495294579 -0.16800377969191779 0 -0.37797331325891809 -0.17279160272627381 0 -0.36338268495294579 -0.16800377969191779 0 -0.37192204740575269 -0.18508240213403099 0 -0.3584586362081526 -0.18254899979098321 0 -0.36338268495294579 -0.16800377969191779 0 -0.37192204740575269 -0.18508240213403099 0 -0.37797331325891809 -0.17279160272627381 0 -0.36338268495294579 -0.16800377969191779 0 -0.3584586362081526 -0.18254899979098321 0 -0.35381843126239348 -0.1726746577785957 0 -0.3584586362081526 -0.18254899979098321 0 -0.35381843126239348 -0.1726746577785957 0 -0.34454825898434782 -0.17720191583282571 0 -0.3584586362081526 -0.18254899979098321 0 -0.34454825898434782 -0.17720191583282571 0 -0.34833703943659811 -0.1887712121410032 0 -0.34454825898434782 -0.17720191583282571 0 -0.33350934598544107 -0.1865060965460745 0 -0.34833703943659811 -0.1887712121410032 0 -0.33350934598544107 -0.1865060965460745 0 -0.33087698944707578 -0.17469400287398781 0 -0.32216648346267268 -0.18034048106893991 0 -0.34454825898434782 -0.17720191583282571 0 -0.33087698944707578 -0.17469400287398781 0 -0.33836769259919219 -0.1670464993373886 0 -0.34454825898434782 -0.17720191583282571 0 -0.33350934598544107 -0.1865060965460745 0 -0.33087698944707578 -0.17469400287398781 0 -0.34888414490412811 -0.1629439357986564 0 -0.33836769259919219 -0.1670464993373886 0 -0.33902784532518498 -0.15634369213364299 0 -0.33102430582003672 -0.15284086827415069 0 -0.33902784532518498 -0.15634369213364299 0 -0.32912678435276249 -0.16184097596254959 0 -0.33836769259919219 -0.1670464993373886 0 -0.33902784532518498 -0.15634369213364299 0 -0.32912678435276249 -0.16184097596254959 0 -0.33087698944707578 -0.17469400287398781 0 -0.33836769259919219 -0.1670464993373886 0 -0.32912678435276249 -0.16184097596254959 0 -0.33087698944707578 -0.17469400287398781 0 -0.32912678435276249 -0.16184097596254959 0 -0.31950806519550368 -0.16754549651764289 0 -0.32298463198440808 -0.15387446252221321 0 -0.32912678435276249 -0.16184097596254959 0 -0.31950806519550368 -0.16754549651764289 0 -0.31180172753391222 -0.15676818190186689 0 -0.32298463198440808 -0.15387446252221321 0 -0.31950806519550368 -0.16754549651764289 0 -0.31099079812705838 -0.16810657065420029 0 -0.31180172753391222 -0.15676818190186689 0 -0.31950806519550368 -0.16754549651764289 0 -0.31036357984341878 -0.17729064654437279 0 -0.31099079812705838 -0.16810657065420029 0 -0.31950806519550368 -0.16754549651764289 0 -0.31036357984341878 -0.17729064654437279 0 -0.31950806519550368 -0.16754549651764289 0 -0.32216648346267268 -0.18034048106893991 0 -0.31036357984341878 -0.17729064654437279 0 -0.32216648346267268 -0.18034048106893991 0 -0.3165744368419241 -0.19566616286262159 0 -0.33087698944707578 -0.17469400287398781 0 -0.31950806519550368 -0.16754549651764289 0 -0.32216648346267268 -0.18034048106893991 0 -0.33350934598544107 -0.1865060965460745 0 -0.32216648346267268 -0.18034048106893991 0 -0.3165744368419241 -0.19566616286262159 0 -0.3060605016315725 -0.21226103782782971 0 -0.33119636563188709 -0.2162143722161797 0 -0.32042736925848198 -0.22641527486886631 0 -0.3060605016315725 -0.21226103782782971 0 -0.33119636563188709 -0.2162143722161797 0 -0.3060605016315725 -0.21226103782782971 0 -0.3165744368419241 -0.19566616286262159 0 -0.33119636563188709 -0.2162143722161797 0 -0.33119636563188709 -0.2162143722161797 0 -0.34114977782823441 -0.19939383001625499 0 -0.35633222963220179 -0.22016770660452969 0 -0.3165744368419241 -0.19566616286262159 0 -0.33119636563188709 -0.2162143722161797 0 -0.34114977782823441 -0.19939383001625499 0 -0.3165744368419241 -0.19566616286262159 0 -0.34114977782823441 -0.19939383001625499 0 -0.33350934598544107 -0.1865060965460745 0 -0.3165744368419241 -0.19566616286262159 0 -0.34114977782823441 -0.19939383001625499 0 -0.33350934598544107 -0.1865060965460745 0 -0.34114977782823441 -0.19939383001625499 0 -0.34833703943659811 -0.1887712121410032 0 -0.34114977782823441 -0.19939383001625499 0 -0.36572511881454461 -0.20312149716988859 0 -0.34114977782823441 -0.19939383001625499 0 -0.34833703943659811 -0.1887712121410032 0 -0.36572511881454461 -0.20312149716988859 0 -0.3584586362081526 -0.18254899979098321 0 -0.34833703943659811 -0.1887712121410032 0 -0.36572511881454461 -0.20312149716988859 0 -0.37192204740575269 -0.18508240213403099 0 -0.3584586362081526 -0.18254899979098321 0 -0.36572511881454461 -0.20312149716988859 0 -0.37192204740575269 -0.18508240213403099 0 -0.36572511881454461 -0.20312149716988859 0 -0.37832751345100762 -0.19569708509895661 0 -0.36572511881454461 -0.20312149716988859 0 -0.35633222963220179 -0.22016770660452969 0 -0.37671868671049757 -0.21209106954761561 0 -0.33119636563188709 -0.2162143722161797 0 -0.35633222963220179 -0.22016770660452969 0 -0.34114977782823441 -0.19939383001625499 0 -0.36572511881454461 -0.20312149716988859 0 -0.35633222963220179 -0.22016770660452969 0 -0.34918985577357953 -0.22996643434813971 0 -0.35633222963220179 -0.22016770660452969 0 -0.3644368395520925 -0.23786219595255659 0 -0.33119636563188709 -0.2162143722161797 0 -0.34918985577357953 -0.22996643434813971 0 -0.35633222963220179 -0.22016770660452969 0 -0.35633222963220179 -0.22016770660452969 0 -0.38146809363251649 -0.22412104099287969 0 -0.35633222963220179 -0.22016770660452969 0 -0.37359243883566862 -0.23215909975287299 0 -0.3644368395520925 -0.23786219595255659 0 -0.35633222963220179 -0.22016770660452969 0 -0.37359243883566862 -0.23215909975287299 0 -0.38146809363251649 -0.22412104099287969 0 -0.35633222963220179 -0.22016770660452969 0 -0.38146809363251649 -0.22412104099287969 0 -0.37671868671049757 -0.21209106954761561 0 -0.36999160380854529 -0.25160890498862648 0 -0.3644368395520925 -0.23786219595255659 0 -0.37872015884544641 -0.2435614714605657 0 -0.37359243883566862 -0.23215909975287299 0 -0.3644368395520925 -0.23786219595255659 0 -0.37872015884544641 -0.2435614714605657 0 -0.36999160380854529 -0.25160890498862648 0 -0.3644368395520925 -0.23786219595255659 0 -0.35707845064694121 -0.24935767075674509 0 -0.34918985577357953 -0.22996643434813971 0 -0.3644368395520925 -0.23786219595255659 0 -0.35707845064694121 -0.24935767075674509 0 -0.34918985577357953 -0.22996643434813971 0 -0.35707845064694121 -0.24935767075674509 0 -0.34918985577357953 -0.22996643434813971 0 -0.35707845064694121 -0.24935767075674509 0 -0.34161545739809862 -0.2441761224370865 0 -0.32577683519746242 -0.25897579210934468 0 -0.34161545739809862 -0.2441761224370865 0 -0.32489287339017531 -0.23961736858555491 0 -0.34918985577357953 -0.22996643434813971 0 -0.34161545739809862 -0.2441761224370865 0 -0.33284956097644908 -0.23046395699114461 0 -0.34161545739809862 -0.2441761224370865 0 -0.33284956097644908 -0.23046395699114461 0 -0.32489287339017531 -0.23961736858555491 0 -0.33119636563188709 -0.2162143722161797 0 -0.34918985577357953 -0.22996643434813971 0 -0.33284956097644908 -0.23046395699114461 0 -0.33119636563188709 -0.2162143722161797 0 -0.33284956097644908 -0.23046395699114461 0 -0.32042736925848198 -0.22641527486886631 0 -0.3071375446623259 -0.2335196387236223 0 -0.32042736925848198 -0.22641527486886631 0 -0.32489287339017531 -0.23961736858555491 0 -0.33284956097644908 -0.23046395699114461 0 -0.32042736925848198 -0.22641527486886631 0 -0.32489287339017531 -0.23961736858555491 0 -0.3071375446623259 -0.2335196387236223 0 -0.31421725341188372 -0.24977587129631751 0 -0.32489287339017531 -0.23961736858555491 0 -0.32577683519746242 -0.25897579210934468 0 -0.31421725341188372 -0.24977587129631751 0 -0.32489287339017531 -0.23961736858555491 0 -0.429193077912078 -0.24092705066174019 0 -0.42560539866416353 -0.22692866047589191 0 -0.44336769959532257 -0.23972790925379969 0 -0.429193077912078 -0.24092705066174019 0 -0.42560539866416353 -0.22692866047589191 0 -0.41466813127082142 -0.24184035413310251 0 -0.42775875008346192 -0.25507980811954323 0 -0.429193077912078 -0.24092705066174019 0 -0.41466813127082142 -0.24184035413310251 0 -0.44165736388207272 -0.25360003737878889 0 -0.42775875008346192 -0.25507980811954323 0 -0.429193077912078 -0.24092705066174019 0 -0.42560539866416353 -0.22692866047589191 0 -0.43795718746300122 -0.2140778908121922 0 -0.44658841198271632 -0.22637890077404829 0 -0.42560539866416353 -0.22692866047589191 0 -0.41054768849444062 -0.2248275857939297 0 -0.41466813127082142 -0.24184035413310251 0 -0.42560539866416353 -0.22692866047589191 0 -0.41054768849444062 -0.2248275857939297 0 -0.41728712034711612 -0.21094258822191489 0 -0.42560539866416353 -0.22692866047589191 0 -0.41728712034711612 -0.21094258822191489 0 -0.41054768849444062 -0.2248275857939297 0 -0.41466813127082142 -0.24184035413310251 0 -0.39796822484346261 -0.23652916605093899 0 -0.40220594800304021 -0.25293233307518609 0 -0.39796822484346261 -0.23652916605093899 0 -0.39442967684708991 -0.25208667127465478 0 -0.39796822484346261 -0.23652916605093899 0 -0.38700487251608578 -0.2350830837538336 0 -0.40220594800304021 -0.25293233307518609 0 -0.41466813127082142 -0.24184035413310251 0 -0.39796822484346261 -0.23652916605093899 0 -0.39442967684708991 -0.25208667127465478 0 -0.38700487251608578 -0.2350830837538336 0 -0.37872015884544641 -0.2435614714605657 0 -0.37359243883566862 -0.23215909975287299 0 -0.38700487251608578 -0.2350830837538336 0 -0.37872015884544641 -0.2435614714605657 0 -0.37359243883566862 -0.23215909975287299 0 -0.38700487251608578 -0.2350830837538336 0 -0.38146809363251649 -0.22412104099287969 0 -0.38700487251608578 -0.2350830837538336 0 -0.38146809363251649 -0.22412104099287969 0 -0.39413434232215888 -0.2216891651872302 0 -0.38146809363251649 -0.22412104099287969 0 -0.39413434232215888 -0.2216891651872302 0 -0.38565539561650702 -0.2161876100128117 0 -0.41054768849444062 -0.2248275857939297 0 -0.39796822484346261 -0.23652916605093899 0 -0.39720956734663881 -0.20789716008779879 0 -0.39796822484346261 -0.23652916605093899 0 -0.39413434232215888 -0.2216891651872302 0 -0.39720956734663881 -0.20789716008779879 0 -0.39796822484346261 -0.23652916605093899 0 -0.39720956734663881 -0.20789716008779879 0 -0.39796822484346261 -0.23652916605093899 0 -0.38700487251608578 -0.2350830837538336 0 -0.39413434232215888 -0.2216891651872302 0 -0.39796822484346261 -0.23652916605093899 0 -0.39413434232215888 -0.2216891651872302 0 -0.39720956734663881 -0.20789716008779879 0 -0.40277518483810348 -0.20053664405661509 0 -0.41728712034711612 -0.21094258822191489 0 -0.39720956734663881 -0.20789716008779879 0 -0.39030045980085482 -0.20684916432352149 0 -0.39413434232215888 -0.2216891651872302 0 -0.39720956734663881 -0.20789716008779879 0 -0.39030045980085482 -0.20684916432352149 0 -0.39413434232215888 -0.2216891651872302 0 -0.39030045980085482 -0.20684916432352149 0 -0.36572511881454461 -0.20312149716988859 0 -0.39030045980085482 -0.20684916432352149 0 -0.39413434232215888 -0.2216891651872302 0 -0.38565539561650702 -0.2161876100128117 0 -0.39030045980085482 -0.20684916432352149 0 -0.38565539561650702 -0.2161876100128117 0 -0.39030045980085482 -0.20684916432352149 0 -0.37671868671049757 -0.21209106954761561 0 -0.36572511881454461 -0.20312149716988859 0 -0.39030045980085482 -0.20684916432352149 0 -0.37671868671049757 -0.21209106954761561 0 -0.38146809363251649 -0.22412104099287969 0 -0.38565539561650702 -0.2161876100128117 0 -0.37671868671049757 -0.21209106954761561 0 -0.39030045980085482 -0.20684916432352149 0 -0.38536242778287788 -0.1877352767683855 0 -0.39030045980085482 -0.20684916432352149 0 -0.37832751345100762 -0.19569708509895661 0 -0.38536242778287788 -0.1877352767683855 0 -0.36572511881454461 -0.20312149716988859 0 -0.39030045980085482 -0.20684916432352149 0 -0.37832751345100762 -0.19569708509895661 0 -0.37192204740575269 -0.18508240213403099 0 -0.37832751345100762 -0.19569708509895661 0 -0.38536242778287788 -0.1877352767683855 0 -0.39030045980085482 -0.20684916432352149 0 -0.38536242778287788 -0.1877352767683855 0 -0.39682758983152833 -0.1934811917008569 0 -0.39720956734663881 -0.20789716008779879 0 -0.39682758983152833 -0.1934811917008569 0 -0.39720956734663881 -0.20789716008779879 0 -0.39030045980085482 -0.20684916432352149 0 -0.39682758983152833 -0.1934811917008569 0 -0.39720956734663881 -0.20789716008779879 0 -0.39682758983152833 -0.1934811917008569 0 -0.40277518483810348 -0.20053664405661509 0 -0.39682758983152833 -0.1934811917008569 0 -0.40277518483810348 -0.20053664405661509 0 -0.40786839632368732 -0.19284167875001809 0 -0.40786839632368732 -0.19284167875001809 0 -0.42071188954671479 -0.1977783538484196 0 -0.41728712034711612 -0.21094258822191489 0 -0.40277518483810348 -0.20053664405661509 0 -0.40786839632368732 -0.19284167875001809 0 -0.41728712034711612 -0.21094258822191489 0 -0.40786839632368732 -0.19284167875001809 0 -0.41728712034711612 -0.21094258822191489 0 -0.40786839632368732 -0.19284167875001809 0 -0.42071188954671479 -0.1977783538484196 0 -0.41781993309639348 -0.18473776223631169 0 -0.39720956734663881 -0.20789716008779879 0 -0.41728712034711612 -0.21094258822191489 0 -0.41054768849444062 -0.2248275857939297 0 -0.39720956734663881 -0.20789716008779879 0 -0.41728712034711612 -0.21094258822191489 0 -0.41728712034711612 -0.21094258822191489 0 -0.43042781253814327 -0.20309513998401429 0 -0.43795718746300122 -0.2140778908121922 0 -0.41728712034711612 -0.21094258822191489 0 -0.43795718746300122 -0.2140778908121922 0 -0.42071188954671479 -0.1977783538484196 0 -0.41728712034711612 -0.21094258822191489 0 -0.43042781253814327 -0.20309513998401429 0 -0.42560539866416353 -0.22692866047589191 0 -0.41728712034711612 -0.21094258822191489 0 -0.43795718746300122 -0.2140778908121922 0 -0.43042781253814327 -0.20309513998401429 0 -0.43110417706379089 -0.19272761716818959 0 -0.44507868827009389 -0.1999492498693555 0 -0.42071188954671479 -0.1977783538484196 0 -0.43110417706379089 -0.19272761716818959 0 -0.41781993309639348 -0.18473776223631169 0 -0.42071188954671479 -0.1977783538484196 0 -0.43042781253814327 -0.20309513998401429 0 -0.43110417706379089 -0.19272761716818959 0 -0.43179072736577528 -0.17970529711169 0 -0.42986163711504638 -0.16701354152048811 0 -0.41699473597813752 -0.17063285726143029 0 -0.43179072736577528 -0.17970529711169 0 -0.41699473597813752 -0.17063285726143029 0 -0.41781993309639348 -0.18473776223631169 0 -0.43110417706379089 -0.19272761716818959 0 -0.43179072736577528 -0.17970529711169 0 -0.41781993309639348 -0.18473776223631169 0 -0.43110417706379089 -0.19272761716818959 0 -0.43179072736577528 -0.17970529711169 0 -0.44559792516655838 -0.1851633886427331 0 -0.43179072736577528 -0.17970529711169 0 -0.42986163711504638 -0.16701354152048811 0 -0.44303700991658518 -0.17026832712875151 0 -0.42986163711504638 -0.16701354152048811 0 -0.43823455075000578 -0.15580669622701629 0 -0.44303700991658518 -0.17026832712875151 0 -0.42986163711504638 -0.16701354152048811 0 -0.41699473597813752 -0.17063285726143029 0 -0.41985581490816198 -0.154444998856094 0 -0.42986163711504638 -0.16701354152048811 0 -0.41985581490816198 -0.154444998856094 0 -0.43823455075000578 -0.15580669622701629 0 -0.41699473597813752 -0.17063285726143029 0 -0.39844967230025591 -0.17474076927812279 0 -0.4045200176128938 -0.16008114399198281 0 -0.41699473597813752 -0.17063285726143029 0 -0.4045200176128938 -0.16008114399198281 0 -0.41985581490816198 -0.154444998856094 0 -0.41699473597813752 -0.17063285726143029 0 -0.41781993309639348 -0.18473776223631169 0 -0.39844967230025591 -0.17474076927812279 0 -0.40786839632368732 -0.19284167875001809 0 -0.41781993309639348 -0.18473776223631169 0 -0.39844967230025591 -0.17474076927812279 0 -0.40786839632368732 -0.19284167875001809 0 -0.39844967230025591 -0.17474076927812279 0 -0.39682758983152833 -0.1934811917008569 0 -0.40786839632368732 -0.19284167875001809 0 -0.39844967230025591 -0.17474076927812279 0 -0.38536242778287788 -0.1877352767683855 0 -0.39682758983152833 -0.1934811917008569 0 -0.39844967230025591 -0.17474076927812279 0 -0.38536242778287788 -0.1877352767683855 0 -0.39844967230025591 -0.17474076927812279 0 -0.37797331325891809 -0.17279160272627381 0 -0.37192204740575269 -0.18508240213403099 0 -0.38536242778287788 -0.1877352767683855 0 -0.37797331325891809 -0.17279160272627381 0 -0.37179133304014322 -0.14783430818272611 0 -0.37797331325891809 -0.17279160272627381 0 -0.38903094827682438 -0.15663985980622741 0 -0.39844967230025591 -0.17474076927812279 0 -0.37797331325891809 -0.17279160272627381 0 -0.38903094827682438 -0.15663985980622741 0 -0.39844967230025591 -0.17474076927812279 0 -0.38903094827682438 -0.15663985980622741 0 -0.39844967230025591 -0.17474076927812279 0 -0.38903094827682438 -0.15663985980622741 0 -0.4045200176128938 -0.16008114399198281 0 -0.38903094827682438 -0.15663985980622741 0 -0.4045200176128938 -0.16008114399198281 0 -0.39938536477583741 -0.14370127207381619 0 -0.38903094827682438 -0.15663985980622741 0 -0.39938536477583741 -0.14370127207381619 0 -0.38404989885292651 -0.1400792958384918 0 -0.37179133304014322 -0.14783430818272611 0 -0.38903094827682438 -0.15663985980622741 0 -0.38404989885292651 -0.1400792958384918 0 -0.36560935282136869 -0.1228770136391782 0 -0.38404989885292651 -0.1400792958384918 0 -0.38887223831657869 -0.12639873684615319 0 -0.38887223831657869 -0.12639873684615319 0 -0.41213512381178841 -0.1299204600531296 0 -0.39938536477583741 -0.14370127207381619 0 -0.38887223831657869 -0.12639873684615319 0 -0.41213512381178841 -0.1299204600531296 0 -0.39938536477583741 -0.14370127207381619 0 -0.38404989885292651 -0.1400792958384918 0 -0.38887223831657869 -0.12639873684615319 0 -0.4045200176128938 -0.16008114399198281 0 -0.39938536477583741 -0.14370127207381619 0 -0.41985581490816198 -0.154444998856094 0 -0.39938536477583741 -0.14370127207381619 0 -0.41213512381178841 -0.1299204600531296 0 -0.41985581490816198 -0.154444998856094 0 -0.41985581490816198 -0.154444998856094 0 -0.43539800930699801 -0.1334421832601059 0 -0.43823455075000578 -0.15580669622701629 0 -0.41213512381178841 -0.1299204600531296 0 -0.41985581490816198 -0.154444998856094 0 -0.43539800930699801 -0.1334421832601059 0 -0.41213512381178841 -0.1299204600531296 0 -0.43539800930699801 -0.1334421832601059 0 -0.43259539229225402 -0.1157747654031315 0 -0.41213512381178841 -0.1299204600531296 0 -0.43539800930699801 -0.1334421832601059 0 -0.43539800930699801 -0.1334421832601059 0 -0.45866089480220767 -0.1369639064670822 0 -0.45113905152447542 -0.1175368028588321 0 -0.43539800930699801 -0.1334421832601059 0 -0.44775450515208032 -0.1461386934312979 0 -0.45866089480220767 -0.1369639064670822 0 -0.43539800930699801 -0.1334421832601059 0 -0.45866089480220767 -0.1369639064670822 0 -0.44775450515208032 -0.1461386934312979 0 -0.43823455075000578 -0.15580669622701629 0 -0.45633895227784033 -0.1576945794699274 0 -0.43539800930699801 -0.1334421832601059 0 -0.44775450515208032 -0.1461386934312979 0 -0.43823455075000578 -0.15580669622701629 0 -0.44775450515208032 -0.1461386934312979 0 -0.45866089480220767 -0.1369639064670822 0 -0.45633895227784033 -0.1576945794699274 0 -0.45866089480220767 -0.1369639064670822 0 -0.47575659097790751 -0.15007175010341289 0 -0.45633895227784033 -0.1576945794699274 0 -0.45866089480220767 -0.1369639064670822 0 -0.47575659097790751 -0.15007175010341289 0 -0.46915934665662162 -0.1230624738371303 0 -0.45866089480220767 -0.1369639064670822 0 -0.45113905152447542 -0.1175368028588321 0 -0.46915934665662162 -0.1230624738371303 0 -0.47575659097790751 -0.15007175010341289 0 -0.46915934665662162 -0.1230624738371303 0 -0.48351137830779539 -0.13386722315158131 0 -0.47575659097790751 -0.15007175010341289 0 -0.46915934665662162 -0.1230624738371303 0 -0.48351137830779539 -0.13386722315158131 0 -0.5 -0.12673639045435739 0 -0.5 -0.15610943167098409 0 -0.48351137830779539 -0.13386722315158131 0 -0.5 -0.15610943167098409 0 -0.47575659097790751 -0.15007175010341289 0 -0.47575659097790751 -0.15007175010341289 0 -0.4823538352991934 -0.17708102636969561 0 -0.47575659097790751 -0.15007175010341289 0 -0.46899934294491291 -0.16540597077255109 0 -0.4823538352991934 -0.17708102636969561 0 -0.5 -0.15610943167098409 0 -0.47575659097790751 -0.15007175010341289 0 -0.4823538352991934 -0.17708102636969561 0 -0.5 -0.15610943167098409 0 -0.49999999999999722 -0.18548247288761069 0 -0.4823538352991934 -0.17708102636969561 0 -0.4823538352991934 -0.17708102636969561 0 -0.46154799322471052 -0.17677652714716849 0 -0.47332956926376563 -0.19085067910818809 0 -0.46899934294491291 -0.16540597077255109 0 -0.4823538352991934 -0.17708102636969561 0 -0.46154799322471052 -0.17677652714716849 0 -0.46154799322471052 -0.17677652714716849 0 -0.44559792516655838 -0.1851633886427331 0 -0.46102895515839498 -0.19155331343124329 0 -0.46154799322471052 -0.17677652714716849 0 -0.46102895515839498 -0.19155331343124329 0 -0.47332956926376563 -0.19085067910818809 0 -0.46899934294491291 -0.16540597077255109 0 -0.46154799322471052 -0.17677652714716849 0 -0.45633895227784033 -0.1576945794699274 0 -0.47575659097790751 -0.15007175010341289 0 -0.46899934294491291 -0.16540597077255109 0 -0.45633895227784033 -0.1576945794699274 0 -0.46154799322471052 -0.17677652714716849 0 -0.45633895227784033 -0.1576945794699274 0 -0.44303700991658518 -0.17026832712875151 0 -0.43823455075000578 -0.15580669622701629 0 -0.45633895227784033 -0.1576945794699274 0 -0.44303700991658518 -0.17026832712875151 0 -0.46154799322471052 -0.17677652714716849 0 -0.44303700991658518 -0.17026832712875151 0 -0.44559792516655838 -0.1851633886427331 0 -0.43179072736577528 -0.17970529711169 0 -0.44303700991658518 -0.17026832712875151 0 -0.44559792516655838 -0.1851633886427331 0 -0.44559792516655838 -0.1851633886427331 0 -0.44507868827009389 -0.1999492498693555 0 -0.46102895515839498 -0.19155331343124329 0 -0.43110417706379089 -0.19272761716818959 0 -0.44559792516655838 -0.1851633886427331 0 -0.44507868827009389 -0.1999492498693555 0 -0.44507868827009389 -0.1999492498693555 0 -0.43795718746300122 -0.2140778908121922 0 -0.4586272545788867 -0.21721319340246781 0 -0.43042781253814327 -0.20309513998401429 0 -0.44507868827009389 -0.1999492498693555 0 -0.43795718746300122 -0.2140778908121922 0 -0.43795718746300122 -0.2140778908121922 0 -0.4586272545788867 -0.21721319340246781 0 -0.4586272545788867 -0.21721319340246781 0 -0.46102895515839498 -0.19155331343124329 0 -0.47276598301604827 -0.20475222595685469 0 -0.44507868827009389 -0.1999492498693555 0 -0.4586272545788867 -0.21721319340246781 0 -0.46102895515839498 -0.19155331343124329 0 -0.47332956926376563 -0.19085067910818809 0 -0.48895107962048001 -0.20409030263597791 0 -0.47276598301604827 -0.20475222595685469 0 -0.4823538352991934 -0.17708102636969561 0 -0.47332956926376563 -0.19085067910818809 0 -0.48895107962048001 -0.20409030263597791 0 -0.46102895515839498 -0.19155331343124329 0 -0.47332956926376563 -0.19085067910818809 0 -0.47276598301604827 -0.20475222595685469 0 -0.4823538352991934 -0.17708102636969561 0 -0.48895107962048001 -0.20409030263597791 0 -0.49999999999999722 -0.18548247288761069 0 -0.48895107962048001 -0.20409030263597791 0 -0.49999999999999722 -0.18548247288761069 0 -0.5 -0.2044856090206181 0 -0.48895107962048001 -0.20409030263597791 0 -0.49999999999999722 -0.18548247288761069 0 -0.4823538352991934 -0.17708102636969561 0 -0.48895107962048001 -0.20409030263597791 0 -0.5 -0.2044856090206181 0 -0.500000000000002 -0.2234887451536256 0 -0.49344650703865789 -0.22249469015893941 0 -0.5 -0.2044856090206181 0 -0.48895107962048001 -0.20409030263597791 0 -0.49344650703865789 -0.22249469015893941 0 -0.48895107962048001 -0.20409030263597791 0 -0.47929732169477218 -0.22034849599274231 0 -0.49344650703865789 -0.22249469015893941 0 -0.48895107962048001 -0.20409030263597791 0 -0.49344650703865789 -0.22249469015893941 0 -0.48895107962048001 -0.20409030263597791 0 -0.47276598301604827 -0.20475222595685469 0 -0.47929732169477218 -0.22034849599274231 0 -0.48895107962048001 -0.20409030263597791 0 -0.47929732169477218 -0.22034849599274231 0 -0.4586272545788867 -0.21721319340246781 0 -0.47276598301604827 -0.20475222595685469 0 -0.47929732169477218 -0.22034849599274231 0 -0.4586272545788867 -0.21721319340246781 0 -0.47929732169477218 -0.22034849599274231 0 -0.47929732169477218 -0.22034849599274231 0 -0.48416686203858311 -0.23469505857438669 0 -0.46465652818918263 -0.24483730068029039 0 -0.47929732169477218 -0.22034849599274231 0 -0.46465652818918263 -0.24483730068029039 0 -0.47929732169477218 -0.22034849599274231 0 -0.49344650703865789 -0.22249469015893941 0 -0.47929732169477218 -0.22034849599274231 0 -0.49344650703865789 -0.22249469015893941 0 -0.48416686203858311 -0.23469505857438669 0 -0.49344650703865789 -0.22249469015893941 0 -0.49730382647131183 -0.23828664830542051 0 -0.48416686203858311 -0.23469505857438669 0 -0.500000000000002 -0.2234887451536256 0 -0.49344650703865789 -0.22249469015893941 0 -0.49730382647131183 -0.23828664830542051 0 -0.49344650703865789 -0.22249469015893941 0 -0.49730382647131183 -0.23828664830542051 0 -0.500000000000002 -0.2234887451536256 0 -0.49344650703865789 -0.22249469015893941 0 -0.5 -0.25150281007534703 0 -0.500000000000002 -0.2234887451536256 0 -0.49730382647131183 -0.23828664830542051 0 -0.5 -0.25150281007534703 0 -0.49730382647131183 -0.23828664830542051 0 -0.48570939693172899 -0.24902992718248729 0 -0.49730382647131183 -0.23828664830542051 0 -0.48570939693172899 -0.24902992718248729 0 -0.48416686203858311 -0.23469505857438669 0 -0.48570939693172899 -0.24902992718248729 0 -0.48416686203858311 -0.23469505857438669 0 -0.46465652818918263 -0.24483730068029039 0 -0.4586272545788867 -0.21721319340246781 0 -0.47929732169477218 -0.22034849599274231 0 -0.46465652818918263 -0.24483730068029039 0 -0.4586272545788867 -0.21721319340246781 0 -0.46465652818918263 -0.24483730068029039 0 -0.44658841198271632 -0.22637890077404829 0 -0.43795718746300122 -0.2140778908121922 0 -0.4586272545788867 -0.21721319340246781 0 -0.44658841198271632 -0.22637890077404829 0 -0.42560539866416353 -0.22692866047589191 0 -0.44658841198271632 -0.22637890077404829 0 -0.44336769959532257 -0.23972790925379969 0 -0.46465652818918263 -0.24483730068029039 0 -0.44658841198271632 -0.22637890077404829 0 -0.44336769959532257 -0.23972790925379969 0 -0.44165736388207272 -0.25360003737878889 0 -0.46465652818918263 -0.24483730068029039 0 -0.44336769959532257 -0.23972790925379969 0 -0.44165736388207272 -0.25360003737878889 0 -0.429193077912078 -0.24092705066174019 0 -0.44336769959532257 -0.23972790925379969 0 -0.41631059699689099 -0.042084497863468198 0 -0.41965755993826598 -0.033894451920331033 0 -0.42761534325808798 -0.038876017594557971 0 -0.41631059699689099 -0.042084497863468198 0 -0.41965755993826598 -0.033894451920331033 0 -0.41128163845263888 -0.036426639289896208 0 -0.41965755993826598 -0.033894451920331033 0 -0.41128163845263888 -0.036426639289896208 0 -0.41258462043609562 -0.025993866725156231 0 -0.41128163845263888 -0.036426639289896208 0 -0.40704563849368902 -0.043093498236160592 0 -0.40124408047313331 -0.037519640608623422 0 -0.41128163845263888 -0.036426639289896208 0 -0.41258462043609562 -0.025993866725156231 0 -0.40124408047313331 -0.037519640608623422 0 -0.41631059699689099 -0.042084497863468198 0 -0.40704563849368902 -0.043093498236160592 0 -0.41300523529446281 -0.049717993690613083 0 -0.41631059699689099 -0.042084497863468198 0 -0.41128163845263888 -0.036426639289896208 0 -0.40704563849368902 -0.043093498236160592 0 -0.40704563849368902 -0.043093498236160592 0 -0.41300523529446281 -0.049717993690613083 0 -0.40411610338443682 -0.050557450003133962 0 -0.41300523529446281 -0.049717993690613083 0 -0.41414033076402768 -0.061585207313392322 0 -0.40411610338443682 -0.050557450003133962 0 -0.41300523529446281 -0.049717993690613083 0 -0.41414033076402768 -0.061585207313392322 0 -0.42341350683326928 -0.051269315036910318 0 -0.41631059699689099 -0.042084497863468198 0 -0.41300523529446281 -0.049717993690613083 0 -0.42341350683326928 -0.051269315036910318 0 -0.41414033076402768 -0.061585207313392322 0 -0.42341350683326928 -0.051269315036910318 0 -0.43505259438904009 -0.065314564308975948 0 -0.42341350683326928 -0.051269315036910318 0 -0.43594560852523878 -0.049663465434261311 0 -0.43505259438904009 -0.065314564308975948 0 -0.43594560852523878 -0.049663465434261311 0 -0.42761534325808798 -0.038876017594557971 0 -0.44052059365423879 -0.038318026972638523 0 -0.42341350683326928 -0.051269315036910318 0 -0.43594560852523878 -0.049663465434261311 0 -0.42761534325808798 -0.038876017594557971 0 -0.41631059699689099 -0.042084497863468198 0 -0.42341350683326928 -0.051269315036910318 0 -0.42761534325808798 -0.038876017594557971 0 -0.41965755993826598 -0.033894451920331033 0 -0.42761534325808798 -0.038876017594557971 0 -0.43049560054761637 -0.026091238128576531 0 -0.42761534325808798 -0.038876017594557971 0 -0.43049560054761637 -0.026091238128576531 0 -0.44052059365423879 -0.038318026972638523 0 -0.43049560054761637 -0.026091238128576531 0 -0.42123606753034548 -0.0078521834473191492 0 -0.44016826678282051 -0.008282799190680902 0 -0.42123606753034548 -0.0078521834473191492 0 -0.41258462043609562 -0.025993866725156231 0 -0.40359645288427559 -0.01255273007959058 0 -0.42123606753034548 -0.0078521834473191492 0 -0.40359645288427559 -0.01255273007959058 0 -0.411842978763718 0.0071810696113592566 0 -0.43049560054761637 -0.026091238128576531 0 -0.42123606753034548 -0.0078521834473191492 0 -0.41258462043609562 -0.025993866725156231 0 -0.41965755993826598 -0.033894451920331033 0 -0.43049560054761637 -0.026091238128576531 0 -0.41258462043609562 -0.025993866725156231 0 -0.41258462043609562 -0.025993866725156231 0 -0.40359645288427559 -0.01255273007959058 0 -0.40124408047313331 -0.037519640608623422 0 -0.40359645288427559 -0.01255273007959058 0 -0.39764058419755538 -0.038576012957609408 0 -0.40124408047313331 -0.037519640608623422 0 -0.40359645288427559 -0.01255273007959058 0 -0.38932648706987377 -0.013730584936831609 0 -0.38650677435962982 -0.026234410340964749 0 -0.40359645288427559 -0.01255273007959058 0 -0.38650677435962982 -0.026234410340964749 0 -0.39764058419755538 -0.038576012957609408 0 -0.40359645288427559 -0.01255273007959058 0 -0.39764058419755538 -0.038576012957609408 0 -0.40359645288427559 -0.01255273007959058 0 -0.411842978763718 0.0071810696113592566 0 -0.39856960861661739 0.0046729487720050386 0 -0.40359645288427559 -0.01255273007959058 0 -0.39149303023403142 -0.005335277537219363 0 -0.39856960861661739 0.0046729487720050386 0 -0.40359645288427559 -0.01255273007959058 0 -0.39149303023403142 -0.005335277537219363 0 -0.38932648706987377 -0.013730584936831609 0 -0.39149303023403142 -0.005335277537219363 0 -0.38087232901863782 -0.0095024514541764069 0 -0.38510027358075227 0.0044364300124967379 0 -0.39149303023403142 -0.005335277537219363 0 -0.38932648706987377 -0.013730584936831609 0 -0.38087232901863782 -0.0095024514541764069 0 -0.38932648706987377 -0.013730584936831609 0 -0.38087232901863782 -0.0095024514541764069 0 -0.38186988518864651 -0.018280442328540609 0 -0.37719726677334758 -0.010782784077609161 0 -0.38087232901863782 -0.0095024514541764069 0 -0.38186988518864651 -0.018280442328540609 0 -0.37719726677334758 -0.010782784077609161 0 -0.38087232901863782 -0.0095024514541764069 0 -0.37719726677334758 -0.010782784077609161 0 -0.38510027358075227 0.0044364300124967379 0 -0.37145675818362223 0.001704133189072726 0 -0.37719726677334758 -0.010782784077609161 0 -0.38510027358075227 0.0044364300124967379 0 -0.37719726677334758 -0.010782784077609161 0 -0.38087232901863782 -0.0095024514541764069 0 -0.38510027358075227 0.0044364300124967379 0 -0.36684988365240911 -0.03070925546092473 0 -0.38650677435962982 -0.026234410340964749 0 -0.38186988518864651 -0.018280442328540609 0 -0.36684988365240911 -0.03070925546092473 0 -0.37719726677334758 -0.010782784077609161 0 -0.38186988518864651 -0.018280442328540609 0 -0.38932648706987377 -0.013730584936831609 0 -0.38650677435962982 -0.026234410340964749 0 -0.38186988518864651 -0.018280442328540609 0 -0.36684988365240911 -0.03070925546092473 0 -0.38650677435962982 -0.026234410340964749 0 -0.37707154236451451 -0.044605869900925722 0 -0.38650677435962982 -0.026234410340964749 0 -0.37707154236451451 -0.044605869900925722 0 -0.39764058419755538 -0.038576012957609408 0 -0.37707154236451451 -0.044605869900925722 0 -0.39764058419755538 -0.038576012957609408 0 -0.39764058419755538 -0.038576012957609408 0 -0.40065489473756588 -0.045520490424667083 0 -0.40124408047313331 -0.037519640608623422 0 -0.40704563849368902 -0.043093498236160592 0 -0.40065489473756588 -0.045520490424667083 0 -0.40124408047313331 -0.037519640608623422 0 -0.40704563849368902 -0.043093498236160592 0 -0.40065489473756588 -0.045520490424667083 0 -0.40411610338443682 -0.050557450003133962 0 -0.39764058419755538 -0.038576012957609408 0 -0.40124408047313331 -0.037519640608623422 0 -0.39764058419755538 -0.038576012957609408 0 -0.40065489473756588 -0.045520490424667083 0 -0.39322806713901498 -0.057855850317809959 0 -0.41414033076402768 -0.061585207313392322 0 -0.39322806713901498 -0.057855850317809959 0 -0.40444542418072821 -0.066780626888537295 0 -0.41414033076402768 -0.061585207313392322 0 -0.40411610338443682 -0.050557450003133962 0 -0.39322806713901498 -0.057855850317809959 0 -0.39764058419755538 -0.038576012957609408 0 -0.39322806713901498 -0.057855850317809959 0 -0.41414033076402768 -0.061585207313392322 0 -0.39322806713901498 -0.057855850317809959 0 -0.40065489473756588 -0.045520490424667083 0 -0.40411610338443682 -0.050557450003133962 0 -0.39322806713901498 -0.057855850317809959 0 -0.37470589733927712 -0.0545527271000322 0 -0.39322806713901498 -0.057855850317809959 0 -0.37470589733927712 -0.0545527271000322 0 -0.37707154236451451 -0.044605869900925722 0 -0.39322806713901498 -0.057855850317809959 0 -0.37707154236451451 -0.044605869900925722 0 -0.39764058419755538 -0.038576012957609408 0 -0.39322806713901498 -0.057855850317809959 0 -0.37470589733927712 -0.0545527271000322 0 -0.39322806713901498 -0.057855850317809959 0 -0.3838397651565123 -0.062625659154805113 0 -0.37470589733927712 -0.0545527271000322 0 -0.37683012181080239 -0.068733301298065499 0 -0.3838397651565123 -0.062625659154805113 0 -0.39322806713901498 -0.057855850317809959 0 -0.3838397651565123 -0.062625659154805113 0 -0.39059497433695439 -0.069360757903312753 0 -0.37683012181080239 -0.068733301298065499 0 -0.3838397651565123 -0.062625659154805113 0 -0.39059497433695439 -0.069360757903312753 0 -0.39059497433695439 -0.069360757903312753 0 -0.3750868287242039 -0.083945666598845156 0 -0.37683012181080239 -0.068733301298065499 0 -0.39059497433695439 -0.069360757903312753 0 -0.3750868287242039 -0.083945666598845156 0 -0.39059497433695439 -0.069360757903312753 0 -0.38574124546072602 -0.090568404714108222 0 -0.3750868287242039 -0.083945666598845156 0 -0.39059497433695439 -0.069360757903312753 0 -0.38574124546072602 -0.090568404714108222 0 -0.37338072534044958 -0.1015395423542827 0 -0.38574124546072602 -0.090568404714108222 0 -0.3750868287242039 -0.083945666598845156 0 -0.39059497433695439 -0.069360757903312753 0 -0.38574124546072602 -0.090568404714108222 0 -0.39722678832591729 -0.08549102947411294 0 -0.38574124546072602 -0.090568404714108222 0 -0.39722678832591729 -0.08549102947411294 0 -0.39016591446444671 -0.1027403174982935 0 -0.39722678832591729 -0.08549102947411294 0 -0.40358704082088931 -0.10183248075400859 0 -0.40955223446300359 -0.086375659296802715 0 -0.39722678832591729 -0.08549102947411294 0 -0.40456307765117672 -0.076708553120630463 0 -0.40955223446300359 -0.086375659296802715 0 -0.39722678832591729 -0.08549102947411294 0 -0.40456307765117672 -0.076708553120630463 0 -0.39841612749299532 -0.072664694729402735 0 -0.40456307765117672 -0.076708553120630463 0 -0.40444542418072821 -0.066780626888537295 0 -0.39841612749299532 -0.072664694729402735 0 -0.39059497433695439 -0.069360757903312753 0 -0.39722678832591729 -0.08549102947411294 0 -0.39841612749299532 -0.072664694729402735 0 -0.40444542418072821 -0.066780626888537295 0 -0.39525037297019971 -0.064982506260420264 0 -0.39841612749299532 -0.072664694729402735 0 -0.39059497433695439 -0.069360757903312753 0 -0.39525037297019971 -0.064982506260420264 0 -0.39841612749299532 -0.072664694729402735 0 -0.39322806713901498 -0.057855850317809959 0 -0.39059497433695439 -0.069360757903312753 0 -0.39525037297019971 -0.064982506260420264 0 -0.39322806713901498 -0.057855850317809959 0 -0.40444542418072821 -0.066780626888537295 0 -0.39525037297019971 -0.064982506260420264 0 -0.39322806713901498 -0.057855850317809959 0 -0.39059497433695439 -0.069360757903312753 0 -0.39059497433695439 -0.069360757903312753 0 -0.39525037297019971 -0.064982506260420264 0 -0.36560935282136869 -0.1228770136391782 0 -0.38887223831657869 -0.12639873684615319 0 -0.38887223831657869 -0.12639873684615319 0 -0.38088751658449588 -0.11177605152490321 0 -0.39861419104112761 -0.1141217052544175 0 -0.38088751658449588 -0.11177605152490321 0 -0.39016591446444671 -0.1027403174982935 0 -0.39861419104112761 -0.1141217052544175 0 -0.36560935282136869 -0.1228770136391782 0 -0.38887223831657869 -0.12639873684615319 0 -0.38088751658449588 -0.11177605152490321 0 -0.38574124546072602 -0.090568404714108222 0 -0.38088751658449588 -0.11177605152490321 0 -0.38574124546072602 -0.090568404714108222 0 -0.38088751658449588 -0.11177605152490321 0 -0.39016591446444671 -0.1027403174982935 0 -0.37338072534044958 -0.1015395423542827 0 -0.38574124546072602 -0.090568404714108222 0 -0.38088751658449588 -0.11177605152490321 0 -0.40358704082088931 -0.10183248075400859 0 -0.39861419104112761 -0.1141217052544175 0 -0.4160373122485671 -0.1120621848500169 0 -0.39722678832591729 -0.08549102947411294 0 -0.39016591446444671 -0.1027403174982935 0 -0.40358704082088931 -0.10183248075400859 0 -0.39016591446444671 -0.1027403174982935 0 -0.40358704082088931 -0.10183248075400859 0 -0.39861419104112761 -0.1141217052544175 0 -0.38887223831657869 -0.12639873684615319 0 -0.41213512381178841 -0.1299204600531296 0 -0.39861419104112761 -0.1141217052544175 0 -0.41213512381178841 -0.1299204600531296 0 -0.39861419104112761 -0.1141217052544175 0 -0.4160373122485671 -0.1120621848500169 0 -0.41213512381178841 -0.1299204600531296 0 -0.4160373122485671 -0.1120621848500169 0 -0.43259539229225402 -0.1157747654031315 0 -0.4160373122485671 -0.1120621848500169 0 -0.4169341364211625 -0.097460269163205951 0 -0.43115901768430159 -0.099355876929453982 0 -0.40358704082088931 -0.10183248075400859 0 -0.4160373122485671 -0.1120621848500169 0 -0.4169341364211625 -0.097460269163205951 0 -0.40358704082088931 -0.10183248075400859 0 -0.4169341364211625 -0.097460269163205951 0 -0.40955223446300359 -0.086375659296802715 0 -0.4160373122485671 -0.1120621848500169 0 -0.43115901768430159 -0.099355876929453982 0 -0.43259539229225402 -0.1157747654031315 0 -0.43115901768430159 -0.099355876929453982 0 -0.43259539229225402 -0.1157747654031315 0 -0.44676155729694311 -0.09856935048049352 0 -0.41414033076402768 -0.061585207313392322 0 -0.41477655714820522 -0.073508962632903227 0 -0.43505259438904009 -0.065314564308975948 0 -0.41414033076402768 -0.061585207313392322 0 -0.40444542418072821 -0.066780626888537295 0 -0.41477655714820522 -0.073508962632903227 0 -0.40456307765117672 -0.076708553120630463 0 -0.40444542418072821 -0.066780626888537295 0 -0.41477655714820522 -0.073508962632903227 0 -0.40456307765117672 -0.076708553120630463 0 -0.41477655714820522 -0.073508962632903227 0 -0.40955223446300359 -0.086375659296802715 0 -0.41477655714820522 -0.073508962632903227 0 -0.40955223446300359 -0.086375659296802715 0 -0.42547236143691691 -0.079964116854811126 0 -0.4169341364211625 -0.097460269163205951 0 -0.40955223446300359 -0.086375659296802715 0 -0.42547236143691691 -0.079964116854811126 0 -0.43115901768430159 -0.099355876929453982 0 -0.42547236143691691 -0.079964116854811126 0 -0.43948503029078051 -0.084366611422258486 0 -0.4169341364211625 -0.097460269163205951 0 -0.43115901768430159 -0.099355876929453982 0 -0.42547236143691691 -0.079964116854811126 0 -0.42547236143691691 -0.079964116854811126 0 -0.43593321389199208 -0.076166958257645731 0 -0.43948503029078051 -0.084366611422258486 0 -0.41414033076402768 -0.061585207313392322 0 -0.43505259438904009 -0.065314564308975948 0 -0.42547236143691691 -0.079964116854811126 0 -0.43593321389199208 -0.076166958257645731 0 -0.43505259438904009 -0.065314564308975948 0 -0.41477655714820522 -0.073508962632903227 0 -0.42547236143691691 -0.079964116854811126 0 -0.43505259438904009 -0.065314564308975948 0 -0.43505259438904009 -0.065314564308975948 0 -0.45596485801405168 -0.069043921304564548 0 -0.45254776170430372 -0.055054247167343383 0 -0.43505259438904009 -0.065314564308975948 0 -0.44372286945123102 -0.075022540444537378 0 -0.45596485801405168 -0.069043921304564548 0 -0.43505259438904009 -0.065314564308975948 0 -0.45596485801405168 -0.069043921304564548 0 -0.44372286945123102 -0.075022540444537378 0 -0.44986078827983011 -0.084538284578158471 0 -0.45596485801405168 -0.069043921304564548 0 -0.43593321389199208 -0.076166958257645731 0 -0.43505259438904009 -0.065314564308975948 0 -0.44372286945123102 -0.075022540444537378 0 -0.43593321389199208 -0.076166958257645731 0 -0.44372286945123102 -0.075022540444537378 0 -0.43948503029078051 -0.084366611422258486 0 -0.44986078827983011 -0.084538284578158471 0 -0.44676155729694311 -0.09856935048049352 0 -0.46256210233533568 -0.096053197570847695 0 -0.44372286945123102 -0.075022540444537378 0 -0.43948503029078051 -0.084366611422258486 0 -0.44986078827983011 -0.084538284578158471 0 -0.43948503029078051 -0.084366611422258486 0 -0.44986078827983011 -0.084538284578158471 0 -0.44676155729694311 -0.09856935048049352 0 -0.46571079481874128 -0.075383853833439818 0 -0.45596485801405168 -0.069043921304564548 0 -0.46256210233533568 -0.096053197570847695 0 -0.45596485801405168 -0.069043921304564548 0 -0.46256210233533568 -0.096053197570847695 0 -0.44986078827983011 -0.084538284578158471 0 -0.45596485801405168 -0.069043921304564548 0 -0.46256210233533568 -0.096053197570847695 0 -0.46571079481874128 -0.075383853833439818 0 -0.46440728388852631 -0.065665476577682319 0 -0.45759908464129401 -0.069335358645535999 0 -0.46571079481874128 -0.075383853833439818 0 -0.46440728388852631 -0.065665476577682319 0 -0.47046251890076313 -0.067508589662998122 0 -0.45759908464129401 -0.069335358645535999 0 -0.45958199435623182 -0.062522792654202811 0 -0.45596485801405168 -0.069043921304564548 0 -0.46440728388852631 -0.065665476577682319 0 -0.45759908464129401 -0.069335358645535999 0 -0.45958199435623182 -0.062522792654202811 0 -0.45759908464129401 -0.069335358645535999 0 -0.45596485801405168 -0.069043921304564548 0 -0.46571079481874128 -0.075383853833439818 0 -0.45759908464129401 -0.069335358645535999 0 -0.45596485801405168 -0.069043921304564548 0 -0.43539800930699801 -0.1334421832601059 0 -0.43259539229225402 -0.1157747654031315 0 -0.45113905152447542 -0.1175368028588321 0 -0.43259539229225402 -0.1157747654031315 0 -0.45113905152447542 -0.1175368028588321 0 -0.44676155729694311 -0.09856935048049352 0 -0.43115901768430159 -0.099355876929453982 0 -0.43948503029078051 -0.084366611422258486 0 -0.44676155729694311 -0.09856935048049352 0 -0.45113905152447542 -0.1175368028588321 0 -0.44676155729694311 -0.09856935048049352 0 -0.46256210233533568 -0.096053197570847695 0 -0.46256210233533568 -0.096053197570847695 0 -0.46915934665662162 -0.1230624738371303 0 -0.45113905152447542 -0.1175368028588321 0 -0.46256210233533568 -0.096053197570847695 0 -0.46915934665662162 -0.1230624738371303 0 -0.48351137830779539 -0.13386722315158131 0 -0.46915934665662162 -0.1230624738371303 0 -0.48133806505124233 -0.10835548473569059 0 -0.46256210233533568 -0.096053197570847695 0 -0.46915934665662162 -0.1230624738371303 0 -0.48133806505124233 -0.10835548473569059 0 -0.46256210233533568 -0.096053197570847695 0 -0.48133806505124233 -0.10835548473569059 0 -0.4787903951136242 -0.090525190808538269 0 -0.48133806505124233 -0.10835548473569059 0 -0.500000000000001 -0.097363349237730712 0 -0.4787903951136242 -0.090525190808538269 0 -0.48351137830779539 -0.13386722315158131 0 -0.5 -0.12673639045435739 0 -0.48133806505124233 -0.10835548473569059 0 -0.5 -0.12673639045435739 0 -0.48133806505124233 -0.10835548473569059 0 -0.500000000000001 -0.097363349237730712 0 -0.48434101336280139 -0.075470068664982515 0 -0.47046251890076313 -0.067508589662998122 0 -0.46868202672560128 -0.053576788092234838 0 -0.46571079481874128 -0.075383853833439818 0 -0.48434101336280139 -0.075470068664982515 0 -0.47046251890076313 -0.067508589662998122 0 -0.48434101336280139 -0.075470068664982515 0 -0.46868202672560128 -0.053576788092234838 0 -0.46571079481874128 -0.075383853833439818 0 -0.48434101336280139 -0.075470068664982515 0 -0.4787903951136242 -0.090525190808538269 0 -0.46571079481874128 -0.075383853833439818 0 -0.46256210233533568 -0.096053197570847695 0 -0.4787903951136242 -0.090525190808538269 0 -0.500000000000001 -0.097363349237730712 0 -0.48434101336280139 -0.075470068664982515 0 -0.5 -0.067775448906690738 0 -0.500000000000001 -0.097363349237730712 0 -0.48434101336280139 -0.075470068664982515 0 -0.4787903951136242 -0.090525190808538269 0 -0.500000000000001 -0.097363349237730712 0 -0.48434101336280139 -0.075470068664982515 0 -0.48434101336280139 -0.075470068664982515 0 -0.5 -0.067775448906690738 0 -0.48551694096935982 -0.058082376044726818 0 -0.5 -0.067775448906690738 0 -0.48551694096935982 -0.058082376044726818 0 -0.5 -0.038187548575650758 0 -0.48551694096935982 -0.058082376044726818 0 -0.5 -0.038187548575650758 0 -0.47983884509016961 -0.04559408958900394 0 -0.5 -0.038187548575650758 0 -0.47627813796950452 -0.032068202833415903 0 -0.47983884509016961 -0.04559408958900394 0 -0.47627813796950452 -0.032068202833415903 0 -0.47983884509016961 -0.04559408958900394 0 -0.46868202672560128 -0.053576788092234838 0 -0.48434101336280139 -0.075470068664982515 0 -0.48551694096935982 -0.058082376044726818 0 -0.46868202672560128 -0.053576788092234838 0 -0.48551694096935982 -0.058082376044726818 0 -0.47983884509016961 -0.04559408958900394 0 -0.46868202672560128 -0.053576788092234838 0 -0.46440728388852631 -0.065665476577682319 0 -0.47046251890076313 -0.067508589662998122 0 -0.46868202672560128 -0.053576788092234838 0 -0.45958199435623182 -0.062522792654202811 0 -0.46868202672560128 -0.053576788092234838 0 -0.45254776170430372 -0.055054247167343383 0 -0.46440728388852631 -0.065665476577682319 0 -0.45958199435623182 -0.062522792654202811 0 -0.46868202672560128 -0.053576788092234838 0 -0.45596485801405168 -0.069043921304564548 0 -0.45254776170430372 -0.055054247167343383 0 -0.45958199435623182 -0.062522792654202811 0 -0.45596485801405168 -0.069043921304564548 0 -0.45254776170430372 -0.055054247167343383 0 -0.46868202672560128 -0.053576788092234838 0 -0.45302304008840111 -0.031683507519487203 0 -0.45254776170430372 -0.055054247167343383 0 -0.46868202672560128 -0.053576788092234838 0 -0.45302304008840111 -0.031683507519487203 0 -0.47627813796950452 -0.032068202833415903 0 -0.46868202672560128 -0.053576788092234838 0 -0.45302304008840111 -0.031683507519487203 0 -0.43049560054761637 -0.026091238128576531 0 -0.45302304008840111 -0.031683507519487203 0 -0.44052059365423879 -0.038318026972638523 0 -0.45302304008840111 -0.031683507519487203 0 -0.44052059365423879 -0.038318026972638523 0 -0.45254776170430372 -0.055054247167343383 0 -0.43594560852523878 -0.049663465434261311 0 -0.44052059365423879 -0.038318026972638523 0 -0.45254776170430372 -0.055054247167343383 0 -0.43594560852523878 -0.049663465434261311 0 -0.43505259438904009 -0.065314564308975948 0 -0.45254776170430372 -0.055054247167343383 0 -0.44016826678282051 -0.008282799190680902 0 -0.46819439313074318 -0.0088485217403602174 0 -0.44910531892432481 0.0088256729137652749 0 -0.43049560054761637 -0.026091238128576531 0 -0.45302304008840111 -0.031683507519487203 0 -0.44016826678282051 -0.008282799190680902 0 -0.45302304008840111 -0.031683507519487203 0 -0.44016826678282051 -0.008282799190680902 0 -0.46819439313074318 -0.0088485217403602174 0 -0.47627813796950452 -0.032068202833415903 0 -0.45302304008840111 -0.031683507519487203 0 -0.46819439313074318 -0.0088485217403602174 0 -0.47627813796950452 -0.032068202833415903 0 -0.46819439313074318 -0.0088485217403602174 0 -0.5 -0.0085996482446106803 0 -0.46819439313074318 -0.0088485217403602174 0 -0.5 -0.0085996482446106803 0 -0.48327269561072528 0.0075949784500739621 0 -0.5 -0.038187548575650758 0 -0.47627813796950452 -0.032068202833415903 0 -0.5 -0.0085996482446106803 0 -0.5 -0.0085996482446106803 0 -0.500000000000001 0.020988252086429401 0 -0.48327269561072528 0.0075949784500739621 0 -0.500000000000001 0.020988252086429401 0 -0.4818334059336834 0.02486827538731046 0 -0.48327269561072528 0.0075949784500739621 0 -0.500000000000001 0.020988252086429401 0 -0.4818334059336834 0.02486827538731046 0 -0.48627387230376801 0.042906068467448051 0 -0.4818334059336834 0.02486827538731046 0 -0.46506519868097418 0.040930436164492531 0 -0.46608959876636241 0.01500864777446809 0 -0.4818334059336834 0.02486827538731046 0 -0.48327269561072528 0.0075949784500739621 0 -0.46608959876636241 0.01500864777446809 0 -0.46819439313074318 -0.0088485217403602174 0 -0.48327269561072528 0.0075949784500739621 0 -0.46608959876636241 0.01500864777446809 0 -0.5 0.047519219301533577 0 -0.48827346409411548 0.06027768147110632 0 -0.48627387230376801 0.042906068467448051 0 -0.5 0.047519219301533577 0 -0.48827346409411548 0.06027768147110632 0 -0.5 0.074050186516637917 0 -0.500000000000001 0.020988252086429401 0 -0.48627387230376801 0.042906068467448051 0 -0.500000000000001 0.020988252086429401 0 -0.5 0.047519219301533577 0 -0.48627387230376801 0.042906068467448051 0 -0.4818334059336834 0.02486827538731046 0 -0.48627387230376801 0.042906068467448051 0 -0.46506519868097418 0.040930436164492531 0 -0.48627387230376801 0.042906068467448051 0 -0.46506519868097418 0.040930436164492531 0 -0.47254774460753413 0.064823884848466309 0 -0.48827346409411548 0.06027768147110632 0 -0.48627387230376801 0.042906068467448051 0 -0.47254774460753413 0.064823884848466309 0 -0.48627387230376801 0.042906068467448051 0 -0.47254774460753413 0.064823884848466309 0 -0.46506519868097418 0.040930436164492531 0 -0.44375990034961432 0.061031549153910312 0 -0.47254774460753413 0.064823884848466309 0 -0.46506519868097418 0.040930436164492531 0 -0.44486031810931148 0.031744527408694517 0 -0.44375990034961432 0.061031549153910312 0 -0.46819439313074318 -0.0088485217403602174 0 -0.46608959876636241 0.01500864777446809 0 -0.44910531892432481 0.0088256729137652749 0 -0.46506519868097418 0.040930436164492531 0 -0.44486031810931148 0.031744527408694517 0 -0.46608959876636241 0.01500864777446809 0 -0.44486031810931148 0.031744527408694517 0 -0.46608959876636241 0.01500864777446809 0 -0.44910531892432481 0.0088256729137652749 0 -0.44486031810931148 0.031744527408694517 0 -0.44910531892432481 0.0088256729137652749 0 -0.43171222321057451 0.016975124179167082 0 -0.44016826678282051 -0.008282799190680902 0 -0.44910531892432481 0.0088256729137652749 0 -0.43171222321057451 0.016975124179167082 0 -0.42123606753034548 -0.0078521834473191492 0 -0.44016826678282051 -0.008282799190680902 0 -0.43171222321057451 0.016975124179167082 0 -0.44016826678282051 -0.008282799190680902 0 -0.43171222321057451 0.016975124179167082 0 -0.42123606753034548 -0.0078521834473191492 0 -0.411842978763718 0.0071810696113592566 0 -0.43171222321057451 0.016975124179167082 0 -0.411842978763718 0.0071810696113592566 0 -0.40872204527111111 0.022867749962900141 0 -0.39856960861661739 0.0046729487720050386 0 -0.40872204527111111 0.022867749962900141 0 -0.43171222321057451 0.016975124179167082 0 -0.4232561796383284 0.042233047549015017 0 -0.411842978763718 0.0071810696113592566 0 -0.40872204527111111 0.022867749962900141 0 -0.43171222321057451 0.016975124179167082 0 -0.44486031810931148 0.031744527408694517 0 -0.43171222321057451 0.016975124179167082 0 -0.4232561796383284 0.042233047549015017 0 -0.43171222321057451 0.016975124179167082 0 -0.4232561796383284 0.042233047549015017 0 -0.44486031810931148 0.031744527408694517 0 -0.44375990034961432 0.061031549153910312 0 -0.4232561796383284 0.042233047549015017 0 -0.44375990034961432 0.061031549153910312 0 -0.4232561796383284 0.042233047549015017 0 -0.41480013606608229 0.067490970918863163 0 -0.4232561796383284 0.042233047549015017 0 -0.41480013606608229 0.067490970918863163 0 -0.4232561796383284 0.042233047549015017 0 -0.40217936848404251 0.040656332868689943 0 -0.41480013606608229 0.067490970918863163 0 -0.40872204527111111 0.022867749962900141 0 -0.4232561796383284 0.042233047549015017 0 -0.40217936848404251 0.040656332868689943 0 -0.40217936848404251 0.040656332868689943 0 -0.38532972384356262 0.04987884220830327 0 -0.38670634030283008 0.033034015008687988 0 -0.40217936848404251 0.040656332868689943 0 -0.39445515791527019 0.0661614229995688 0 -0.41480013606608229 0.067490970918863163 0 -0.40217936848404251 0.040656332868689943 0 -0.38532972384356262 0.04987884220830327 0 -0.39445515791527019 0.0661614229995688 0 -0.38532972384356262 0.04987884220830327 0 -0.36842953035862158 0.050481425088617103 0 -0.37191756568804107 0.066739953928913298 0 -0.38532972384356262 0.04987884220830327 0 -0.39445515791527019 0.0661614229995688 0 -0.37191756568804107 0.066739953928913298 0 -0.38532972384356262 0.04987884220830327 0 -0.38670634030283008 0.033034015008687988 0 -0.37363166703579942 0.035604814688565273 0 -0.38532972384356262 0.04987884220830327 0 -0.37363166703579942 0.035604814688565273 0 -0.36842953035862158 0.050481425088617103 0 -0.38670634030283008 0.033034015008687988 0 -0.37938766176258892 0.01937444117527904 0 -0.37363166703579942 0.035604814688565273 0 -0.38670634030283008 0.033034015008687988 0 -0.37938766176258892 0.01937444117527904 0 -0.39300328038815729 0.019655644102602461 0 -0.37938766176258892 0.01937444117527904 0 -0.38510027358075227 0.0044364300124967379 0 -0.37145675818362223 0.001704133189072726 0 -0.38510027358075227 0.0044364300124967379 0 -0.39300328038815729 0.019655644102602461 0 -0.37938766176258892 0.01937444117527904 0 -0.38510027358075227 0.0044364300124967379 0 -0.39300328038815729 0.019655644102602461 0 -0.38510027358075227 0.0044364300124967379 0 -0.39856960861661739 0.0046729487720050386 0 -0.39300328038815729 0.019655644102602461 0 -0.39149303023403142 -0.005335277537219363 0 -0.38510027358075227 0.0044364300124967379 0 -0.39856960861661739 0.0046729487720050386 0 -0.40872204527111111 0.022867749962900141 0 -0.40217936848404251 0.040656332868689943 0 -0.39300328038815729 0.019655644102602461 0 -0.40217936848404251 0.040656332868689943 0 -0.38670634030283008 0.033034015008687988 0 -0.39300328038815729 0.019655644102602461 0 -0.40872204527111111 0.022867749962900141 0 -0.39856960861661739 0.0046729487720050386 0 -0.39300328038815729 0.019655644102602461 0 -0.3875766108720648 0.10801011350679229 0 -0.40575939566394709 0.088936040450249165 0 -0.41194990864025682 0.1130743234930766 0 -0.3875766108720648 0.10801011350679229 0 -0.41194990864025682 0.1130743234930766 0 -0.39303850838018423 0.12948099644521679 0 -0.3875766108720648 0.10801011350679229 0 -0.39303850838018423 0.12948099644521679 0 -0.36938718168541179 0.1255902499967409 0 -0.3875766108720648 0.10801011350679229 0 -0.37678680274428078 0.095920052983538381 0 -0.36262419495280129 0.1038515713423341 0 -0.3875766108720648 0.10801011350679229 0 -0.37678680274428078 0.095920052983538381 0 -0.38674475774594591 0.083266397622394045 0 -0.37678680274428078 0.095920052983538381 0 -0.38674475774594591 0.083266397622394045 0 -0.37138104083623391 0.082703932652830325 0 -0.38674475774594591 0.083266397622394045 0 -0.37191756568804107 0.066739953928913298 0 -0.37138104083623391 0.082703932652830325 0 -0.38674475774594591 0.083266397622394045 0 -0.39445515791527019 0.0661614229995688 0 -0.37191756568804107 0.066739953928913298 0 -0.39445515791527019 0.0661614229995688 0 -0.40575939566394709 0.088936040450249165 0 -0.41480013606608229 0.067490970918863163 0 -0.38674475774594591 0.083266397622394045 0 -0.39445515791527019 0.0661614229995688 0 -0.40575939566394709 0.088936040450249165 0 -0.3875766108720648 0.10801011350679229 0 -0.38674475774594591 0.083266397622394045 0 -0.40575939566394709 0.088936040450249165 0 -0.40575939566394709 0.088936040450249165 0 -0.41480013606608229 0.067490970918863163 0 -0.43079976792318958 0.090862199026124468 0 -0.44375990034961432 0.061031549153910312 0 -0.41480013606608229 0.067490970918863163 0 -0.43079976792318958 0.090862199026124468 0 -0.43079976792318958 0.090862199026124468 0 -0.41194990864025682 0.1130743234930766 0 -0.43625153759456498 0.1245866202337218 0 -0.40575939566394709 0.088936040450249165 0 -0.43079976792318958 0.090862199026124468 0 -0.41194990864025682 0.1130743234930766 0 -0.43079976792318958 0.090862199026124468 0 -0.43625153759456498 0.1245866202337218 0 -0.45075561745381781 0.10580031757457831 0 -0.43625153759456498 0.1245866202337218 0 -0.45075561745381781 0.10580031757457831 0 -0.46287227134589981 0.1236989169114972 0 -0.43079976792318958 0.090862199026124468 0 -0.45075561745381781 0.10580031757457831 0 -0.4588216169113003 0.086741701229484575 0 -0.45075561745381781 0.10580031757457831 0 -0.4588216169113003 0.086741701229484575 0 -0.47201107007212878 0.1037065685212097 0 -0.45075561745381781 0.10580031757457831 0 -0.46287227134589981 0.1236989169114972 0 -0.47201107007212878 0.1037065685212097 0 -0.44375990034961432 0.061031549153910312 0 -0.43079976792318958 0.090862199026124468 0 -0.4588216169113003 0.086741701229484575 0 -0.44375990034961432 0.061031549153910312 0 -0.4588216169113003 0.086741701229484575 0 -0.47254774460753413 0.064823884848466309 0 -0.4588216169113003 0.086741701229484575 0 -0.47254774460753413 0.064823884848466309 0 -0.4588216169113003 0.086741701229484575 0 -0.47254774460753413 0.064823884848466309 0 -0.4818122771930986 0.082263337292499406 0 -0.48827346409411548 0.06027768147110632 0 -0.47254774460753413 0.064823884848466309 0 -0.4818122771930986 0.082263337292499406 0 -0.4588216169113003 0.086741701229484575 0 -0.4818122771930986 0.082263337292499406 0 -0.47201107007212878 0.1037065685212097 0 -0.4818122771930986 0.082263337292499406 0 -0.5 0.074050186516637917 0 -0.5 0.1005811537317424 0 -0.48827346409411548 0.06027768147110632 0 -0.4818122771930986 0.082263337292499406 0 -0.5 0.074050186516637917 0 -0.46287227134589981 0.1236989169114972 0 -0.48219315692656572 0.1205151432882924 0 -0.47201107007212878 0.1037065685212097 0 -0.4818122771930986 0.082263337292499406 0 -0.47201107007212878 0.1037065685212097 0 -0.5 0.1005811537317424 0 -0.48219315692656572 0.1205151432882924 0 -0.47201107007212878 0.1037065685212097 0 -0.5 0.1005811537317424 0 -0.48219315692656572 0.1205151432882924 0 -0.5 0.1005811537317424 0 -0.5 0.12711212094684679 0 -0.48219315692656572 0.1205151432882924 0 -0.5 0.12711212094684679 0 -0.47883924748460222 0.14018161060892731 0 -0.5 0.12711212094684679 0 -0.47883924748460222 0.14018161060892731 0 -0.5 0.15364308816195121 0 -0.46287227134589981 0.1236989169114972 0 -0.48219315692656572 0.1205151432882924 0 -0.47883924748460222 0.14018161060892731 0 -0.47883924748460222 0.14018161060892731 0 -0.5 0.15364308816195121 0 -0.47008479780898071 0.1615400033189848 0 -0.5 0.15364308816195121 0 -0.50000000000000089 0.18017405537705561 0 -0.48213074815480522 0.17495155205334359 0 -0.50000000000000089 0.18017405537705561 0 -0.48146292621815812 0.19355635563559381 0 -0.50000000000000089 0.18017405537705561 0 -0.48213074815480522 0.17495155205334359 0 -0.48146292621815812 0.19355635563559381 0 -0.48213074815480522 0.17495155205334359 0 -0.45945765920556431 0.18493118343544621 0 -0.48146292621815812 0.19355635563559381 0 -0.48213074815480522 0.17495155205334359 0 -0.47008479780898071 0.1615400033189848 0 -0.45945765920556431 0.18493118343544621 0 -0.5 0.15364308816195121 0 -0.48213074815480522 0.17495155205334359 0 -0.47008479780898071 0.1615400033189848 0 -0.47008479780898071 0.1615400033189848 0 -0.45945765920556431 0.18493118343544621 0 -0.44491624466772411 0.16813711573335099 0 -0.47008479780898071 0.1615400033189848 0 -0.44491624466772411 0.16813711573335099 0 -0.45700588157118233 0.14460720660399121 0 -0.45945765920556431 0.18493118343544621 0 -0.44491624466772411 0.16813711573335099 0 -0.43474290047699488 0.19015608798310391 0 -0.44491624466772411 0.16813711573335099 0 -0.45700588157118233 0.14460720660399121 0 -0.43611169665434868 0.1504606440305504 0 -0.43625153759456498 0.1245866202337218 0 -0.45700588157118233 0.14460720660399121 0 -0.43611169665434868 0.1504606440305504 0 -0.43625153759456498 0.1245866202337218 0 -0.46287227134589981 0.1236989169114972 0 -0.45700588157118233 0.14460720660399121 0 -0.46287227134589981 0.1236989169114972 0 -0.47883924748460222 0.14018161060892731 0 -0.45700588157118233 0.14460720660399121 0 -0.47883924748460222 0.14018161060892731 0 -0.47008479780898071 0.1615400033189848 0 -0.45700588157118233 0.14460720660399121 0 -0.48207357253193078 0.21739097549918149 0 -0.5 0.2118815469096284 0 -0.5 0.25502500317745308 0 -0.48207357253193078 0.21739097549918149 0 -0.46802780128701832 0.22930896654194979 0 -0.5 0.25502500317745308 0 -0.46802780128701832 0.22930896654194979 0 -0.5 0.25502500317745308 0 -0.46826200115894351 0.25268254595322559 0 -0.50000000000000089 0.18017405537705561 0 -0.5 0.2118815469096284 0 -0.48146292621815812 0.19355635563559381 0 -0.48207357253193078 0.21739097549918149 0 -0.46292585243631501 0.20693865589413171 0 -0.46802780128701832 0.22930896654194979 0 -0.48207357253193078 0.21739097549918149 0 -0.48146292621815812 0.19355635563559381 0 -0.46292585243631501 0.20693865589413171 0 -0.48207357253193078 0.21739097549918149 0 -0.5 0.2118815469096284 0 -0.48146292621815812 0.19355635563559381 0 -0.48146292621815812 0.19355635563559381 0 -0.46292585243631501 0.20693865589413171 0 -0.45945765920556431 0.18493118343544621 0 -0.44696073447060752 0.20212681262101459 0 -0.46292585243631501 0.20693865589413171 0 -0.45945765920556431 0.18493118343544621 0 -0.48146292621815812 0.19355635563559381 0 -0.46292585243631501 0.20693865589413171 0 -0.45945765920556431 0.18493118343544621 0 -0.44696073447060752 0.20212681262101459 0 -0.43474290047699488 0.19015608798310391 0 -0.44696073447060752 0.20212681262101459 0 -0.43414988282090411 0.20902301392359759 0 -0.43474290047699488 0.19015608798310391 0 -0.44696073447060752 0.20212681262101459 0 -0.44438877865447191 0.2203209561526695 0 -0.43414988282090411 0.20902301392359759 0 -0.44696073447060752 0.20212681262101459 0 -0.46292585243631501 0.20693865589413171 0 -0.44438877865447191 0.2203209561526695 0 -0.46292585243631501 0.20693865589413171 0 -0.46802780128701832 0.22930896654194979 0 -0.45690026230445402 0.21971898361319381 0 -0.46292585243631501 0.20693865589413171 0 -0.44438877865447191 0.2203209561526695 0 -0.46292585243631501 0.20693865589413171 0 -0.45690026230445402 0.21971898361319381 0 -0.44438877865447191 0.2203209561526695 0 -0.46802780128701832 0.22930896654194979 0 -0.45424796336563722 0.22861724854116511 0 -0.45412118124825718 0.2395922552223117 0 -0.46802780128701832 0.22930896654194979 0 -0.45424796336563722 0.22861724854116511 0 -0.45690026230445402 0.21971898361319381 0 -0.45424796336563722 0.22861724854116511 0 -0.45690026230445402 0.21971898361319381 0 -0.44707608940517052 0.22231138206831691 0 -0.44707608940517052 0.22231138206831691 0 -0.44438877865447191 0.2203209561526695 0 -0.42586105085507731 0.219809117860577 0 -0.45690026230445402 0.21971898361319381 0 -0.44707608940517052 0.22231138206831691 0 -0.44438877865447191 0.2203209561526695 0 -0.44707608940517052 0.22231138206831691 0 -0.43755936465329281 0.22698532229141799 0 -0.44511448258328629 0.23215465526005299 0 -0.43755936465329281 0.22698532229141799 0 -0.44511448258328629 0.23215465526005299 0 -0.43218583576963709 0.2336661339767252 0 -0.45424796336563722 0.22861724854116511 0 -0.44707608940517052 0.22231138206831691 0 -0.44511448258328629 0.23215465526005299 0 -0.45424796336563722 0.22861724854116511 0 -0.44511448258328629 0.23215465526005299 0 -0.45412118124825718 0.2395922552223117 0 -0.44511448258328629 0.23215465526005299 0 -0.44161393816558842 0.24155257742212199 0 -0.45412118124825718 0.2395922552223117 0 -0.44511448258328629 0.23215465526005299 0 -0.44161393816558842 0.24155257742212199 0 -0.43218583576963709 0.2336661339767252 0 -0.44161393816558842 0.24155257742212199 0 -0.43243648966469961 0.24825823729562091 0 -0.44622747097204157 0.25447826500352411 0 -0.44161393816558842 0.24155257742212199 0 -0.45412118124825718 0.2395922552223117 0 -0.44622747097204157 0.25447826500352411 0 -0.46802780128701832 0.22930896654194979 0 -0.45412118124825718 0.2395922552223117 0 -0.46826200115894351 0.25268254595322559 0 -0.45412118124825718 0.2395922552223117 0 -0.46826200115894351 0.25268254595322559 0 -0.44622747097204157 0.25447826500352411 0 -0.40931020750963998 0.23948355441692229 0 -0.40101037553383972 0.24850817254535781 0 -0.4154354269666965 0.25327969466909228 0 -0.40931020750963998 0.23948355441692229 0 -0.42148184861410209 0.2406921978309261 0 -0.41698703102379953 0.22969989485302911 0 -0.40931020750963998 0.23948355441692229 0 -0.42148184861410209 0.2406921978309261 0 -0.4154354269666965 0.25327969466909228 0 -0.42148184861410209 0.2406921978309261 0 -0.43243648966469961 0.24825823729562091 0 -0.4154354269666965 0.25327969466909228 0 -0.44161393816558842 0.24155257742212199 0 -0.43243648966469961 0.24825823729562091 0 -0.43218583576963709 0.2336661339767252 0 -0.42148184861410209 0.2406921978309261 0 -0.43243648966469961 0.24825823729562091 0 -0.43218583576963709 0.2336661339767252 0 -0.42148184861410209 0.2406921978309261 0 -0.43218583576963709 0.2336661339767252 0 -0.41698703102379953 0.22969989485302911 0 -0.43218583576963709 0.2336661339767252 0 -0.42586105085507731 0.219809117860577 0 -0.41698703102379953 0.22969989485302911 0 -0.44707608940517052 0.22231138206831691 0 -0.42586105085507731 0.219809117860577 0 -0.44707608940517052 0.22231138206831691 0 -0.43755936465329281 0.22698532229141799 0 -0.42586105085507731 0.219809117860577 0 -0.43755936465329281 0.22698532229141799 0 -0.43218583576963709 0.2336661339767252 0 -0.42586105085507731 0.219809117860577 0 -0.42586105085507731 0.219809117860577 0 -0.41698703102379953 0.22969989485302911 0 -0.4046460123049842 0.2173068536528372 0 -0.40931020750963998 0.23948355441692229 0 -0.41698703102379953 0.22969989485302911 0 -0.40590702596286521 0.22946517391640911 0 -0.41698703102379953 0.22969989485302911 0 -0.4046460123049842 0.2173068536528372 0 -0.40590702596286521 0.22946517391640911 0 -0.42586105085507731 0.219809117860577 0 -0.4046460123049842 0.2173068536528372 0 -0.41722227291546332 0.20591524768845371 0 -0.39877196507631202 0.20270266476287849 0 -0.4046460123049842 0.2173068536528372 0 -0.42586105085507731 0.219809117860577 0 -0.41722227291546332 0.20591524768845371 0 -0.4046460123049842 0.2173068536528372 0 -0.42586105085507731 0.219809117860577 0 -0.41722227291546332 0.20591524768845371 0 -0.43414988282090411 0.20902301392359759 0 -0.44438877865447191 0.2203209561526695 0 -0.42586105085507731 0.219809117860577 0 -0.43414988282090411 0.20902301392359759 0 -0.41722227291546332 0.20591524768845371 0 -0.43414988282090411 0.20902301392359759 0 -0.43474290047699488 0.19015608798310391 0 -0.41722227291546332 0.20591524768845371 0 -0.40891615430536432 0.18798503216574861 0 -0.39877196507631202 0.20270266476287849 0 -0.41722227291546332 0.20591524768845371 0 -0.43474290047699488 0.19015608798310391 0 -0.40891615430536432 0.18798503216574861 0 -0.40891615430536432 0.18798503216574861 0 -0.39877196507631202 0.20270266476287849 0 -0.38648279715089662 0.18713020989402271 0 -0.38343097375489099 0.21480458944509739 0 -0.38648279715089662 0.18713020989402271 0 -0.37238122863976891 0.2002171120067491 0 -0.39877196507631202 0.20270266476287849 0 -0.38343097375489099 0.21480458944509739 0 -0.38648279715089662 0.18713020989402271 0 -0.38343097375489099 0.21480458944509739 0 -0.38648279715089662 0.18713020989402271 0 -0.38343097375489099 0.21480458944509739 0 -0.37154761244084089 0.2134029747549531 0 -0.37238122863976891 0.2002171120067491 0 -0.38343097375489099 0.21480458944509739 0 -0.37566813965858681 0.2234148702422048 0 -0.37154761244084089 0.2134029747549531 0 -0.38343097375489099 0.21480458944509739 0 -0.37154761244084089 0.2134029747549531 0 -0.38343097375489099 0.21480458944509739 0 -0.4046460123049842 0.2173068536528372 0 -0.38992427199157043 0.22185450724293909 0 -0.38343097375489099 0.21480458944509739 0 -0.4046460123049842 0.2173068536528372 0 -0.39877196507631202 0.20270266476287849 0 -0.38343097375489099 0.21480458944509739 0 -0.4046460123049842 0.2173068536528372 0 -0.4046460123049842 0.2173068536528372 0 -0.39872340832513992 0.226351764622962 0 -0.40590702596286521 0.22946517391640911 0 -0.39872340832513992 0.226351764622962 0 -0.40590702596286521 0.22946517391640911 0 -0.39648996776890633 0.23582301492399779 0 -0.39872340832513992 0.226351764622962 0 -0.38992427199157043 0.22185450724293909 0 -0.39648996776890633 0.23582301492399779 0 -0.4046460123049842 0.2173068536528372 0 -0.39872340832513992 0.226351764622962 0 -0.38992427199157043 0.22185450724293909 0 -0.38343097375489099 0.21480458944509739 0 -0.37566813965858681 0.2234148702422048 0 -0.38119555285080597 0.2350757121572056 0 -0.38343097375489099 0.21480458944509739 0 -0.38992427199157043 0.22185450724293909 0 -0.38119555285080597 0.2350757121572056 0 -0.38343097375489099 0.21480458944509739 0 -0.38119555285080597 0.2350757121572056 0 -0.38119555285080597 0.2350757121572056 0 -0.37210575503526089 0.24405057661464391 0 -0.37896013194671968 0.25534683486931381 0 -0.38119555285080597 0.2350757121572056 0 -0.37896013194671968 0.25534683486931381 0 -0.38992427199157043 0.22185450724293909 0 -0.38119555285080597 0.2350757121572056 0 -0.38722819947627368 0.24843385443806909 0 -0.38992427199157043 0.22185450724293909 0 -0.38722819947627368 0.24843385443806909 0 -0.38119555285080597 0.2350757121572056 0 -0.38722819947627368 0.24843385443806909 0 -0.37896013194671968 0.25534683486931381 0 -0.38992427199157043 0.22185450724293909 0 -0.38722819947627368 0.24843385443806909 0 -0.39648996776890633 0.23582301492399779 0 -0.38722819947627368 0.24843385443806909 0 -0.39648996776890633 0.23582301492399779 0 -0.40101037553383972 0.24850817254535781 0 -0.40931020750963998 0.23948355441692229 0 -0.39648996776890633 0.23582301492399779 0 -0.40101037553383972 0.24850817254535781 0 -0.40931020750963998 0.23948355441692229 0 -0.40590702596286521 0.22946517391640911 0 -0.39648996776890633 0.23582301492399779 0 -0.41530534823700072 0.1390315752597536 0 -0.41919069938251302 0.1652820875776414 0 -0.39528973877013662 0.15130477977831461 0 -0.41194990864025682 0.1130743234930766 0 -0.41530534823700072 0.1390315752597536 0 -0.39303850838018423 0.12948099644521679 0 -0.41194990864025682 0.1130743234930766 0 -0.43625153759456498 0.1245866202337218 0 -0.41530534823700072 0.1390315752597536 0 -0.43625153759456498 0.1245866202337218 0 -0.41530534823700072 0.1390315752597536 0 -0.43611169665434868 0.1504606440305504 0 -0.41530534823700072 0.1390315752597536 0 -0.43611169665434868 0.1504606440305504 0 -0.41919069938251302 0.1652820875776414 0 -0.44491624466772411 0.16813711573335099 0 -0.43611169665434868 0.1504606440305504 0 -0.41919069938251302 0.1652820875776414 0 -0.44491624466772411 0.16813711573335099 0 -0.43474290047699488 0.19015608798310391 0 -0.41919069938251302 0.1652820875776414 0 -0.40891615430536432 0.18798503216574861 0 -0.41919069938251302 0.1652820875776414 0 -0.39971758700540821 0.17129016696027699 0 -0.43474290047699488 0.19015608798310391 0 -0.40891615430536432 0.18798503216574861 0 -0.41919069938251302 0.1652820875776414 0 -0.41919069938251302 0.1652820875776414 0 -0.39971758700540821 0.17129016696027699 0 -0.39528973877013662 0.15130477977831461 0 -0.40891615430536432 0.18798503216574861 0 -0.39971758700540821 0.17129016696027699 0 -0.38648279715089662 0.18713020989402271 0 -0.39971758700540821 0.17129016696027699 0 -0.38648279715089662 0.18713020989402271 0 -0.372146074932449 0.16344591630492469 0 -0.39971758700540821 0.17129016696027699 0 -0.39528973877013662 0.15130477977831461 0 -0.372146074932449 0.16344591630492469 0 -0.37815506306193358 0.1433222327004802 0 -0.39528973877013662 0.15130477977831461 0 -0.39303850838018423 0.12948099644521679 0 -0.37815506306193358 0.1433222327004802 0 -0.39528973877013662 0.15130477977831461 0 -0.372146074932449 0.16344591630492469 0 -0.41530534823700072 0.1390315752597536 0 -0.39528973877013662 0.15130477977831461 0 -0.39303850838018423 0.12948099644521679 0 -0.37815506306193358 0.1433222327004802 0 -0.39303850838018423 0.12948099644521679 0 -0.36938718168541179 0.1255902499967409 0 -0.36938718168541179 0.1255902499967409 0 -0.35200794605681629 0.12502238642781019 0 -0.36027383228078641 0.14176664061691219 0 -0.37815506306193358 0.1433222327004802 0 -0.36938718168541179 0.1255902499967409 0 -0.36027383228078641 0.14176664061691219 0 -0.35200794605681629 0.12502238642781019 0 -0.36027383228078641 0.14176664061691219 0 -0.34238396195098092 0.13747367741656721 0 -0.34692124746973713 0.1542878562826405 0 -0.36027383228078641 0.14176664061691219 0 -0.34238396195098092 0.13747367741656721 0 -0.34692124746973713 0.1542878562826405 0 -0.36027383228078641 0.14176664061691219 0 -0.372146074932449 0.16344591630492469 0 -0.37815506306193358 0.1433222327004802 0 -0.36027383228078641 0.14176664061691219 0 -0.372146074932449 0.16344591630492469 0 -0.38648279715089662 0.18713020989402271 0 -0.372146074932449 0.16344591630492469 0 -0.35825464468573548 0.18846491094187309 0 -0.372146074932449 0.16344591630492469 0 -0.35358483912925948 0.17080886943100959 0 -0.35825464468573548 0.18846491094187309 0 -0.35358483912925948 0.17080886943100959 0 -0.35825464468573548 0.18846491094187309 0 -0.33660402194939321 0.18841081708856641 0 -0.34692124746973713 0.1542878562826405 0 -0.372146074932449 0.16344591630492469 0 -0.35358483912925948 0.17080886943100959 0 -0.34692124746973713 0.1542878562826405 0 -0.35358483912925948 0.17080886943100959 0 -0.33500456297109971 0.16792639800837539 0 -0.33500456297109971 0.16792639800837539 0 -0.31851102729851588 0.15590236448055639 0 -0.33255517435583237 0.14646848770795259 0 -0.35358483912925948 0.17080886943100959 0 -0.33500456297109971 0.16792639800837539 0 -0.33660402194939321 0.18841081708856641 0 -0.33500456297109971 0.16792639800837539 0 -0.31289652582642141 0.1805837036697519 0 -0.33660402194939321 0.18841081708856641 0 -0.33500456297109971 0.16792639800837539 0 -0.31289652582642141 0.1805837036697519 0 -0.33500456297109971 0.16792639800837539 0 -0.31289652582642141 0.1805837036697519 0 -0.31851102729851588 0.15590236448055639 0 -0.31851102729851588 0.15590236448055639 0 -0.31283651791160189 0.14254581953933751 0 -0.32160496684282269 0.13812883269818441 0 -0.31851102729851588 0.15590236448055639 0 -0.32160496684282269 0.13812883269818441 0 -0.33255517435583237 0.14646848770795259 0 -0.31283651791160189 0.14254581953933751 0 -0.32160496684282269 0.13812883269818441 0 -0.31723531685176609 0.1198603304800319 0 -0.32160496684282269 0.13812883269818441 0 -0.33282908497732799 0.12691684344983439 0 -0.31723531685176609 0.1198603304800319 0 -0.32160496684282269 0.13812883269818441 0 -0.33282908497732799 0.12691684344983439 0 -0.33255517435583237 0.14646848770795259 0 -0.35200794605681629 0.12502238642781019 0 -0.34238396195098092 0.13747367741656721 0 -0.33282908497732799 0.12691684344983439 0 -0.34238396195098092 0.13747367741656721 0 -0.33282908497732799 0.12691684344983439 0 -0.33255517435583237 0.14646848770795259 0 -0.34692124746973713 0.1542878562826405 0 -0.34238396195098092 0.13747367741656721 0 -0.33255517435583237 0.14646848770795259 0 -0.34692124746973713 0.1542878562826405 0 -0.33500456297109971 0.16792639800837539 0 -0.33255517435583237 0.14646848770795259 0 -0.36182205832064851 0.24457456243760281 0 -0.34139946132247112 0.24041351753421181 0 -0.35754908974886279 0.25815157521253052 0 -0.36182205832064851 0.24457456243760281 0 -0.36649841958780932 0.23037620461156319 0 -0.34139946132247112 0.24041351753421181 0 -0.36182205832064851 0.24457456243760281 0 -0.37210575503526089 0.24405057661464391 0 -0.36759241766554501 0.2538245840294952 0 -0.38119555285080597 0.2350757121572056 0 -0.37210575503526089 0.24405057661464391 0 -0.36649841958780932 0.23037620461156319 0 -0.36182205832064851 0.24457456243760281 0 -0.37210575503526089 0.24405057661464391 0 -0.36649841958780932 0.23037620461156319 0 -0.36649841958780932 0.23037620461156319 0 -0.35688565293773689 0.21871143604885451 0 -0.37154761244084089 0.2134029747549531 0 -0.37566813965858681 0.2234148702422048 0 -0.36649841958780932 0.23037620461156319 0 -0.37154761244084089 0.2134029747549531 0 -0.37566813965858681 0.2234148702422048 0 -0.38119555285080597 0.2350757121572056 0 -0.36649841958780932 0.23037620461156319 0 -0.35688565293773689 0.21871143604885451 0 -0.34289792395499269 0.21218791974938919 0 -0.34139946132247112 0.24041351753421181 0 -0.36649841958780932 0.23037620461156319 0 -0.35688565293773689 0.21871143604885451 0 -0.34139946132247112 0.24041351753421181 0 -0.35688565293773689 0.21871143604885451 0 -0.36039341253181489 0.20659687070036381 0 -0.34289792395499269 0.21218791974938919 0 -0.35688565293773689 0.21871143604885451 0 -0.37154761244084089 0.2134029747549531 0 -0.36039341253181489 0.20659687070036381 0 -0.37154761244084089 0.2134029747549531 0 -0.36039341253181489 0.20659687070036381 0 -0.37238122863976891 0.2002171120067491 0 -0.38648279715089662 0.18713020989402271 0 -0.37238122863976891 0.2002171120067491 0 -0.35825464468573548 0.18846491094187309 0 -0.36039341253181489 0.20659687070036381 0 -0.37238122863976891 0.2002171120067491 0 -0.35825464468573548 0.18846491094187309 0 -0.36039341253181489 0.20659687070036381 0 -0.35825464468573548 0.18846491094187309 0 -0.34289792395499269 0.21218791974938919 0 -0.35825464468573548 0.18846491094187309 0 -0.33660402194939321 0.18841081708856641 0 -0.34289792395499269 0.21218791974938919 0 -0.33660402194939321 0.18841081708856641 0 -0.32037844320246261 0.2049322073775762 0 -0.34289792395499269 0.21218791974938919 0 -0.31289652582642141 0.1805837036697519 0 -0.33660402194939321 0.18841081708856641 0 -0.32037844320246261 0.2049322073775762 0 -0.32037844320246261 0.2049322073775762 0 -0.32007631676378118 0.22793178832776281 0 -0.30808679103638181 0.2157672566230279 0 -0.32037844320246261 0.2049322073775762 0 -0.34289792395499269 0.21218791974938919 0 -0.32007631676378118 0.22793178832776281 0 -0.34289792395499269 0.21218791974938919 0 -0.34139946132247112 0.24041351753421181 0 -0.34289792395499269 0.21218791974938919 0 -0.32007631676378118 0.22793178832776281 0 -0.34139946132247112 0.24041351753421181 0 -0.32007631676378118 0.22793178832776281 0 -0.30683534910107541 0.24131982490484771 0 -0.32052316857880009 0.25199218265017043 0 -0.32007631676378118 0.22793178832776281 0 -0.34139946132247112 0.24041351753421181 0 -0.32052316857880009 0.25199218265017043 0 -0.28520633826073721 0.24204505302591109 0 -0.29177957584356251 0.2379097909607483 0 -0.29813700426351908 0.2549985658140525 0 -0.28520633826073721 0.24204505302591109 0 -0.29177957584356251 0.2379097909607483 0 -0.28620422144783292 0.23331914670984491 0 -0.28520633826073721 0.24204505302591109 0 -0.28620422144783292 0.23331914670984491 0 -0.2743775822837069 0.2311971640619615 0 -0.28520633826073721 0.24204505302591109 0 -0.29177957584356251 0.2379097909607483 0 -0.28520633826073721 0.24204505302591109 0 -0.29813700426351908 0.2549985658140525 0 -0.29177957584356251 0.2379097909607483 0 -0.30683534910107541 0.24131982490484771 0 -0.29813700426351908 0.2549985658140525 0 -0.30683534910107541 0.24131982490484771 0 -0.32052316857880009 0.25199218265017043 0 -0.29813700426351908 0.2549985658140525 0 -0.29177957584356251 0.2379097909607483 0 -0.30683534910107541 0.24131982490484771 0 -0.3025311369596701 0.2279451799051346 0 -0.32007631676378118 0.22793178832776281 0 -0.3025311369596701 0.2279451799051346 0 -0.30808679103638181 0.2157672566230279 0 -0.32007631676378118 0.22793178832776281 0 -0.30683534910107541 0.24131982490484771 0 -0.3025311369596701 0.2279451799051346 0 -0.3025311369596701 0.2279451799051346 0 -0.29339823295664158 0.22906557906458669 0 -0.29484583138699982 0.21546216672010021 0 -0.3025311369596701 0.2279451799051346 0 -0.29484583138699982 0.21546216672010021 0 -0.30808679103638181 0.2157672566230279 0 -0.28556364975324361 0.2258194074993474 0 -0.29484583138699982 0.21546216672010021 0 -0.2791973288468384 0.21790572090905611 0 -0.29339823295664158 0.22906557906458669 0 -0.28556364975324361 0.2258194074993474 0 -0.29484583138699982 0.21546216672010021 0 -0.29177957584356251 0.2379097909607483 0 -0.29339823295664158 0.22906557906458669 0 -0.28620422144783292 0.23331914670984491 0 -0.29177957584356251 0.2379097909607483 0 -0.3025311369596701 0.2279451799051346 0 -0.29339823295664158 0.22906557906458669 0 -0.29339823295664158 0.22906557906458669 0 -0.28620422144783292 0.23331914670984491 0 -0.28556364975324361 0.2258194074993474 0 -0.28620422144783292 0.23331914670984491 0 -0.28556364975324361 0.2258194074993474 0 -0.2743775822837069 0.2311971640619615 0 -0.29484583138699982 0.21546216672010021 0 -0.2791973288468384 0.21790572090905611 0 -0.28722286546432818 0.20701443054747121 0 -0.29484583138699982 0.21546216672010021 0 -0.2791973288468384 0.21790572090905611 0 -0.28722286546432818 0.20701443054747121 0 -0.29484583138699982 0.21546216672010021 0 -0.30260222686899518 0.20256494078456561 0 -0.32037844320246261 0.2049322073775762 0 -0.30808679103638181 0.2157672566230279 0 -0.30260222686899518 0.20256494078456561 0 -0.29484583138699982 0.21546216672010021 0 -0.30808679103638181 0.2157672566230279 0 -0.30260222686899518 0.20256494078456561 0 -0.31289652582642141 0.1805837036697519 0 -0.30260222686899518 0.20256494078456561 0 -0.29078848868174278 0.1932410093311285 0 -0.31289652582642141 0.1805837036697519 0 -0.32037844320246261 0.2049322073775762 0 -0.30260222686899518 0.20256494078456561 0 -0.28722286546432818 0.20701443054747121 0 -0.29078848868174278 0.1932410093311285 0 -0.26868045153706449 0.20589831499250541 0 -0.28722286546432818 0.20701443054747121 0 -0.30260222686899518 0.20256494078456561 0 -0.29078848868174278 0.1932410093311285 0 -0.29078848868174278 0.1932410093311285 0 -0.27856333876668132 0.18821622517566469 0 -0.28884814108856732 0.1821072455122304 0 -0.29078848868174278 0.1932410093311285 0 -0.27856333876668132 0.18821622517566469 0 -0.26868045153706449 0.20589831499250541 0 -0.27856333876668132 0.18821622517566469 0 -0.26868045153706449 0.20589831499250541 0 -0.29078848868174278 0.1932410093311285 0 -0.26868045153706449 0.20589831499250541 0 -0.27856333876668132 0.18821622517566469 0 -0.26868045153706449 0.20589831499250541 0 -0.26716833294266512 0.18744146854889909 0 -0.25462413856064708 0.2114088186030785 0 -0.26716833294266512 0.18744146854889909 0 -0.25193880530206408 0.19370481573741441 0 -0.26716833294266512 0.18744146854889909 0 -0.25648243047464631 0.1826357185327456 0 -0.25193880530206408 0.19370481573741441 0 -0.25462413856064708 0.2114088186030785 0 -0.26716833294266512 0.18744146854889909 0 -0.25462413856064708 0.2114088186030785 0 -0.26868045153706449 0.20589831499250541 0 -0.26716833294266512 0.18744146854889909 0 -0.2562356768596219 0.21302320427817639 0 -0.26868045153706449 0.20589831499250541 0 -0.25462413856064708 0.2114088186030785 0 -0.2562356768596219 0.21302320427817639 0 -0.26868045153706449 0.20589831499250541 0 -0.25272816581491458 0.21503132644266379 0 -0.25462413856064708 0.2114088186030785 0 -0.25272816581491458 0.21503132644266379 0 -0.2562356768596219 0.21302320427817639 0 -0.25272816581491458 0.21503132644266379 0 -0.25462413856064708 0.2114088186030785 0 -0.2562356768596219 0.21302320427817639 0 -0.25462413856064708 0.2114088186030785 0 -0.2562356768596219 0.21302320427817639 0 -0.25272816581491458 0.21503132644266379 0 -0.2562356768596219 0.21302320427817639 0 -0.25599591734786031 0.2173373503046071 0 -0.2562356768596219 0.21302320427817639 0 -0.25599591734786031 0.2173373503046071 0 -0.25801218981811458 0.2175055682723043 0 -0.25272816581491458 0.21503132644266379 0 -0.25599591734786031 0.2173373503046071 0 -0.2564563288255462 0.2214567869436789 0 -0.25599591734786031 0.2173373503046071 0 -0.25801218981811458 0.2175055682723043 0 -0.25703316838862827 0.21958787938824861 0 -0.2562356768596219 0.21302320427817639 0 -0.26166069193192981 0.2184578046382698 0 -0.26868045153706449 0.20589831499250541 0 -0.25801218981811458 0.2175055682723043 0 -0.25913549456253288 0.21912160275221951 0 -0.25703316838862827 0.21958787938824861 0 -0.26166069193192981 0.2184578046382698 0 -0.26868045153706449 0.20589831499250541 0 -0.26354882630667698 0.22034927509801169 0 -0.2562356768596219 0.21302320427817639 0 -0.26166069193192981 0.2184578046382698 0 -0.26166069193192981 0.2184578046382698 0 -0.26868045153706449 0.20589831499250541 0 -0.25801218981811458 0.2175055682723043 0 -0.26166069193192981 0.2184578046382698 0 -0.25913549456253288 0.21912160275221951 0 -0.2562356768596219 0.21302320427817639 0 -0.25801218981811458 0.2175055682723043 0 -0.26166069193192981 0.2184578046382698 0 -0.28722286546432818 0.20701443054747121 0 -0.26868045153706449 0.20589831499250541 0 -0.2791973288468384 0.21790572090905611 0 -0.26868045153706449 0.20589831499250541 0 -0.2791973288468384 0.21790572090905611 0 -0.26354882630667698 0.22034927509801169 0 -0.2791973288468384 0.21790572090905611 0 -0.26354882630667698 0.22034927509801169 0 -0.2791973288468384 0.21790572090905611 0 -0.2743775822837069 0.2311971640619615 0 -0.26354882630667698 0.22034927509801169 0 -0.28556364975324361 0.2258194074993474 0 -0.2791973288468384 0.21790572090905611 0 -0.2743775822837069 0.2311971640619615 0 -0.2743775822837069 0.2311971640619615 0 -0.26322708885207657 0.23130122429223079 0 -0.27053130904085088 0.23989425105438689 0 -0.2743775822837069 0.2311971640619615 0 -0.26354882630667698 0.22034927509801169 0 -0.26322708885207657 0.23130122429223079 0 -0.2743775822837069 0.2311971640619615 0 -0.26354882630667698 0.22034927509801169 0 -0.26354882630667698 0.22034927509801169 0 -0.26032187107898369 0.22085317251209219 0 -0.26322708885207657 0.23130122429223079 0 -0.26354882630667698 0.22034927509801169 0 -0.26032187107898369 0.22085317251209219 0 -0.26166069193192981 0.2184578046382698 0 -0.26354882630667698 0.22034927509801169 0 -0.26032187107898369 0.22085317251209219 0 -0.26166069193192981 0.2184578046382698 0 -0.26354882630667698 0.22034927509801169 0 -0.26166069193192981 0.2184578046382698 0 -0.26032187107898369 0.22085317251209219 0 -0.26166069193192981 0.2184578046382698 0 -0.26032187107898369 0.22085317251209219 0 -0.25913549456253288 0.21912160275221951 0 -0.26032187107898369 0.22085317251209219 0 -0.2564563288255462 0.2214567869436789 0 -0.26032187107898369 0.22085317251209219 0 -0.25703316838862827 0.21958787938824861 0 -0.2564563288255462 0.2214567869436789 0 -0.26032187107898369 0.22085317251209219 0 -0.25913549456253288 0.21912160275221951 0 -0.25703316838862827 0.21958787938824861 0 -0.25599591734786031 0.2173373503046071 0 -0.25703316838862827 0.21958787938824861 0 -0.2564563288255462 0.2214567869436789 0 -0.2564563288255462 0.2214567869436789 0 -0.25210514226647263 0.23555423440704959 0 -0.248734035528067 0.22266264303674471 0 -0.26032187107898369 0.22085317251209219 0 -0.2564563288255462 0.2214567869436789 0 -0.25210514226647263 0.23555423440704959 0 -0.25703316838862827 0.21958787938824861 0 -0.2564563288255462 0.2214567869436789 0 -0.25272816581491458 0.21503132644266379 0 -0.2564563288255462 0.2214567869436789 0 -0.248734035528067 0.22266264303674471 0 -0.2564563288255462 0.2214567869436789 0 -0.248734035528067 0.22266264303674471 0 -0.25272816581491458 0.21503132644266379 0 -0.248734035528067 0.22266264303674471 0 -0.26032187107898369 0.22085317251209219 0 -0.25210514226647263 0.23555423440704959 0 -0.2564563288255462 0.2214567869436789 0 -0.25210514226647263 0.23555423440704959 0 -0.26032187107898369 0.22085317251209219 0 -0.26322708885207657 0.23130122429223079 0 -0.25210514226647263 0.23555423440704959 0 -0.26322708885207657 0.23130122429223079 0 -0.25210514226647263 0.23555423440704959 0 -0.25993357060704247 0.2432609816545768 0 -0.25054816238852479 0.24059870715785611 0 -0.25993357060704247 0.2432609816545768 0 -0.2546175921406465 0.26128861144859822 0 -0.26322708885207657 0.23130122429223079 0 -0.25993357060704247 0.2432609816545768 0 -0.27053130904085088 0.23989425105438689 0 -0.25054816238852479 0.24059870715785611 0 -0.25210514226647263 0.23555423440704959 0 -0.25993357060704247 0.2432609816545768 0 -0.25054816238852479 0.24059870715785611 0 -0.25210514226647263 0.23555423440704959 0 -0.25993357060704247 0.2432609816545768 0 -0.27053130904085088 0.23989425105438689 0 -0.26991196520069161 0.25166683223725428 0 -0.28520633826073721 0.24204505302591109 0 -0.2743775822837069 0.2311971640619615 0 -0.27053130904085088 0.23989425105438689 0 -0.28520633826073721 0.24204505302591109 0 -0.2743775822837069 0.2311971640619615 0 -0.28520633826073721 0.24204505302591109 0 -0.26991196520069161 0.25166683223725428 0 -0.28520633826073721 0.24204505302591109 0 -0.27053130904085088 0.23989425105438689 0 -0.26991196520069161 0.25166683223725428 0 -0.29367763624156518 0.14580120048619691 0 -0.30132029725935677 0.14489814247345079 0 -0.28540527766694768 0.16993595446686949 0 -0.30132029725935677 0.14489814247345079 0 -0.29832911322591421 0.15285204554198301 0 -0.28540527766694768 0.16993595446686949 0 -0.29225672170669897 0.1395067684405393 0 -0.27971252732468282 0.16347411849471971 0 -0.29367763624156518 0.14580120048619691 0 -0.29225672170669897 0.1395067684405393 0 -0.27971252732468282 0.16347411849471971 0 -0.29225672170669897 0.1395067684405393 0 -0.27971252732468282 0.16347411849471971 0 -0.27793738210199243 0.14829742822643491 0 -0.29367763624156518 0.14580120048619691 0 -0.29225672170669897 0.1395067684405393 0 -0.29367763624156518 0.14580120048619691 0 -0.29225672170669897 0.1395067684405393 0 -0.29707098058306791 0.1417275861303573 0 -0.29225672170669897 0.1395067684405393 0 -0.27793738210199243 0.14829742822643491 0 -0.28046643513796882 0.14013597811185341 0 -0.29225672170669897 0.1395067684405393 0 -0.27842990629181991 0.12905884737457521 0 -0.28046643513796882 0.14013597811185341 0 -0.29225672170669897 0.1395067684405393 0 -0.27842990629181991 0.12905884737457521 0 -0.2863041877154166 0.1131379617402274 0 -0.29225672170669897 0.1395067684405393 0 -0.2863041877154166 0.1131379617402274 0 -0.29225672170669897 0.1395067684405393 0 -0.2981778848162786 0.128193599602963 0 -0.2863041877154166 0.1131379617402274 0 -0.29225672170669897 0.1395067684405393 0 -0.30121224024343363 0.13483728542546841 0 -0.29707098058306791 0.1417275861303573 0 -0.29225672170669897 0.1395067684405393 0 -0.2981778848162786 0.128193599602963 0 -0.29225672170669897 0.1395067684405393 0 -0.30121224024343363 0.13483728542546841 0 -0.2981778848162786 0.128193599602963 0 -0.30121224024343363 0.13483728542546841 0 -0.2981778848162786 0.128193599602963 0 -0.31723531685176609 0.1198603304800319 0 -0.30132029725935677 0.14489814247345079 0 -0.31723531685176609 0.1198603304800319 0 -0.30121224024343363 0.13483728542546841 0 -0.30132029725935677 0.14489814247345079 0 -0.29707098058306791 0.1417275861303573 0 -0.31283651791160189 0.14254581953933751 0 -0.30132029725935677 0.14489814247345079 0 -0.31723531685176609 0.1198603304800319 0 -0.30121224024343363 0.13483728542546841 0 -0.30132029725935677 0.14489814247345079 0 -0.31723531685176609 0.1198603304800319 0 -0.31283651791160189 0.14254581953933751 0 -0.30132029725935677 0.14489814247345079 0 -0.30551098130554788 0.1539394275644638 0 -0.29367763624156518 0.14580120048619691 0 -0.30132029725935677 0.14489814247345079 0 -0.29707098058306791 0.1417275861303573 0 -0.30132029725935677 0.14489814247345079 0 -0.29832911322591421 0.15285204554198301 0 -0.30551098130554788 0.1539394275644638 0 -0.31851102729851588 0.15590236448055639 0 -0.31283651791160189 0.14254581953933751 0 -0.30551098130554788 0.1539394275644638 0 -0.31289652582642141 0.1805837036697519 0 -0.31851102729851588 0.15590236448055639 0 -0.30548605551313601 0.16580850627828139 0 -0.31851102729851588 0.15590236448055639 0 -0.30551098130554788 0.1539394275644638 0 -0.30548605551313601 0.16580850627828139 0 -0.30548605551313601 0.16580850627828139 0 -0.29764345600278319 0.16844986735664469 0 -0.29759451090954719 0.17643761218330459 0 -0.30548605551313601 0.16580850627828139 0 -0.29764345600278319 0.16844986735664469 0 -0.29908316640873578 0.16231679642003941 0 -0.29832911322591421 0.15285204554198301 0 -0.30551098130554788 0.1539394275644638 0 -0.29908316640873578 0.16231679642003941 0 -0.30551098130554788 0.1539394275644638 0 -0.30548605551313601 0.16580850627828139 0 -0.29908316640873578 0.16231679642003941 0 -0.31289652582642141 0.1805837036697519 0 -0.29078848868174278 0.1932410093311285 0 -0.29759451090954719 0.17643761218330459 0 -0.31289652582642141 0.1805837036697519 0 -0.29078848868174278 0.1932410093311285 0 -0.31289652582642141 0.1805837036697519 0 -0.30548605551313601 0.16580850627828139 0 -0.29759451090954719 0.17643761218330459 0 -0.27856333876668132 0.18821622517566469 0 -0.28844622599629782 0.17053413535882381 0 -0.27856333876668132 0.18821622517566469 0 -0.28884814108856732 0.1821072455122304 0 -0.28844622599629782 0.17053413535882381 0 -0.27856333876668132 0.18821622517566469 0 -0.28540527766694768 0.16993595446686949 0 -0.28844622599629782 0.17053413535882381 0 -0.29078848868174278 0.1932410093311285 0 -0.29759451090954719 0.17643761218330459 0 -0.28884814108856732 0.1821072455122304 0 -0.29759451090954719 0.17643761218330459 0 -0.28884814108856732 0.1821072455122304 0 -0.28844622599629782 0.17053413535882381 0 -0.29832911322591421 0.15285204554198301 0 -0.29908316640873578 0.16231679642003941 0 -0.28844622599629782 0.17053413535882381 0 -0.30132029725935677 0.14489814247345079 0 -0.28540527766694768 0.16993595446686949 0 -0.29367763624156518 0.14580120048619691 0 -0.28540527766694768 0.16993595446686949 0 -0.27971252732468282 0.16347411849471971 0 -0.29832911322591421 0.15285204554198301 0 -0.28540527766694768 0.16993595446686949 0 -0.28844622599629782 0.17053413535882381 0 -0.29832911322591421 0.15285204554198301 0 -0.28844622599629782 0.17053413535882381 0 -0.29764345600278319 0.16844986735664469 0 -0.29759451090954719 0.17643761218330459 0 -0.28844622599629782 0.17053413535882381 0 -0.29764345600278319 0.16844986735664469 0 -0.29908316640873578 0.16231679642003941 0 -0.28844622599629782 0.17053413535882381 0 -0.27971252732468282 0.16347411849471971 0 -0.26681583754358312 0.15703960248194049 0 -0.27793738210199243 0.14829742822643491 0 -0.27971252732468282 0.16347411849471971 0 -0.26864544582317851 0.1695326912228835 0 -0.26681583754358312 0.15703960248194049 0 -0.28540527766694768 0.16993595446686949 0 -0.27971252732468282 0.16347411849471971 0 -0.26716833294266512 0.18744146854889909 0 -0.27971252732468282 0.16347411849471971 0 -0.26716833294266512 0.18744146854889909 0 -0.27856333876668132 0.18821622517566469 0 -0.28540527766694768 0.16993595446686949 0 -0.26716833294266512 0.18744146854889909 0 -0.27971252732468282 0.16347411849471971 0 -0.26864544582317851 0.1695326912228835 0 -0.26716833294266512 0.18744146854889909 0 -0.26088508548178302 0.1701755753659748 0 -0.24346313069296871 0.16633892637512099 0 -0.24593749817207319 0.17922101447869401 0 -0.26864544582317851 0.1695326912228835 0 -0.26716833294266512 0.18744146854889909 0 -0.26088508548178302 0.1701755753659748 0 -0.26716833294266512 0.18744146854889909 0 -0.25648243047464631 0.1826357185327456 0 -0.26088508548178302 0.1701755753659748 0 -0.25648243047464631 0.1826357185327456 0 -0.26088508548178302 0.1701755753659748 0 -0.24593749817207319 0.17922101447869401 0 -0.25193880530206408 0.19370481573741441 0 -0.25648243047464631 0.1826357185327456 0 -0.24593749817207319 0.17922101447869401 0 -0.26681583754358312 0.15703960248194049 0 -0.26088508548178302 0.1701755753659748 0 -0.25072842261960387 0.15603505327837411 0 -0.26088508548178302 0.1701755753659748 0 -0.25072842261960387 0.15603505327837411 0 -0.24346313069296871 0.16633892637512099 0 -0.26864544582317851 0.1695326912228835 0 -0.26681583754358312 0.15703960248194049 0 -0.26088508548178302 0.1701755753659748 0 -0.26088508548178302 0.1701755753659748 0 -0.25072842261960387 0.15603505327837411 0 -0.26681583754358312 0.15703960248194049 0 -0.25608290515330878 0.14176455504424121 0 -0.27043538879702828 0.1413306736031216 0 -0.26681583754358312 0.15703960248194049 0 -0.25072842261960387 0.15603505327837411 0 -0.25608290515330878 0.14176455504424121 0 -0.26681583754358312 0.15703960248194049 0 -0.27043538879702828 0.1413306736031216 0 -0.27793738210199243 0.14829742822643491 0 -0.27043538879702828 0.1413306736031216 0 -0.27793738210199243 0.14829742822643491 0 -0.28046643513796882 0.14013597811185341 0 -0.27043538879702828 0.1413306736031216 0 -0.27842990629181991 0.12905884737457521 0 -0.28046643513796882 0.14013597811185341 0 -0.27043538879702828 0.1413306736031216 0 -0.27842990629181991 0.12905884737457521 0 -0.2648400147316442 0.13011893998476409 0 -0.27842990629181991 0.12905884737457521 0 -0.2648400147316442 0.13011893998476409 0 -0.26830038075826779 0.11624375259475619 0 -0.25608290515330878 0.14176455504424121 0 -0.2648400147316442 0.13011893998476409 0 -0.24895710550971339 0.12165530893482571 0 -0.25608290515330878 0.14176455504424121 0 -0.27043538879702828 0.1413306736031216 0 -0.2648400147316442 0.13011893998476409 0 -0.25734245126200062 0.1014160866788785 0 -0.26830038075826779 0.11624375259475619 0 -0.24895710550971339 0.12165530893482571 0 -0.2648400147316442 0.13011893998476409 0 -0.26830038075826779 0.11624375259475619 0 -0.24895710550971339 0.12165530893482571 0 -0.25734245126200062 0.1014160866788785 0 -0.24895710550971339 0.12165530893482571 0 -0.25734245126200062 0.1014160866788785 0 -0.27392861903901239 0.1020753708552664 0 -0.26830038075826779 0.11624375259475619 0 -0.27392861903901239 0.1020753708552664 0 -0.2863041877154166 0.1131379617402274 0 -0.28035165372413551 0.086769155039914989 0 -0.25734245126200062 0.1014160866788785 0 -0.27392861903901239 0.1020753708552664 0 -0.26572779701428773 0.081176864422931191 0 -0.27842990629181991 0.12905884737457521 0 -0.26830038075826779 0.11624375259475619 0 -0.2863041877154166 0.1131379617402274 0 -0.27392861903901239 0.1020753708552664 0 -0.26830038075826779 0.11624375259475619 0 -0.2863041877154166 0.1131379617402274 0 -0.2981778848162786 0.128193599602963 0 -0.2863041877154166 0.1131379617402274 0 -0.30134905106005738 0.1164832023402728 0 -0.2863041877154166 0.1131379617402274 0 -0.28035165372413551 0.086769155039914989 0 -0.2863041877154166 0.1131379617402274 0 -0.29405774138327462 0.094893752904386258 0 -0.28035165372413551 0.086769155039914989 0 -0.2863041877154166 0.1131379617402274 0 -0.29405774138327462 0.094893752904386258 0 -0.30367881485676818 0.104740917537869 0 -0.29405774138327462 0.094893752904386258 0 -0.30367881485676818 0.104740917537869 0 -0.30859009333780452 0.087437634974232029 0 -0.30367881485676818 0.104740917537869 0 -0.30859009333780452 0.087437634974232029 0 -0.31724517505712951 0.098806923667406316 0 -0.2981778848162786 0.128193599602963 0 -0.30134905106005738 0.1164832023402728 0 -0.31723531685176609 0.1198603304800319 0 -0.2863041877154166 0.1131379617402274 0 -0.30367881485676818 0.104740917537869 0 -0.30134905106005738 0.1164832023402728 0 -0.30367881485676818 0.104740917537869 0 -0.30134905106005738 0.1164832023402728 0 -0.31723531685176609 0.1198603304800319 0 -0.30660633332941051 0.074378369855040594 0 -0.29366682663590249 0.070755320590707688 0 -0.31081826144354868 0.060679329518446831 0 -0.30660633332941051 0.074378369855040594 0 -0.29665452968210548 0.0828468466728563 0 -0.29366682663590249 0.070755320590707688 0 -0.29405774138327462 0.094893752904386258 0 -0.30859009333780452 0.087437634974232029 0 -0.29665452968210548 0.0828468466728563 0 -0.30660633332941051 0.074378369855040594 0 -0.30859009333780452 0.087437634974232029 0 -0.29665452968210548 0.0828468466728563 0 -0.29665452968210548 0.0828468466728563 0 -0.29366682663590249 0.070755320590707688 0 -0.28035165372413551 0.086769155039914989 0 -0.29405774138327462 0.094893752904386258 0 -0.29665452968210548 0.0828468466728563 0 -0.28035165372413551 0.086769155039914989 0 -0.29366682663590249 0.070755320590707688 0 -0.28035165372413551 0.086769155039914989 0 -0.2743991197328543 0.06040034833960263 0 -0.28035165372413551 0.086769155039914989 0 -0.2743991197328543 0.06040034833960263 0 -0.28035165372413551 0.086769155039914989 0 -0.26572779701428773 0.081176864422931191 0 -0.2743991197328543 0.06040034833960263 0 -0.27392861903901239 0.1020753708552664 0 -0.28035165372413551 0.086769155039914989 0 -0.26572779701428773 0.081176864422931191 0 -0.25734245126200062 0.1014160866788785 0 -0.26572779701428773 0.081176864422931191 0 -0.24672703352553629 0.080158677613093823 0 -0.25734245126200062 0.1014160866788785 0 -0.26572779701428773 0.081176864422931191 0 -0.26572779701428773 0.081176864422931191 0 -0.2559826395353394 0.061597363551489349 0 -0.2743991197328543 0.06040034833960263 0 -0.26572779701428773 0.081176864422931191 0 -0.2559826395353394 0.061597363551489349 0 -0.24672703352553629 0.080158677613093823 0 -0.2559826395353394 0.061597363551489349 0 -0.26844658574157321 0.034031541639290362 0 -0.24450296286368231 0.049373315754277197 0 -0.26844658574157321 0.034031541639290362 0 -0.24192231969137759 0.032530148466345048 0 -0.24450296286368231 0.049373315754277197 0 -0.26844658574157321 0.034031541639290362 0 -0.2743991197328543 0.06040034833960263 0 -0.28919208176463768 0.041254089627619089 0 -0.26844658574157321 0.034031541639290362 0 -0.28503043027369879 0.024646141826126219 0 -0.28919208176463768 0.041254089627619089 0 -0.2559826395353394 0.061597363551489349 0 -0.26844658574157321 0.034031541639290362 0 -0.2743991197328543 0.06040034833960263 0 -0.26844658574157321 0.034031541639290362 0 -0.2743991197328543 0.06040034833960263 0 -0.25227296286688322 -0.0076793426536460041 0 -0.26249405175029211 0.007662734938978108 0 -0.23546354233931949 0.0078270751002715265 0 -0.26844658574157321 0.034031541639290362 0 -0.26249405175029211 0.007662734938978108 0 -0.26844658574157321 0.034031541639290362 0 -0.26249405175029211 0.007662734938978108 0 -0.24192231969137759 0.032530148466345048 0 -0.26844658574157321 0.034031541639290362 0 -0.26249405175029211 0.007662734938978108 0 -0.28503043027369879 0.024646141826126219 0 -0.26249405175029211 0.007662734938978108 0 -0.29088909275279012 0.0052797473078289572 0 -0.28503043027369879 0.024646141826126219 0 -0.28503043027369879 0.024646141826126219 0 -0.30319396424779033 0.026796870749645822 0 -0.28919208176463768 0.041254089627619089 0 -0.29088909275279012 0.0052797473078289572 0 -0.28503043027369879 0.024646141826126219 0 -0.30319396424779033 0.026796870749645822 0 -0.30319396424779033 0.026796870749645822 0 -0.30957503066598552 0.011427225412800709 0 -0.32058731744473762 0.019928587991941731 0 -0.29088909275279012 0.0052797473078289572 0 -0.30319396424779033 0.026796870749645822 0 -0.30957503066598552 0.011427225412800709 0 -0.30518798685158838 -0.0020929360932298849 0 -0.29088909275279012 0.0052797473078289572 0 -0.30957503066598552 0.011427225412800709 0 -0.30518798685158838 -0.0020929360932298849 0 -0.30957503066598552 0.011427225412800709 0 -0.32049615199215492 0.0045280339304297253 0 -0.2743991197328543 0.06040034833960263 0 -0.29603323201561299 0.055812399873303893 0 -0.28919208176463768 0.041254089627619089 0 -0.29366682663590249 0.070755320590707688 0 -0.2743991197328543 0.06040034833960263 0 -0.29603323201561299 0.055812399873303893 0 -0.30319396424779033 0.026796870749645822 0 -0.28919208176463768 0.041254089627619089 0 -0.31060618731623352 0.044985865152084623 0 -0.30319396424779033 0.026796870749645822 0 -0.31060618731623352 0.044985865152084623 0 -0.31880783956767128 0.032922242476857162 0 -0.29603323201561299 0.055812399873303893 0 -0.28919208176463768 0.041254089627619089 0 -0.31060618731623352 0.044985865152084623 0 -0.29603323201561299 0.055812399873303893 0 -0.31060618731623352 0.044985865152084623 0 -0.31081826144354868 0.060679329518446831 0 -0.29366682663590249 0.070755320590707688 0 -0.29603323201561299 0.055812399873303893 0 -0.31081826144354868 0.060679329518446831 0 -0.31060618731623352 0.044985865152084623 0 -0.32788744175529538 0.041514351910999107 0 -0.32831049041907839 0.055921771907720449 0 -0.31060618731623352 0.044985865152084623 0 -0.31081826144354868 0.060679329518446831 0 -0.32831049041907839 0.055921771907720449 0 -0.31060618731623352 0.044985865152084623 0 -0.31880783956767128 0.032922242476857162 0 -0.32788744175529538 0.041514351910999107 0 -0.31880783956767128 0.032922242476857162 0 -0.32788744175529538 0.041514351910999107 0 -0.33284048064853922 0.02898560650307868 0 -0.34306862850599618 0.040992927417729488 0 -0.33284048064853922 0.02898560650307868 0 -0.34878147881263583 0.02639136098039228 0 -0.32788744175529538 0.041514351910999107 0 -0.34306862850599618 0.040992927417729488 0 -0.32831049041907839 0.055921771907720449 0 -0.32788744175529538 0.041514351910999107 0 -0.34306862850599618 0.040992927417729488 0 -0.33284048064853922 0.02898560650307868 0 -0.32831049041907839 0.055921771907720449 0 -0.34909822148757808 0.06037421403352132 0 -0.3353113387102199 0.067919589230939131 0 -0.34306862850599618 0.040992927417729488 0 -0.32831049041907839 0.055921771907720449 0 -0.34909822148757808 0.06037421403352132 0 -0.30957503066598552 0.011427225412800709 0 -0.32049615199215492 0.0045280339304297253 0 -0.32058731744473762 0.019928587991941731 0 -0.32049615199215492 0.0045280339304297253 0 -0.32058731744473762 0.019928587991941731 0 -0.33553321900770577 0.01329805350298063 0 -0.30319396424779033 0.026796870749645822 0 -0.31880783956767128 0.032922242476857162 0 -0.32058731744473762 0.019928587991941731 0 -0.31880783956767128 0.032922242476857162 0 -0.32058731744473762 0.019928587991941731 0 -0.33284048064853922 0.02898560650307868 0 -0.33284048064853922 0.02898560650307868 0 -0.33553321900770577 0.01329805350298063 0 -0.34878147881263583 0.02639136098039228 0 -0.32058731744473762 0.019928587991941731 0 -0.33284048064853922 0.02898560650307868 0 -0.33553321900770577 0.01329805350298063 0 -0.33449922093445961 -0.0040818700918973123 0 -0.32049615199215492 0.0045280339304297253 0 -0.33553321900770577 0.01329805350298063 0 -0.33449922093445961 -0.0040818700918973123 0 -0.33553321900770577 0.01329805350298063 0 -0.35182631000740072 0.0068229147672093007 0 -0.33553321900770577 0.01329805350298063 0 -0.35182631000740072 0.0068229147672093007 0 -0.34878147881263583 0.02639136098039228 0 -0.34878147881263583 0.02639136098039228 0 -0.3640039126182737 0.02126082680388874 0 -0.35655106705292511 0.040817520418704747 0 -0.35182631000740072 0.0068229147672093007 0 -0.34878147881263583 0.02639136098039228 0 -0.3640039126182737 0.02126082680388874 0 -0.3640039126182737 0.02126082680388874 0 -0.35655106705292511 0.040817520418704747 0 -0.37938766176258892 0.01937444117527904 0 -0.3640039126182737 0.02126082680388874 0 -0.37363166703579942 0.035604814688565273 0 -0.3640039126182737 0.02126082680388874 0 -0.37145675818362223 0.001704133189072726 0 -0.35182631000740072 0.0068229147672093007 0 -0.3640039126182737 0.02126082680388874 0 -0.37145675818362223 0.001704133189072726 0 -0.37938766176258892 0.01937444117527904 0 -0.3640039126182737 0.02126082680388874 0 -0.37145675818362223 0.001704133189072726 0 -0.34909822148757808 0.06037421403352132 0 -0.35655106705292511 0.040817520418704747 0 -0.34306862850599618 0.040992927417729488 0 -0.34909822148757808 0.06037421403352132 0 -0.35655106705292511 0.040817520418704747 0 -0.34306862850599618 0.040992927417729488 0 -0.34909822148757808 0.06037421403352132 0 -0.34909822148757808 0.06037421403352132 0 -0.35655106705292511 0.040817520418704747 0 -0.36842953035862158 0.050481425088617103 0 -0.34306862850599618 0.040992927417729488 0 -0.34878147881263583 0.02639136098039228 0 -0.35655106705292511 0.040817520418704747 0 -0.3640039126182737 0.02126082680388874 0 -0.35655106705292511 0.040817520418704747 0 -0.37363166703579942 0.035604814688565273 0 -0.35655106705292511 0.040817520418704747 0 -0.37363166703579942 0.035604814688565273 0 -0.36842953035862158 0.050481425088617103 0 -0.34909822148757808 0.06037421403352132 0 -0.36842953035862158 0.050481425088617103 0 -0.37191756568804107 0.066739953928913298 0 -0.37191756568804107 0.066739953928913298 0 -0.35586120822019068 0.082112892687927444 0 -0.37138104083623391 0.082703932652830325 0 -0.34909822148757808 0.06037421403352132 0 -0.35586120822019068 0.082112892687927444 0 -0.34909822148757808 0.06037421403352132 0 -0.35586120822019068 0.082112892687927444 0 -0.34122595447521131 0.081031493547087358 0 -0.34909822148757808 0.06037421403352132 0 -0.37191756568804107 0.066739953928913298 0 -0.35586120822019068 0.082112892687927444 0 -0.34909822148757808 0.06037421403352132 0 -0.34122595447521131 0.081031493547087358 0 -0.35586120822019068 0.082112892687927444 0 -0.36262419495280129 0.1038515713423341 0 -0.35586120822019068 0.082112892687927444 0 -0.36262419495280129 0.1038515713423341 0 -0.34676829850597268 0.094510259469289468 0 -0.35586120822019068 0.082112892687927444 0 -0.34676829850597268 0.094510259469289468 0 -0.34122595447521131 0.081031493547087358 0 -0.35586120822019068 0.082112892687927444 0 -0.37138104083623391 0.082703932652830325 0 -0.36262419495280129 0.1038515713423341 0 -0.37678680274428078 0.095920052983538381 0 -0.37138104083623391 0.082703932652830325 0 -0.36262419495280129 0.1038515713423341 0 -0.36938718168541179 0.1255902499967409 0 -0.35200794605681629 0.12502238642781019 0 -0.36262419495280129 0.1038515713423341 0 -0.3875766108720648 0.10801011350679229 0 -0.36938718168541179 0.1255902499967409 0 -0.36262419495280129 0.1038515713423341 0 -0.36938718168541179 0.1255902499967409 0 -0.36262419495280129 0.1038515713423341 0 -0.35200794605681629 0.12502238642781019 0 -0.36262419495280129 0.1038515713423341 0 -0.34097979843748499 0.11073282128248541 0 -0.36262419495280129 0.1038515713423341 0 -0.34676829850597268 0.094510259469289468 0 -0.34097979843748499 0.11073282128248541 0 -0.33315033644417541 0.094822518486612939 0 -0.34097979843748499 0.11073282128248541 0 -0.31723531685176609 0.1198603304800319 0 -0.34676829850597268 0.094510259469289468 0 -0.33315033644417541 0.094822518486612939 0 -0.34097979843748499 0.11073282128248541 0 -0.35200794605681629 0.12502238642781019 0 -0.33282908497732799 0.12691684344983439 0 -0.34097979843748499 0.11073282128248541 0 -0.33282908497732799 0.12691684344983439 0 -0.34097979843748499 0.11073282128248541 0 -0.31723531685176609 0.1198603304800319 0 -0.30367881485676818 0.104740917537869 0 -0.31723531685176609 0.1198603304800319 0 -0.31724517505712951 0.098806923667406316 0 -0.33315033644417541 0.094822518486612939 0 -0.31723531685176609 0.1198603304800319 0 -0.33315033644417541 0.094822518486612939 0 -0.31723531685176609 0.1198603304800319 0 -0.31724517505712951 0.098806923667406316 0 -0.30859009333780452 0.087437634974232029 0 -0.31724517505712951 0.098806923667406316 0 -0.32357131379513321 0.087173216858285787 0 -0.33315033644417541 0.094822518486612939 0 -0.31724517505712951 0.098806923667406316 0 -0.32357131379513321 0.087173216858285787 0 -0.30660633332941051 0.074378369855040594 0 -0.30859009333780452 0.087437634974232029 0 -0.32274642435413547 0.073355371094589714 0 -0.30859009333780452 0.087437634974232029 0 -0.32357131379513321 0.087173216858285787 0 -0.32274642435413547 0.073355371094589714 0 -0.31081826144354868 0.060679329518446831 0 -0.32831049041907839 0.055921771907720449 0 -0.32274642435413547 0.073355371094589714 0 -0.30660633332941051 0.074378369855040594 0 -0.31081826144354868 0.060679329518446831 0 -0.32274642435413547 0.073355371094589714 0 -0.32831049041907839 0.055921771907720449 0 -0.32274642435413547 0.073355371094589714 0 -0.3353113387102199 0.067919589230939131 0 -0.34909822148757808 0.06037421403352132 0 -0.3353113387102199 0.067919589230939131 0 -0.34122595447521131 0.081031493547087358 0 -0.32274642435413547 0.073355371094589714 0 -0.3353113387102199 0.067919589230939131 0 -0.34122595447521131 0.081031493547087358 0 -0.33315033644417541 0.094822518486612939 0 -0.32357131379513321 0.087173216858285787 0 -0.34122595447521131 0.081031493547087358 0 -0.32357131379513321 0.087173216858285787 0 -0.32274642435413547 0.073355371094589714 0 -0.34122595447521131 0.081031493547087358 0 -0.34676829850597268 0.094510259469289468 0 -0.33315033644417541 0.094822518486612939 0 -0.34122595447521131 0.081031493547087358 0 -0.39098080248864292 0.48082949146892462 0 -0.39688472812408349 0.46225301958370763 0 -0.40654981809613899 0.47943816589621452 0 -0.39098080248864292 0.48082949146892462 0 -0.40517642966730788 0.5 0 -0.40654981809613899 0.47943816589621452 0 -0.39098080248864292 0.48082949146892462 0 -0.40517642966730788 0.5 0 -0.37984386551400101 0.5 0 -0.39098080248864292 0.48082949146892462 0 -0.37984386551400101 0.5 0 -0.36562800957556379 0.48144847740775781 0 -0.39098080248864292 0.48082949146892462 0 -0.37674471779043378 0.46289695481551602 0 -0.36562800957556379 0.48144847740775781 0 -0.39098080248864292 0.48082949146892462 0 -0.37674471779043378 0.46289695481551602 0 -0.39688472812408349 0.46225301958370763 0 -0.37674471779043378 0.46289695481551602 0 -0.38786142600530288 0.44434543222327372 0 -0.37674471779043378 0.46289695481551602 0 -0.38786142600530288 0.44434543222327372 0 -0.3636594906987341 0.45259116813215772 0 -0.37674471779043378 0.46289695481551602 0 -0.38786142600530288 0.44434543222327372 0 -0.39688472812408349 0.46225301958370763 0 -0.38786142600530288 0.44434543222327372 0 -0.38219330561030318 0.43733759585905729 0 -0.37031446948010971 0.44164379239859503 0 -0.38786142600530288 0.44434543222327372 0 -0.3636594906987341 0.45259116813215772 0 -0.38786142600530288 0.44434543222327372 0 -0.39005529127119792 0.44068431777663197 0 -0.38219330561030318 0.43733759585905729 0 -0.38786142600530288 0.44434543222327372 0 -0.39005529127119792 0.44068431777663197 0 -0.38786142600530288 0.44434543222327372 0 -0.40276516754681568 0.43926764339155733 0 -0.39688472812408349 0.46225301958370763 0 -0.38786142600530288 0.44434543222327372 0 -0.40276516754681568 0.43926764339155733 0 -0.38786142600530288 0.44434543222327372 0 -0.39005529127119792 0.44068431777663197 0 -0.40276516754681568 0.43926764339155733 0 -0.40276516754681568 0.43926764339155733 0 -0.39688472812408349 0.46225301958370763 0 -0.41912534642966243 0.46276605766276058 0 -0.39688472812408349 0.46225301958370763 0 -0.41912534642966243 0.46276605766276058 0 -0.40654981809613899 0.47943816589621452 0 -0.40276516754681568 0.43926764339155733 0 -0.41912534642966243 0.46276605766276058 0 -0.41766890908832871 0.43418985455984122 0 -0.41912534642966243 0.46276605766276058 0 -0.41766890908832871 0.43418985455984122 0 -0.43637228529971711 0.45059119829788907 0 -0.44062134191292651 0.43194009349776402 0 -0.42355994468304931 0.43218274549486041 0 -0.41912534642966243 0.46276605766276058 0 -0.43637228529971711 0.45059119829788907 0 -0.41766890908832871 0.43418985455984122 0 -0.43637228529971711 0.45059119829788907 0 -0.42355994468304931 0.43218274549486041 0 -0.41766890908832871 0.43418985455984122 0 -0.41912534642966243 0.46276605766276058 0 -0.43637228529971711 0.45059119829788907 0 -0.43819607322225379 0.4802098919466351 0 -0.41912534642966243 0.46276605766276058 0 -0.42058178377099831 0.49134226076567977 0 -0.43819607322225379 0.4802098919466351 0 -0.41912534642966243 0.46276605766276058 0 -0.40654981809613899 0.47943816589621452 0 -0.42058178377099831 0.49134226076567977 0 -0.41912534642966243 0.46276605766276058 0 -0.42058178377099831 0.49134226076567977 0 -0.40517642966730788 0.5 0 -0.40654981809613899 0.47943816589621452 0 -0.42058178377099831 0.49134226076567977 0 -0.40517642966730788 0.5 0 -0.42058178377099831 0.49134226076567977 0 -0.43050899382061492 0.5 0 -0.42058178377099831 0.49134226076567977 0 -0.43050899382061492 0.5 0 -0.43819607322225379 0.4802098919466351 0 -0.43050899382061492 0.5 0 -0.43819607322225379 0.4802098919466351 0 -0.4558415579739219 0.50000000000000289 0 -0.5 0.5 0 -0.45848093797747058 0.44107104525054719 0 -0.5 0.39368719930634488 0 -0.43819607322225379 0.4802098919466351 0 -0.45716124797569629 0.47053552262527509 0 -0.4558415579739219 0.50000000000000289 0 -0.45716124797569629 0.47053552262527509 0 -0.4558415579739219 0.50000000000000289 0 -0.45716124797569629 0.47053552262527509 0 -0.5 0.5 0 -0.45848093797747058 0.44107104525054719 0 -0.45716124797569629 0.47053552262527509 0 -0.4558415579739219 0.50000000000000289 0 -0.5 0.5 0 -0.45716124797569629 0.47053552262527509 0 -0.45848093797747058 0.44107104525054719 0 -0.43637228529971711 0.45059119829788907 0 -0.45716124797569629 0.47053552262527509 0 -0.45848093797747058 0.44107104525054719 0 -0.43637228529971711 0.45059119829788907 0 -0.43819607322225379 0.4802098919466351 0 -0.45716124797569629 0.47053552262527509 0 -0.43637228529971711 0.45059119829788907 0 -0.45848093797747058 0.44107104525054719 0 -0.44062134191292651 0.43194009349776402 0 -0.45848093797747058 0.44107104525054719 0 -0.44062134191292651 0.43194009349776402 0 -0.45980062797924498 0.41160656787581928 0 -0.44121582346845373 0.41376147505037958 0 -0.45980062797924498 0.41160656787581928 0 -0.45143531712829632 0.39504510946912502 0 -0.44062134191292651 0.43194009349776402 0 -0.44121582346845373 0.41376147505037958 0 -0.45980062797924498 0.41160656787581928 0 -0.45848093797747058 0.44107104525054719 0 -0.45980062797924498 0.41160656787581928 0 -0.45848093797747058 0.44107104525054719 0 -0.45980062797924498 0.41160656787581928 0 -0.5 0.39368719930634488 0 -0.45980062797924498 0.41160656787581928 0 -0.5 0.39368719930634488 0 -0.47061151440635052 0.38738233066939171 0 -0.5 0.39368719930634488 0 -0.47061151440635052 0.38738233066939171 0 -0.47244599738177773 0.36378702031114818 0 -0.47061151440635052 0.38738233066939171 0 -0.45360913424094712 0.37591717629495691 0 -0.45143531712829632 0.39504510946912502 0 -0.47061151440635052 0.38738233066939171 0 -0.45360913424094712 0.37591717629495691 0 -0.47244599738177773 0.36378702031114818 0 -0.45980062797924498 0.41160656787581928 0 -0.47061151440635052 0.38738233066939171 0 -0.45143531712829632 0.39504510946912502 0 -0.44121582346845373 0.41376147505037958 0 -0.45143531712829632 0.39504510946912502 0 -0.43115992967391842 0.40404311620122768 0 -0.45143531712829632 0.39504510946912502 0 -0.43477227110011651 0.38804733227876548 0 -0.43115992967391842 0.40404311620122768 0 -0.45360913424094712 0.37591717629495691 0 -0.43477227110011651 0.38804733227876548 0 -0.43761421779729981 0.36799172170783712 0 -0.45360913424094712 0.37591717629495691 0 -0.43477227110011651 0.38804733227876548 0 -0.45360913424094712 0.37591717629495691 0 -0.45143531712829632 0.39504510946912502 0 -0.43477227110011651 0.38804733227876548 0 -0.41504006019910189 0.38261021041501481 0 -0.43761421779729981 0.36799172170783712 0 -0.43477227110011651 0.38804733227876548 0 -0.41504006019910189 0.38261021041501481 0 -0.43761421779729981 0.36799172170783712 0 -0.43477227110011651 0.38804733227876548 0 -0.41504006019910189 0.38261021041501481 0 -0.4159354079592873 0.40017748826257649 0 -0.41504006019910189 0.38261021041501481 0 -0.41164644412426671 0.3848078356442457 0 -0.42787124419666578 0.3625299828724986 0 -0.41164644412426671 0.3848078356442457 0 -0.40212947449434688 0.3748414468342991 0 -0.41107150013157362 0.36619624614190099 0 -0.41504006019910189 0.38261021041501481 0 -0.41164644412426671 0.3848078356442457 0 -0.41109804598765209 0.39149102164547678 0 -0.41504006019910189 0.38261021041501481 0 -0.41164644412426671 0.3848078356442457 0 -0.41504006019910189 0.38261021041501481 0 -0.4159354079592873 0.40017748826257649 0 -0.41504006019910189 0.38261021041501481 0 -0.41109804598765209 0.39149102164547678 0 -0.4159354079592873 0.40017748826257649 0 -0.41164644412426671 0.3848078356442457 0 -0.41109804598765209 0.39149102164547678 0 -0.40177027166795132 0.3983685522600704 0 -0.41109804598765209 0.39149102164547678 0 -0.4159354079592873 0.40017748826257649 0 -0.40177027166795132 0.3983685522600704 0 -0.41164644412426671 0.3848078356442457 0 -0.40177027166795132 0.3983685522600704 0 -0.43477227110011651 0.38804733227876548 0 -0.4159354079592873 0.40017748826257649 0 -0.43477227110011651 0.38804733227876548 0 -0.4159354079592873 0.40017748826257649 0 -0.43115992967391842 0.40404311620122768 0 -0.44121582346845373 0.41376147505037958 0 -0.43115992967391842 0.40404311620122768 0 -0.42986314558338468 0.42022497384430652 0 -0.43115992967391842 0.40404311620122768 0 -0.42986314558338468 0.42022497384430652 0 -0.41680215852380748 0.41718367141120882 0 -0.44062134191292651 0.43194009349776402 0 -0.44121582346845373 0.41376147505037958 0 -0.42986314558338468 0.42022497384430652 0 -0.44062134191292651 0.43194009349776402 0 -0.42986314558338468 0.42022497384430652 0 -0.42355994468304931 0.43218274549486041 0 -0.42986314558338468 0.42022497384430652 0 -0.42355994468304931 0.43218274549486041 0 -0.41680215852380748 0.41718367141120882 0 -0.41766890908832871 0.43418985455984122 0 -0.41680215852380748 0.41718367141120882 0 -0.41766890908832871 0.43418985455984122 0 -0.41680215852380748 0.41718367141120882 0 -0.40452415779474138 0.42721409118458831 0 -0.42355994468304931 0.43218274549486041 0 -0.41766890908832871 0.43418985455984122 0 -0.41680215852380748 0.41718367141120882 0 -0.42355994468304931 0.43218274549486041 0 -0.41766890908832871 0.43418985455984122 0 -0.40276516754681568 0.43926764339155733 0 -0.41766890908832871 0.43418985455984122 0 -0.40276516754681568 0.43926764339155733 0 -0.41766890908832871 0.43418985455984122 0 -0.40452415779474138 0.42721409118458831 0 -0.4159354079592873 0.40017748826257649 0 -0.43115992967391842 0.40404311620122768 0 -0.41680215852380748 0.41718367141120882 0 -0.4159354079592873 0.40017748826257649 0 -0.41680215852380748 0.41718367141120882 0 -0.4159354079592873 0.40017748826257649 0 -0.41680215852380748 0.41718367141120882 0 -0.39328619543943649 0.41476263859902718 0 -0.39328619543943649 0.41476263859902718 0 -0.39189409921163532 0.41192926887589459 0 -0.40177027166795132 0.3983685522600704 0 -0.4159354079592873 0.40017748826257649 0 -0.39328619543943649 0.41476263859902718 0 -0.41680215852380748 0.41718367141120882 0 -0.39328619543943649 0.41476263859902718 0 -0.40452415779474138 0.42721409118458831 0 -0.39328619543943649 0.41476263859902718 0 -0.40452415779474138 0.42721409118458831 0 -0.39209835837531859 0.43066664796130649 0 -0.40276516754681568 0.43926764339155733 0 -0.40452415779474138 0.42721409118458831 0 -0.39209835837531859 0.43066664796130649 0 -0.39005529127119792 0.44068431777663197 0 -0.40276516754681568 0.43926764339155733 0 -0.39209835837531859 0.43066664796130649 0 -0.39328619543943649 0.41476263859902718 0 -0.37063698291958719 0.42934778893548009 0 -0.39209835837531859 0.43066664796130649 0 -0.38219330561030318 0.43733759585905729 0 -0.37063698291958719 0.42934778893548009 0 -0.39328619543943649 0.41476263859902718 0 -0.39209835837531859 0.43066664796130649 0 -0.37063698291958719 0.42934778893548009 0 -0.39005529127119792 0.44068431777663197 0 -0.39209835837531859 0.43066664796130649 0 -0.38219330561030318 0.43733759585905729 0 -0.39189409921163532 0.41192926887589459 0 -0.39195655763330312 0.3975585388349005 0 -0.37226667114234002 0.41030924202555608 0 -0.39328619543943649 0.41476263859902718 0 -0.39189409921163532 0.41192926887589459 0 -0.37226667114234002 0.41030924202555608 0 -0.39328619543943649 0.41476263859902718 0 -0.37226667114234002 0.41030924202555608 0 -0.37063698291958719 0.42934778893548009 0 -0.39195655763330312 0.3975585388349005 0 -0.37226667114234002 0.41030924202555608 0 -0.39195655763330312 0.3975585388349005 0 -0.37495024184161951 0.39669027322643757 0 -0.37226667114234002 0.41030924202555608 0 -0.38343510648805168 0.38508963626910381 0 -0.39195655763330312 0.3975585388349005 0 -0.37495024184161951 0.39669027322643757 0 -0.38343510648805168 0.38508963626910381 0 -0.36896039956082288 0.38726624238899698 0 -0.37495024184161951 0.39669027322643757 0 -0.38343510648805168 0.38508963626910381 0 -0.37817844187468841 0.37049799817574158 0 -0.36896039956082288 0.38726624238899698 0 -0.38343510648805168 0.38508963626910381 0 -0.39677184295297052 0.38392901966133991 0 -0.39106782088146019 0.37499676007273403 0 -0.38343510648805168 0.38508963626910381 0 -0.39106782088146019 0.37499676007273403 0 -0.37817844187468841 0.37049799817574158 0 -0.38343510648805168 0.38508963626910381 0 -0.39677184295297052 0.38392901966133991 0 -0.39195655763330312 0.3975585388349005 0 -0.41164644412426671 0.3848078356442457 0 -0.39677184295297052 0.38392901966133991 0 -0.39195655763330312 0.3975585388349005 0 -0.39677184295297052 0.38392901966133991 0 -0.40212947449434688 0.3748414468342991 0 -0.39106782088146019 0.37499676007273403 0 -0.41164644412426671 0.3848078356442457 0 -0.39677184295297052 0.38392901966133991 0 -0.40212947449434688 0.3748414468342991 0 -0.41164644412426671 0.3848078356442457 0 -0.39195655763330312 0.3975585388349005 0 -0.4159354079592873 0.40017748826257649 0 -0.39328619543943649 0.41476263859902718 0 -0.40177027166795132 0.3983685522600704 0 -0.41164644412426671 0.3848078356442457 0 -0.40177027166795132 0.3983685522600704 0 -0.39195655763330312 0.3975585388349005 0 -0.39189409921163532 0.41192926887589459 0 -0.40177027166795132 0.3983685522600704 0 -0.39195655763330312 0.3975585388349005 0 -0.39189409921163532 0.41192926887589459 0 -0.40177027166795132 0.3983685522600704 0 -0.38763875309648088 0.35121150247505228 0 -0.41586739868277361 0.34573181628790323 0 -0.39706953126344319 0.36332699894800602 0 -0.38763875309648088 0.35121150247505228 0 -0.41586739868277361 0.34573181628790323 0 -0.38763875309648088 0.35121150247505228 0 -0.3937872350367228 0.33507229671605809 0 -0.41586739868277361 0.34573181628790323 0 -0.40212947449434688 0.3748414468342991 0 -0.39706953126344319 0.36332699894800602 0 -0.41107150013157362 0.36619624614190099 0 -0.40212947449434688 0.3748414468342991 0 -0.39106782088146019 0.37499676007273403 0 -0.39706953126344319 0.36332699894800602 0 -0.37817844187468841 0.37049799817574158 0 -0.38763875309648088 0.35121150247505228 0 -0.35941010751018809 0.3566911886622014 0 -0.39706953126344319 0.36332699894800602 0 -0.37817844187468841 0.37049799817574158 0 -0.38763875309648088 0.35121150247505228 0 -0.39106782088146019 0.37499676007273403 0 -0.39706953126344319 0.36332699894800602 0 -0.37817844187468841 0.37049799817574158 0 -0.38659885775585739 0.31565850626255348 0 -0.3937872350367228 0.33507229671605809 0 -0.371857819856382 0.33718357931137699 0 -0.38763875309648088 0.35121150247505228 0 -0.3937872350367228 0.33507229671605809 0 -0.371857819856382 0.33718357931137699 0 -0.38659885775585739 0.31565850626255348 0 -0.371857819856382 0.33718357931137699 0 -0.38659885775585739 0.31565850626255348 0 -0.3736940231061725 0.31398947852622111 0 -0.371857819856382 0.33718357931137699 0 -0.38659885775585739 0.31565850626255348 0 -0.3937872350367228 0.33507229671605809 0 -0.40697334579212008 0.32557607924340459 0 -0.38659885775585739 0.31565850626255348 0 -0.40697334579212008 0.32557607924340459 0 -0.40344199037643141 0.31069905435295109 0 -0.3937872350367228 0.33507229671605809 0 -0.40697334579212008 0.32557607924340459 0 -0.41586739868277361 0.34573181628790323 0 -0.40697334579212008 0.32557607924340459 0 -0.42641657962310969 0.33014507151577532 0 -0.41586739868277361 0.34573181628790323 0 -0.40697334579212008 0.32557607924340459 0 -0.42482201379485501 0.3164116993459492 0 -0.40344199037643141 0.31069905435295109 0 -0.40697334579212008 0.32557607924340459 0 -0.42482201379485501 0.3164116993459492 0 -0.42641657962310969 0.33014507151577532 0 -0.42482201379485501 0.3164116993459492 0 -0.44032409557673402 0.32275363260086698 0 -0.44093041861641502 0.30629419798598828 0 -0.42482201379485501 0.3164116993459492 0 -0.42641657962310969 0.33014507151577532 0 -0.44032409557673402 0.32275363260086698 0 -0.42641657962310969 0.33014507151577532 0 -0.41586739868277361 0.34573181628790323 0 -0.44409604426906601 0.34025213010075239 0 -0.42641657962310969 0.33014507151577532 0 -0.44409604426906601 0.34025213010075239 0 -0.44032409557673402 0.32275363260086698 0 -0.41586739868277361 0.34573181628790323 0 -0.44409604426906601 0.34025213010075239 0 -0.42787124419666578 0.3625299828724986 0 -0.44409604426906601 0.34025213010075239 0 -0.41586739868277361 0.34573181628790323 0 -0.42787124419666578 0.3625299828724986 0 -0.44409604426906601 0.34025213010075239 0 -0.41586739868277361 0.34573181628790323 0 -0.41107150013157362 0.36619624614190099 0 -0.42787124419666578 0.3625299828724986 0 -0.39706953126344319 0.36332699894800602 0 -0.41586739868277361 0.34573181628790323 0 -0.41107150013157362 0.36619624614190099 0 -0.41164644412426671 0.3848078356442457 0 -0.41107150013157362 0.36619624614190099 0 -0.42787124419666578 0.3625299828724986 0 -0.41164644412426671 0.3848078356442457 0 -0.42787124419666578 0.3625299828724986 0 -0.41504006019910189 0.38261021041501481 0 -0.42787124419666578 0.3625299828724986 0 -0.43761421779729981 0.36799172170783712 0 -0.42787124419666578 0.3625299828724986 0 -0.43761421779729981 0.36799172170783712 0 -0.44532995730629832 0.35516754502531411 0 -0.5 0.39368719930634488 0 -0.5 0.31375562759013931 0 -0.49236992051172512 0.33088130527536841 0 -0.5 0.39368719930634488 0 -0.49236992051172512 0.33088130527536841 0 -0.48276253299369798 0.33875474429348529 0 -0.43761421779729981 0.36799172170783712 0 -0.46018837539549878 0.35337323300066131 0 -0.45360913424094712 0.37591717629495691 0 -0.43761421779729981 0.36799172170783712 0 -0.46018837539549878 0.35337323300066131 0 -0.44532995730629832 0.35516754502531411 0 -0.46018837539549878 0.35337323300066131 0 -0.44409604426906601 0.34025213010075239 0 -0.42787124419666578 0.3625299828724986 0 -0.44532995730629832 0.35516754502531411 0 -0.44409604426906601 0.34025213010075239 0 -0.43761421779729981 0.36799172170783712 0 -0.44532995730629832 0.35516754502531411 0 -0.46018837539549878 0.35337323300066131 0 -0.45360913424094712 0.37591717629495691 0 -0.47244599738177773 0.36378702031114818 0 -0.45360913424094712 0.37591717629495691 0 -0.46018837539549878 0.35337323300066131 0 -0.47244599738177773 0.36378702031114818 0 -0.5 0.39368719930634488 0 -0.47244599738177773 0.36378702031114818 0 -0.48276253299369798 0.33875474429348529 0 -0.46018837539549878 0.35337323300066131 0 -0.47244599738177773 0.36378702031114818 0 -0.48276253299369798 0.33875474429348529 0 -0.46018837539549878 0.35337323300066131 0 -0.48276253299369798 0.33875474429348529 0 -0.5 0.31375562759013931 0 -0.49236992051172512 0.33088130527536841 0 -0.47844448370196352 0.32365782782372382 0 -0.49236992051172512 0.33088130527536841 0 -0.48276253299369798 0.33875474429348529 0 -0.46823298239039562 0.33556671768806118 0 -0.49236992051172512 0.33088130527536841 0 -0.47844448370196352 0.32365782782372382 0 -0.46823298239039562 0.33556671768806118 0 -0.46018837539549878 0.35337323300066131 0 -0.48276253299369798 0.33875474429348529 0 -0.46823298239039562 0.33556671768806118 0 -0.49236992051172512 0.33088130527536841 0 -0.46823298239039562 0.33556671768806118 0 -0.5 0.31375562759013931 0 -0.47844448370196352 0.32365782782372382 0 -0.47326150671693828 0.30885130336962702 0 -0.47844448370196352 0.32365782782372382 0 -0.46553845445045222 0.32292377735302652 0 -0.46823298239039562 0.33556671768806118 0 -0.47844448370196352 0.32365782782372382 0 -0.46553845445045222 0.32292377735302652 0 -0.47326150671693828 0.30885130336962702 0 -0.46553845445045222 0.32292377735302652 0 -0.45536731290503107 0.31414791777939732 0 -0.47326150671693828 0.30885130336962702 0 -0.46553845445045222 0.32292377735302652 0 -0.45342644041040631 0.32744080480790411 0 -0.45536731290503107 0.31414791777939732 0 -0.46823298239039562 0.33556671768806118 0 -0.44409604426906601 0.34025213010075239 0 -0.46018837539549878 0.35337323300066131 0 -0.46823298239039562 0.33556671768806118 0 -0.44409604426906601 0.34025213010075239 0 -0.45342644041040631 0.32744080480790411 0 -0.46823298239039562 0.33556671768806118 0 -0.44409604426906601 0.34025213010075239 0 -0.46553845445045222 0.32292377735302652 0 -0.45342644041040631 0.32744080480790411 0 -0.46823298239039562 0.33556671768806118 0 -0.45342644041040631 0.32744080480790411 0 -0.44409604426906601 0.34025213010075239 0 -0.44032409557673402 0.32275363260086698 0 -0.45342644041040631 0.32744080480790411 0 -0.44409604426906601 0.34025213010075239 0 -0.45536731290503107 0.31414791777939732 0 -0.44032409557673402 0.32275363260086698 0 -0.44093041861641502 0.30629419798598828 0 -0.45342644041040631 0.32744080480790411 0 -0.45536731290503107 0.31414791777939732 0 -0.44032409557673402 0.32275363260086698 0 -0.44093041861641502 0.30629419798598828 0 -0.44456522433562062 0.28987896746967612 0 -0.45784842118247587 0.29630392741269229 0 -0.45536731290503107 0.31414791777939732 0 -0.44093041861641502 0.30629419798598828 0 -0.45784842118247587 0.29630392741269229 0 -0.44456522433562062 0.28987896746967612 0 -0.45784842118247587 0.29630392741269229 0 -0.45683589886731429 0.27944522996227389 0 -0.45784842118247587 0.29630392741269229 0 -0.47613016565353689 0.27920594790919162 0 -0.45683589886731429 0.27944522996227389 0 -0.45536731290503107 0.31414791777939732 0 -0.45784842118247587 0.29630392741269229 0 -0.47326150671693828 0.30885130336962702 0 -0.5 0.31375562759013931 0 -0.47326150671693828 0.30885130336962702 0 -0.47613016565353689 0.27920594790919162 0 -0.5 0.31375562759013931 0 -0.5 0.25502500317745308 0 -0.47613016565353689 0.27920594790919162 0 -0.45784842118247587 0.29630392741269229 0 -0.47326150671693828 0.30885130336962702 0 -0.47613016565353689 0.27920594790919162 0 -0.5 0.25502500317745308 0 -0.47613016565353689 0.27920594790919162 0 -0.46826200115894351 0.25268254595322559 0 -0.46826200115894351 0.25268254595322559 0 -0.46001429554523132 0.26715439528268792 0 -0.44622747097204157 0.25447826500352411 0 -0.47613016565353689 0.27920594790919162 0 -0.46001429554523132 0.26715439528268792 0 -0.45683589886731429 0.27944522996227389 0 -0.47613016565353689 0.27920594790919162 0 -0.46826200115894351 0.25268254595322559 0 -0.46001429554523132 0.26715439528268792 0 -0.44456522433562062 0.28987896746967612 0 -0.45683589886731429 0.27944522996227389 0 -0.43912327732866052 0.27082845975049152 0 -0.46001429554523132 0.26715439528268792 0 -0.45683589886731429 0.27944522996227389 0 -0.43912327732866052 0.27082845975049152 0 -0.43912327732866052 0.27082845975049152 0 -0.44622747097204157 0.25447826500352411 0 -0.4271662496375016 0.26119471126077209 0 -0.46001429554523132 0.26715439528268792 0 -0.43912327732866052 0.27082845975049152 0 -0.44622747097204157 0.25447826500352411 0 -0.43243648966469961 0.24825823729562091 0 -0.4271662496375016 0.26119471126077209 0 -0.4154354269666965 0.25327969466909228 0 -0.43243648966469961 0.24825823729562091 0 -0.44622747097204157 0.25447826500352411 0 -0.4271662496375016 0.26119471126077209 0 -0.4154354269666965 0.25327969466909228 0 -0.41608093355480807 0.27260836016490658 0 -0.3994904005985685 0.26310408063752239 0 -0.4271662496375016 0.26119471126077209 0 -0.4154354269666965 0.25327969466909228 0 -0.41608093355480807 0.27260836016490658 0 -0.43912327732866052 0.27082845975049152 0 -0.4271662496375016 0.26119471126077209 0 -0.41608093355480807 0.27260836016490658 0 -0.43912327732866052 0.27082845975049152 0 -0.41608093355480807 0.27260836016490658 0 -0.42569467822547491 0.29333324823827622 0 -0.44093041861641502 0.30629419798598828 0 -0.44456522433562062 0.28987896746967612 0 -0.42569467822547491 0.29333324823827622 0 -0.44456522433562062 0.28987896746967612 0 -0.43912327732866052 0.27082845975049152 0 -0.42569467822547491 0.29333324823827622 0 -0.42482201379485501 0.3164116993459492 0 -0.44093041861641502 0.30629419798598828 0 -0.42569467822547491 0.29333324823827622 0 -0.42482201379485501 0.3164116993459492 0 -0.42569467822547491 0.29333324823827622 0 -0.41580892915603301 0.30455156730479449 0 -0.41580892915603301 0.30455156730479449 0 -0.40133989565533279 0.29413343321372998 0 -0.40344199037643141 0.31069905435295109 0 -0.42569467822547491 0.29333324823827622 0 -0.41580892915603301 0.30455156730479449 0 -0.40133989565533279 0.29413343321372998 0 -0.42482201379485501 0.3164116993459492 0 -0.41580892915603301 0.30455156730479449 0 -0.40344199037643141 0.31069905435295109 0 -0.41608093355480807 0.27260836016490658 0 -0.42569467822547491 0.29333324823827622 0 -0.40133989565533279 0.29413343321372998 0 -0.41608093355480807 0.27260836016490658 0 -0.40133989565533279 0.29413343321372998 0 -0.40133989565533279 0.29413343321372998 0 -0.391405356210975 0.28736794428101681 0 -0.38183605444568008 0.30159254882832942 0 -0.41608093355480807 0.27260836016490658 0 -0.40133989565533279 0.29413343321372998 0 -0.39791334778191012 0.27873259344880857 0 -0.40133989565533279 0.29413343321372998 0 -0.391405356210975 0.28736794428101681 0 -0.39791334778191012 0.27873259344880857 0 -0.38659885775585739 0.31565850626255348 0 -0.40133989565533279 0.29413343321372998 0 -0.40344199037643141 0.31069905435295109 0 -0.38659885775585739 0.31565850626255348 0 -0.40133989565533279 0.29413343321372998 0 -0.38659885775585739 0.31565850626255348 0 -0.40133989565533279 0.29413343321372998 0 -0.38183605444568008 0.30159254882832942 0 -0.38183605444568008 0.30159254882832942 0 -0.37466468983423318 0.28951354051077988 0 -0.36997315068782782 0.30191223918603199 0 -0.38183605444568008 0.30159254882832942 0 -0.36997315068782782 0.30191223918603199 0 -0.3736940231061725 0.31398947852622111 0 -0.38659885775585739 0.31565850626255348 0 -0.38183605444568008 0.30159254882832942 0 -0.3736940231061725 0.31398947852622111 0 -0.391405356210975 0.28736794428101681 0 -0.38183605444568008 0.30159254882832942 0 -0.38453212696097688 0.2750132016331992 0 -0.38183605444568008 0.30159254882832942 0 -0.38453212696097688 0.2750132016331992 0 -0.37466468983423318 0.28951354051077988 0 -0.38183605444568008 0.30159254882832942 0 -0.38453212696097688 0.2750132016331992 0 -0.37672471104263361 0.27561795758142188 0 -0.38453212696097688 0.2750132016331992 0 -0.37466468983423318 0.28951354051077988 0 -0.37672471104263361 0.27561795758142188 0 -0.38453212696097688 0.2750132016331992 0 -0.37896013194671968 0.25534683486931381 0 -0.38722819947627368 0.24843385443806909 0 -0.38453212696097688 0.2750132016331992 0 -0.37896013194671968 0.25534683486931381 0 -0.37672471104263361 0.27561795758142188 0 -0.37896013194671968 0.25534683486931381 0 -0.38722819947627368 0.24843385443806909 0 -0.38453212696097688 0.2750132016331992 0 -0.3994904005985685 0.26310408063752239 0 -0.38722819947627368 0.24843385443806909 0 -0.38453212696097688 0.2750132016331992 0 -0.40101037553383972 0.24850817254535781 0 -0.4154354269666965 0.25327969466909228 0 -0.3994904005985685 0.26310408063752239 0 -0.38722819947627368 0.24843385443806909 0 -0.40101037553383972 0.24850817254535781 0 -0.3994904005985685 0.26310408063752239 0 -0.38453212696097688 0.2750132016331992 0 -0.3994904005985685 0.26310408063752239 0 -0.39791334778191012 0.27873259344880857 0 -0.41608093355480807 0.27260836016490658 0 -0.3994904005985685 0.26310408063752239 0 -0.39791334778191012 0.27873259344880857 0 -0.391405356210975 0.28736794428101681 0 -0.38453212696097688 0.2750132016331992 0 -0.39791334778191012 0.27873259344880857 0 -0.35754908974886279 0.25815157521253052 0 -0.35995394297715549 0.27846885519039472 0 -0.3399009986899495 0.26863911531903439 0 -0.34139946132247112 0.24041351753421181 0 -0.35754908974886279 0.25815157521253052 0 -0.3399009986899495 0.26863911531903439 0 -0.37672471104263361 0.27561795758142188 0 -0.37896013194671968 0.25534683486931381 0 -0.3691483330232409 0.26445373858247911 0 -0.35754908974886279 0.25815157521253052 0 -0.36759241766554501 0.2538245840294952 0 -0.3691483330232409 0.26445373858247911 0 -0.36182205832064851 0.24457456243760281 0 -0.35754908974886279 0.25815157521253052 0 -0.36759241766554501 0.2538245840294952 0 -0.37210575503526089 0.24405057661464391 0 -0.37896013194671968 0.25534683486931381 0 -0.36759241766554501 0.2538245840294952 0 -0.37896013194671968 0.25534683486931381 0 -0.36759241766554501 0.2538245840294952 0 -0.3691483330232409 0.26445373858247911 0 -0.35754908974886279 0.25815157521253052 0 -0.3691483330232409 0.26445373858247911 0 -0.35995394297715549 0.27846885519039472 0 -0.37672471104263361 0.27561795758142188 0 -0.3691483330232409 0.26445373858247911 0 -0.35995394297715549 0.27846885519039472 0 -0.37672471104263361 0.27561795758142188 0 -0.35995394297715549 0.27846885519039472 0 -0.37466468983423318 0.28951354051077988 0 -0.35995394297715549 0.27846885519039472 0 -0.37466468983423318 0.28951354051077988 0 -0.36067095067979221 0.29568292426180159 0 -0.37466468983423318 0.28951354051077988 0 -0.36067095067979221 0.29568292426180159 0 -0.36997315068782782 0.30191223918603199 0 -0.36067095067979221 0.29568292426180159 0 -0.36997315068782782 0.30191223918603199 0 -0.35820423278511537 0.31360051904281339 0 -0.36997315068782782 0.30191223918603199 0 -0.35820423278511537 0.31360051904281339 0 -0.3736940231061725 0.31398947852622111 0 -0.36067095067979221 0.29568292426180159 0 -0.33840253605742793 0.29686471310385681 0 -0.35820423278511537 0.31360051904281339 0 -0.33840253605742793 0.29686471310385681 0 -0.33690407342490619 0.32509031088867912 0 -0.35820423278511537 0.31360051904281339 0 -0.35995394297715549 0.27846885519039472 0 -0.33840253605742793 0.29686471310385681 0 -0.3399009986899495 0.26863911531903439 0 -0.35995394297715549 0.27846885519039472 0 -0.36067095067979221 0.29568292426180159 0 -0.33840253605742793 0.29686471310385681 0 -0.33840253605742793 0.29686471310385681 0 -0.3399009986899495 0.26863911531903439 0 -0.33840253605742793 0.29686471310385681 0 -0.31331907053128433 0.313878567385664 0 -0.33690407342490619 0.32509031088867912 0 -0.33840253605742793 0.29686471310385681 0 -0.33690407342490619 0.32509031088867912 0 -0.33840253605742793 0.29686471310385681 0 -0.31760133335066493 0.29423642541125972 0 -0.31331907053128433 0.313878567385664 0 -0.33840253605742793 0.29686471310385681 0 -0.31760133335066493 0.29423642541125972 0 -0.31493928155445272 0.27430993559415479 0 -0.33840253605742793 0.29686471310385681 0 -0.31493928155445272 0.27430993559415479 0 -0.3399009986899495 0.26863911531903439 0 -0.34139946132247112 0.24041351753421181 0 -0.3399009986899495 0.26863911531903439 0 -0.34139946132247112 0.24041351753421181 0 -0.3399009986899495 0.26863911531903439 0 -0.32052316857880009 0.25199218265017043 0 -0.31493928155445272 0.27430993559415479 0 -0.3399009986899495 0.26863911531903439 0 -0.32052316857880009 0.25199218265017043 0 -0.31493928155445272 0.27430993559415479 0 -0.32052316857880009 0.25199218265017043 0 -0.29813700426351908 0.2549985658140525 0 -0.31493928155445272 0.27430993559415479 0 -0.29813700426351908 0.2549985658140525 0 -0.29529200006252948 0.27158343417855851 0 -0.31493928155445272 0.27430993559415479 0 -0.29529200006252948 0.27158343417855851 0 -0.29860197381843362 0.29024571476828781 0 -0.29529200006252948 0.27158343417855851 0 -0.28356153015689661 0.26077246338072052 0 -0.28122021051934548 0.27759049133557667 0 -0.29529200006252948 0.27158343417855851 0 -0.28122021051934548 0.27759049133557667 0 -0.29860197381843362 0.29024571476828781 0 -0.29813700426351908 0.2549985658140525 0 -0.29529200006252948 0.27158343417855851 0 -0.28356153015689661 0.26077246338072052 0 -0.28520633826073721 0.24204505302591109 0 -0.29813700426351908 0.2549985658140525 0 -0.28356153015689661 0.26077246338072052 0 -0.28520633826073721 0.24204505302591109 0 -0.28356153015689661 0.26077246338072052 0 -0.26991196520069161 0.25166683223725428 0 -0.28356153015689661 0.26077246338072052 0 -0.26991196520069161 0.25166683223725428 0 -0.26982671458757052 0.26781375962876097 0 -0.28356153015689661 0.26077246338072052 0 -0.26982671458757052 0.26781375962876097 0 -0.28122021051934548 0.27759049133557667 0 -0.26982671458757052 0.26781375962876097 0 -0.28122021051934548 0.27759049133557667 0 -0.25982227492027221 0.287750399741656 0 -0.2546175921406465 0.26128861144859822 0 -0.25982227492027221 0.287750399741656 0 -0.26982671458757052 0.26781375962876097 0 -0.2546175921406465 0.26128861144859822 0 -0.25982227492027221 0.287750399741656 0 -0.2546175921406465 0.26128861144859822 0 -0.25982227492027221 0.287750399741656 0 -0.24164285362834059 0.26945109504960563 0 -0.25054816238852479 0.24059870715785611 0 -0.2546175921406465 0.26128861144859822 0 -0.26991196520069161 0.25166683223725428 0 -0.26982671458757052 0.26781375962876097 0 -0.2546175921406465 0.26128861144859822 0 -0.25993357060704247 0.2432609816545768 0 -0.26991196520069161 0.25166683223725428 0 -0.2546175921406465 0.26128861144859822 0 -0.26991196520069161 0.25166683223725428 0 -0.2546175921406465 0.26128861144859822 0 -0.25982227492027221 0.287750399741656 0 -0.26502695769989643 0.31421218803471418 0 -0.25040582964490582 0.29567583303740069 0 -0.26031873506221342 0.31817490468258641 0 -0.26502695769989643 0.31421218803471418 0 -0.25040582964490582 0.29567583303740069 0 -0.26031873506221342 0.31817490468258641 0 -0.25040582964490582 0.29567583303740069 0 -0.25982227492027221 0.287750399741656 0 -0.26502695769989643 0.31421218803471418 0 -0.25040582964490582 0.29567583303740069 0 -0.26031873506221342 0.31817490468258641 0 -0.2434150889916675 0.31528126182336752 0 -0.25040582964490582 0.29567583303740069 0 -0.25982227492027221 0.287750399741656 0 -0.2404929242275981 0.27317676139221531 0 -0.28122021051934548 0.27759049133557667 0 -0.25982227492027221 0.287750399741656 0 -0.27872696579211859 0.29653502721740232 0 -0.27872696579211859 0.29653502721740232 0 -0.2889634120026453 0.31287634220677663 0 -0.26502695769989643 0.31421218803471418 0 -0.25982227492027221 0.287750399741656 0 -0.27872696579211859 0.29653502721740232 0 -0.26502695769989643 0.31421218803471418 0 -0.27872696579211859 0.29653502721740232 0 -0.29860197381843362 0.29024571476828781 0 -0.2889634120026453 0.31287634220677663 0 -0.28122021051934548 0.27759049133557667 0 -0.27872696579211859 0.29653502721740232 0 -0.29860197381843362 0.29024571476828781 0 -0.31760133335066493 0.29423642541125972 0 -0.31493928155445272 0.27430993559415479 0 -0.29860197381843362 0.29024571476828781 0 -0.29860197381843362 0.29024571476828781 0 -0.2889634120026453 0.31287634220677663 0 -0.31331907053128433 0.313878567385664 0 -0.31760133335066493 0.29423642541125972 0 -0.29860197381843362 0.29024571476828781 0 -0.31331907053128433 0.313878567385664 0 -0.29891576475332582 0.33197597815543639 0 -0.2889634120026453 0.31287634220677663 0 -0.31331907053128433 0.313878567385664 0 -0.29891576475332582 0.33197597815543639 0 -0.31508677610875602 0.33246264155886579 0 -0.31331907053128433 0.313878567385664 0 -0.29891576475332582 0.33197597815543639 0 -0.30998113757288742 0.35016350933599311 0 -0.31508677610875602 0.33246264155886579 0 -0.29891576475332582 0.33197597815543639 0 -0.27956012110933898 0.33426516842927712 0 -0.28899367546018362 0.34990607578599969 0 -0.27956012110933898 0.33426516842927712 0 -0.27835705654663001 0.3466973614805422 0 -0.28899367546018362 0.34990607578599969 0 -0.29891576475332582 0.33197597815543639 0 -0.2889634120026453 0.31287634220677663 0 -0.27956012110933898 0.33426516842927712 0 -0.27023164047952081 0.34067397632777208 0 -0.26502695769989643 0.31421218803471418 0 -0.2889634120026453 0.31287634220677663 0 -0.27956012110933898 0.33426516842927712 0 -0.26502695769989643 0.31421218803471418 0 -0.27956012110933898 0.33426516842927712 0 -0.27023164047952081 0.34067397632777208 0 -0.26502695769989643 0.31421218803471418 0 -0.27956012110933898 0.33426516842927712 0 -0.27023164047952081 0.34067397632777208 0 -0.27835705654663001 0.3466973614805422 0 -0.27023164047952081 0.34067397632777208 0 -0.25008303346203908 0.33611797840414298 0 -0.26058904667577898 0.35313253120237981 0 -0.27023164047952081 0.34067397632777208 0 -0.25008303346203908 0.33611797840414298 0 -0.26031873506221342 0.31817490468258641 0 -0.27023164047952081 0.34067397632777208 0 -0.26031873506221342 0.31817490468258641 0 -0.27023164047952081 0.34067397632777208 0 -0.26031873506221342 0.31817490468258641 0 -0.26502695769989643 0.31421218803471418 0 -0.25008303346203908 0.33611797840414298 0 -0.26031873506221342 0.31817490468258641 0 -0.2434150889916675 0.31528126182336752 0 -0.2592717334901794 0.37344143954643821 0 -0.26058904667577898 0.35313253120237981 0 -0.245130999697667 0.35617292401417999 0 -0.2592717334901794 0.37344143954643821 0 -0.26058904667577898 0.35313253120237981 0 -0.2742317000365197 0.36101118680509853 0 -0.25008303346203908 0.33611797840414298 0 -0.26058904667577898 0.35313253120237981 0 -0.245130999697667 0.35617292401417999 0 -0.27023164047952081 0.34067397632777208 0 -0.27835705654663001 0.3466973614805422 0 -0.2742317000365197 0.36101118680509853 0 -0.27023164047952081 0.34067397632777208 0 -0.26058904667577898 0.35313253120237981 0 -0.2742317000365197 0.36101118680509853 0 -0.27023164047952081 0.34067397632777208 0 -0.2742317000365197 0.36101118680509853 0 -0.27835705654663001 0.3466973614805422 0 -0.2742317000365197 0.36101118680509853 0 -0.28899367546018362 0.34990607578599969 0 -0.2592717334901794 0.37344143954643821 0 -0.2742317000365197 0.36101118680509853 0 -0.27666944541277583 0.38068284486427251 0 -0.2742317000365197 0.36101118680509853 0 -0.2918056253057611 0.36977816091582622 0 -0.27666944541277583 0.38068284486427251 0 -0.2742317000365197 0.36101118680509853 0 -0.2918056253057611 0.36977816091582622 0 -0.28899367546018362 0.34990607578599969 0 -0.2918056253057611 0.36977816091582622 0 -0.28899367546018362 0.34990607578599969 0 -0.30998113757288742 0.35016350933599311 0 -0.29891576475332582 0.33197597815543639 0 -0.28899367546018362 0.34990607578599969 0 -0.30998113757288742 0.35016350933599311 0 -0.2918056253057611 0.36977816091582622 0 -0.30998113757288742 0.35016350933599311 0 -0.30751920709622288 0.37811993239733782 0 -0.30998113757288742 0.35016350933599311 0 -0.3241796865990505 0.37446232129606583 0 -0.30998113757288742 0.35016350933599311 0 -0.3241796865990505 0.37446232129606583 0 -0.3311814619238953 0.36217087484935062 0 -0.30998113757288742 0.35016350933599311 0 -0.3241796865990505 0.37446232129606583 0 -0.30751920709622288 0.37811993239733782 0 -0.3241796865990505 0.37446232129606583 0 -0.3311814619238953 0.36217087484935062 0 -0.3450213805631549 0.37637896488870742 0 -0.3311814619238953 0.36217087484935062 0 -0.34248144252655999 0.3449329262912757 0 -0.32671787735756741 0.34394441277493482 0 -0.30998113757288742 0.35016350933599311 0 -0.3311814619238953 0.36217087484935062 0 -0.32671787735756741 0.34394441277493482 0 -0.30998113757288742 0.35016350933599311 0 -0.32671787735756741 0.34394441277493482 0 -0.31508677610875602 0.33246264155886579 0 -0.32671787735756741 0.34394441277493482 0 -0.31508677610875602 0.33246264155886579 0 -0.33690407342490619 0.32509031088867912 0 -0.31508677610875602 0.33246264155886579 0 -0.31331907053128433 0.313878567385664 0 -0.33690407342490619 0.32509031088867912 0 -0.34248144252655999 0.3449329262912757 0 -0.32671787735756741 0.34394441277493482 0 -0.33690407342490619 0.32509031088867912 0 -0.34248144252655999 0.3449329262912757 0 -0.33690407342490619 0.32509031088867912 0 -0.35402019531300261 0.33435003863570822 0 -0.33690407342490619 0.32509031088867912 0 -0.35402019531300261 0.33435003863570822 0 -0.35820423278511537 0.31360051904281339 0 -0.35820423278511537 0.31360051904281339 0 -0.3736940231061725 0.31398947852622111 0 -0.371857819856382 0.33718357931137699 0 -0.35402019531300261 0.33435003863570822 0 -0.35820423278511537 0.31360051904281339 0 -0.371857819856382 0.33718357931137699 0 -0.35402019531300261 0.33435003863570822 0 -0.371857819856382 0.33718357931137699 0 -0.35941010751018809 0.3566911886622014 0 -0.38763875309648088 0.35121150247505228 0 -0.371857819856382 0.33718357931137699 0 -0.35941010751018809 0.3566911886622014 0 -0.38763875309648088 0.35121150247505228 0 -0.35941010751018809 0.3566911886622014 0 -0.37817844187468841 0.37049799817574158 0 -0.35941010751018809 0.3566911886622014 0 -0.36132744716974019 0.37598607000928502 0 -0.35941010751018809 0.3566911886622014 0 -0.3450213805631549 0.37637896488870742 0 -0.36132744716974019 0.37598607000928502 0 -0.3311814619238953 0.36217087484935062 0 -0.35941010751018809 0.3566911886622014 0 -0.3450213805631549 0.37637896488870742 0 -0.3311814619238953 0.36217087484935062 0 -0.35941010751018809 0.3566911886622014 0 -0.34248144252655999 0.3449329262912757 0 -0.35402019531300261 0.33435003863570822 0 -0.35941010751018809 0.3566911886622014 0 -0.3311814619238953 0.36217087484935062 0 -0.34248144252655999 0.3449329262912757 0 -0.35941010751018809 0.3566911886622014 0 -0.35813247438357998 0.40322770661363078 0 -0.35506690633984689 0.38909595593077778 0 -0.33837823562521357 0.3987611332561386 0 -0.3450213805631549 0.37637896488870742 0 -0.35506690633984689 0.38909595593077778 0 -0.36132744716974019 0.37598607000928502 0 -0.3450213805631549 0.37637896488870742 0 -0.35506690633984689 0.38909595593077778 0 -0.33837823562521357 0.3987611332561386 0 -0.37817844187468841 0.37049799817574158 0 -0.36132744716974019 0.37598607000928502 0 -0.36896039956082288 0.38726624238899698 0 -0.35506690633984689 0.38909595593077778 0 -0.36132744716974019 0.37598607000928502 0 -0.36896039956082288 0.38726624238899698 0 -0.35813247438357998 0.40322770661363078 0 -0.35506690633984689 0.38909595593077778 0 -0.36896039956082288 0.38726624238899698 0 -0.35813247438357998 0.40322770661363078 0 -0.36896039956082288 0.38726624238899698 0 -0.37495024184161951 0.39669027322643757 0 -0.35813247438357998 0.40322770661363078 0 -0.37495024184161951 0.39669027322643757 0 -0.37226667114234002 0.41030924202555608 0 -0.37226667114234002 0.41030924202555608 0 -0.37063698291958719 0.42934778893548009 0 -0.35257678465137682 0.42305994521621149 0 -0.37226667114234002 0.41030924202555608 0 -0.35257678465137682 0.42305994521621149 0 -0.35813247438357998 0.40322770661363078 0 -0.37226667114234002 0.41030924202555608 0 -0.35257678465137682 0.42305994521621149 0 -0.37063698291958719 0.42934778893548009 0 -0.35509229673206349 0.42736488897625841 0 -0.35257678465137682 0.42305994521621149 0 -0.38219330561030318 0.43733759585905729 0 -0.37063698291958719 0.42934778893548009 0 -0.37031446948010971 0.44164379239859503 0 -0.37063698291958719 0.42934778893548009 0 -0.35100800832540779 0.43373908660655719 0 -0.34797539811694939 0.44391372641119659 0 -0.35257678465137682 0.42305994521621149 0 -0.34703292232895172 0.42665001888350013 0 -0.33490384995054723 0.4214646834239163 0 -0.37063698291958719 0.42934778893548009 0 -0.35509229673206349 0.42736488897625841 0 -0.35100800832540779 0.43373908660655719 0 -0.37063698291958719 0.42934778893548009 0 -0.34797539811694939 0.44391372641119659 0 -0.35509229673206349 0.42736488897625841 0 -0.35257678465137682 0.42305994521621149 0 -0.35120601168128568 0.42714359628681298 0 -0.35509229673206349 0.42736488897625841 0 -0.35120601168128568 0.42714359628681298 0 -0.35100800832540779 0.43373908660655719 0 -0.35509229673206349 0.42736488897625841 0 -0.35257678465137682 0.42305994521621149 0 -0.35257678465137682 0.42305994521621149 0 -0.34703292232895172 0.42665001888350013 0 -0.35120601168128568 0.42714359628681298 0 -0.35257678465137682 0.42305994521621149 0 -0.34703292232895172 0.42665001888350013 0 -0.34703292232895172 0.42665001888350013 0 -0.35120601168128568 0.42714359628681298 0 -0.35100800832540779 0.43373908660655719 0 -0.34703292232895172 0.42665001888350013 0 -0.35100800832540779 0.43373908660655719 0 -0.3416144021158749 0.43307637903049229 0 -0.35100800832540779 0.43373908660655719 0 -0.3416144021158749 0.43307637903049229 0 -0.34797539811694939 0.44391372641119659 0 -0.35257678465137682 0.42305994521621149 0 -0.33837823562521357 0.3987611332561386 0 -0.35813247438357998 0.40322770661363078 0 -0.35257678465137682 0.42305994521621149 0 -0.33837823562521357 0.3987611332561386 0 -0.35257678465137682 0.42305994521621149 0 -0.33490384995054723 0.4214646834239163 0 -0.33837823562521357 0.3987611332561386 0 -0.33490384995054723 0.4214646834239163 0 -0.32139182098691871 0.40894936325787168 0 -0.33837823562521357 0.3987611332561386 0 -0.34703292232895172 0.42665001888350013 0 -0.33490384995054723 0.4214646834239163 0 -0.3416144021158749 0.43307637903049229 0 -0.33490384995054723 0.4214646834239163 0 -0.3416144021158749 0.43307637903049229 0 -0.32915885350338547 0.436077628681731 0 -0.32915885350338547 0.436077628681731 0 -0.31540425984898302 0.42282960227343241 0 -0.31037484696397899 0.44222133160263499 0 -0.33490384995054723 0.4214646834239163 0 -0.32915885350338547 0.436077628681731 0 -0.31540425984898302 0.42282960227343241 0 -0.31540425984898302 0.42282960227343241 0 -0.32139182098691871 0.40894936325787168 0 -0.30380921659141291 0.40737586576510598 0 -0.33490384995054723 0.4214646834239163 0 -0.31540425984898302 0.42282960227343241 0 -0.32139182098691871 0.40894936325787168 0 -0.32139182098691871 0.40894936325787168 0 -0.31446354291843659 0.3943155315707651 0 -0.30380921659141291 0.40737586576510598 0 -0.32139182098691871 0.40894936325787168 0 -0.31446354291843659 0.3943155315707651 0 -0.33837823562521357 0.3987611332561386 0 -0.3241796865990505 0.37446232129606583 0 -0.33837823562521357 0.3987611332561386 0 -0.3241796865990505 0.37446232129606583 0 -0.3450213805631549 0.37637896488870742 0 -0.33837823562521357 0.3987611332561386 0 -0.3241796865990505 0.37446232129606583 0 -0.31446354291843659 0.3943155315707651 0 -0.33837823562521357 0.3987611332561386 0 -0.3241796865990505 0.37446232129606583 0 -0.31446354291843659 0.3943155315707651 0 -0.30751920709622288 0.37811993239733782 0 -0.31446354291843659 0.3943155315707651 0 -0.30751920709622288 0.37811993239733782 0 -0.29017157169787189 0.39747123853798338 0 -0.31446354291843659 0.3943155315707651 0 -0.29017157169787189 0.39747123853798338 0 -0.30380921659141291 0.40737586576510598 0 -0.31446354291843659 0.3943155315707651 0 -0.29017157169787189 0.39747123853798338 0 -0.2918056253057611 0.36977816091582622 0 -0.29017157169787189 0.39747123853798338 0 -0.27666944541277583 0.38068284486427251 0 -0.2918056253057611 0.36977816091582622 0 -0.30751920709622288 0.37811993239733782 0 -0.29017157169787189 0.39747123853798338 0 -0.2592717334901794 0.37344143954643821 0 -0.27666944541277583 0.38068284486427251 0 -0.26587960047730708 0.40062694550520161 0 -0.29017157169787189 0.39747123853798338 0 -0.26587960047730708 0.40062694550520161 0 -0.29017157169787189 0.39747123853798338 0 -0.27666944541277583 0.38068284486427251 0 -0.26587960047730708 0.40062694550520161 0 -0.26587960047730708 0.40062694550520161 0 -0.24390026663595221 0.4098265108577458 0 -0.24158762925674229 0.40378265247242029 0 -0.26587960047730708 0.40062694550520161 0 -0.24855740320059311 0.38849035142128929 0 -0.24158762925674229 0.40378265247242029 0 -0.26587960047730708 0.40062694550520161 0 -0.24158762925674229 0.40378265247242029 0 -0.2592717334901794 0.37344143954643821 0 -0.24855740320059311 0.38849035142128929 0 -0.24298804513369371 0.37489662163126852 0 -0.2592717334901794 0.37344143954643821 0 -0.26587960047730708 0.40062694550520161 0 -0.24855740320059311 0.38849035142128929 0 -0.26486291021761232 0.42723466671622251 0 -0.25440434670568679 0.43727792757369249 0 -0.24390026663595221 0.4098265108577458 0 -0.26486291021761232 0.42723466671622251 0 -0.25440434670568679 0.43727792757369249 0 -0.268601175871508 0.43936588513269881 0 -0.26587960047730708 0.40062694550520161 0 -0.26486291021761232 0.42723466671622251 0 -0.24390026663595221 0.4098265108577458 0 -0.26486291021761232 0.42723466671622251 0 -0.24390026663595221 0.4098265108577458 0 -0.26587960047730708 0.40062694550520161 0 -0.26486291021761232 0.42723466671622251 0 -0.29212211282505068 0.42111929002973092 0 -0.26486291021761232 0.42723466671622251 0 -0.28582555379927221 0.44464282257469973 0 -0.26486291021761232 0.42723466671622251 0 -0.29212211282505068 0.42111929002973092 0 -0.28582555379927221 0.44464282257469973 0 -0.26486291021761232 0.42723466671622251 0 -0.28582555379927221 0.44464282257469973 0 -0.268601175871508 0.43936588513269881 0 -0.29212211282505068 0.42111929002973092 0 -0.31037484696397899 0.44222133160263499 0 -0.28582555379927221 0.44464282257469973 0 -0.29017157169787189 0.39747123853798338 0 -0.26587960047730708 0.40062694550520161 0 -0.29212211282505068 0.42111929002973092 0 -0.29017157169787189 0.39747123853798338 0 -0.29212211282505068 0.42111929002973092 0 -0.30380921659141291 0.40737586576510598 0 -0.31540425984898302 0.42282960227343241 0 -0.29212211282505068 0.42111929002973092 0 -0.30380921659141291 0.40737586576510598 0 -0.31540425984898302 0.42282960227343241 0 -0.29212211282505068 0.42111929002973092 0 -0.31037484696397899 0.44222133160263499 0 -0.31037484696397899 0.44222133160263499 0 -0.30678819738092977 0.46205097843317938 0 -0.28582555379927221 0.44464282257469973 0 -0.30678819738092977 0.46205097843317938 0 -0.28923783613749188 0.46977947950295129 0 -0.30678819738092977 0.46205097843317938 0 -0.28923783613749188 0.46977947950295129 0 -0.30891410950205461 0.46909475087526598 0 -0.30891410950205461 0.46909475087526598 0 -0.31325745709166991 0.46742329137141808 0 -0.30678819738092977 0.46205097843317938 0 -0.30891410950205461 0.46909475087526598 0 -0.31325745709166991 0.46742329137141808 0 -0.30891410950205461 0.46909475087526598 0 -0.31525562008559699 0.46908263994992622 0 -0.31325745709166991 0.46742329137141808 0 -0.30678819738092977 0.46205097843317938 0 -0.31325745709166991 0.46742329137141808 0 -0.30678819738092977 0.46205097843317938 0 -0.29206160947224158 0.45498445755246653 0 -0.28582555379927221 0.44464282257469973 0 -0.30678819738092977 0.46205097843317938 0 -0.28582555379927221 0.44464282257469973 0 -0.30678819738092977 0.46205097843317938 0 -0.29206160947224158 0.45498445755246653 0 -0.28923783613749188 0.46977947950295129 0 -0.29206160947224158 0.45498445755246653 0 -0.28923783613749188 0.46977947950295129 0 -0.29206160947224158 0.45498445755246653 0 -0.27802275223802481 0.45856884181986929 0 -0.28923783613749188 0.46977947950295129 0 -0.29206160947224158 0.45498445755246653 0 -0.28582555379927221 0.44464282257469973 0 -0.27802275223802481 0.45856884181986929 0 -0.28582555379927221 0.44464282257469973 0 -0.26931189276346068 0.44830812366618028 0 -0.27802275223802481 0.45856884181986929 0 -0.28582555379927221 0.44464282257469973 0 -0.268601175871508 0.43936588513269881 0 -0.26931189276346068 0.44830812366618028 0 -0.26931189276346068 0.44830812366618028 0 -0.27802275223802481 0.45856884181986929 0 -0.26490842677542209 0.46472934428963919 0 -0.27802275223802481 0.45856884181986929 0 -0.26490842677542209 0.46472934428963919 0 -0.27188202748178247 0.47742230712921863 0 -0.27802275223802481 0.45856884181986929 0 -0.27188202748178247 0.47742230712921863 0 -0.28923783613749188 0.46977947950295129 0 -0.26190074499161498 0.45925492802712919 0 -0.25374771190227041 0.46769530379170138 0 -0.2470835307717511 0.45204209071788648 0 -0.25440434670568679 0.43727792757369249 0 -0.26190074499161498 0.45925492802712919 0 -0.26490842677542209 0.46472934428963919 0 -0.26190074499161498 0.45925492802712919 0 -0.26490842677542209 0.46472934428963919 0 -0.25374771190227041 0.46769530379170138 0 -0.26190074499161498 0.45925492802712919 0 -0.26490842677542209 0.46472934428963919 0 -0.25440434670568679 0.43727792757369249 0 -0.26190074499161498 0.45925492802712919 0 -0.2470835307717511 0.45204209071788648 0 -0.25440434670568679 0.43727792757369249 0 -0.26490842677542209 0.46472934428963919 0 -0.25440434670568679 0.43727792757369249 0 -0.26931189276346068 0.44830812366618028 0 -0.26490842677542209 0.46472934428963919 0 -0.25440434670568679 0.43727792757369249 0 -0.268601175871508 0.43936588513269881 0 -0.26931189276346068 0.44830812366618028 0 -0.25847810702610519 0.48850414280974469 0 -0.27007053304879808 0.47822001929417107 0 -0.24534086517324849 0.48911000964708612 0 -0.25847810702610519 0.48850414280974469 0 -0.26092149103342371 0.50000000000000044 0 -0.24271601658602809 0.5 0 -0.25847810702610519 0.48850414280974469 0 -0.27201266959149478 0.48329560889354789 0 -0.25847810702610519 0.48850414280974469 0 -0.26092149103342371 0.50000000000000044 0 -0.26665442019254082 0.49000718405533439 0 -0.26490842677542209 0.46472934428963919 0 -0.25374771190227041 0.46769530379170138 0 -0.27007053304879808 0.47822001929417107 0 -0.25374771190227041 0.46769530379170138 0 -0.27007053304879808 0.47822001929417107 0 -0.24534086517324849 0.48911000964708612 0 -0.27007053304879808 0.47822001929417107 0 -0.24534086517324849 0.48911000964708612 0 -0.27188202748178247 0.47742230712921863 0 -0.28923783613749188 0.46977947950295129 0 -0.25847810702610519 0.48850414280974469 0 -0.27007053304879808 0.47822001929417107 0 -0.27201266959149478 0.48329560889354789 0 -0.27188202748178247 0.47742230712921863 0 -0.27456848518075422 0.48231204905436859 0 -0.28781911866264892 0.47721278015904062 0 -0.27007053304879808 0.47822001929417107 0 -0.27188202748178247 0.47742230712921863 0 -0.27210308472192962 0.4803444769229962 0 -0.27188202748178247 0.47742230712921863 0 -0.27456848518075422 0.48231204905436859 0 -0.27188202748178247 0.47742230712921863 0 -0.27210308472192962 0.4803444769229962 0 -0.27456848518075422 0.48231204905436859 0 -0.27007053304879808 0.47822001929417107 0 -0.27188202748178247 0.47742230712921863 0 -0.27007053304879808 0.47822001929417107 0 -0.27201266959149478 0.48329560889354789 0 -0.27210308472192962 0.4803444769229962 0 -0.27201266959149478 0.48329560889354789 0 -0.27456848518075422 0.48231204905436859 0 -0.27007053304879808 0.47822001929417107 0 -0.27210308472192962 0.4803444769229962 0 -0.27201266959149478 0.48329560889354789 0 -0.27201266959149478 0.48329560889354789 0 -0.27456848518075422 0.48231204905436859 0 -0.26490842677542209 0.46472934428963919 0 -0.27188202748178247 0.47742230712921863 0 -0.26490842677542209 0.46472934428963919 0 -0.27007053304879808 0.47822001929417107 0 -0.27188202748178247 0.47742230712921863 0 -0.26490842677542209 0.46472934428963919 0 -0.27007053304879808 0.47822001929417107 0 -0.27456848518075422 0.48231204905436859 0 -0.28781911866264892 0.47721278015904062 0 -0.26092149103342371 0.50000000000000044 0 -0.27494821351356852 0.49096737443205551 0 -0.27840448038632598 0.49999999999999989 0 -0.27456848518075422 0.48231204905436859 0 -0.27818028796098981 0.48888605298774751 0 -0.28662963421400323 0.4834450256126463 0 -0.27818028796098981 0.48888605298774751 0 -0.27494821351356852 0.49096737443205551 0 -0.27201266959149478 0.48329560889354789 0 -0.27494821351356852 0.49096737443205551 0 -0.27201266959149478 0.48329560889354789 0 -0.27456848518075422 0.48231204905436859 0 -0.27818028796098981 0.48888605298774751 0 -0.27201266959149478 0.48329560889354789 0 -0.27818028796098981 0.48888605298774751 0 -0.27494821351356852 0.49096737443205551 0 -0.27456848518075422 0.48231204905436859 0 -0.27818028796098981 0.48888605298774751 0 -0.27201266959149478 0.48329560889354789 0 -0.27494821351356852 0.49096737443205551 0 -0.26665442019254082 0.49000718405533439 0 -0.25847810702610519 0.48850414280974469 0 -0.27201266959149478 0.48329560889354789 0 -0.26665442019254082 0.49000718405533439 0 -0.26092149103342371 0.50000000000000044 0 -0.27494821351356852 0.49096737443205551 0 -0.26092149103342371 0.50000000000000044 0 -0.27494821351356852 0.49096737443205551 0 -0.26665442019254082 0.49000718405533439 0 -0.27494821351356852 0.49096737443205551 0 -0.27840448038632598 0.49999999999999989 0 -0.27818028796098981 0.48888605298774751 0 -0.27840448038632598 0.49999999999999989 0 -0.28368044823936328 0.49889714094141469 0 -0.27818028796098981 0.48888605298774751 0 -0.27494821351356852 0.49096737443205551 0 -0.27840448038632598 0.49999999999999989 0 -0.27818028796098981 0.48888605298774751 0 -0.28368044823936328 0.49889714094141469 0 -0.28368044823936328 0.49889714094141469 0 -0.29224888689071188 0.49344190183271952 0 -0.30769467815930068 0.5 0 -0.27818028796098981 0.48888605298774751 0 -0.28368044823936328 0.49889714094141469 0 -0.28662963421400323 0.4834450256126463 0 -0.28368044823936328 0.49889714094141469 0 -0.28662963421400323 0.4834450256126463 0 -0.28368044823936328 0.49889714094141469 0 -0.29224888689071188 0.49344190183271952 0 -0.28662963421400323 0.4834450256126463 0 -0.27818028796098981 0.48888605298774751 0 -0.28662963421400323 0.4834450256126463 0 -0.29224888689071188 0.49344190183271952 0 -0.28662963421400323 0.4834450256126463 0 -0.30094150763636901 0.48708058862929682 0 -0.28781911866264892 0.47721278015904062 0 -0.28923783613749188 0.46977947950295129 0 -0.30891410950205461 0.46909475087526598 0 -0.27188202748178247 0.47742230712921863 0 -0.28781911866264892 0.47721278015904062 0 -0.28923783613749188 0.46977947950295129 0 -0.28781911866264892 0.47721278015904062 0 -0.28923783613749188 0.46977947950295129 0 -0.27456848518075422 0.48231204905436859 0 -0.28781911866264892 0.47721278015904062 0 -0.28662963421400323 0.4834450256126463 0 -0.28781911866264892 0.47721278015904062 0 -0.28662963421400323 0.4834450256126463 0 -0.28662963421400323 0.4834450256126463 0 -0.30182933433063519 0.4736570512592001 0 -0.30094150763636901 0.48708058862929682 0 -0.28781911866264892 0.47721278015904062 0 -0.28662963421400323 0.4834450256126463 0 -0.30182933433063519 0.4736570512592001 0 -0.28662963421400323 0.4834450256126463 0 -0.30182933433063519 0.4736570512592001 0 -0.28781911866264892 0.47721278015904062 0 -0.30182933433063519 0.4736570512592001 0 -0.30182933433063519 0.4736570512592001 0 -0.31729910476423501 0.48596558745179752 0 -0.31525562008559699 0.46908263994992622 0 -0.30182933433063519 0.4736570512592001 0 -0.30094150763636901 0.48708058862929682 0 -0.31729910476423501 0.48596558745179752 0 -0.28781911866264892 0.47721278015904062 0 -0.30182933433063519 0.4736570512592001 0 -0.30891410950205461 0.46909475087526598 0 -0.28781911866264892 0.47721278015904062 0 -0.30891410950205461 0.46909475087526598 0 -0.30182933433063519 0.4736570512592001 0 -0.31525562008559699 0.46908263994992622 0 -0.30182933433063519 0.4736570512592001 0 -0.30891410950205461 0.46909475087526598 0 -0.31525562008559699 0.46908263994992622 0 -0.30182933433063519 0.4736570512592001 0 -0.30891410950205461 0.46909475087526598 0 -0.30094150763636901 0.48708058862929682 0 -0.30769467815930068 0.5 0 -0.31729910476423501 0.48596558745179752 0 -0.29224888689071188 0.49344190183271952 0 -0.30094150763636901 0.48708058862929682 0 -0.30769467815930068 0.5 0 -0.31729910476423501 0.48596558745179752 0 -0.33427013892530733 0.48487300084816443 0 -0.33110298975999741 0.5 0 -0.30769467815930068 0.5 0 -0.31729910476423501 0.48596558745179752 0 -0.33110298975999741 0.5 0 -0.33427013892530733 0.48487300084816443 0 -0.33110298975999741 0.5 0 -0.35451130136069398 0.4999999999999995 0 -0.33427013892530733 0.48487300084816443 0 -0.33945755539216582 0.46083690404104272 0 -0.34969032548814538 0.47637365565428952 0 -0.33427013892530733 0.48487300084816443 0 -0.31525562008559699 0.46908263994992622 0 -0.33945755539216582 0.46083690404104272 0 -0.31729910476423501 0.48596558745179752 0 -0.33427013892530733 0.48487300084816443 0 -0.31525562008559699 0.46908263994992622 0 -0.33427013892530733 0.48487300084816443 0 -0.31525562008559699 0.46908263994992622 0 -0.31525562008559699 0.46908263994992622 0 -0.31325745709166991 0.46742329137141808 0 -0.33361387207467458 0.45958948977355291 0 -0.31325745709166991 0.46742329137141808 0 -0.33024094015483157 0.45536115943149169 0 -0.33361387207467458 0.45958948977355291 0 -0.31525562008559699 0.46908263994992622 0 -0.31325745709166991 0.46742329137141808 0 -0.30678819738092977 0.46205097843317938 0 -0.32738179774893988 0.45298235242218882 0 -0.30678819738092977 0.46205097843317938 0 -0.31325745709166991 0.46742329137141808 0 -0.32738179774893988 0.45298235242218882 0 -0.31325745709166991 0.46742329137141808 0 -0.33024094015483157 0.45536115943149169 0 -0.31325745709166991 0.46742329137141808 0 -0.32738179774893988 0.45298235242218882 0 -0.33024094015483157 0.45536115943149169 0 -0.31325745709166991 0.46742329137141808 0 -0.33361387207467458 0.45958948977355291 0 -0.31525562008559699 0.46908263994992622 0 -0.33945755539216582 0.46083690404104272 0 -0.31037484696397899 0.44222133160263499 0 -0.30678819738092977 0.46205097843317938 0 -0.32738179774893988 0.45298235242218882 0 -0.32915885350338547 0.436077628681731 0 -0.31037484696397899 0.44222133160263499 0 -0.32738179774893988 0.45298235242218882 0 -0.32915885350338547 0.436077628681731 0 -0.32738179774893988 0.45298235242218882 0 -0.34797539811694939 0.44391372641119659 0 -0.32738179774893988 0.45298235242218882 0 -0.34797539811694939 0.44391372641119659 0 -0.33024094015483157 0.45536115943149169 0 -0.33361387207467458 0.45958948977355291 0 -0.34797539811694939 0.44391372641119659 0 -0.3416144021158749 0.43307637903049229 0 -0.32915885350338547 0.436077628681731 0 -0.34797539811694939 0.44391372641119659 0 -0.33024094015483157 0.45536115943149169 0 -0.34797539811694939 0.44391372641119659 0 -0.32738179774893988 0.45298235242218882 0 -0.33024094015483157 0.45536115943149169 0 -0.34797539811694939 0.44391372641119659 0 -0.31525562008559699 0.46908263994992622 0 -0.33361387207467458 0.45958948977355291 0 -0.33945755539216582 0.46083690404104272 0 -0.33361387207467458 0.45958948977355291 0 -0.33945755539216582 0.46083690404104272 0 -0.35397028705767941 0.45175568817568751 0 -0.33945755539216582 0.46083690404104272 0 -0.35397028705767941 0.45175568817568751 0 -0.3636594906987341 0.45259116813215772 0 -0.33945755539216582 0.46083690404104272 0 -0.35903601978900862 0.4668294320101527 0 -0.3636594906987341 0.45259116813215772 0 -0.33945755539216582 0.46083690404104272 0 -0.35903601978900862 0.4668294320101527 0 -0.34969032548814538 0.47637365565428952 0 -0.33361387207467458 0.45958948977355291 0 -0.35397028705767941 0.45175568817568751 0 -0.33945755539216582 0.46083690404104272 0 -0.3636594906987341 0.45259116813215772 0 -0.35397028705767941 0.45175568817568751 0 -0.34797539811694939 0.44391372641119659 0 -0.3636594906987341 0.45259116813215772 0 -0.33361387207467458 0.45958948977355291 0 -0.35397028705767941 0.45175568817568751 0 -0.34797539811694939 0.44391372641119659 0 -0.38786142600530288 0.44434543222327372 0 -0.3636594906987341 0.45259116813215772 0 -0.37031446948010971 0.44164379239859503 0 -0.34797539811694939 0.44391372641119659 0 -0.3636594906987341 0.45259116813215772 0 -0.37031446948010971 0.44164379239859503 0 -0.37063698291958719 0.42934778893548009 0 -0.34797539811694939 0.44391372641119659 0 -0.37031446948010971 0.44164379239859503 0 -0.37674471779043378 0.46289695481551602 0 -0.35903601978900862 0.4668294320101527 0 -0.3636594906987341 0.45259116813215772 0 -0.37674471779043378 0.46289695481551602 0 -0.35903601978900862 0.4668294320101527 0 -0.36562800957556379 0.48144847740775781 0 -0.37674471779043378 0.46289695481551602 0 -0.36562800957556379 0.48144847740775781 0 -0.36562800957556379 0.48144847740775781 0 -0.35451130136069398 0.4999999999999995 0 -0.37984386551400101 0.5 0 -0.36562800957556379 0.48144847740775781 0 -0.35451130136069398 0.4999999999999995 0 -0.33427013892530733 0.48487300084816443 0 -0.35451130136069398 0.4999999999999995 0 -0.34969032548814538 0.47637365565428952 0 -0.36562800957556379 0.48144847740775781 0 -0.35451130136069398 0.4999999999999995 0 -0.34969032548814538 0.47637365565428952 0 -0.35903601978900862 0.4668294320101527 0 -0.36562800957556379 0.48144847740775781 0 -0.34969032548814538 0.47637365565428952 0 -0.13298062755884579 0.48255116261061692 0 -0.15843735091332889 0.4710522502620903 0 -0.13298062755884579 0.48255116261061692 0 -0.14150291950411281 0.46425469992345519 0 -0.15843735091332889 0.4710522502620903 0 -0.13975760046378269 0.49999999999999878 0 -0.15843735091332889 0.4710522502620903 0 -0.16099880066542119 0.50000000000000022 0 -0.13975760046378269 0.49999999999999878 0 -0.13298062755884579 0.48255116261061692 0 -0.15843735091332889 0.4710522502620903 0 -0.13975760046378269 0.49999999999999878 0 -0.13298062755884579 0.48255116261061692 0 -0.13975760046378269 0.49999999999999878 0 -0.13298062755884579 0.48255116261061692 0 -0.11380605494256869 0.5 0 -0.13298062755884579 0.48255116261061692 0 -0.12544051825853689 0.4631374593356033 0 -0.14150291950411281 0.46425469992345519 0 -0.13298062755884579 0.48255116261061692 0 -0.12544051825853689 0.4631374593356033 0 -0.1336307511693739 0.45491465667522191 0 -0.12544051825853689 0.4631374593356033 0 -0.14150291950411281 0.46425469992345519 0 -0.1336307511693739 0.45491465667522191 0 -0.13175207046494611 0.44346192959665548 0 -0.11475987009784661 0.45084407402711402 0 -0.13175207046494611 0.44346192959665548 0 -0.15702534962047851 0.44961797073374349 0 -0.14544522351027661 0.43702334659483638 0 -0.1336307511693739 0.45491465667522191 0 -0.13175207046494611 0.44346192959665548 0 -0.15702534962047851 0.44961797073374349 0 -0.15702534962047851 0.44961797073374349 0 -0.14544522351027661 0.43702334659483638 0 -0.1556699124179855 0.4290423380990836 0 -0.13175207046494611 0.44346192959665548 0 -0.15702534962047851 0.44961797073374349 0 -0.1336307511693739 0.45491465667522191 0 -0.14150291950411281 0.46425469992345519 0 -0.15702534962047851 0.44961797073374349 0 -0.14150291950411281 0.46425469992345519 0 -0.15702534962047851 0.44961797073374349 0 -0.15843735091332889 0.4710522502620903 0 -0.15702534962047851 0.44961797073374349 0 -0.15843735091332889 0.4710522502620903 0 -0.16426353778385031 0.46842053638370362 0 -0.16193071402987511 0.45081281469960982 0 -0.15843735091332889 0.4710522502620903 0 -0.15702534962047851 0.44961797073374349 0 -0.16193071402987511 0.45081281469960982 0 -0.15843735091332889 0.4710522502620903 0 -0.16426353778385031 0.46842053638370362 0 -0.16193071402987511 0.45081281469960982 0 -0.17220307999619611 0.44534927840499378 0 -0.16426353778385031 0.46842053638370362 0 -0.17220307999619611 0.44534927840499378 0 -0.15702534962047851 0.44961797073374349 0 -0.1556699124179855 0.4290423380990836 0 -0.16306062424848339 0.44050736484390751 0 -0.15702534962047851 0.44961797073374349 0 -0.1556699124179855 0.4290423380990836 0 -0.16306062424848339 0.44050736484390751 0 -0.15702534962047851 0.44961797073374349 0 -0.16193071402987511 0.45081281469960982 0 -0.15702534962047851 0.44961797073374349 0 -0.16193071402987511 0.45081281469960982 0 -0.16306062424848339 0.44050736484390751 0 -0.16193071402987511 0.45081281469960982 0 -0.17220307999619611 0.44534927840499378 0 -0.16306062424848339 0.44050736484390751 0 -0.17220307999619611 0.44534927840499378 0 -0.16780974434499221 0.43040982398245581 0 -0.17220307999619611 0.44534927840499378 0 -0.18281758700689349 0.4600395918781951 0 -0.19105692089556489 0.43334490180876922 0 -0.18281758700689349 0.4600395918781951 0 -0.19105692089556489 0.43334490180876922 0 -0.18281758700689349 0.4600395918781951 0 -0.17801000380965989 0.47561572280906489 0 -0.19482622675472999 0.46587529032893948 0 -0.16426353778385031 0.46842053638370362 0 -0.17220307999619611 0.44534927840499378 0 -0.18281758700689349 0.4600395918781951 0 -0.16426353778385031 0.46842053638370362 0 -0.18281758700689349 0.4600395918781951 0 -0.17801000380965989 0.47561572280906489 0 -0.16426353778385031 0.46842053638370362 0 -0.18281758700689349 0.4600395918781951 0 -0.18281758700689349 0.4600395918781951 0 -0.17801000380965989 0.47561572280906489 0 -0.17801000380965989 0.47561572280906489 0 -0.17320242061242691 0.49119185373993512 0 -0.190689979325044 0.47856994519631457 0 -0.17801000380965989 0.47561572280906489 0 -0.17014513666291531 0.48171822366538508 0 -0.17320242061242691 0.49119185373993512 0 -0.17801000380965989 0.47561572280906489 0 -0.17320242061242691 0.49119185373993512 0 -0.16116749874829769 0.47741721571243328 0 -0.15843735091332889 0.4710522502620903 0 -0.16099880066542119 0.50000000000000022 0 -0.16426353778385031 0.46842053638370362 0 -0.17801000380965989 0.47561572280906489 0 -0.17014513666291531 0.48171822366538508 0 -0.16426353778385031 0.46842053638370362 0 -0.17014513666291531 0.48171822366538508 0 -0.16116749874829769 0.47741721571243328 0 -0.16426353778385031 0.46842053638370362 0 -0.16116749874829769 0.47741721571243328 0 -0.15843735091332889 0.4710522502620903 0 -0.16426353778385031 0.46842053638370362 0 -0.16116749874829769 0.47741721571243328 0 -0.16426353778385031 0.46842053638370362 0 -0.15843735091332889 0.4710522502620903 0 -0.17014513666291531 0.48171822366538508 0 -0.16116749874829769 0.47741721571243328 0 -0.16099880066542119 0.50000000000000022 0 -0.17014513666291531 0.48171822366538508 0 -0.16099880066542119 0.50000000000000022 0 -0.17320242061242691 0.49119185373993512 0 -0.15843735091332889 0.4710522502620903 0 -0.16099880066542119 0.50000000000000022 0 -0.17048378039640921 0.499999999999996 0 -0.17320242061242691 0.49119185373993512 0 -0.16099880066542119 0.50000000000000022 0 -0.17048378039640921 0.499999999999996 0 -0.17320242061242691 0.49119185373993512 0 -0.16099880066542119 0.50000000000000022 0 -0.17320242061242691 0.49119185373993512 0 -0.17320242061242691 0.49119185373993512 0 -0.190689979325044 0.47856994519631457 0 -0.17048378039640921 0.499999999999996 0 -0.17320242061242691 0.49119185373993512 0 -0.18581873262730181 0.49118729788902749 0 -0.17320242061242691 0.49119185373993512 0 -0.18581873262730181 0.49118729788902749 0 -0.190689979325044 0.47856994519631457 0 -0.17048378039640921 0.499999999999996 0 -0.18581873262730181 0.49118729788902749 0 -0.19554748884705389 0.5 0 -0.18581873262730181 0.49118729788902749 0 -0.19487595816744871 0.48827984865781948 0 -0.19554748884705389 0.5 0 -0.19487595816744871 0.48827984865781948 0 -0.19554748884705389 0.5 0 -0.20744763187039511 0.48336215154593609 0 -0.18581873262730181 0.49118729788902749 0 -0.19487595816744871 0.48827984865781948 0 -0.190689979325044 0.47856994519631457 0 -0.190689979325044 0.47856994519631457 0 -0.20817753803766101 0.46594803665269391 0 -0.190689979325044 0.47856994519631457 0 -0.20817753803766101 0.46594803665269391 0 -0.19482622675472999 0.46587529032893948 0 -0.19487595816744871 0.48827984865781948 0 -0.190689979325044 0.47856994519631457 0 -0.20744763187039511 0.48336215154593609 0 -0.17801000380965989 0.47561572280906489 0 -0.190689979325044 0.47856994519631457 0 -0.19482622675472999 0.46587529032893948 0 -0.190689979325044 0.47856994519631457 0 -0.20744763187039511 0.48336215154593609 0 -0.20817753803766101 0.46594803665269391 0 -0.20744763187039511 0.48336215154593609 0 -0.2232475932131088 0.47874498222143241 0 -0.20817753803766101 0.46594803665269391 0 -0.2232475932131088 0.47874498222143241 0 -0.22334275735617259 0.46647783610587229 0 -0.20817753803766101 0.46594803665269391 0 -0.19554748884705389 0.5 0 -0.20744763187039511 0.48336215154593609 0 -0.22061119729769851 0.50000000000000044 0 -0.20744763187039511 0.48336215154593609 0 -0.22061119729769851 0.50000000000000044 0 -0.2232475932131088 0.47874498222143241 0 -0.22061119729769851 0.50000000000000044 0 -0.22451054213863281 0.50000000000000233 0 -0.24534086517324849 0.48911000964708612 0 -0.22061119729769851 0.50000000000000044 0 -0.2232475932131088 0.47874498222143241 0 -0.24534086517324849 0.48911000964708612 0 -0.22061119729769851 0.50000000000000044 0 -0.24534086517324849 0.48911000964708612 0 -0.22451054213863281 0.50000000000000233 0 -0.24148255890114151 0.49421753813106339 0 -0.2232475932131088 0.47874498222143241 0 -0.23628080142364249 0.46789219744028959 0 -0.22334275735617259 0.46647783610587229 0 -0.2232475932131088 0.47874498222143241 0 -0.24534086517324849 0.48911000964708612 0 -0.23628080142364249 0.46789219744028959 0 -0.25374771190227041 0.46769530379170138 0 -0.24534086517324849 0.48911000964708612 0 -0.23628080142364249 0.46789219744028959 0 -0.22451054213863281 0.50000000000000233 0 -0.24534086517324849 0.48911000964708612 0 -0.24148255890114151 0.49421753813106339 0 -0.25847810702610519 0.48850414280974469 0 -0.24534086517324849 0.48911000964708612 0 -0.24148255890114151 0.49421753813106339 0 -0.22451054213863281 0.50000000000000233 0 -0.24271601658602809 0.5 0 -0.24148255890114151 0.49421753813106339 0 -0.25847810702610519 0.48850414280974469 0 -0.24271601658602809 0.5 0 -0.24148255890114151 0.49421753813106339 0 -0.25847810702610519 0.48850414280974469 0 -0.24148255890114151 0.49421753813106339 0 -0.25440434670568679 0.43727792757369249 0 -0.2470835307717511 0.45204209071788648 0 -0.23583124119127399 0.4374763133559072 0 -0.2470835307717511 0.45204209071788648 0 -0.2256650967502781 0.4533261281090733 0 -0.23583124119127399 0.4374763133559072 0 -0.2470835307717511 0.45204209071788648 0 -0.23628080142364249 0.46789219744028959 0 -0.2256650967502781 0.4533261281090733 0 -0.25374771190227041 0.46769530379170138 0 -0.2470835307717511 0.45204209071788648 0 -0.23628080142364249 0.46789219744028959 0 -0.22334275735617259 0.46647783610587229 0 -0.2256650967502781 0.4533261281090733 0 -0.20817753803766101 0.46594803665269391 0 -0.23628080142364249 0.46789219744028959 0 -0.22334275735617259 0.46647783610587229 0 -0.2256650967502781 0.4533261281090733 0 -0.2256650967502781 0.4533261281090733 0 -0.22084070426585289 0.43538371924467612 0 -0.23583124119127399 0.4374763133559072 0 -0.2256650967502781 0.4533261281090733 0 -0.20831066890565611 0.44852425621752878 0 -0.22084070426585289 0.43538371924467612 0 -0.2256650967502781 0.4533261281090733 0 -0.20831066890565611 0.44852425621752878 0 -0.20817753803766101 0.46594803665269391 0 -0.2256650967502781 0.4533261281090733 0 -0.20817753803766101 0.46594803665269391 0 -0.20831066890565611 0.44852425621752878 0 -0.20817753803766101 0.46594803665269391 0 -0.19482622675472999 0.46587529032893948 0 -0.18281758700689349 0.4600395918781951 0 -0.20831066890565611 0.44852425621752878 0 -0.19482622675472999 0.46587529032893948 0 -0.18281758700689349 0.4600395918781951 0 -0.20831066890565611 0.44852425621752878 0 -0.18281758700689349 0.4600395918781951 0 -0.20831066890565611 0.44852425621752878 0 -0.19105692089556489 0.43334490180876922 0 -0.20831066890565611 0.44852425621752878 0 -0.19105692089556489 0.43334490180876922 0 -0.20810391325395439 0.42398758438242701 0 -0.19105692089556489 0.43334490180876922 0 -0.1992962547842371 0.40665021173934351 0 -0.19105692089556489 0.43334490180876922 0 -0.1992962547842371 0.40665021173934351 0 -0.18014262220854191 0.42227802042628387 0 -0.1992962547842371 0.40665021173934351 0 -0.18808216442088779 0.39920676244757408 0 -0.18014262220854191 0.42227802042628387 0 -0.19105692089556489 0.43334490180876922 0 -0.1992962547842371 0.40665021173934351 0 -0.20810391325395439 0.42398758438242701 0 -0.1992962547842371 0.40665021173934351 0 -0.21742618678061951 0.40692140278904287 0 -0.20810391325395439 0.42398758438242701 0 -0.21742618678061951 0.40692140278904287 0 -0.20810391325395439 0.42398758438242701 0 -0.22035716728969429 0.42060188859009112 0 -0.20831066890565611 0.44852425621752878 0 -0.20810391325395439 0.42398758438242701 0 -0.22084070426585289 0.43538371924467612 0 -0.20810391325395439 0.42398758438242701 0 -0.22084070426585289 0.43538371924467612 0 -0.22035716728969429 0.42060188859009112 0 -0.22084070426585289 0.43538371924467612 0 -0.22806234900785671 0.42609527632417488 0 -0.23583124119127399 0.4374763133559072 0 -0.22806234900785671 0.42609527632417488 0 -0.23583124119127399 0.4374763133559072 0 -0.23813634159033989 0.42290976463926327 0 -0.22084070426585289 0.43538371924467612 0 -0.22806234900785671 0.42609527632417488 0 -0.22035716728969429 0.42060188859009112 0 -0.21742618678061951 0.40692140278904287 0 -0.22961658629595061 0.41319157683878799 0 -0.24158762925674229 0.40378265247242029 0 -0.22806234900785671 0.42609527632417488 0 -0.22035716728969429 0.42060188859009112 0 -0.22961658629595061 0.41319157683878799 0 -0.21742618678061951 0.40692140278904287 0 -0.22035716728969429 0.42060188859009112 0 -0.22961658629595061 0.41319157683878799 0 -0.22806234900785671 0.42609527632417488 0 -0.22961658629595061 0.41319157683878799 0 -0.23813634159033989 0.42290976463926327 0 -0.22961658629595061 0.41319157683878799 0 -0.239163799237434 0.41168781992760201 0 -0.23813634159033989 0.42290976463926327 0 -0.239163799237434 0.41168781992760201 0 -0.24390026663595221 0.4098265108577458 0 -0.23813634159033989 0.42290976463926327 0 -0.22961658629595061 0.41319157683878799 0 -0.239163799237434 0.41168781992760201 0 -0.24158762925674229 0.40378265247242029 0 -0.239163799237434 0.41168781992760201 0 -0.24390026663595221 0.4098265108577458 0 -0.24158762925674229 0.40378265247242029 0 -0.24390026663595221 0.4098265108577458 0 -0.24158762925674229 0.40378265247242029 0 -0.25440434670568679 0.43727792757369249 0 -0.24390026663595221 0.4098265108577458 0 -0.25440434670568679 0.43727792757369249 0 -0.23583124119127399 0.4374763133559072 0 -0.23813634159033989 0.42290976463926327 0 -0.25440434670568679 0.43727792757369249 0 -0.24390026663595221 0.4098265108577458 0 -0.23813634159033989 0.42290976463926327 0 -0.23424469339825599 0.38459258624753379 0 -0.22773539588177269 0.371785806926901 0 -0.24298804513369371 0.37489662163126852 0 -0.24855740320059311 0.38849035142128929 0 -0.23424469339825599 0.38459258624753379 0 -0.24298804513369371 0.37489662163126852 0 -0.24158762925674229 0.40378265247242029 0 -0.23424469339825599 0.38459258624753379 0 -0.24855740320059311 0.38849035142128929 0 -0.24158762925674229 0.40378265247242029 0 -0.23424469339825599 0.38459258624753379 0 -0.24158762925674229 0.40378265247242029 0 -0.22554848148559539 0.39550039904942808 0 -0.23424469339825599 0.38459258624753379 0 -0.21742618678061951 0.40692140278904287 0 -0.24158762925674229 0.40378265247242029 0 -0.21742618678061951 0.40692140278904287 0 -0.24158762925674229 0.40378265247242029 0 -0.22554848148559539 0.39550039904942808 0 -0.21742618678061951 0.40692140278904287 0 -0.22554848148559539 0.39550039904942808 0 -0.2145442316967007 0.39558569262158683 0 -0.22554848148559539 0.39550039904942808 0 -0.2206001822887777 0.38503322384510019 0 -0.2145442316967007 0.39558569262158683 0 -0.22554848148559539 0.39550039904942808 0 -0.2206001822887777 0.38503322384510019 0 -0.23424469339825599 0.38459258624753379 0 -0.2206001822887777 0.38503322384510019 0 -0.23424469339825599 0.38459258624753379 0 -0.22773539588177269 0.371785806926901 0 -0.2206001822887777 0.38503322384510019 0 -0.2075355886729093 0.37995552166991781 0 -0.22773539588177269 0.371785806926901 0 -0.2206001822887777 0.38503322384510019 0 -0.2075355886729093 0.37995552166991781 0 -0.2145442316967007 0.39558569262158683 0 -0.1992962547842371 0.40665021173934351 0 -0.21742618678061951 0.40692140278904287 0 -0.2145442316967007 0.39558569262158683 0 -0.1992962547842371 0.40665021173934351 0 -0.2075355886729093 0.37995552166991781 0 -0.2145442316967007 0.39558569262158683 0 -0.1992962547842371 0.40665021173934351 0 -0.2075355886729093 0.37995552166991781 0 -0.1992962547842371 0.40665021173934351 0 -0.2075355886729093 0.37995552166991781 0 -0.19773392862781691 0.3904870000814249 0 -0.1992962547842371 0.40665021173934351 0 -0.18808216442088779 0.39920676244757408 0 -0.19773392862781691 0.3904870000814249 0 -0.18808216442088779 0.39920676244757408 0 -0.19602170663323359 0.37613550446886429 0 -0.18808216442088779 0.39920676244757408 0 -0.19602170663323359 0.37613550446886429 0 -0.19773392862781691 0.3904870000814249 0 -0.18808216442088779 0.39920676244757408 0 -0.19602170663323359 0.37613550446886429 0 -0.18047408951467989 0.38368683415264299 0 -0.2075355886729093 0.37995552166991781 0 -0.19602170663323359 0.37613550446886429 0 -0.19773392862781691 0.3904870000814249 0 -0.18047408951467989 0.38368683415264299 0 -0.16393263101776051 0.377811301899728 0 -0.17738562461233581 0.36620191856746193 0 -0.19602170663323359 0.37613550446886429 0 -0.18047408951467989 0.38368683415264299 0 -0.18587119209385661 0.37354081621318608 0 -0.16393263101776051 0.377811301899728 0 -0.1697532507094677 0.3985670854867942 0 -0.14892453724321039 0.38998910039625528 0 -0.18047408951467989 0.38368683415264299 0 -0.16393263101776051 0.377811301899728 0 -0.1697532507094677 0.3985670854867942 0 -0.1697532507094677 0.3985670854867942 0 -0.1543144752154926 0.40846670546442382 0 -0.14892453724321039 0.38998910039625528 0 -0.18808216442088779 0.39920676244757408 0 -0.18047408951467989 0.38368683415264299 0 -0.1697532507094677 0.3985670854867942 0 -0.18808216442088779 0.39920676244757408 0 -0.1697532507094677 0.3985670854867942 0 -0.1764876300481629 0.40873099662466561 0 -0.18808216442088779 0.39920676244757408 0 -0.1764876300481629 0.40873099662466561 0 -0.18014262220854191 0.42227802042628387 0 -0.18808216442088779 0.39920676244757408 0 -0.18014262220854191 0.42227802042628387 0 -0.1764876300481629 0.40873099662466561 0 -0.18014262220854191 0.42227802042628387 0 -0.16797248285375421 0.41487211813801012 0 -0.17220307999619611 0.44534927840499378 0 -0.18014262220854191 0.42227802042628387 0 -0.17220307999619611 0.44534927840499378 0 -0.19105692089556489 0.43334490180876922 0 -0.18014262220854191 0.42227802042628387 0 -0.17220307999619611 0.44534927840499378 0 -0.18014262220854191 0.42227802042628387 0 -0.16780974434499221 0.43040982398245581 0 -0.18014262220854191 0.42227802042628387 0 -0.16780974434499221 0.43040982398245581 0 -0.16797248285375421 0.41487211813801012 0 -0.16780974434499221 0.43040982398245581 0 -0.16797248285375421 0.41487211813801012 0 -0.1556699124179855 0.4290423380990836 0 -0.16306062424848339 0.44050736484390751 0 -0.16780974434499221 0.43040982398245581 0 -0.1556699124179855 0.4290423380990836 0 -0.1697532507094677 0.3985670854867942 0 -0.1764876300481629 0.40873099662466561 0 -0.16797248285375421 0.41487211813801012 0 -0.16797248285375421 0.41487211813801012 0 -0.1543144752154926 0.40846670546442382 0 -0.1556699124179855 0.4290423380990836 0 -0.1697532507094677 0.3985670854867942 0 -0.16797248285375421 0.41487211813801012 0 -0.1543144752154926 0.40846670546442382 0 -0.1543144752154926 0.40846670546442382 0 -0.13955083839820601 0.41331054213078378 0 -0.1342738988421254 0.39940632656162323 0 -0.1543144752154926 0.40846670546442382 0 -0.1556699124179855 0.4290423380990836 0 -0.13955083839820601 0.41331054213078378 0 -0.1543144752154926 0.40846670546442382 0 -0.1556699124179855 0.4290423380990836 0 -0.14544522351027661 0.43702334659483638 0 -0.1556699124179855 0.4290423380990836 0 -0.13656638764367751 0.42782024169105087 0 -0.1556699124179855 0.4290423380990836 0 -0.13656638764367751 0.42782024169105087 0 -0.13955083839820601 0.41331054213078378 0 -0.13175207046494611 0.44346192959665548 0 -0.13656638764367751 0.42782024169105087 0 -0.1221002198223846 0.42926878838971572 0 -0.13175207046494611 0.44346192959665548 0 -0.14544522351027661 0.43702334659483638 0 -0.13656638764367751 0.42782024169105087 0 -0.13656638764367751 0.42782024169105087 0 -0.12548201032280559 0.41579856094527679 0 -0.1221002198223846 0.42926878838971572 0 -0.13955083839820601 0.41331054213078378 0 -0.12548201032280559 0.41579856094527679 0 -0.1342738988421254 0.39940632656162323 0 -0.13656638764367751 0.42782024169105087 0 -0.13955083839820601 0.41331054213078378 0 -0.12548201032280559 0.41579856094527679 0 -0.1342738988421254 0.39940632656162323 0 -0.12655549565904481 0.38459039506062281 0 -0.14892453724321039 0.38998910039625528 0 -0.12655549565904481 0.38459039506062281 0 -0.14892453724321039 0.38998910039625528 0 -0.14471747201537141 0.37109278790434008 0 -0.16393263101776051 0.377811301899728 0 -0.14892453724321039 0.38998910039625528 0 -0.14471747201537141 0.37109278790434008 0 -0.1543144752154926 0.40846670546442382 0 -0.1342738988421254 0.39940632656162323 0 -0.14892453724321039 0.38998910039625528 0 -0.14165043288496271 0.34906334461799549 0 -0.15843984593516669 0.3353087962765417 0 -0.16020893970901179 0.3578896071927124 0 -0.14165043288496271 0.34906334461799549 0 -0.14471747201537141 0.37109278790434008 0 -0.16020893970901179 0.3578896071927124 0 -0.12655549565904481 0.38459039506062281 0 -0.14471747201537141 0.37109278790434008 0 -0.12710123171609961 0.3622807710251873 0 -0.14165043288496271 0.34906334461799549 0 -0.14471747201537141 0.37109278790434008 0 -0.12710123171609961 0.3622807710251873 0 -0.14165043288496271 0.34906334461799549 0 -0.12710123171609961 0.3622807710251873 0 -0.1189994847652637 0.3425748687043878 0 -0.14165043288496271 0.34906334461799549 0 -0.1315170279352865 0.33102482385584192 0 -0.1189994847652637 0.3425748687043878 0 -0.14165043288496271 0.34906334461799549 0 -0.1315170279352865 0.33102482385584192 0 -0.1443776795059328 0.33390895980560381 0 -0.1315170279352865 0.33102482385584192 0 -0.14495419486811961 0.31734813855161759 0 -0.12577302420238409 0.3093301053864293 0 -0.1315170279352865 0.33102482385584192 0 -0.14495419486811961 0.31734813855161759 0 -0.1443776795059328 0.33390895980560381 0 -0.14495419486811961 0.31734813855161759 0 -0.15843984593516669 0.3353087962765417 0 -0.16290230207748849 0.31861206890147392 0 -0.14495419486811961 0.31734813855161759 0 -0.1443776795059328 0.33390895980560381 0 -0.15843984593516669 0.3353087962765417 0 -0.14165043288496271 0.34906334461799549 0 -0.1443776795059328 0.33390895980560381 0 -0.15843984593516669 0.3353087962765417 0 -0.15843984593516669 0.3353087962765417 0 -0.17774973011518999 0.33020764546750409 0 -0.17749789925717871 0.34686132115754031 0 -0.15843984593516669 0.3353087962765417 0 -0.16290230207748849 0.31861206890147392 0 -0.17774973011518999 0.33020764546750409 0 -0.17774973011518999 0.33020764546750409 0 -0.19720201262974121 0.32662885324472202 0 -0.17861358928141469 0.31234998356939919 0 -0.16290230207748849 0.31861206890147392 0 -0.17774973011518999 0.33020764546750409 0 -0.17861358928141469 0.31234998356939919 0 -0.17774973011518999 0.33020764546750409 0 -0.17749789925717871 0.34686132115754031 0 -0.1924972983359893 0.34358046834146699 0 -0.17749789925717871 0.34686132115754031 0 -0.17738562461233581 0.36620191856746193 0 -0.1942619271162552 0.36094369023707662 0 -0.17749789925717871 0.34686132115754031 0 -0.16020893970901179 0.3578896071927124 0 -0.17738562461233581 0.36620191856746193 0 -0.15843984593516669 0.3353087962765417 0 -0.17749789925717871 0.34686132115754031 0 -0.16020893970901179 0.3578896071927124 0 -0.16393263101776051 0.377811301899728 0 -0.16020893970901179 0.3578896071927124 0 -0.17738562461233581 0.36620191856746193 0 -0.16393263101776051 0.377811301899728 0 -0.14471747201537141 0.37109278790434008 0 -0.16020893970901179 0.3578896071927124 0 -0.18047408951467989 0.38368683415264299 0 -0.17738562461233581 0.36620191856746193 0 -0.18587119209385661 0.37354081621318608 0 -0.17738562461233581 0.36620191856746193 0 -0.18587119209385661 0.37354081621318608 0 -0.1942619271162552 0.36094369023707662 0 -0.19602170663323359 0.37613550446886429 0 -0.18587119209385661 0.37354081621318608 0 -0.1942619271162552 0.36094369023707662 0 -0.2075355886729093 0.37995552166991781 0 -0.19602170663323359 0.37613550446886429 0 -0.1942619271162552 0.36094369023707662 0 -0.1942619271162552 0.36094369023707662 0 -0.2157749225615814 0.35326083160049221 0 -0.1924972983359893 0.34358046834146699 0 -0.17749789925717871 0.34686132115754031 0 -0.1942619271162552 0.36094369023707662 0 -0.1924972983359893 0.34358046834146699 0 -0.2075355886729093 0.37995552166991781 0 -0.2157749225615814 0.35326083160049221 0 -0.2075355886729093 0.37995552166991781 0 -0.2157749225615814 0.35326083160049221 0 -0.22773539588177269 0.371785806926901 0 -0.2075355886729093 0.37995552166991781 0 -0.1942619271162552 0.36094369023707662 0 -0.2157749225615814 0.35326083160049221 0 -0.2157749225615814 0.35326083160049221 0 -0.22773539588177269 0.371785806926901 0 -0.245130999697667 0.35617292401417999 0 -0.2157749225615814 0.35326083160049221 0 -0.245130999697667 0.35617292401417999 0 -0.23295058751304551 0.34252643707592823 0 -0.25008303346203908 0.33611797840414298 0 -0.245130999697667 0.35617292401417999 0 -0.23295058751304551 0.34252643707592823 0 -0.22773539588177269 0.371785806926901 0 -0.245130999697667 0.35617292401417999 0 -0.24298804513369371 0.37489662163126852 0 -0.2592717334901794 0.37344143954643821 0 -0.245130999697667 0.35617292401417999 0 -0.24298804513369371 0.37489662163126852 0 -0.25008303346203908 0.33611797840414298 0 -0.2434150889916675 0.31528126182336752 0 -0.22401425645025361 0.32656614153106639 0 -0.25008303346203908 0.33611797840414298 0 -0.23295058751304551 0.34252643707592823 0 -0.22401425645025361 0.32656614153106639 0 -0.2157749225615814 0.35326083160049221 0 -0.22401425645025361 0.32656614153106639 0 -0.2157749225615814 0.35326083160049221 0 -0.23295058751304551 0.34252643707592823 0 -0.22401425645025361 0.32656614153106639 0 -0.2434150889916675 0.31528126182336752 0 -0.22401425645025361 0.32656614153106639 0 -0.2322535903389257 0.29987145146164079 0 -0.22401425645025361 0.32656614153106639 0 -0.2322535903389257 0.29987145146164079 0 -0.22401425645025361 0.32656614153106639 0 -0.19720201262974121 0.32662885324472202 0 -0.19906220937645289 0.30981321912625731 0 -0.2157749225615814 0.35326083160049221 0 -0.22401425645025361 0.32656614153106639 0 -0.19720201262974121 0.32662885324472202 0 -0.2157749225615814 0.35326083160049221 0 -0.1924972983359893 0.34358046834146699 0 -0.19720201262974121 0.32662885324472202 0 -0.17774973011518999 0.33020764546750409 0 -0.1924972983359893 0.34358046834146699 0 -0.19720201262974121 0.32662885324472202 0 -0.19720201262974121 0.32662885324472202 0 -0.19906220937645289 0.30981321912625731 0 -0.17861358928141469 0.31234998356939919 0 -0.19906220937645289 0.30981321912625731 0 -0.19856760929965681 0.29512163553205928 0 -0.18259298835682489 0.29782857031946008 0 -0.19085311474529701 0.28244454806871849 0 -0.19856760929965681 0.29512163553205928 0 -0.18259298835682489 0.29782857031946008 0 -0.19085311474529701 0.28244454806871849 0 -0.19856760929965681 0.29512163553205928 0 -0.2071077174296316 0.28582887531117668 0 -0.2071077174296316 0.28582887531117668 0 -0.21338280024082609 0.30038413056083629 0 -0.2192288693812762 0.28355186314419151 0 -0.19856760929965681 0.29512163553205928 0 -0.2071077174296316 0.28582887531117668 0 -0.21338280024082609 0.30038413056083629 0 -0.2071077174296316 0.28582887531117668 0 -0.2192288693812762 0.28355186314419151 0 -0.2134516182061634 0.27614892865934582 0 -0.22401425645025361 0.32656614153106639 0 -0.19906220937645289 0.30981321912625731 0 -0.21338280024082609 0.30038413056083629 0 -0.19906220937645289 0.30981321912625731 0 -0.19856760929965681 0.29512163553205928 0 -0.21338280024082609 0.30038413056083629 0 -0.22401425645025361 0.32656614153106639 0 -0.21338280024082609 0.30038413056083629 0 -0.2322535903389257 0.29987145146164079 0 -0.21338280024082609 0.30038413056083629 0 -0.2322535903389257 0.29987145146164079 0 -0.2192288693812762 0.28355186314419151 0 -0.2322535903389257 0.29987145146164079 0 -0.2192288693812762 0.28355186314419151 0 -0.2404929242275981 0.27317676139221531 0 -0.2322535903389257 0.29987145146164079 0 -0.2404929242275981 0.27317676139221531 0 -0.25040582964490582 0.29567583303740069 0 -0.2322535903389257 0.29987145146164079 0 -0.2404929242275981 0.27317676139221531 0 -0.25040582964490582 0.29567583303740069 0 -0.2404929242275981 0.27317676139221531 0 -0.25040582964490582 0.29567583303740069 0 -0.2434150889916675 0.31528126182336752 0 -0.2322535903389257 0.29987145146164079 0 -0.25054816238852479 0.24059870715785611 0 -0.2546175921406465 0.26128861144859822 0 -0.24164285362834059 0.26945109504960563 0 -0.25054816238852479 0.24059870715785611 0 -0.24164285362834059 0.26945109504960563 0 -0.24164285362834059 0.26945109504960563 0 -0.23310158204141429 0.25640081827561029 0 -0.2466801300010773 0.2452604621424746 0 -0.25054816238852479 0.24059870715785611 0 -0.24164285362834059 0.26945109504960563 0 -0.2466801300010773 0.2452604621424746 0 -0.24164285362834059 0.26945109504960563 0 -0.2394572339012683 0.27082608115536438 0 -0.23310158204141429 0.25640081827561029 0 -0.2394572339012683 0.27082608115536438 0 -0.23310158204141429 0.25640081827561029 0 -0.2546175921406465 0.26128861144859822 0 -0.24164285362834059 0.26945109504960563 0 -0.25982227492027221 0.287750399741656 0 -0.24164285362834059 0.26945109504960563 0 -0.2404929242275981 0.27317676139221531 0 -0.24164285362834059 0.26945109504960563 0 -0.2404929242275981 0.27317676139221531 0 -0.24164285362834059 0.26945109504960563 0 -0.2394572339012683 0.27082608115536438 0 -0.24164285362834059 0.26945109504960563 0 -0.2404929242275981 0.27317676139221531 0 -0.2394572339012683 0.27082608115536438 0 -0.2404929242275981 0.27317676139221531 0 -0.2394572339012683 0.27082608115536438 0 -0.2192288693812762 0.28355186314419151 0 -0.2404929242275981 0.27317676139221531 0 -0.2394572339012683 0.27082608115536438 0 -0.2192288693812762 0.28355186314419151 0 -0.2394572339012683 0.27082608115536438 0 -0.2223662512991782 0.27304179816788748 0 -0.2192288693812762 0.28355186314419151 0 -0.2394572339012683 0.27082608115536438 0 -0.2394572339012683 0.27082608115536438 0 -0.2223662512991782 0.27304179816788748 0 -0.23310158204141429 0.25640081827561029 0 -0.2223662512991782 0.27304179816788748 0 -0.23310158204141429 0.25640081827561029 0 -0.2355501434136231 0.2478522206023164 0 -0.2223662512991782 0.27304179816788748 0 -0.2355501434136231 0.2478522206023164 0 -0.2223662512991782 0.27304179816788748 0 -0.222192014233517 0.25700640751059239 0 -0.2355501434136231 0.2478522206023164 0 -0.2223662512991782 0.27304179816788748 0 -0.222192014233517 0.25700640751059239 0 -0.21287289659801359 0.26516855002046552 0 -0.222192014233517 0.25700640751059239 0 -0.22222104444170529 0.2467327462878163 0 -0.2355501434136231 0.2478522206023164 0 -0.222192014233517 0.25700640751059239 0 -0.21371201764358261 0.25214650866738469 0 -0.22222104444170529 0.2467327462878163 0 -0.222192014233517 0.25700640751059239 0 -0.21371201764358261 0.25214650866738469 0 -0.21287289659801359 0.26516855002046552 0 -0.21371201764358261 0.25214650866738469 0 -0.21287289659801359 0.26516855002046552 0 -0.20206212765223941 0.25873777709478579 0 -0.21287289659801359 0.26516855002046552 0 -0.20374397774259509 0.27266482885045462 0 -0.20206212765223941 0.25873777709478579 0 -0.21371201764358261 0.25214650866738469 0 -0.20206212765223941 0.25873777709478579 0 -0.20132404028626799 0.2438270423260239 0 -0.2192288693812762 0.28355186314419151 0 -0.2223662512991782 0.27304179816788748 0 -0.2134516182061634 0.27614892865934582 0 -0.2223662512991782 0.27304179816788748 0 -0.21287289659801359 0.26516855002046552 0 -0.2134516182061634 0.27614892865934582 0 -0.21287289659801359 0.26516855002046552 0 -0.2134516182061634 0.27614892865934582 0 -0.20374397774259509 0.27266482885045462 0 -0.2071077174296316 0.28582887531117668 0 -0.2134516182061634 0.27614892865934582 0 -0.20374397774259509 0.27266482885045462 0 -0.19085311474529701 0.28244454806871849 0 -0.2071077174296316 0.28582887531117668 0 -0.20374397774259509 0.27266482885045462 0 -0.20374397774259509 0.27266482885045462 0 -0.19076826268548239 0.26827287779833747 0 -0.20206212765223941 0.25873777709478579 0 -0.19085311474529701 0.28244454806871849 0 -0.20374397774259509 0.27266482885045462 0 -0.19076826268548239 0.26827287779833747 0 -0.19076826268548239 0.26827287779833747 0 -0.20206212765223941 0.25873777709478579 0 -0.18859670902218051 0.25052543551881717 0 -0.20206212765223941 0.25873777709478579 0 -0.18859670902218051 0.25052543551881717 0 -0.20132404028626799 0.2438270423260239 0 -0.18859670902218051 0.25052543551881717 0 -0.17798103800664031 0.2589484764895198 0 -0.1765110772481347 0.2431385849621667 0 -0.19076826268548239 0.26827287779833747 0 -0.18859670902218051 0.25052543551881717 0 -0.17798103800664031 0.2589484764895198 0 -0.1593990608277665 0.26226189644582071 0 -0.1613020889038615 0.23837444865205379 0 -0.14911298171075679 0.24967097175487091 0 -0.17798103800664031 0.2589484764895198 0 -0.1593990608277665 0.26226189644582071 0 -0.1765110772481347 0.2431385849621667 0 -0.1593990608277665 0.26226189644582071 0 -0.1613020889038615 0.23837444865205379 0 -0.17798103800664031 0.2589484764895198 0 -0.1593990608277665 0.26226189644582071 0 -0.17625891120693621 0.27267786553860818 0 -0.1593990608277665 0.26226189644582071 0 -0.1625734141651913 0.27864750634068558 0 -0.17625891120693621 0.27267786553860818 0 -0.1625734141651913 0.27864750634068558 0 -0.17625891120693621 0.27267786553860818 0 -0.1759785768112396 0.28549188808856729 0 -0.19076826268548239 0.26827287779833747 0 -0.17798103800664031 0.2589484764895198 0 -0.17625891120693621 0.27267786553860818 0 -0.19085311474529701 0.28244454806871849 0 -0.19076826268548239 0.26827287779833747 0 -0.17625891120693621 0.27267786553860818 0 -0.19085311474529701 0.28244454806871849 0 -0.17625891120693621 0.27267786553860818 0 -0.1759785768112396 0.28549188808856729 0 -0.19085311474529701 0.28244454806871849 0 -0.1759785768112396 0.28549188808856729 0 -0.18259298835682489 0.29782857031946008 0 -0.1759785768112396 0.28549188808856729 0 -0.18259298835682489 0.29782857031946008 0 -0.16136995080389721 0.29864400117774398 0 -0.17861358928141469 0.31234998356939919 0 -0.18259298835682489 0.29782857031946008 0 -0.16136995080389721 0.29864400117774398 0 -0.19906220937645289 0.30981321912625731 0 -0.17861358928141469 0.31234998356939919 0 -0.18259298835682489 0.29782857031946008 0 -0.14495419486811961 0.31734813855161759 0 -0.16290230207748849 0.31861206890147392 0 -0.16136995080389721 0.29864400117774398 0 -0.16290230207748849 0.31861206890147392 0 -0.17861358928141469 0.31234998356939919 0 -0.16136995080389721 0.29864400117774398 0 -0.1625734141651913 0.27864750634068558 0 -0.16136995080389721 0.29864400117774398 0 -0.1450808597671244 0.27950790118027541 0 -0.1625734141651913 0.27864750634068558 0 -0.1759785768112396 0.28549188808856729 0 -0.16136995080389721 0.29864400117774398 0 -0.16136995080389721 0.29864400117774398 0 -0.14126992245711781 0.29947087285495883 0 -0.1450808597671244 0.27950790118027541 0 -0.14495419486811961 0.31734813855161759 0 -0.16136995080389721 0.29864400117774398 0 -0.14126992245711781 0.29947087285495883 0 -0.14126992245711781 0.29947087285495883 0 -0.12577302420238409 0.3093301053864293 0 -0.12922822593455879 0.28960894173240792 0 -0.14495419486811961 0.31734813855161759 0 -0.14126992245711781 0.29947087285495883 0 -0.12577302420238409 0.3093301053864293 0 -0.14126992245711781 0.29947087285495883 0 -0.12922822593455879 0.28960894173240792 0 -0.1450808597671244 0.27950790118027541 0 -0.12922822593455879 0.28960894173240792 0 -0.1349930010153193 0.26255216121800568 0 -0.12922822593455879 0.28960894173240792 0 -0.1349930010153193 0.26255216121800568 0 -0.1450808597671244 0.27950790118027541 0 -0.12922822593455879 0.28960894173240792 0 -0.1349930010153193 0.26255216121800568 0 -0.1154385093851408 0.26413547420137762 0 -0.1593990608277665 0.26226189644582071 0 -0.1349930010153193 0.26255216121800568 0 -0.14911298171075679 0.24967097175487091 0 -0.1593990608277665 0.26226189644582071 0 -0.1349930010153193 0.26255216121800568 0 -0.1450808597671244 0.27950790118027541 0 -0.1593990608277665 0.26226189644582071 0 -0.1625734141651913 0.27864750634068558 0 -0.1450808597671244 0.27950790118027541 0 -0.1125365884501535 0.28353815127968629 0 -0.09362037031597753 0.26527792879994888 0 -0.1125365884501535 0.28353815127968629 0 -0.093128128460342754 0.28254352657507131 0 -0.09362037031597753 0.26527792879994888 0 -0.1154385093851408 0.26413547420137762 0 -0.1125365884501535 0.28353815127968629 0 -0.09362037031597753 0.26527792879994888 0 -0.1154385093851408 0.26413547420137762 0 -0.09362037031597753 0.26527792879994888 0 -0.097135213821017974 0.2450179218164267 0 -0.1154385093851408 0.26413547420137762 0 -0.097135213821017974 0.2450179218164267 0 -0.11832329044822951 0.24304604882281969 0 -0.1349930010153193 0.26255216121800568 0 -0.1154385093851408 0.26413547420137762 0 -0.11832329044822951 0.24304604882281969 0 -0.12922822593455879 0.28960894173240792 0 -0.1154385093851408 0.26413547420137762 0 -0.1125365884501535 0.28353815127968629 0 -0.12922822593455879 0.28960894173240792 0 -0.1125365884501535 0.28353815127968629 0 -0.11715930820710339 0.29724977554595788 0 -0.1125365884501535 0.28353815127968629 0 -0.11715930820710339 0.29724977554595788 0 -0.1038404580068167 0.30398166541893579 0 -0.12577302420238409 0.3093301053864293 0 -0.1038404580068167 0.30398166541893579 0 -0.11250071635914489 0.32397018824961021 0 -0.12577302420238409 0.3093301053864293 0 -0.11715930820710339 0.29724977554595788 0 -0.1038404580068167 0.30398166541893579 0 -0.12577302420238409 0.3093301053864293 0 -0.12922822593455879 0.28960894173240792 0 -0.11715930820710339 0.29724977554595788 0 -0.1125365884501535 0.28353815127968629 0 -0.1038404580068167 0.30398166541893579 0 -0.093128128460342754 0.28254352657507131 0 -0.083140595227089928 0.29591471829194321 0 -0.093128128460342754 0.28254352657507131 0 -0.06936539161773822 0.28020753346750782 0 -0.1038404580068167 0.30398166541893579 0 -0.083140595227089928 0.29591471829194321 0 -0.093128128460342754 0.28254352657507131 0 -0.1038404580068167 0.30398166541893579 0 -0.083140595227089928 0.29591471829194321 0 -0.090988500091643998 0.31647506579520901 0 -0.083140595227089928 0.29591471829194321 0 -0.073171874186503463 0.31004866742903531 0 -0.090988500091643998 0.31647506579520901 0 -0.083140595227089928 0.29591471829194321 0 -0.073171874186503463 0.31004866742903531 0 -0.058649820332164468 0.29485946887662068 0 -0.073171874186503463 0.31004866742903531 0 -0.058649820332164468 0.29485946887662068 0 -0.056101506374375817 0.3128319137626559 0 -0.083140595227089928 0.29591471829194321 0 -0.06936539161773822 0.28020753346750782 0 -0.058649820332164468 0.29485946887662068 0 -0.06936539161773822 0.28020753346750782 0 -0.077315147936728598 0.26324091235374891 0 -0.061029816546774987 0.26105054837526498 0 -0.093128128460342754 0.28254352657507131 0 -0.09362037031597753 0.26527792879994888 0 -0.077315147936728598 0.26324091235374891 0 -0.093128128460342754 0.28254352657507131 0 -0.06936539161773822 0.28020753346750782 0 -0.077315147936728598 0.26324091235374891 0 -0.09362037031597753 0.26527792879994888 0 -0.097135213821017974 0.2450179218164267 0 -0.074704152181801681 0.24701770632021169 0 -0.09362037031597753 0.26527792879994888 0 -0.077315147936728598 0.26324091235374891 0 -0.074704152181801681 0.24701770632021169 0 -0.09362037031597753 0.26527792879994888 0 -0.074704152181801681 0.24701770632021169 0 -0.061029816546774987 0.26105054837526498 0 -0.074704152181801681 0.24701770632021169 0 -0.057747386715908428 0.24463041023760571 0 -0.077315147936728598 0.26324091235374891 0 -0.061029816546774987 0.26105054837526498 0 -0.074704152181801681 0.24701770632021169 0 -0.061029816546774987 0.26105054837526498 0 -0.03742977218140614 0.26357467527551443 0 -0.046594812073733123 0.24823599275617891 0 -0.061029816546774987 0.26105054837526498 0 -0.046594812073733123 0.24823599275617891 0 -0.057747386715908428 0.24463041023760571 0 -0.06936539161773822 0.28020753346750782 0 -0.061029816546774987 0.26105054837526498 0 -0.048476972550706023 0.27982564543664679 0 -0.061029816546774987 0.26105054837526498 0 -0.048476972550706023 0.27982564543664679 0 -0.03742977218140614 0.26357467527551443 0 -0.061029816546774987 0.26105054837526498 0 -0.048476972550706023 0.27982564543664679 0 -0.048476972550706023 0.27982564543664679 0 -0.031819983271387867 0.27999546987022927 0 -0.03742977218140614 0.26357467527551443 0 -0.03742977218140614 0.26357467527551443 0 -0.03189830216395443 0.24568919817845219 0 -0.046594812073733123 0.24823599275617891 0 -0.03742977218140614 0.26357467527551443 0 -0.020565667716041462 0.25572736355358933 0 -0.03189830216395443 0.24568919817845219 0 -0.03742977218140614 0.26357467527551443 0 -0.020565667716041462 0.25572736355358933 0 -0.022715456858953278 0.26994870387583431 0 -0.020565667716041462 0.25572736355358933 0 -0.022715456858953278 0.26994870387583431 0 -0.0080731797928139601 0.26595294531788349 0 -0.031819983271387867 0.27999546987022927 0 -0.03742977218140614 0.26357467527551443 0 -0.022715456858953278 0.26994870387583431 0 -0.031819983271387867 0.27999546987022927 0 -0.022715456858953278 0.26994870387583431 0 -0.01304989637173277 0.28246747093767138 0 -0.022715456858953278 0.26994870387583431 0 -0.0080731797928139601 0.26595294531788349 0 -0.01304989637173277 0.28246747093767138 0 -0.0080731797928139601 0.26595294531788349 0 -0.01304989637173277 0.28246747093767138 0 0.0042686616650212863 0.27440264234540929 0 -0.0080731797928139601 0.26595294531788349 0 -0.004361582131907446 0.25012675423618741 0 0.0045166499774289158 0.26107549289106269 0 -0.020565667716041462 0.25572736355358933 0 -0.0080731797928139601 0.26595294531788349 0 -0.004361582131907446 0.25012675423618741 0 -0.0025045175740335168 0.31031314766219981 0 -0.001308369768482999 0.29320410557187471 0 -0.016598711115656001 0.30159589275249321 0 -0.0025045175740335168 0.31031314766219981 0 -0.016598711115656001 0.30159589275249321 0 -0.021593132986752129 0.32003539370993961 0 -0.001308369768482999 0.29320410557187471 0 -0.01304989637173277 0.28246747093767138 0 0.0042686616650212863 0.27440264234540929 0 -0.001308369768482999 0.29320410557187471 0 -0.01304989637173277 0.28246747093767138 0 -0.016598711115656001 0.30159589275249321 0 -0.01304989637173277 0.28246747093767138 0 -0.035924128554638488 0.29860074249802943 0 -0.01304989637173277 0.28246747093767138 0 -0.016598711115656001 0.30159589275249321 0 -0.035924128554638488 0.29860074249802943 0 -0.031819983271387867 0.27999546987022927 0 -0.01304989637173277 0.28246747093767138 0 -0.035924128554638488 0.29860074249802943 0 -0.016598711115656001 0.30159589275249321 0 -0.035924128554638488 0.29860074249802943 0 -0.021593132986752129 0.32003539370993961 0 -0.035924128554638488 0.29860074249802943 0 -0.021593132986752129 0.32003539370993961 0 -0.035924128554638488 0.29860074249802943 0 -0.056101506374375817 0.3128319137626559 0 -0.035924128554638488 0.29860074249802943 0 -0.038849285662232391 0.31623083740802288 0 -0.021593132986752129 0.32003539370993961 0 -0.035924128554638488 0.29860074249802943 0 -0.056101506374375817 0.3128319137626559 0 -0.038849285662232391 0.31623083740802288 0 -0.048476972550706023 0.27982564543664679 0 -0.031819983271387867 0.27999546987022927 0 -0.035924128554638488 0.29860074249802943 0 -0.048476972550706023 0.27982564543664679 0 -0.035924128554638488 0.29860074249802943 0 -0.06936539161773822 0.28020753346750782 0 -0.048476972550706023 0.27982564543664679 0 -0.058649820332164468 0.29485946887662068 0 -0.048476972550706023 0.27982564543664679 0 -0.035924128554638488 0.29860074249802943 0 -0.058649820332164468 0.29485946887662068 0 -0.035924128554638488 0.29860074249802943 0 -0.058649820332164468 0.29485946887662068 0 -0.056101506374375817 0.3128319137626559 0 -0.056101506374375817 0.3128319137626559 0 -0.061273612338163523 0.34168082392211641 0 -0.041778374733163148 0.33345529966146709 0 -0.041778374733163148 0.33345529966146709 0 -0.038849285662232391 0.31623083740802288 0 -0.021593132986752129 0.32003539370993961 0 -0.056101506374375817 0.3128319137626559 0 -0.041778374733163148 0.33345529966146709 0 -0.038849285662232391 0.31623083740802288 0 -0.021593132986752129 0.32003539370993961 0 -0.0072621374188671052 0.34147004492185079 0 -0.026756520995263839 0.34622662442059521 0 -0.041778374733163148 0.33345529966146709 0 -0.021593132986752129 0.32003539370993961 0 -0.026756520995263839 0.34622662442059521 0 -0.021593132986752129 0.32003539370993961 0 -0.0072621374188671052 0.34147004492185079 0 -0.021593132986752129 0.32003539370993961 0 -0.0072621374188671052 0.34147004492185079 0 -0.00017254440855824261 0.32560037032276101 0 -0.0025045175740335168 0.31031314766219981 0 -0.021593132986752129 0.32003539370993961 0 -0.00017254440855824261 0.32560037032276101 0 -0.017975249263795932 0.36469023687930041 0 -0.0036227877329230301 0.37947700469323042 0 0.0070688581490178301 0.36290469613376197 0 -0.017975249263795932 0.36469023687930041 0 -0.017202423973373768 0.37968737263981228 0 -0.0036227877329230301 0.37947700469323042 0 -0.0072621374188671052 0.34147004492185079 0 0.0070688581490178301 0.36290469613376197 0 -0.0072621374188671052 0.34147004492185079 0 -0.017975249263795932 0.36469023687930041 0 0.0070688581490178301 0.36290469613376197 0 -0.0072621374188671052 0.34147004492185079 0 -0.026756520995263839 0.34622662442059521 0 -0.017975249263795932 0.36469023687930041 0 -0.026756520995263839 0.34622662442059521 0 -0.017975249263795932 0.36469023687930041 0 -0.044972299261370183 0.36017708579622421 0 -0.017975249263795932 0.36469023687930041 0 -0.044972299261370183 0.36017708579622421 0 -0.033696569954803593 0.38151106350699548 0 -0.044972299261370183 0.36017708579622421 0 -0.056355392512392112 0.37995563405969551 0 -0.033696569954803593 0.38151106350699548 0 -0.041778374733163148 0.33345529966146709 0 -0.026756520995263839 0.34622662442059521 0 -0.044972299261370183 0.36017708579622421 0 -0.061273612338163523 0.34168082392211641 0 -0.044972299261370183 0.36017708579622421 0 -0.06521228616511808 0.36405037212009378 0 -0.061273612338163523 0.34168082392211641 0 -0.041778374733163148 0.33345529966146709 0 -0.044972299261370183 0.36017708579622421 0 -0.044972299261370183 0.36017708579622421 0 -0.06521228616511808 0.36405037212009378 0 -0.056355392512392112 0.37995563405969551 0 -0.06521228616511808 0.36405037212009378 0 -0.083611302269088666 0.35468926302163939 0 -0.079848824444575958 0.38374905380079372 0 -0.083611302269088666 0.35468926302163939 0 -0.096975471326963783 0.37148378381343322 0 -0.079848824444575958 0.38374905380079372 0 -0.061273612338163523 0.34168082392211641 0 -0.06521228616511808 0.36405037212009378 0 -0.083611302269088666 0.35468926302163939 0 -0.061273612338163523 0.34168082392211641 0 -0.083611302269088666 0.35468926302163939 0 -0.076278884194113258 0.32706308502728249 0 -0.056101506374375817 0.3128319137626559 0 -0.076278884194113258 0.32706308502728249 0 -0.056101506374375817 0.3128319137626559 0 -0.061273612338163523 0.34168082392211641 0 -0.076278884194113258 0.32706308502728249 0 -0.073171874186503463 0.31004866742903531 0 -0.056101506374375817 0.3128319137626559 0 -0.076278884194113258 0.32706308502728249 0 -0.076278884194113258 0.32706308502728249 0 -0.090988500091643998 0.31647506579520901 0 -0.096998472576195746 0.33787207035444761 0 -0.073171874186503463 0.31004866742903531 0 -0.076278884194113258 0.32706308502728249 0 -0.090988500091643998 0.31647506579520901 0 -0.083611302269088666 0.35468926302163939 0 -0.076278884194113258 0.32706308502728249 0 -0.096998472576195746 0.33787207035444761 0 -0.090988500091643998 0.31647506579520901 0 -0.096998472576195746 0.33787207035444761 0 -0.11250071635914489 0.32397018824961021 0 -0.1038404580068167 0.30398166541893579 0 -0.090988500091643998 0.31647506579520901 0 -0.11250071635914489 0.32397018824961021 0 -0.1315170279352865 0.33102482385584192 0 -0.12577302420238409 0.3093301053864293 0 -0.11250071635914489 0.32397018824961021 0 -0.1315170279352865 0.33102482385584192 0 -0.11250071635914489 0.32397018824961021 0 -0.1189994847652637 0.3425748687043878 0 -0.096998472576195746 0.33787207035444761 0 -0.11250071635914489 0.32397018824961021 0 -0.1189994847652637 0.3425748687043878 0 -0.12710123171609961 0.3622807710251873 0 -0.1189994847652637 0.3425748687043878 0 -0.1089146800649551 0.3561770594294375 0 -0.12710123171609961 0.3622807710251873 0 -0.1130895959368447 0.37246627340933908 0 -0.1089146800649551 0.3561770594294375 0 -0.12655549565904481 0.38459039506062281 0 -0.12710123171609961 0.3622807710251873 0 -0.1130895959368447 0.37246627340933908 0 -0.1130895959368447 0.37246627340933908 0 -0.096975471326963783 0.37148378381343322 0 -0.1089146800649551 0.3561770594294375 0 -0.083611302269088666 0.35468926302163939 0 -0.096975471326963783 0.37148378381343322 0 -0.1089146800649551 0.3561770594294375 0 -0.096998472576195746 0.33787207035444761 0 -0.1189994847652637 0.3425748687043878 0 -0.1089146800649551 0.3561770594294375 0 -0.083611302269088666 0.35468926302163939 0 -0.096998472576195746 0.33787207035444761 0 -0.1089146800649551 0.3561770594294375 0 -0.10335637586111809 0.38776536102133979 0 -0.1122756033997336 0.40440751886529608 0 -0.092626744140319878 0.40339206391310989 0 -0.1130895959368447 0.37246627340933908 0 -0.096975471326963783 0.37148378381343322 0 -0.10335637586111809 0.38776536102133979 0 -0.12655549565904481 0.38459039506062281 0 -0.1130895959368447 0.37246627340933908 0 -0.10335637586111809 0.38776536102133979 0 -0.12655549565904481 0.38459039506062281 0 -0.10335637586111809 0.38776536102133979 0 -0.1122756033997336 0.40440751886529608 0 -0.1342738988421254 0.39940632656162323 0 -0.12655549565904481 0.38459039506062281 0 -0.1122756033997336 0.40440751886529608 0 -0.12548201032280559 0.41579856094527679 0 -0.1122756033997336 0.40440751886529608 0 -0.1104394098233438 0.42174348832390141 0 -0.12548201032280559 0.41579856094527679 0 -0.1342738988421254 0.39940632656162323 0 -0.1122756033997336 0.40440751886529608 0 -0.13175207046494611 0.44346192959665548 0 -0.1221002198223846 0.42926878838971572 0 -0.1064787913094135 0.43730588845956792 0 -0.12548201032280559 0.41579856094527679 0 -0.1104394098233438 0.42174348832390141 0 -0.1221002198223846 0.42926878838971572 0 -0.1104394098233438 0.42174348832390141 0 -0.1221002198223846 0.42926878838971572 0 -0.1064787913094135 0.43730588845956792 0 -0.1064787913094135 0.43730588845956792 0 -0.08120551215388104 0.43114984732248018 0 -0.1064787913094135 0.43730588845956792 0 -0.097026127818036836 0.42472771569137829 0 -0.08120551215388104 0.43114984732248018 0 -0.1104394098233438 0.42174348832390141 0 -0.1064787913094135 0.43730588845956792 0 -0.097026127818036836 0.42472771569137829 0 -0.1122756033997336 0.40440751886529608 0 -0.098824778170087071 0.41543684488035082 0 -0.092626744140319878 0.40339206391310989 0 -0.1122756033997336 0.40440751886529608 0 -0.1104394098233438 0.42174348832390141 0 -0.098824778170087071 0.41543684488035082 0 -0.1104394098233438 0.42174348832390141 0 -0.097026127818036836 0.42472771569137829 0 -0.098824778170087071 0.41543684488035082 0 -0.097026127818036836 0.42472771569137829 0 -0.098824778170087071 0.41543684488035082 0 -0.088182147633458732 0.41800250947059109 0 -0.088182147633458732 0.41800250947059109 0 -0.075766822878524695 0.41019172804676379 0 -0.092626744140319878 0.40339206391310989 0 -0.088182147633458732 0.41800250947059109 0 -0.08120551215388104 0.43114984732248018 0 -0.075766822878524695 0.41019172804676379 0 -0.098824778170087071 0.41543684488035082 0 -0.088182147633458732 0.41800250947059109 0 -0.092626744140319878 0.40339206391310989 0 -0.08120551215388104 0.43114984732248018 0 -0.071684821312473307 0.43663440229273398 0 -0.093222345705159748 0.44373923815992428 0 -0.097026127818036836 0.42472771569137829 0 -0.088182147633458732 0.41800250947059109 0 -0.08120551215388104 0.43114984732248018 0 -0.1064787913094135 0.43730588845956792 0 -0.08120551215388104 0.43114984732248018 0 -0.093222345705159748 0.44373923815992428 0 -0.065135249615538293 0.42231944082984091 0 -0.071684821312473307 0.43663440229273398 0 -0.055943765893954757 0.43144171565494821 0 -0.065135249615538293 0.42231944082984091 0 -0.071684821312473307 0.43663440229273398 0 -0.075766822878524695 0.41019172804676379 0 -0.08120551215388104 0.43114984732248018 0 -0.071684821312473307 0.43663440229273398 0 -0.075766822878524695 0.41019172804676379 0 -0.071684821312473307 0.43663440229273398 0 -0.055943765893954757 0.43144171565494821 0 -0.071684821312473307 0.43663440229273398 0 -0.075766822878524695 0.41019172804676379 0 -0.065135249615538293 0.42231944082984091 0 -0.075766822878524695 0.41019172804676379 0 -0.05600936231039217 0.41342904923233581 0 -0.075766822878524695 0.41019172804676379 0 -0.063299398534094969 0.39691509799282482 0 -0.05600936231039217 0.41342904923233581 0 -0.075766822878524695 0.41019172804676379 0 -0.063299398534094969 0.39691509799282482 0 -0.079848824444575958 0.38374905380079372 0 -0.075766822878524695 0.41019172804676379 0 -0.079848824444575958 0.38374905380079372 0 -0.10335637586111809 0.38776536102133979 0 -0.092626744140319878 0.40339206391310989 0 -0.079848824444575958 0.38374905380079372 0 -0.075766822878524695 0.41019172804676379 0 -0.092626744140319878 0.40339206391310989 0 -0.079848824444575958 0.38374905380079372 0 -0.096975471326963783 0.37148378381343322 0 -0.10335637586111809 0.38776536102133979 0 -0.079848824444575958 0.38374905380079372 0 -0.06521228616511808 0.36405037212009378 0 -0.079848824444575958 0.38374905380079372 0 -0.056355392512392112 0.37995563405969551 0 -0.063299398534094969 0.39691509799282482 0 -0.079848824444575958 0.38374905380079372 0 -0.056355392512392112 0.37995563405969551 0 -0.063299398534094969 0.39691509799282482 0 -0.056355392512392112 0.37995563405969551 0 -0.048516590524589932 0.3972500248245352 0 -0.063299398534094969 0.39691509799282482 0 -0.048516590524589932 0.3972500248245352 0 -0.05600936231039217 0.41342904923233581 0 -0.048516590524589932 0.3972500248245352 0 -0.032850518460687449 0.39898186447299261 0 -0.037770955976974781 0.41204834058667128 0 -0.048516590524589932 0.3972500248245352 0 -0.032850518460687449 0.39898186447299261 0 -0.033696569954803593 0.38151106350699548 0 -0.056355392512392112 0.37995563405969551 0 -0.048516590524589932 0.3972500248245352 0 -0.033696569954803593 0.38151106350699548 0 -0.017975249263795932 0.36469023687930041 0 -0.033696569954803593 0.38151106350699548 0 -0.017202423973373768 0.37968737263981228 0 -0.033696569954803593 0.38151106350699548 0 -0.017202423973373768 0.37968737263981228 0 -0.018646700241063071 0.39302480292672293 0 -0.018646700241063071 0.39302480292672293 0 -0.0081246324890641812 0.40805065625530412 0 -0.02380123978217763 0.41023834757766542 0 -0.032850518460687449 0.39898186447299261 0 -0.018646700241063071 0.39302480292672293 0 -0.02380123978217763 0.41023834757766542 0 -0.032850518460687449 0.39898186447299261 0 -0.033696569954803593 0.38151106350699548 0 -0.018646700241063071 0.39302480292672293 0 -0.018646700241063071 0.39302480292672293 0 -0.0081246324890641812 0.40805065625530412 0 0.0058412231562265226 0.39891749499975832 0 -0.018646700241063071 0.39302480292672293 0 -0.0036227877329230301 0.37947700469323042 0 0.0058412231562265226 0.39891749499975832 0 -0.017202423973373768 0.37968737263981228 0 -0.018646700241063071 0.39302480292672293 0 -0.0036227877329230301 0.37947700469323042 0 -0.0072392309157056894 0.43649428994281841 0 -0.01082192781792536 0.4212785973985777 0 -0.025245314308565012 0.42614172839533782 0 -0.0072392309157056894 0.43649428994281841 0 -0.01082192781792536 0.4212785973985777 0 0.0059488009041311612 0.41735624870114602 0 -0.0081246324890641812 0.40805065625530412 0 -0.01082192781792536 0.4212785973985777 0 -0.02380123978217763 0.41023834757766542 0 -0.0081246324890641812 0.40805065625530412 0 -0.01082192781792536 0.4212785973985777 0 0.0059488009041311612 0.41735624870114602 0 -0.02380123978217763 0.41023834757766542 0 -0.025245314308565012 0.42614172839533782 0 -0.037770955976974781 0.41204834058667128 0 -0.01082192781792536 0.4212785973985777 0 -0.02380123978217763 0.41023834757766542 0 -0.025245314308565012 0.42614172839533782 0 -0.0072392309157056894 0.43649428994281841 0 -0.025245314308565012 0.42614172839533782 0 -0.027102965719072159 0.44246949839488359 0 -0.025245314308565012 0.42614172839533782 0 -0.040202710475436512 0.4262490290171615 0 -0.027102965719072159 0.44246949839488359 0 -0.040202710475436512 0.4262490290171615 0 -0.037770955976974781 0.41204834058667128 0 -0.05600936231039217 0.41342904923233581 0 -0.032850518460687449 0.39898186447299261 0 -0.02380123978217763 0.41023834757766542 0 -0.037770955976974781 0.41204834058667128 0 -0.025245314308565012 0.42614172839533782 0 -0.040202710475436512 0.4262490290171615 0 -0.037770955976974781 0.41204834058667128 0 -0.048516590524589932 0.3972500248245352 0 -0.037770955976974781 0.41204834058667128 0 -0.05600936231039217 0.41342904923233581 0 -0.040202710475436512 0.4262490290171615 0 -0.055943765893954757 0.43144171565494821 0 -0.065135249615538293 0.42231944082984091 0 -0.05600936231039217 0.41342904923233581 0 -0.055943765893954757 0.43144171565494821 0 -0.040202710475436512 0.4262490290171615 0 -0.055943765893954757 0.43144171565494821 0 -0.044517274739645132 0.44459183642540612 0 -0.040202710475436512 0.4262490290171615 0 -0.05600936231039217 0.41342904923233581 0 -0.055943765893954757 0.43144171565494821 0 -0.058335943557526457 0.44624868987483279 0 -0.051109653666529857 0.46081922680591902 0 -0.044517274739645132 0.44459183642540612 0 -0.071684821312473307 0.43663440229273398 0 -0.055943765893954757 0.43144171565494821 0 -0.058335943557526457 0.44624868987483279 0 -0.055943765893954757 0.43144171565494821 0 -0.058335943557526457 0.44624868987483279 0 -0.044517274739645132 0.44459183642540612 0 -0.051109653666529857 0.46081922680591902 0 -0.065163583037585071 0.47887813409757868 0 -0.068424202175029258 0.45775626819515641 0 -0.058335943557526457 0.44624868987483279 0 -0.051109653666529857 0.46081922680591902 0 -0.068424202175029258 0.45775626819515641 0 -0.051109653666529857 0.46081922680591902 0 -0.032757904119458489 0.46093040696708881 0 -0.044531910374045837 0.48023148171387958 0 -0.051109653666529857 0.46081922680591902 0 -0.032757904119458489 0.46093040696708881 0 -0.044517274739645132 0.44459183642540612 0 -0.040202710475436512 0.4262490290171615 0 -0.044517274739645132 0.44459183642540612 0 -0.027102965719072159 0.44246949839488359 0 -0.032757904119458489 0.46093040696708881 0 -0.044517274739645132 0.44459183642540612 0 -0.027102965719072159 0.44246949839488359 0 -0.0072392309157056894 0.43649428994281841 0 -0.027102965719072159 0.44246949839488359 0 -0.01461213653914459 0.45725057482734738 0 -0.032757904119458489 0.46093040696708881 0 -0.027102965719072159 0.44246949839488359 0 -0.01461213653914459 0.45725057482734738 0 -0.032757904119458489 0.46093040696708881 0 -0.01461213653914459 0.45725057482734738 0 -0.02185909025790168 0.48076112241269181 0 -0.01461213653914459 0.45725057482734738 0 -0.003089566724048357 0.47326761514296101 0 0.0026031304198410629 0.45131346537392758 0 -0.0072392309157056894 0.43649428994281841 0 -0.01461213653914459 0.45725057482734738 0 0.0026031304198410629 0.45131346537392758 0 -0.0068935706251778139 0.5 0 -0.003089566724048357 0.47326761514296101 0 -0.02185909025790168 0.48076112241269181 0 -0.01461213653914459 0.45725057482734738 0 -0.003089566724048357 0.47326761514296101 0 -0.02185909025790168 0.48076112241269181 0 -0.0068935706251778139 0.5 0 -0.02185909025790168 0.48076112241269181 0 -0.034398267262659273 0.5 0 -0.02185909025790168 0.48076112241269181 0 -0.034398267262659273 0.5 0 -0.044531910374045837 0.48023148171387958 0 -0.032757904119458489 0.46093040696708881 0 -0.02185909025790168 0.48076112241269181 0 -0.044531910374045837 0.48023148171387958 0 -0.051109653666529857 0.46081922680591902 0 -0.044531910374045837 0.48023148171387958 0 -0.065163583037585071 0.47887813409757868 0 -0.044531910374045837 0.48023148171387958 0 -0.061902963900140731 0.50000000000000089 0 -0.065163583037585071 0.47887813409757868 0 -0.034398267262659273 0.5 0 -0.044531910374045837 0.48023148171387958 0 -0.061902963900140731 0.50000000000000089 0 -0.061902963900140731 0.50000000000000089 0 -0.065163583037585071 0.47887813409757868 0 -0.061902963900140731 0.50000000000000089 0 -0.077838109667281524 0.48710250329852411 0 -0.087854509421354754 0.5 0 -0.061902963900140731 0.50000000000000089 0 -0.077838109667281524 0.48710250329852411 0 -0.065163583037585071 0.47887813409757868 0 -0.077838109667281524 0.48710250329852411 0 -0.087854509421354754 0.5 0 -0.093631833857276997 0.48378290981445132 0 -0.077838109667281524 0.48710250329852411 0 -0.093631833857276997 0.48378290981445132 0 -0.080637658120050082 0.47285147258059063 0 -0.093631833857276997 0.48378290981445132 0 -0.080637658120050082 0.47285147258059063 0 -0.095304075467821936 0.46893627996427029 0 -0.080637658120050082 0.47285147258059063 0 -0.065163583037585071 0.47887813409757868 0 -0.068424202175029258 0.45775626819515641 0 -0.077838109667281524 0.48710250329852411 0 -0.080637658120050082 0.47285147258059063 0 -0.065163583037585071 0.47887813409757868 0 -0.065163583037585071 0.47887813409757868 0 -0.068424202175029258 0.45775626819515641 0 -0.068424202175029258 0.45775626819515641 0 -0.079579065155363032 0.44906004053067289 0 -0.084984891428789844 0.45811025347487683 0 -0.080637658120050082 0.47285147258059063 0 -0.068424202175029258 0.45775626819515641 0 -0.084984891428789844 0.45811025347487683 0 -0.071684821312473307 0.43663440229273398 0 -0.058335943557526457 0.44624868987483279 0 -0.068424202175029258 0.45775626819515641 0 -0.071684821312473307 0.43663440229273398 0 -0.068424202175029258 0.45775626819515641 0 -0.071684821312473307 0.43663440229273398 0 -0.068424202175029258 0.45775626819515641 0 -0.079579065155363032 0.44906004053067289 0 -0.071684821312473307 0.43663440229273398 0 -0.079579065155363032 0.44906004053067289 0 -0.093222345705159748 0.44373923815992428 0 -0.071684821312473307 0.43663440229273398 0 -0.093222345705159748 0.44373923815992428 0 -0.079579065155363032 0.44906004053067289 0 -0.093222345705159748 0.44373923815992428 0 -0.084984891428789844 0.45811025347487683 0 -0.093222345705159748 0.44373923815992428 0 -0.084984891428789844 0.45811025347487683 0 -0.099437105326258865 0.45731761566948659 0 -0.084984891428789844 0.45811025347487683 0 -0.099437105326258865 0.45731761566948659 0 -0.095304075467821936 0.46893627996427029 0 -0.080637658120050082 0.47285147258059063 0 -0.084984891428789844 0.45811025347487683 0 -0.095304075467821936 0.46893627996427029 0 -0.099437105326258865 0.45731761566948659 0 -0.10891434393167621 0.46495823272124781 0 -0.095304075467821936 0.46893627996427029 0 -0.099437105326258865 0.45731761566948659 0 -0.10891434393167621 0.46495823272124781 0 -0.11475987009784661 0.45084407402711402 0 -0.093222345705159748 0.44373923815992428 0 -0.099437105326258865 0.45731761566948659 0 -0.11475987009784661 0.45084407402711402 0 -0.1064787913094135 0.43730588845956792 0 -0.093222345705159748 0.44373923815992428 0 -0.11475987009784661 0.45084407402711402 0 -0.093222345705159748 0.44373923815992428 0 -0.11475987009784661 0.45084407402711402 0 -0.13175207046494611 0.44346192959665548 0 -0.1064787913094135 0.43730588845956792 0 -0.13175207046494611 0.44346192959665548 0 -0.1064787913094135 0.43730588845956792 0 -0.11475987009784661 0.45084407402711402 0 -0.1336307511693739 0.45491465667522191 0 -0.12544051825853689 0.4631374593356033 0 -0.11475987009784661 0.45084407402711402 0 -0.12544051825853689 0.4631374593356033 0 -0.10891434393167621 0.46495823272124781 0 -0.1136160252334053 0.47771856728300521 0 -0.12544051825853689 0.4631374593356033 0 -0.10891434393167621 0.46495823272124781 0 -0.11475987009784661 0.45084407402711402 0 -0.13298062755884579 0.48255116261061692 0 -0.12544051825853689 0.4631374593356033 0 -0.1136160252334053 0.47771856728300521 0 -0.13298062755884579 0.48255116261061692 0 -0.1058458182692171 0.49480807365413371 0 -0.13298062755884579 0.48255116261061692 0 -0.11380605494256869 0.5 0 -0.1058458182692171 0.49480807365413371 0 -0.13298062755884579 0.48255116261061692 0 -0.1136160252334053 0.47771856728300521 0 -0.1058458182692171 0.49480807365413371 0 -0.087854509421354754 0.5 0 -0.11380605494256869 0.5 0 -0.1058458182692171 0.49480807365413371 0 -0.087854509421354754 0.5 0 -0.093631833857276997 0.48378290981445132 0 -0.1058458182692171 0.49480807365413371 0 -0.1136160252334053 0.47771856728300521 0 -0.1058458182692171 0.49480807365413371 0 -0.1043559736166358 0.48381945471134902 0 -0.093631833857276997 0.48378290981445132 0 -0.1058458182692171 0.49480807365413371 0 -0.1043559736166358 0.48381945471134902 0 -0.093631833857276997 0.48378290981445132 0 -0.1048057889081305 0.47442420204765762 0 -0.1043559736166358 0.48381945471134902 0 -0.093631833857276997 0.48378290981445132 0 -0.095304075467821936 0.46893627996427029 0 -0.1048057889081305 0.47442420204765762 0 -0.10891434393167621 0.46495823272124781 0 -0.1136160252334053 0.47771856728300521 0 -0.1048057889081305 0.47442420204765762 0 -0.10891434393167621 0.46495823272124781 0 -0.095304075467821936 0.46893627996427029 0 -0.1048057889081305 0.47442420204765762 0 -0.1136160252334053 0.47771856728300521 0 -0.1048057889081305 0.47442420204765762 0 -0.1043559736166358 0.48381945471134902 0 -0.16372231175516949 0.08442819848465731 0 -0.15093626356447659 0.087069345181943508 0 -0.15518952671466241 0.069788713381716036 0 -0.16372231175516949 0.08442819848465731 0 -0.1756345505012066 0.070889783495268699 0 -0.1751333004977583 0.097143888168289519 0 -0.16372231175516949 0.08442819848465731 0 -0.1751333004977583 0.097143888168289519 0 -0.16171791749774381 0.097249262196068775 0 -0.16372231175516949 0.08442819848465731 0 -0.16171791749774381 0.097249262196068775 0 -0.15093626356447659 0.087069345181943508 0 -0.16372231175516949 0.08442819848465731 0 -0.1756345505012066 0.070889783495268699 0 -0.15518952671466241 0.069788713381716036 0 -0.1756345505012066 0.070889783495268699 0 -0.15518952671466241 0.069788713381716036 0 -0.16223695238926561 0.052594200190125132 0 -0.1756345505012066 0.070889783495268699 0 -0.19053419445951161 0.052610770621845292 0 -0.19612483249420401 0.068091746174319415 0 -0.1756345505012066 0.070889783495268699 0 -0.18871947576181089 0.093673214670465021 0 -0.19612483249420401 0.068091746174319415 0 -0.1756345505012066 0.070889783495268699 0 -0.1751333004977583 0.097143888168289519 0 -0.1756345505012066 0.070889783495268699 0 -0.1751333004977583 0.097143888168289519 0 -0.18871947576181089 0.093673214670465021 0 -0.18131411902941769 0.11925468316661041 0 -0.18871947576181089 0.093673214670465021 0 -0.1751333004977583 0.097143888168289519 0 -0.18131411902941769 0.11925468316661041 0 -0.18871947576181089 0.093673214670465021 0 -0.1751333004977583 0.097143888168289519 0 -0.17463205049430791 0.1233979928413103 0 -0.18131411902941769 0.11925468316661041 0 -0.17463205049430791 0.1233979928413103 0 -0.19892457962824481 0.1205653340059829 0 -0.17463205049430791 0.1233979928413103 0 -0.19892457962824481 0.1205653340059829 0 -0.18530606321329801 0.12949084902847491 0 -0.1751333004977583 0.097143888168289519 0 -0.18131411902941769 0.11925468316661041 0 -0.17463205049430791 0.1233979928413103 0 -0.17463205049430791 0.1233979928413103 0 -0.19892457962824481 0.1205653340059829 0 -0.1751333004977583 0.097143888168289519 0 -0.17463205049430791 0.1233979928413103 0 -0.165591889364022 0.1100935584672583 0 -0.17463205049430791 0.1233979928413103 0 -0.1598554046101329 0.12512104095579701 0 -0.17463205049430791 0.1233979928413103 0 -0.16396547557359309 0.1179523604009539 0 -0.1598554046101329 0.12512104095579701 0 -0.17463205049430791 0.1233979928413103 0 -0.165591889364022 0.1100935584672583 0 -0.16396547557359309 0.1179523604009539 0 -0.165591889364022 0.1100935584672583 0 -0.16396547557359309 0.1179523604009539 0 -0.1557825578259103 0.11319684933944919 0 -0.16396547557359309 0.1179523604009539 0 -0.1557825578259103 0.11319684933944919 0 -0.1598554046101329 0.12512104095579701 0 -0.1751333004977583 0.097143888168289519 0 -0.165591889364022 0.1100935584672583 0 -0.16171791749774381 0.097249262196068775 0 -0.165591889364022 0.1100935584672583 0 -0.1513048045227823 0.10252569531319269 0 -0.1557825578259103 0.11319684933944919 0 -0.165591889364022 0.1100935584672583 0 -0.16171791749774381 0.097249262196068775 0 -0.1513048045227823 0.10252569531319269 0 -0.1513048045227823 0.10252569531319269 0 -0.1355182161913136 0.10914070680675041 0 -0.13964798444238999 0.092855372928561969 0 -0.16171791749774381 0.097249262196068775 0 -0.1513048045227823 0.10252569531319269 0 -0.15093626356447659 0.087069345181943508 0 -0.1513048045227823 0.10252569531319269 0 -0.1557825578259103 0.11319684933944919 0 -0.1355182161913136 0.10914070680675041 0 -0.1513048045227823 0.10252569531319269 0 -0.13964798444238999 0.092855372928561969 0 -0.15093626356447659 0.087069345181943508 0 -0.1557825578259103 0.11319684933944919 0 -0.1355182161913136 0.10914070680675041 0 -0.1598554046101329 0.12512104095579701 0 -0.1355182161913136 0.10914070680675041 0 -0.1598554046101329 0.12512104095579701 0 -0.14280445220814469 0.1192500300409249 0 -0.1598554046101329 0.12512104095579701 0 -0.13922952195075211 0.12752614618091959 0 -0.14280445220814469 0.1192500300409249 0 -0.1355182161913136 0.10914070680675041 0 -0.1598554046101329 0.12512104095579701 0 -0.13074244959953979 0.11946175785799951 0 -0.1355182161913136 0.10914070680675041 0 -0.123743476780604 0.10140915347104661 0 -0.14280445220814469 0.1192500300409249 0 -0.13074244959953979 0.11946175785799951 0 -0.13922952195075211 0.12752614618091959 0 -0.14280445220814469 0.1192500300409249 0 -0.1355182161913136 0.10914070680675041 0 -0.14280445220814469 0.1192500300409249 0 -0.13074244959953979 0.11946175785799951 0 -0.1355182161913136 0.10914070680675041 0 -0.1355182161913136 0.10914070680675041 0 -0.12576525993317081 0.095608920700106598 0 -0.13964798444238999 0.092855372928561969 0 -0.1355182161913136 0.10914070680675041 0 -0.12576525993317081 0.095608920700106598 0 -0.1355182161913136 0.10914070680675041 0 -0.12576525993317081 0.095608920700106598 0 -0.123743476780604 0.10140915347104661 0 -0.1355182161913136 0.10914070680675041 0 -0.123743476780604 0.10140915347104661 0 -0.12576525993317081 0.095608920700106598 0 -0.13964798444238999 0.092855372928561969 0 -0.13471537800020611 0.069932196640817734 0 -0.12576525993317081 0.095608920700106598 0 -0.13471537800020611 0.069932196640817734 0 -0.1158200249735767 0.081810356583590621 0 -0.12576525993317081 0.095608920700106598 0 -0.13471537800020611 0.069932196640817734 0 -0.13964798444238999 0.092855372928561969 0 -0.15093626356447659 0.087069345181943508 0 -0.13471537800020611 0.069932196640817734 0 -0.15093626356447659 0.087069345181943508 0 -0.15518952671466241 0.069788713381716036 0 -0.13471537800020611 0.069932196640817734 0 -0.13471537800020611 0.069932196640817734 0 -0.12657932631233151 0.049909814768299969 0 -0.1143187324205953 0.061132814960732959 0 -0.13471537800020611 0.069932196640817734 0 -0.14366549606724091 0.044255472581528732 0 -0.13471537800020611 0.069932196640817734 0 -0.12657932631233151 0.049909814768299969 0 -0.14366549606724091 0.044255472581528732 0 -0.12657932631233151 0.049909814768299969 0 -0.1284208098020175 0.033179877632891097 0 -0.14366549606724091 0.044255472581528732 0 -0.1284208098020175 0.033179877632891097 0 -0.14366549606724091 0.044255472581528732 0 -0.1467564914265658 0.025061264112791169 0 -0.14366549606724091 0.044255472581528732 0 -0.16223695238926561 0.052594200190125132 0 -0.1605593881585633 0.033401352669864208 0 -0.14366549606724091 0.044255472581528732 0 -0.1467564914265658 0.025061264112791169 0 -0.1605593881585633 0.033401352669864208 0 -0.15518952671466241 0.069788713381716036 0 -0.13471537800020611 0.069932196640817734 0 -0.14366549606724091 0.044255472581528732 0 -0.15518952671466241 0.069788713381716036 0 -0.14366549606724091 0.044255472581528732 0 -0.16223695238926561 0.052594200190125132 0 -0.13137048688310951 -0.003337023478303953 0 -0.13460564055411489 0.01723703355858653 0 -0.11131614731463491 0.019777731715017489 0 -0.13137048688310951 -0.003337023478303953 0 -0.13460564055411489 0.01723703355858653 0 -0.1433170204333889 0.0042533116210359059 0 -0.13137048688310951 -0.003337023478303953 0 -0.1433170204333889 0.0042533116210359059 0 -0.1284208098020175 0.033179877632891097 0 -0.13460564055411489 0.01723703355858653 0 -0.1467564914265658 0.025061264112791169 0 -0.13460564055411489 0.01723703355858653 0 -0.1467564914265658 0.025061264112791169 0 -0.15542372099760421 0.0119454102405231 0 -0.1467564914265658 0.025061264112791169 0 -0.15542372099760421 0.0119454102405231 0 -0.1605593881585633 0.033401352669864208 0 -0.13460564055411489 0.01723703355858653 0 -0.15542372099760421 0.0119454102405231 0 -0.1433170204333889 0.0042533116210359059 0 -0.15542372099760421 0.0119454102405231 0 -0.1433170204333889 0.0042533116210359059 0 -0.1564869492866878 -0.00059129627401754796 0 -0.15542372099760421 0.0119454102405231 0 -0.1433170204333889 0.0042533116210359059 0 -0.15542372099760421 0.0119454102405231 0 -0.17947695511209899 0.027227843959349921 0 -0.17208342559322409 0.0058404778805985873 0 -0.1564869492866878 -0.00059129627401754796 0 -0.15542372099760421 0.0119454102405231 0 -0.17208342559322409 0.0058404778805985873 0 -0.15542372099760421 0.0119454102405231 0 -0.17947695511209899 0.027227843959349921 0 -0.1605593881585633 0.033401352669864208 0 -0.15542372099760421 0.0119454102405231 0 -0.17947695511209899 0.027227843959349921 0 -0.18418091461086311 -0.0067458590849352237 0 -0.17208342559322409 0.0058404778805985873 0 -0.19246094727398991 0.01350162855121731 0 -0.17947695511209899 0.027227843959349921 0 -0.17208342559322409 0.0058404778805985873 0 -0.19246094727398991 0.01350162855121731 0 -0.1756345505012066 0.070889783495268699 0 -0.16223695238926561 0.052594200190125132 0 -0.17613580050465499 0.044635678822247941 0 -0.16223695238926561 0.052594200190125132 0 -0.1605593881585633 0.033401352669864208 0 -0.17613580050465499 0.044635678822247941 0 -0.17947695511209899 0.027227843959349921 0 -0.17613580050465499 0.044635678822247941 0 -0.19053419445951161 0.052610770621845292 0 -0.17947695511209899 0.027227843959349921 0 -0.1605593881585633 0.033401352669864208 0 -0.17613580050465499 0.044635678822247941 0 -0.1756345505012066 0.070889783495268699 0 -0.17613580050465499 0.044635678822247941 0 -0.1756345505012066 0.070889783495268699 0 -0.17613580050465499 0.044635678822247941 0 -0.19053419445951161 0.052610770621845292 0 -0.20353018922659619 0.042510277678173593 0 -0.19612483249420401 0.068091746174319415 0 -0.19053419445951161 0.052610770621845292 0 -0.20353018922659619 0.042510277678173593 0 -0.19612483249420401 0.068091746174319415 0 -0.17947695511209899 0.027227843959349921 0 -0.20353018922659619 0.042510277678173593 0 -0.17947695511209899 0.027227843959349921 0 -0.19053419445951161 0.052610770621845292 0 -0.20353018922659619 0.042510277678173593 0 -0.20353018922659619 0.042510277678173593 0 -0.21955159654467851 0.052689619643397433 0 -0.22113039192623851 0.032431486205985689 0 -0.20353018922659619 0.042510277678173593 0 -0.2127216369241372 0.066942535097736622 0 -0.19612483249420401 0.068091746174319415 0 -0.20353018922659619 0.042510277678173593 0 -0.21955159654467851 0.052689619643397433 0 -0.20353018922659619 0.042510277678173593 0 -0.21955159654467851 0.052689619643397433 0 -0.2127216369241372 0.066942535097736622 0 -0.2008908429601583 -0.001101000049535744 0 -0.19246094727398991 0.01350162855121731 0 -0.21117588750041991 0.016098560242972841 0 -0.18418091461086311 -0.0067458590849352237 0 -0.2008908429601583 -0.001101000049535744 0 -0.19246094727398991 0.01350162855121731 0 -0.17947695511209899 0.027227843959349921 0 -0.20353018922659619 0.042510277678173593 0 -0.19246094727398991 0.01350162855121731 0 -0.20353018922659619 0.042510277678173593 0 -0.19246094727398991 0.01350162855121731 0 -0.21117588750041991 0.016098560242972841 0 -0.20353018922659619 0.042510277678173593 0 -0.21117588750041991 0.016098560242972841 0 -0.22113039192623851 0.032431486205985689 0 -0.20353018922659619 0.042510277678173593 0 -0.21117588750041991 0.016098560242972841 0 -0.21882158577424271 -0.0103131571922281 0 -0.21117588750041991 0.016098560242972841 0 -0.2008908429601583 -0.001101000049535744 0 -0.21882158577424271 -0.0103131571922281 0 -0.21117588750041991 0.016098560242972841 0 -0.21882158577424271 -0.0103131571922281 0 -0.21117588750041991 0.016098560242972841 0 -0.23546354233931949 0.0078270751002715265 0 -0.23546354233931949 0.0078270751002715265 0 -0.22113039192623851 0.032431486205985689 0 -0.24192231969137759 0.032530148466345048 0 -0.21117588750041991 0.016098560242972841 0 -0.23546354233931949 0.0078270751002715265 0 -0.22113039192623851 0.032431486205985689 0 -0.26249405175029211 0.007662734938978108 0 -0.23546354233931949 0.0078270751002715265 0 -0.24192231969137759 0.032530148466345048 0 -0.21955159654467851 0.052689619643397433 0 -0.235573003862763 0.062868961608618018 0 -0.21955159654467851 0.052689619643397433 0 -0.235573003862763 0.062868961608618018 0 -0.2127216369241372 0.066942535097736622 0 -0.21955159654467851 0.052689619643397433 0 -0.24450296286368231 0.049373315754277197 0 -0.235573003862763 0.062868961608618018 0 -0.21955159654467851 0.052689619643397433 0 -0.22113039192623851 0.032431486205985689 0 -0.24192231969137759 0.032530148466345048 0 -0.21955159654467851 0.052689619643397433 0 -0.24192231969137759 0.032530148466345048 0 -0.24450296286368231 0.049373315754277197 0 -0.2559826395353394 0.061597363551489349 0 -0.24450296286368231 0.049373315754277197 0 -0.235573003862763 0.062868961608618018 0 -0.2559826395353394 0.061597363551489349 0 -0.235573003862763 0.062868961608618018 0 -0.24672703352553629 0.080158677613093823 0 -0.235573003862763 0.062868961608618018 0 -0.24672703352553629 0.080158677613093823 0 -0.2291931736768115 0.079240865998811236 0 -0.24672703352553629 0.080158677613093823 0 -0.2291931736768115 0.079240865998811236 0 -0.23621836434907981 0.095400964388867249 0 -0.25734245126200062 0.1014160866788785 0 -0.24672703352553629 0.080158677613093823 0 -0.23621836434907981 0.095400964388867249 0 -0.2291931736768115 0.079240865998811236 0 -0.21482055865464289 0.083254774020096164 0 -0.2224133943648228 0.095863443882093446 0 -0.2291931736768115 0.079240865998811236 0 -0.2224133943648228 0.095863443882093446 0 -0.23621836434907981 0.095400964388867249 0 -0.235573003862763 0.062868961608618018 0 -0.2291931736768115 0.079240865998811236 0 -0.2127216369241372 0.066942535097736622 0 -0.2291931736768115 0.079240865998811236 0 -0.2127216369241372 0.066942535097736622 0 -0.21482055865464289 0.083254774020096164 0 -0.2127216369241372 0.066942535097736622 0 -0.21482055865464289 0.083254774020096164 0 -0.203099952488771 0.082051867707200909 0 -0.2127216369241372 0.066942535097736622 0 -0.203099952488771 0.082051867707200909 0 -0.19612483249420401 0.068091746174319415 0 -0.21482055865464289 0.083254774020096164 0 -0.203099952488771 0.082051867707200909 0 -0.20375886312158339 0.098403164090322431 0 -0.21482055865464289 0.083254774020096164 0 -0.20375886312158339 0.098403164090322431 0 -0.2224133943648228 0.095863443882093446 0 -0.203099952488771 0.082051867707200909 0 -0.18871947576181089 0.093673214670465021 0 -0.19612483249420401 0.068091746174319415 0 -0.203099952488771 0.082051867707200909 0 -0.18871947576181089 0.093673214670465021 0 -0.20375886312158339 0.098403164090322431 0 -0.18871947576181089 0.093673214670465021 0 -0.19612483249420401 0.068091746174319415 0 -0.18131411902941769 0.11925468316661041 0 -0.19892457962824481 0.1205653340059829 0 -0.19516396372389291 0.10855896077987801 0 -0.19892457962824481 0.1205653340059829 0 -0.19516396372389291 0.10855896077987801 0 -0.2064149638336307 0.1103678524700213 0 -0.18131411902941769 0.11925468316661041 0 -0.18871947576181089 0.093673214670465021 0 -0.19516396372389291 0.10855896077987801 0 -0.18871947576181089 0.093673214670465021 0 -0.19516396372389291 0.10855896077987801 0 -0.20375886312158339 0.098403164090322431 0 -0.19516396372389291 0.10855896077987801 0 -0.20375886312158339 0.098403164090322431 0 -0.2064149638336307 0.1103678524700213 0 -0.20375886312158339 0.098403164090322431 0 -0.21522430961498251 0.1066047727861448 0 -0.2064149638336307 0.1103678524700213 0 -0.20375886312158339 0.098403164090322431 0 -0.21522430961498251 0.1066047727861448 0 -0.2224133943648228 0.095863443882093446 0 -0.19892457962824481 0.1205653340059829 0 -0.2064149638336307 0.1103678524700213 0 -0.22321710876218179 0.117732675170656 0 -0.19892457962824481 0.1205653340059829 0 -0.22321710876218179 0.117732675170656 0 -0.21198243415042209 0.1273270768851994 0 -0.19892457962824481 0.1205653340059829 0 -0.22321710876218179 0.117732675170656 0 -0.21522430961498251 0.1066047727861448 0 -0.2064149638336307 0.1103678524700213 0 -0.22321710876218179 0.117732675170656 0 -0.22321710876218179 0.117732675170656 0 -0.22699489982736379 0.11729216141517949 0 -0.22321710876218179 0.117732675170656 0 -0.22699489982736379 0.11729216141517949 0 -0.22407622611686431 0.1086811689817279 0 -0.21522430961498251 0.1066047727861448 0 -0.22321710876218179 0.117732675170656 0 -0.21522430961498251 0.1066047727861448 0 -0.22321710876218179 0.117732675170656 0 -0.22407622611686431 0.1086811689817279 0 -0.22699489982736379 0.11729216141517949 0 -0.22407622611686431 0.1086811689817279 0 -0.23779668997176759 0.1099640720218579 0 -0.21522430961498251 0.1066047727861448 0 -0.2224133943648228 0.095863443882093446 0 -0.22407622611686431 0.1086811689817279 0 -0.22407622611686431 0.1086811689817279 0 -0.23621836434907981 0.095400964388867249 0 -0.23779668997176759 0.1099640720218579 0 -0.2224133943648228 0.095863443882093446 0 -0.22407622611686431 0.1086811689817279 0 -0.23621836434907981 0.095400964388867249 0 -0.25734245126200062 0.1014160866788785 0 -0.23621836434907981 0.095400964388867249 0 -0.23779668997176759 0.1099640720218579 0 -0.25734245126200062 0.1014160866788785 0 -0.23779668997176759 0.1099640720218579 0 -0.24895710550971339 0.12165530893482571 0 -0.2385801137665676 0.122701518390659 0 -0.23779668997176759 0.1099640720218579 0 -0.24895710550971339 0.12165530893482571 0 -0.22699489982736379 0.11729216141517949 0 -0.2385801137665676 0.122701518390659 0 -0.23779668997176759 0.1099640720218579 0 -0.22699489982736379 0.11729216141517949 0 -0.2385801137665676 0.122701518390659 0 -0.2405717597574257 0.1418945311907728 0 -0.2385801137665676 0.122701518390659 0 -0.24895710550971339 0.12165530893482571 0 -0.2405717597574257 0.1418945311907728 0 -0.25608290515330878 0.14176455504424121 0 -0.24895710550971339 0.12165530893482571 0 -0.2405717597574257 0.1418945311907728 0 -0.24895710550971339 0.12165530893482571 0 -0.2405717597574257 0.1418945311907728 0 -0.22321710876218179 0.117732675170656 0 -0.22354757195218369 0.13155214617265881 0 -0.2405717597574257 0.1418945311907728 0 -0.22321710876218179 0.117732675170656 0 -0.22699489982736379 0.11729216141517949 0 -0.2405717597574257 0.1418945311907728 0 -0.22321710876218179 0.117732675170656 0 -0.2405717597574257 0.1418945311907728 0 -0.22354757195218369 0.13155214617265881 0 -0.22866128532361621 0.14153149423513051 0 -0.2405717597574257 0.1418945311907728 0 -0.21878746546912231 0.1392010645796998 0 -0.22354757195218369 0.13155214617265881 0 -0.22866128532361621 0.14153149423513051 0 -0.21878746546912231 0.1392010645796998 0 -0.22354757195218369 0.13155214617265881 0 -0.2159650745918322 0.13357921232561451 0 -0.22321710876218179 0.117732675170656 0 -0.22354757195218369 0.13155214617265881 0 -0.21198243415042209 0.1273270768851994 0 -0.22866128532361621 0.14153149423513051 0 -0.2405717597574257 0.1418945311907728 0 -0.23379856030635021 0.15824260950785349 0 -0.2220979066771098 0.14976549412664819 0 -0.22866128532361621 0.14153149423513051 0 -0.23379856030635021 0.15824260950785349 0 -0.2220979066771098 0.14976549412664819 0 -0.23379856030635021 0.15824260950785349 0 -0.21909321543322929 0.1606009590281276 0 -0.21878746546912231 0.1392010645796998 0 -0.2220979066771098 0.14976549412664819 0 -0.22866128532361621 0.14153149423513051 0 -0.25072842261960387 0.15603505327837411 0 -0.2405717597574257 0.1418945311907728 0 -0.23379856030635021 0.15824260950785349 0 -0.2405717597574257 0.1418945311907728 0 -0.23379856030635021 0.15824260950785349 0 -0.25072842261960387 0.15603505327837411 0 -0.25608290515330878 0.14176455504424121 0 -0.2405717597574257 0.1418945311907728 0 -0.25072842261960387 0.15603505327837411 0 -0.2405717597574257 0.1418945311907728 0 -0.24346313069296871 0.16633892637512099 0 -0.22702536085527411 0.17459068782493389 0 -0.23379856030635021 0.15824260950785349 0 -0.25072842261960387 0.15603505327837411 0 -0.24346313069296871 0.16633892637512099 0 -0.23379856030635021 0.15824260950785349 0 -0.24593749817207319 0.17922101447869401 0 -0.22702536085527411 0.17459068782493389 0 -0.23531355475386351 0.19206411553567329 0 -0.24346313069296871 0.16633892637512099 0 -0.24593749817207319 0.17922101447869401 0 -0.22702536085527411 0.17459068782493389 0 -0.22702536085527411 0.17459068782493389 0 -0.23531355475386351 0.19206411553567329 0 -0.21668486691279551 0.1896349297876268 0 -0.22702536085527411 0.17459068782493389 0 -0.21909321543322929 0.1606009590281276 0 -0.21078083849551829 0.1734645188772713 0 -0.22702536085527411 0.17459068782493389 0 -0.23379856030635021 0.15824260950785349 0 -0.22702536085527411 0.17459068782493389 0 -0.23379856030635021 0.15824260950785349 0 -0.21909321543322929 0.1606009590281276 0 -0.21909321543322929 0.1606009590281276 0 -0.20917883787537819 0.16210322782447459 0 -0.21014900685323101 0.14925134328242939 0 -0.21909321543322929 0.1606009590281276 0 -0.20917883787537819 0.16210322782447459 0 -0.21078083849551829 0.1734645188772713 0 -0.20917883787537819 0.16210322782447459 0 -0.21078083849551829 0.1734645188772713 0 -0.19690649474481761 0.16930016240990661 0 -0.22702536085527411 0.17459068782493389 0 -0.21078083849551829 0.1734645188772713 0 -0.21668486691279551 0.1896349297876268 0 -0.21078083849551829 0.1734645188772713 0 -0.21668486691279551 0.1896349297876268 0 -0.19675568901559279 0.189567439062066 0 -0.21078083849551829 0.1734645188772713 0 -0.19690649474481761 0.16930016240990661 0 -0.19675568901559279 0.189567439062066 0 -0.19690649474481761 0.16930016240990661 0 -0.19675568901559279 0.189567439062066 0 -0.1806498087268969 0.1809583004820513 0 -0.20917883787537819 0.16210322782447459 0 -0.20149615309500679 0.15718250099910261 0 -0.19690649474481761 0.16930016240990661 0 -0.20149615309500679 0.15718250099910261 0 -0.19690649474481761 0.16930016240990661 0 -0.1900737238031488 0.15648625425656729 0 -0.19690649474481761 0.16930016240990661 0 -0.1900737238031488 0.15648625425656729 0 -0.18329050548046091 0.16641049957591181 0 -0.1900737238031488 0.15648625425656729 0 -0.1892816596668532 0.14729824464464031 0 -0.18348409084234379 0.15060627553684849 0 -0.1900737238031488 0.15648625425656729 0 -0.19814782504055481 0.14911065488519101 0 -0.1892816596668532 0.14729824464464031 0 -0.20149615309500679 0.15718250099910261 0 -0.1900737238031488 0.15648625425656729 0 -0.19814782504055481 0.14911065488519101 0 -0.19814782504055481 0.14911065488519101 0 -0.2022681758196824 0.14167303138421811 0 -0.1943649823155553 0.141902467696427 0 -0.19814782504055481 0.14911065488519101 0 -0.1943649823155553 0.141902467696427 0 -0.1892816596668532 0.14729824464464031 0 -0.1943649823155553 0.141902467696427 0 -0.1892816596668532 0.14729824464464031 0 -0.18843187665971381 0.14117764216521481 0 -0.1943649823155553 0.141902467696427 0 -0.18843187665971381 0.14117764216521481 0 -0.1909929067815555 0.135001194222511 0 -0.18843187665971381 0.14117764216521481 0 -0.1909929067815555 0.135001194222511 0 -0.18421136551585299 0.13733957154214979 0 -0.19892457962824481 0.1205653340059829 0 -0.1909929067815555 0.135001194222511 0 -0.18530606321329801 0.12949084902847491 0 -0.19892457962824481 0.1205653340059829 0 -0.1909929067815555 0.135001194222511 0 -0.20124287374027899 0.13384974139548031 0 -0.2022681758196824 0.14167303138421811 0 -0.1943649823155553 0.141902467696427 0 -0.20124287374027899 0.13384974139548031 0 -0.1943649823155553 0.141902467696427 0 -0.1909929067815555 0.135001194222511 0 -0.20124287374027899 0.13384974139548031 0 -0.2022681758196824 0.14167303138421811 0 -0.20124287374027899 0.13384974139548031 0 -0.20954282679560091 0.1362365616649002 0 -0.20124287374027899 0.13384974139548031 0 -0.20954282679560091 0.1362365616649002 0 -0.21198243415042209 0.1273270768851994 0 -0.19892457962824481 0.1205653340059829 0 -0.20124287374027899 0.13384974139548031 0 -0.21198243415042209 0.1273270768851994 0 -0.22354757195218369 0.13155214617265881 0 -0.21198243415042209 0.1273270768851994 0 -0.2159650745918322 0.13357921232561451 0 -0.20954282679560091 0.1362365616649002 0 -0.21198243415042209 0.1273270768851994 0 -0.2159650745918322 0.13357921232561451 0 -0.21878746546912231 0.1392010645796998 0 -0.20954282679560091 0.1362365616649002 0 -0.2159650745918322 0.13357921232561451 0 -0.21878746546912231 0.1392010645796998 0 -0.2220979066771098 0.14976549412664819 0 -0.21014900685323101 0.14925134328242939 0 -0.21878746546912231 0.1392010645796998 0 -0.20954282679560091 0.1362365616649002 0 -0.21014900685323101 0.14925134328242939 0 -0.2220979066771098 0.14976549412664819 0 -0.21909321543322929 0.1606009590281276 0 -0.21014900685323101 0.14925134328242939 0 -0.20149615309500679 0.15718250099910261 0 -0.19814782504055481 0.14911065488519101 0 -0.21014900685323101 0.14925134328242939 0 -0.20917883787537819 0.16210322782447459 0 -0.20149615309500679 0.15718250099910261 0 -0.21014900685323101 0.14925134328242939 0 -0.19814782504055481 0.14911065488519101 0 -0.2022681758196824 0.14167303138421811 0 -0.21014900685323101 0.14925134328242939 0 -0.2022681758196824 0.14167303138421811 0 -0.20954282679560091 0.1362365616649002 0 -0.21014900685323101 0.14925134328242939 0 -0.2254770662958033 0.23770261769940551 0 -0.2355501434136231 0.2478522206023164 0 -0.23301571208005251 0.22631711136445781 0 -0.2254770662958033 0.23770261769940551 0 -0.21946187770755399 0.2272335662722752 0 -0.2144294763495698 0.23954399660221651 0 -0.22222104444170529 0.2467327462878163 0 -0.2254770662958033 0.23770261769940551 0 -0.2144294763495698 0.23954399660221651 0 -0.22222104444170529 0.2467327462878163 0 -0.2254770662958033 0.23770261769940551 0 -0.2355501434136231 0.2478522206023164 0 -0.25210514226647263 0.23555423440704959 0 -0.2355501434136231 0.2478522206023164 0 -0.2466801300010773 0.2452604621424746 0 -0.2355501434136231 0.2478522206023164 0 -0.248734035528067 0.22266264303674471 0 -0.25210514226647263 0.23555423440704959 0 -0.2355501434136231 0.2478522206023164 0 -0.248734035528067 0.22266264303674471 0 -0.23310158204141429 0.25640081827561029 0 -0.2355501434136231 0.2478522206023164 0 -0.2466801300010773 0.2452604621424746 0 -0.25210514226647263 0.23555423440704959 0 -0.2466801300010773 0.2452604621424746 0 -0.25054816238852479 0.24059870715785611 0 -0.25210514226647263 0.23555423440704959 0 -0.2466801300010773 0.2452604621424746 0 -0.25272816581491458 0.21503132644266379 0 -0.23589780562791721 0.22466705357138941 0 -0.2355501434136231 0.2478522206023164 0 -0.23589780562791721 0.22466705357138941 0 -0.23301571208005251 0.22631711136445781 0 -0.2355501434136231 0.2478522206023164 0 -0.248734035528067 0.22266264303674471 0 -0.23589780562791721 0.22466705357138941 0 -0.25272816581491458 0.21503132644266379 0 -0.248734035528067 0.22266264303674471 0 -0.23589780562791721 0.22466705357138941 0 -0.248734035528067 0.22266264303674471 0 -0.23589780562791721 0.22466705357138941 0 -0.23589780562791721 0.22466705357138941 0 -0.23301571208005251 0.22631711136445781 0 -0.23589780562791721 0.22466705357138941 0 -0.21946187770755399 0.2272335662722752 0 -0.225888155969557 0.21631124094479351 0 -0.23589780562791721 0.22466705357138941 0 -0.23301571208005251 0.22631711136445781 0 -0.21946187770755399 0.2272335662722752 0 -0.23589780562791721 0.22466705357138941 0 -0.21946187770755399 0.2272335662722752 0 -0.2254770662958033 0.23770261769940551 0 -0.23301571208005251 0.22631711136445781 0 -0.21946187770755399 0.2272335662722752 0 -0.21946187770755399 0.2272335662722752 0 -0.225888155969557 0.21631124094479351 0 -0.2147498456923036 0.21679580952784941 0 -0.225888155969557 0.21631124094479351 0 -0.2163983660951504 0.20664118688365379 0 -0.2147498456923036 0.21679580952784941 0 -0.225888155969557 0.21631124094479351 0 -0.22900898315534271 0.20498679461036609 0 -0.2163983660951504 0.20664118688365379 0 -0.225888155969557 0.21631124094479351 0 -0.22900898315534271 0.20498679461036609 0 -0.23632785610705401 0.21457891752941979 0 -0.23589780562791721 0.22466705357138941 0 -0.225888155969557 0.21631124094479351 0 -0.23632785610705401 0.21457891752941979 0 -0.25272816581491458 0.21503132644266379 0 -0.23632785610705401 0.21457891752941979 0 -0.24165148627456459 0.20791054123727601 0 -0.25272816581491458 0.21503132644266379 0 -0.23589780562791721 0.22466705357138941 0 -0.23632785610705401 0.21457891752941979 0 -0.25462413856064708 0.2114088186030785 0 -0.24165148627456459 0.20791054123727601 0 -0.23531355475386351 0.19206411553567329 0 -0.25272816581491458 0.21503132644266379 0 -0.25462413856064708 0.2114088186030785 0 -0.24165148627456459 0.20791054123727601 0 -0.22900898315534271 0.20498679461036609 0 -0.23632785610705401 0.21457891752941979 0 -0.24165148627456459 0.20791054123727601 0 -0.25193880530206408 0.19370481573741441 0 -0.24593749817207319 0.17922101447869401 0 -0.23531355475386351 0.19206411553567329 0 -0.25462413856064708 0.2114088186030785 0 -0.23531355475386351 0.19206411553567329 0 -0.25193880530206408 0.19370481573741441 0 -0.25462413856064708 0.2114088186030785 0 -0.23531355475386351 0.19206411553567329 0 -0.22900898315534271 0.20498679461036609 0 -0.24165148627456459 0.20791054123727601 0 -0.23531355475386351 0.19206411553567329 0 -0.22900898315534271 0.20498679461036609 0 -0.21668486691279551 0.1896349297876268 0 -0.2163983660951504 0.20664118688365379 0 -0.22900898315534271 0.20498679461036609 0 -0.23531355475386351 0.19206411553567329 0 -0.21668486691279551 0.1896349297876268 0 -0.21668486691279551 0.1896349297876268 0 -0.20588600075920099 0.20051631774142969 0 -0.2163983660951504 0.20664118688365379 0 -0.21668486691279551 0.1896349297876268 0 -0.20588600075920099 0.20051631774142969 0 -0.19675568901559279 0.189567439062066 0 -0.20588600075920099 0.20051631774142969 0 -0.19675568901559279 0.189567439062066 0 -0.1872373767624223 0.2114249087681892 0 -0.20588600075920099 0.20051631774142969 0 -0.203925412238775 0.2130566048024192 0 -0.1872373767624223 0.2114249087681892 0 -0.203925412238775 0.2130566048024192 0 -0.20302594978719091 0.22980007897316179 0 -0.1872373767624223 0.2114249087681892 0 -0.20588600075920099 0.20051631774142969 0 -0.203925412238775 0.2130566048024192 0 -0.2163983660951504 0.20664118688365379 0 -0.203925412238775 0.2130566048024192 0 -0.2163983660951504 0.20664118688365379 0 -0.2147498456923036 0.21679580952784941 0 -0.21946187770755399 0.2272335662722752 0 -0.20302594978719091 0.22980007897316179 0 -0.2144294763495698 0.23954399660221651 0 -0.21946187770755399 0.2272335662722752 0 -0.20302594978719091 0.22980007897316179 0 -0.21946187770755399 0.2272335662722752 0 -0.2147498456923036 0.21679580952784941 0 -0.20302594978719091 0.22980007897316179 0 -0.203925412238775 0.2130566048024192 0 -0.2147498456923036 0.21679580952784941 0 -0.20302594978719091 0.22980007897316179 0 -0.20302594978719091 0.22980007897316179 0 -0.1861179612628448 0.23220845709977719 0 -0.1872373767624223 0.2114249087681892 0 -0.18859670902218051 0.25052543551881717 0 -0.20132404028626799 0.2438270423260239 0 -0.1861179612628448 0.23220845709977719 0 -0.20302594978719091 0.22980007897316179 0 -0.20132404028626799 0.2438270423260239 0 -0.1861179612628448 0.23220845709977719 0 -0.21371201764358261 0.25214650866738469 0 -0.20132404028626799 0.2438270423260239 0 -0.2144294763495698 0.23954399660221651 0 -0.20302594978719091 0.22980007897316179 0 -0.20132404028626799 0.2438270423260239 0 -0.2144294763495698 0.23954399660221651 0 -0.21371201764358261 0.25214650866738469 0 -0.22222104444170529 0.2467327462878163 0 -0.2144294763495698 0.23954399660221651 0 -0.1613020889038615 0.23837444865205379 0 -0.1765110772481347 0.2431385849621667 0 -0.17254032084098081 0.22750047358122369 0 -0.1593990608277665 0.26226189644582071 0 -0.1613020889038615 0.23837444865205379 0 -0.1765110772481347 0.2431385849621667 0 -0.18859670902218051 0.25052543551881717 0 -0.1765110772481347 0.2431385849621667 0 -0.1861179612628448 0.23220845709977719 0 -0.17254032084098081 0.22750047358122369 0 -0.1861179612628448 0.23220845709977719 0 -0.1872373767624223 0.2114249087681892 0 -0.1765110772481347 0.2431385849621667 0 -0.17254032084098081 0.22750047358122369 0 -0.1861179612628448 0.23220845709977719 0 -0.1613020889038615 0.23837444865205379 0 -0.17254032084098081 0.22750047358122369 0 -0.16320511697995649 0.2144870008582867 0 -0.1613020889038615 0.23837444865205379 0 -0.16320511697995649 0.2144870008582867 0 -0.1529468832891846 0.22419885760078639 0 -0.1613020889038615 0.23837444865205379 0 -0.16320511697995649 0.2144870008582867 0 -0.16320511697995649 0.2144870008582867 0 -0.1872373767624223 0.2114249087681892 0 -0.17633970375998559 0.20030682361007979 0 -0.17254032084098081 0.22750047358122369 0 -0.16320511697995649 0.2144870008582867 0 -0.1872373767624223 0.2114249087681892 0 -0.19675568901559279 0.189567439062066 0 -0.17633970375998559 0.20030682361007979 0 -0.1806498087268969 0.1809583004820513 0 -0.19675568901559279 0.189567439062066 0 -0.1872373767624223 0.2114249087681892 0 -0.17633970375998559 0.20030682361007979 0 -0.17633970375998559 0.20030682361007979 0 -0.16510814505605159 0.19059955306451951 0 -0.1806498087268969 0.1809583004820513 0 -0.16320511697995649 0.2144870008582867 0 -0.16510814505605159 0.19059955306451951 0 -0.16320511697995649 0.2144870008582867 0 -0.17633970375998559 0.20030682361007979 0 -0.16510814505605159 0.19059955306451951 0 -0.16320511697995649 0.2144870008582867 0 -0.16510814505605159 0.19059955306451951 0 -0.15189646247486119 0.19678216421774269 0 -0.15189646247486119 0.19678216421774269 0 -0.1348313290251755 0.19391948141146001 0 -0.14981517013628179 0.1764661855652461 0 -0.15189646247486119 0.19678216421774269 0 -0.1348313290251755 0.19391948141146001 0 -0.1465225511768404 0.20843860018920141 0 -0.16510814505605159 0.19059955306451951 0 -0.15189646247486119 0.19678216421774269 0 -0.14981517013628179 0.1764661855652461 0 -0.1348313290251755 0.19391948141146001 0 -0.1252468427212147 0.2168953735999099 0 -0.1203089118816133 0.20055052938219861 0 -0.1348313290251755 0.19391948141146001 0 -0.1252468427212147 0.2168953735999099 0 -0.1465225511768404 0.20843860018920141 0 -0.16320511697995649 0.2144870008582867 0 -0.1465225511768404 0.20843860018920141 0 -0.1529468832891846 0.22419885760078639 0 -0.16320511697995649 0.2144870008582867 0 -0.15189646247486119 0.19678216421774269 0 -0.1465225511768404 0.20843860018920141 0 -0.1465225511768404 0.20843860018920141 0 -0.14075777609607981 0.2354953807036036 0 -0.1465225511768404 0.20843860018920141 0 -0.1529468832891846 0.22419885760078639 0 -0.14075777609607981 0.2354953807036036 0 -0.1613020889038615 0.23837444865205379 0 -0.1529468832891846 0.22419885760078639 0 -0.14075777609607981 0.2354953807036036 0 -0.1252468427212147 0.2168953735999099 0 -0.1465225511768404 0.20843860018920141 0 -0.14075777609607981 0.2354953807036036 0 -0.1252468427212147 0.2168953735999099 0 -0.14075777609607981 0.2354953807036036 0 -0.11832329044822951 0.24304604882281969 0 -0.1349930010153193 0.26255216121800568 0 -0.14075777609607981 0.2354953807036036 0 -0.1349930010153193 0.26255216121800568 0 -0.14075777609607981 0.2354953807036036 0 -0.11832329044822951 0.24304604882281969 0 -0.1349930010153193 0.26255216121800568 0 -0.14075777609607981 0.2354953807036036 0 -0.14911298171075679 0.24967097175487091 0 -0.1613020889038615 0.23837444865205379 0 -0.14075777609607981 0.2354953807036036 0 -0.14911298171075679 0.24967097175487091 0 -0.1662144153725649 0.14970975453020571 0 -0.1667765488875127 0.13812225091292091 0 -0.17427879965612819 0.14190030589397651 0 -0.1662144153725649 0.14970975453020571 0 -0.15453424001036289 0.15945434353378279 0 -0.15202557664741981 0.14720865995561999 0 -0.1662144153725649 0.14970975453020571 0 -0.15911751616331751 0.1391979048316449 0 -0.15202557664741981 0.14720865995561999 0 -0.1662144153725649 0.14970975453020571 0 -0.15911751616331751 0.1391979048316449 0 -0.1667765488875127 0.13812225091292091 0 -0.15911751616331751 0.1391979048316449 0 -0.1598554046101329 0.12512104095579701 0 -0.1667765488875127 0.13812225091292091 0 -0.15911751616331751 0.1391979048316449 0 -0.1598554046101329 0.12512104095579701 0 -0.1500033633973421 0.13584755301834109 0 -0.1598554046101329 0.12512104095579701 0 -0.1667765488875127 0.13812225091292091 0 -0.1744166086354216 0.1346822483529781 0 -0.17463205049430791 0.1233979928413103 0 -0.1598554046101329 0.12512104095579701 0 -0.1744166086354216 0.1346822483529781 0 -0.1598554046101329 0.12512104095579701 0 -0.1744166086354216 0.1346822483529781 0 -0.1667765488875127 0.13812225091292091 0 -0.1744166086354216 0.1346822483529781 0 -0.17427879965612819 0.14190030589397651 0 -0.1744166086354216 0.1346822483529781 0 -0.17427879965612819 0.14190030589397651 0 -0.1744166086354216 0.1346822483529781 0 -0.17777111929803571 0.13688489396563699 0 -0.17427879965612819 0.14190030589397651 0 -0.1744166086354216 0.1346822483529781 0 -0.17777111929803571 0.13688489396563699 0 -0.1744166086354216 0.1346822483529781 0 -0.17777111929803571 0.13688489396563699 0 -0.1798721579770142 0.13261044405125519 0 -0.17777111929803571 0.13688489396563699 0 -0.17908323016457489 0.14155253666455231 0 -0.17427879965612819 0.14190030589397651 0 -0.17463205049430791 0.1233979928413103 0 -0.1744166086354216 0.1346822483529781 0 -0.1798721579770142 0.13261044405125519 0 -0.17463205049430791 0.1233979928413103 0 -0.1744166086354216 0.1346822483529781 0 -0.17463205049430791 0.1233979928413103 0 -0.18530606321329801 0.12949084902847491 0 -0.1798721579770142 0.13261044405125519 0 -0.1909929067815555 0.135001194222511 0 -0.18530606321329801 0.12949084902847491 0 -0.18421136551585299 0.13733957154214979 0 -0.18530606321329801 0.12949084902847491 0 -0.1798721579770142 0.13261044405125519 0 -0.18421136551585299 0.13733957154214979 0 -0.17777111929803571 0.13688489396563699 0 -0.18421136551585299 0.13733957154214979 0 -0.17908323016457489 0.14155253666455231 0 -0.17777111929803571 0.13688489396563699 0 -0.1798721579770142 0.13261044405125519 0 -0.18421136551585299 0.13733957154214979 0 -0.1892816596668532 0.14729824464464031 0 -0.18843187665971381 0.14117764216521481 0 -0.183308469018752 0.14434673272034601 0 -0.18843187665971381 0.14117764216521481 0 -0.18421136551585299 0.13733957154214979 0 -0.183308469018752 0.14434673272034601 0 -0.1892816596668532 0.14729824464464031 0 -0.183308469018752 0.14434673272034601 0 -0.18348409084234379 0.15060627553684849 0 -0.183308469018752 0.14434673272034601 0 -0.1769770860414964 0.14813931566199959 0 -0.18348409084234379 0.15060627553684849 0 -0.183308469018752 0.14434673272034601 0 -0.17908323016457489 0.14155253666455231 0 -0.1769770860414964 0.14813931566199959 0 -0.18421136551585299 0.13733957154214979 0 -0.183308469018752 0.14434673272034601 0 -0.17908323016457489 0.14155253666455231 0 -0.1662144153725649 0.14970975453020571 0 -0.1769770860414964 0.14813931566199959 0 -0.17427879965612819 0.14190030589397651 0 -0.17908323016457489 0.14155253666455231 0 -0.1769770860414964 0.14813931566199959 0 -0.17427879965612819 0.14190030589397651 0 -0.1662144153725649 0.14970975453020571 0 -0.1769770860414964 0.14813931566199959 0 -0.17777951568146841 0.15676083040068911 0 -0.1769770860414964 0.14813931566199959 0 -0.18348409084234379 0.15060627553684849 0 -0.17777951568146841 0.15676083040068911 0 -0.1900737238031488 0.15648625425656729 0 -0.18348409084234379 0.15060627553684849 0 -0.17777951568146841 0.15676083040068911 0 -0.18329050548046091 0.16641049957591181 0 -0.1806498087268969 0.1809583004820513 0 -0.16701117313214661 0.16671210527075239 0 -0.18329050548046091 0.16641049957591181 0 -0.17777951568146841 0.15676083040068911 0 -0.16701117313214661 0.16671210527075239 0 -0.1900737238031488 0.15648625425656729 0 -0.18329050548046091 0.16641049957591181 0 -0.17777951568146841 0.15676083040068911 0 -0.19690649474481761 0.16930016240990661 0 -0.18329050548046091 0.16641049957591181 0 -0.1806498087268969 0.1809583004820513 0 -0.16510814505605159 0.19059955306451951 0 -0.16701117313214661 0.16671210527075239 0 -0.16510814505605159 0.19059955306451951 0 -0.1806498087268969 0.1809583004820513 0 -0.16701117313214661 0.16671210527075239 0 -0.16510814505605159 0.19059955306451951 0 -0.16701117313214661 0.16671210527075239 0 -0.14981517013628179 0.1764661855652461 0 -0.1662144153725649 0.14970975453020571 0 -0.16701117313214661 0.16671210527075239 0 -0.15453424001036289 0.15945434353378279 0 -0.1662144153725649 0.14970975453020571 0 -0.17777951568146841 0.15676083040068911 0 -0.16701117313214661 0.16671210527075239 0 -0.16701117313214661 0.16671210527075239 0 -0.15453424001036289 0.15945434353378279 0 -0.14981517013628179 0.1764661855652461 0 -0.14981517013628179 0.1764661855652461 0 -0.13268914273538329 0.1750509562650924 0 -0.1400456084615111 0.15909886324928099 0 -0.15453424001036289 0.15945434353378279 0 -0.14981517013628179 0.1764661855652461 0 -0.1400456084615111 0.15909886324928099 0 -0.1348313290251755 0.19391948141146001 0 -0.13268914273538329 0.1750509562650924 0 -0.1144809389531023 0.1869767666301351 0 -0.1348313290251755 0.19391948141146001 0 -0.14981517013628179 0.1764661855652461 0 -0.13268914273538329 0.1750509562650924 0 -0.1400456084615111 0.15909886324928099 0 -0.12711493411718411 0.1494661060528254 0 -0.1194513481457689 0.1635609988765839 0 -0.13268914273538329 0.1750509562650924 0 -0.1400456084615111 0.15909886324928099 0 -0.1194513481457689 0.1635609988765839 0 -0.1400456084615111 0.15909886324928099 0 -0.12711493411718411 0.1494661060528254 0 -0.1393467656979451 0.14225431360183649 0 -0.12711493411718411 0.1494661060528254 0 -0.1393467656979451 0.14225431360183649 0 -0.12653041952395039 0.1354161737842513 0 -0.1400456084615111 0.15909886324928099 0 -0.1393467656979451 0.14225431360183649 0 -0.15202557664741981 0.14720865995561999 0 -0.1393467656979451 0.14225431360183649 0 -0.15202557664741981 0.14720865995561999 0 -0.1500033633973421 0.13584755301834109 0 -0.15911751616331751 0.1391979048316449 0 -0.15202557664741981 0.14720865995561999 0 -0.1500033633973421 0.13584755301834109 0 -0.15453424001036289 0.15945434353378279 0 -0.1400456084615111 0.15909886324928099 0 -0.15202557664741981 0.14720865995561999 0 -0.1598554046101329 0.12512104095579701 0 -0.1500033633973421 0.13584755301834109 0 -0.13922952195075211 0.12752614618091959 0 -0.1598554046101329 0.12512104095579701 0 -0.13922952195075211 0.12752614618091959 0 -0.1393467656979451 0.14225431360183649 0 -0.1500033633973421 0.13584755301834109 0 -0.13922952195075211 0.12752614618091959 0 -0.13074244959953979 0.11946175785799951 0 -0.13922952195075211 0.12752614618091959 0 -0.12653041952395039 0.1354161737842513 0 -0.1393467656979451 0.14225431360183649 0 -0.13922952195075211 0.12752614618091959 0 -0.12653041952395039 0.1354161737842513 0 -0.12653041952395039 0.1354161737842513 0 -0.11549744085296181 0.12506595749432459 0 -0.1072514049253199 0.14872276151760261 0 -0.13074244959953979 0.11946175785799951 0 -0.12653041952395039 0.1354161737842513 0 -0.11549744085296181 0.12506595749432459 0 -0.11549744085296181 0.12506595749432459 0 -0.1072514049253199 0.14872276151760261 0 -0.11549744085296181 0.12506595749432459 0 -0.097351596905396909 0.1366011738647028 0 -0.095157466154961498 0.1222738246889692 0 -0.11549744085296181 0.12506595749432459 0 -0.097351596905396909 0.1366011738647028 0 -0.1072514049253199 0.14872276151760261 0 -0.097351596905396909 0.1366011738647028 0 -0.1072514049253199 0.14872276151760261 0 -0.095429287301162569 0.1538271060288352 0 -0.12711493411718411 0.1494661060528254 0 -0.12653041952395039 0.1354161737842513 0 -0.1072514049253199 0.14872276151760261 0 -0.12711493411718411 0.1494661060528254 0 -0.1072514049253199 0.14872276151760261 0 -0.1194513481457689 0.1635609988765839 0 -0.1194513481457689 0.1635609988765839 0 -0.1144809389531023 0.1869767666301351 0 -0.099005368997678006 0.1723795655408806 0 -0.13268914273538329 0.1750509562650924 0 -0.1194513481457689 0.1635609988765839 0 -0.1144809389531023 0.1869767666301351 0 -0.1144809389531023 0.1869767666301351 0 -0.099005368997678006 0.1723795655408806 0 -0.0907593330700361 0.19603636956415871 0 -0.099005368997678006 0.1723795655408806 0 -0.0907593330700361 0.19603636956415871 0 -0.1072514049253199 0.14872276151760261 0 -0.1194513481457689 0.1635609988765839 0 -0.099005368997678006 0.1723795655408806 0 -0.1072514049253199 0.14872276151760261 0 -0.095429287301162569 0.1538271060288352 0 -0.099005368997678006 0.1723795655408806 0 -0.1072514049253199 0.14872276151760261 0 -0.099005368997678006 0.1723795655408806 0 -0.095429287301162569 0.1538271060288352 0 -0.099005368997678006 0.1723795655408806 0 -0.089264976304947813 0.16305913715607981 0 -0.089264976304947813 0.16305913715607981 0 -0.078726297129264447 0.1568051313220773 0 -0.070728802668765189 0.16298784849958539 0 -0.099005368997678006 0.1723795655408806 0 -0.089264976304947813 0.16305913715607981 0 -0.083173158014857834 0.1819778711413477 0 -0.089264976304947813 0.16305913715607981 0 -0.083173158014857834 0.1819778711413477 0 -0.06435517074193417 0.179531982830265 0 -0.099005368997678006 0.1723795655408806 0 -0.083173158014857834 0.1819778711413477 0 -0.0907593330700361 0.19603636956415871 0 -0.083173158014857834 0.1819778711413477 0 -0.06435517074193417 0.179531982830265 0 -0.072480940959693013 0.1988823006153542 0 -0.089264976304947813 0.16305913715607981 0 -0.06435517074193417 0.179531982830265 0 -0.070728802668765189 0.16298784849958539 0 -0.089264976304947813 0.16305913715607981 0 -0.06435517074193417 0.179531982830265 0 -0.06435517074193417 0.179531982830265 0 -0.070728802668765189 0.16298784849958539 0 -0.060817304647522517 0.16063211997463811 0 -0.078726297129264447 0.1568051313220773 0 -0.070728802668765189 0.16298784849958539 0 -0.070638320170874583 0.15280064756773359 0 -0.070728802668765189 0.16298784849958539 0 -0.070638320170874583 0.15280064756773359 0 -0.060817304647522517 0.16063211997463811 0 -0.070638320170874583 0.15280064756773359 0 -0.06050925962069742 0.14933122419088271 0 -0.060817304647522517 0.16063211997463811 0 -0.078726297129264447 0.1568051313220773 0 -0.070638320170874583 0.15280064756773359 0 -0.084273089372470245 0.14837289206491031 0 -0.070638320170874583 0.15280064756773359 0 -0.073986689617270868 0.1403986132245284 0 -0.084273089372470245 0.14837289206491031 0 -0.073986689617270868 0.1403986132245284 0 -0.060395274942560528 0.13416549391068189 0 -0.06050925962069742 0.14933122419088271 0 -0.070638320170874583 0.15280064756773359 0 -0.073986689617270868 0.1403986132245284 0 -0.06050925962069742 0.14933122419088271 0 -0.073986689617270868 0.1403986132245284 0 -0.079964733767734122 0.12668506296934109 0 -0.060395274942560528 0.13416549391068189 0 -0.060395274942560528 0.13416549391068189 0 -0.068008023874607193 0.1194813826226566 0 -0.073986689617270868 0.1403986132245284 0 -0.085757333202322553 0.1342092020786384 0 -0.079964733767734122 0.12668506296934109 0 -0.097351596905396909 0.1366011738647028 0 -0.085757333202322553 0.1342092020786384 0 -0.095157466154961498 0.1222738246889692 0 -0.085757333202322553 0.1342092020786384 0 -0.079964733767734122 0.12668506296934109 0 -0.095157466154961498 0.1222738246889692 0 -0.097351596905396909 0.1366011738647028 0 -0.085757333202322553 0.1342092020786384 0 -0.084273089372470245 0.14837289206491031 0 -0.097351596905396909 0.1366011738647028 0 -0.095429287301162569 0.1538271060288352 0 -0.084273089372470245 0.14837289206491031 0 -0.095429287301162569 0.1538271060288352 0 -0.089264976304947813 0.16305913715607981 0 -0.084273089372470245 0.14837289206491031 0 -0.089264976304947813 0.16305913715607981 0 -0.078726297129264447 0.1568051313220773 0 -0.084273089372470245 0.14837289206491031 0 -0.073986689617270868 0.1403986132245284 0 -0.085757333202322553 0.1342092020786384 0 -0.084273089372470245 0.14837289206491031 0 -0.097135213821017974 0.2450179218164267 0 -0.11832329044822951 0.24304604882281969 0 -0.10188732904743091 0.22416775388930879 0 -0.1252468427212147 0.2168953735999099 0 -0.11832329044822951 0.24304604882281969 0 -0.10188732904743091 0.22416775388930879 0 -0.10188732904743091 0.22416775388930879 0 -0.10553645135762139 0.20639637139721009 0 -0.085647611720234704 0.211582202570961 0 -0.10553645135762139 0.20639637139721009 0 -0.0907593330700361 0.19603636956415871 0 -0.085647611720234704 0.211582202570961 0 -0.1252468427212147 0.2168953735999099 0 -0.10553645135762139 0.20639637139721009 0 -0.1203089118816133 0.20055052938219861 0 -0.1252468427212147 0.2168953735999099 0 -0.10188732904743091 0.22416775388930879 0 -0.10553645135762139 0.20639637139721009 0 -0.1144809389531023 0.1869767666301351 0 -0.10553645135762139 0.20639637139721009 0 -0.1203089118816133 0.20055052938219861 0 -0.1348313290251755 0.19391948141146001 0 -0.1144809389531023 0.1869767666301351 0 -0.1203089118816133 0.20055052938219861 0 -0.1144809389531023 0.1869767666301351 0 -0.10553645135762139 0.20639637139721009 0 -0.0907593330700361 0.19603636956415871 0 -0.083173158014857834 0.1819778711413477 0 -0.0907593330700361 0.19603636956415871 0 -0.072480940959693013 0.1988823006153542 0 -0.0907593330700361 0.19603636956415871 0 -0.072480940959693013 0.1988823006153542 0 -0.085647611720234704 0.211582202570961 0 -0.06435517074193417 0.179531982830265 0 -0.072480940959693013 0.1988823006153542 0 -0.057501641022342467 0.1963435114306189 0 -0.065516926835851183 0.21659017637723951 0 -0.085647611720234704 0.211582202570961 0 -0.078837631547527487 0.22646261886489361 0 -0.072480940959693013 0.1988823006153542 0 -0.065516926835851183 0.21659017637723951 0 -0.085647611720234704 0.211582202570961 0 -0.072480940959693013 0.1988823006153542 0 -0.065516926835851183 0.21659017637723951 0 -0.056774781747103042 0.20807563334730969 0 -0.097135213821017974 0.2450179218164267 0 -0.10188732904743091 0.22416775388930879 0 -0.078837631547527487 0.22646261886489361 0 -0.10188732904743091 0.22416775388930879 0 -0.078837631547527487 0.22646261886489361 0 -0.10188732904743091 0.22416775388930879 0 -0.085647611720234704 0.211582202570961 0 -0.078837631547527487 0.22646261886489361 0 -0.078837631547527487 0.22646261886489361 0 -0.055787934047623812 0.22875748384047651 0 -0.078837631547527487 0.22646261886489361 0 -0.074704152181801681 0.24701770632021169 0 -0.055787934047623812 0.22875748384047651 0 -0.065516926835851183 0.21659017637723951 0 -0.078837631547527487 0.22646261886489361 0 -0.055787934047623812 0.22875748384047651 0 -0.074704152181801681 0.24701770632021169 0 -0.055787934047623812 0.22875748384047651 0 -0.074704152181801681 0.24701770632021169 0 -0.057747386715908428 0.24463041023760571 0 -0.055787934047623812 0.22875748384047651 0 -0.097135213821017974 0.2450179218164267 0 -0.078837631547527487 0.22646261886489361 0 -0.074704152181801681 0.24701770632021169 0 -0.03189830216395443 0.24568919817845219 0 -0.04135776092400012 0.23809779795821551 0 -0.030614146685572802 0.23126382662090891 0 -0.04135776092400012 0.23809779795821551 0 -0.046594812073733123 0.24823599275617891 0 -0.049952252460554 0.2397627017524232 0 -0.03189830216395443 0.24568919817845219 0 -0.04135776092400012 0.23809779795821551 0 -0.046594812073733123 0.24823599275617891 0 -0.046594812073733123 0.24823599275617891 0 -0.057747386715908428 0.24463041023760571 0 -0.049952252460554 0.2397627017524232 0 -0.057747386715908428 0.24463041023760571 0 -0.049952252460554 0.2397627017524232 0 -0.055787934047623812 0.22875748384047651 0 -0.04135776092400012 0.23809779795821551 0 -0.049952252460554 0.2397627017524232 0 -0.055787934047623812 0.22875748384047651 0 -0.055787934047623812 0.22875748384047651 0 -0.052323738254648429 0.22541342291643321 0 -0.065516926835851183 0.21659017637723951 0 -0.055787934047623812 0.22875748384047651 0 -0.054616056031908368 0.21893633417385969 0 -0.055787934047623812 0.22875748384047651 0 -0.052323738254648429 0.22541342291643321 0 -0.042225130782071622 0.22351742659662871 0 -0.054616056031908368 0.21893633417385969 0 -0.052323738254648429 0.22541342291643321 0 -0.049046602241481829 0.2206752111693363 0 -0.052323738254648429 0.22541342291643321 0 -0.049046602241481829 0.2206752111693363 0 -0.042225130782071622 0.22351742659662871 0 -0.055787934047623812 0.22875748384047651 0 -0.054616056031908368 0.21893633417385969 0 -0.052323738254648429 0.22541342291643321 0 -0.055787934047623812 0.22875748384047651 0 -0.042225130782071622 0.22351742659662871 0 -0.030614146685572802 0.23126382662090891 0 -0.055787934047623812 0.22875748384047651 0 -0.030614146685572802 0.23126382662090891 0 -0.049046602241481829 0.2206752111693363 0 -0.042225130782071622 0.22351742659662871 0 -0.047021483897298919 0.2148336609904237 0 -0.04135776092400012 0.23809779795821551 0 -0.055787934047623812 0.22875748384047651 0 -0.030614146685572802 0.23126382662090891 0 -0.042225130782071622 0.22351742659662871 0 -0.035706106933987618 0.212040288753787 0 -0.024813853389476559 0.2211714782904188 0 -0.042225130782071622 0.22351742659662871 0 -0.024813853389476559 0.2211714782904188 0 -0.030614146685572802 0.23126382662090891 0 -0.035706106933987618 0.212040288753787 0 -0.047940973094851513 0.204892605264445 0 -0.039445365178920423 0.19600482850445031 0 -0.035706106933987618 0.212040288753787 0 -0.047021483897298919 0.2148336609904237 0 -0.047940973094851513 0.204892605264445 0 -0.042225130782071622 0.22351742659662871 0 -0.035706106933987618 0.212040288753787 0 -0.047021483897298919 0.2148336609904237 0 -0.054616056031908368 0.21893633417385969 0 -0.049046602241481829 0.2206752111693363 0 -0.047021483897298919 0.2148336609904237 0 -0.054616056031908368 0.21893633417385969 0 -0.047021483897298919 0.2148336609904237 0 -0.056774781747103042 0.20807563334730969 0 -0.065516926835851183 0.21659017637723951 0 -0.054616056031908368 0.21893633417385969 0 -0.056774781747103042 0.20807563334730969 0 -0.047021483897298919 0.2148336609904237 0 -0.056774781747103042 0.20807563334730969 0 -0.047940973094851513 0.204892605264445 0 -0.047940973094851513 0.204892605264445 0 -0.057501641022342467 0.1963435114306189 0 -0.039445365178920423 0.19600482850445031 0 -0.06435517074193417 0.179531982830265 0 -0.039445365178920423 0.19600482850445031 0 -0.072480940959693013 0.1988823006153542 0 -0.056774781747103042 0.20807563334730969 0 -0.057501641022342467 0.1963435114306189 0 -0.056774781747103042 0.20807563334730969 0 -0.047940973094851513 0.204892605264445 0 -0.057501641022342467 0.1963435114306189 0 -0.06435517074193417 0.179531982830265 0 -0.057501641022342467 0.1963435114306189 0 -0.039445365178920423 0.19600482850445031 0 -0.039445365178920423 0.19600482850445031 0 -0.027727343604313569 0.197178151178412 0 -0.038616654050395688 0.17617393208916859 0 -0.039445365178920423 0.19600482850445031 0 -0.027727343604313569 0.197178151178412 0 -0.014535559615906669 0.2124776741786355 0 -0.027727343604313569 0.197178151178412 0 -0.010915521324717001 0.1993315760592379 0 -0.014535559615906669 0.2124776741786355 0 -0.027727343604313569 0.197178151178412 0 -0.010915521324717001 0.1993315760592379 0 -0.020104729349334449 0.1840085448946619 0 -0.027727343604313569 0.197178151178412 0 -0.028750072776026619 0.18228756371234331 0 -0.020104729349334449 0.1840085448946619 0 -0.010915521324717001 0.1993315760592379 0 -0.0058150648891281392 0.18464487058732859 0 0.0047479160901643591 0.19966970600779571 0 -0.010915521324717001 0.1993315760592379 0 -0.020104729349334449 0.1840085448946619 0 -0.0058150648891281392 0.18464487058732859 0 -0.010915521324717001 0.1993315760592379 0 -0.001618838316679704 0.21186515805952549 0 -0.014535559615906669 0.2124776741786355 0 -0.010915521324717001 0.1993315760592379 0 -0.001618838316679704 0.21186515805952549 0 0.0047479160901643591 0.19966970600779571 0 -0.001618838316679704 0.21186515805952549 0 -0.010819744977475119 0.2201826338773481 0 0.0022205822065663882 0.22338098429998751 0 -0.001618838316679704 0.21186515805952549 0 -0.014535559615906669 0.2124776741786355 0 -0.010819744977475119 0.2201826338773481 0 -0.039445365178920423 0.19600482850445031 0 -0.014535559615906669 0.2124776741786355 0 -0.035706106933987618 0.212040288753787 0 -0.039445365178920423 0.19600482850445031 0 -0.014535559615906669 0.2124776741786355 0 -0.014535559615906669 0.2124776741786355 0 -0.024813853389476559 0.2211714782904188 0 -0.010819744977475119 0.2201826338773481 0 -0.035706106933987618 0.212040288753787 0 -0.014535559615906669 0.2124776741786355 0 -0.024813853389476559 0.2211714782904188 0 -0.030614146685572802 0.23126382662090891 0 -0.0054403593235216562 0.23377016940133941 0 -0.030614146685572802 0.23126382662090891 0 -0.0054403593235216562 0.23377016940133941 0 -0.01514813330815701 0.23061359466582701 0 -0.024813853389476559 0.2211714782904188 0 -0.030614146685572802 0.23126382662090891 0 -0.01514813330815701 0.23061359466582701 0 -0.024813853389476559 0.2211714782904188 0 -0.010819744977475119 0.2201826338773481 0 -0.01514813330815701 0.23061359466582701 0 -0.010819744977475119 0.2201826338773481 0 -0.01514813330815701 0.23061359466582701 0 0.0022205822065663882 0.22338098429998751 0 -0.01514813330815701 0.23061359466582701 0 0.0022205822065663882 0.22338098429998751 0 -0.0054403593235216562 0.23377016940133941 0 -0.01514813330815701 0.23061359466582701 0 0.0022205822065663882 0.22338098429998751 0 -0.004361582131907446 0.25012675423618741 0 -0.0054403593235216562 0.23377016940133941 0 0.0051881906427589239 0.2429023142665572 0 -0.004361582131907446 0.25012675423618741 0 -0.0054403593235216562 0.23377016940133941 0 -0.018506566158488919 0.2431339505957798 0 -0.020565667716041462 0.25572736355358933 0 -0.004361582131907446 0.25012675423618741 0 -0.018506566158488919 0.2431339505957798 0 -0.030614146685572802 0.23126382662090891 0 -0.0054403593235216562 0.23377016940133941 0 -0.018506566158488919 0.2431339505957798 0 -0.03189830216395443 0.24568919817845219 0 -0.030614146685572802 0.23126382662090891 0 -0.018506566158488919 0.2431339505957798 0 -0.020565667716041462 0.25572736355358933 0 -0.03189830216395443 0.24568919817845219 0 -0.018506566158488919 0.2431339505957798 0 -0.042460363287522958 0.14347988613362259 0 -0.044473419521311869 0.15297756029890641 0 -0.037891307588098999 0.15301779907060481 0 -0.044473419521311869 0.15297756029890641 0 -0.037891307588098999 0.15301779907060481 0 -0.031636506627965313 0.16150224911057051 0 -0.042460363287522958 0.14347988613362259 0 -0.035174347344809967 0.15001976644272921 0 -0.037891307588098999 0.15301779907060481 0 -0.035174347344809967 0.15001976644272921 0 -0.037891307588098999 0.15301779907060481 0 -0.033404653207921721 0.15507918068198209 0 -0.035174347344809967 0.15001976644272921 0 -0.033404653207921721 0.15507918068198209 0 -0.02776282729533102 0.15476173176141739 0 -0.035174347344809967 0.15001976644272921 0 -0.034180114506779158 0.14292432320853909 0 -0.02883591677782232 0.14796437992771719 0 -0.042460363287522958 0.14347988613362259 0 -0.035174347344809967 0.15001976644272921 0 -0.034180114506779158 0.14292432320853909 0 -0.042460363287522958 0.14347988613362259 0 -0.034180114506779158 0.14292432320853909 0 -0.038211226953362397 0.13781437243294631 0 -0.034180114506779158 0.14292432320853909 0 -0.032488323731578138 0.13717556183428281 0 -0.038211226953362397 0.13781437243294631 0 -0.034180114506779158 0.14292432320853909 0 -0.032488323731578138 0.13717556183428281 0 -0.027483842170251089 0.14162756103877569 0 -0.032488323731578138 0.13717556183428281 0 -0.035266368379565052 0.13009707587939279 0 -0.02667969692195489 0.13460984520473249 0 -0.032488323731578138 0.13717556183428281 0 -0.038211226953362397 0.13781437243294631 0 -0.035266368379565052 0.13009707587939279 0 -0.035266368379565052 0.13009707587939279 0 -0.046331318124510253 0.13174141938699169 0 -0.041763705598505362 0.11912362676530031 0 -0.038211226953362397 0.13781437243294631 0 -0.035266368379565052 0.13009707587939279 0 -0.046331318124510253 0.13174141938699169 0 -0.042460363287522958 0.14347988613362259 0 -0.038211226953362397 0.13781437243294631 0 -0.046331318124510253 0.13174141938699169 0 -0.042460363287522958 0.14347988613362259 0 -0.046331318124510253 0.13174141938699169 0 -0.060395274942560528 0.13416549391068189 0 -0.046331318124510253 0.13174141938699169 0 -0.060395274942560528 0.13416549391068189 0 -0.057376161549244957 0.12328487032798489 0 -0.060395274942560528 0.13416549391068189 0 -0.057376161549244957 0.12328487032798489 0 -0.068008023874607193 0.1194813826226566 0 -0.044473419521311869 0.15297756029890641 0 -0.060395274942560528 0.13416549391068189 0 -0.049505964496477838 0.1551697129999251 0 -0.060395274942560528 0.13416549391068189 0 -0.049505964496477838 0.1551697129999251 0 -0.060395274942560528 0.13416549391068189 0 -0.049505964496477838 0.1551697129999251 0 -0.06050925962069742 0.14933122419088271 0 -0.042460363287522958 0.14347988613362259 0 -0.044473419521311869 0.15297756029890641 0 -0.060395274942560528 0.13416549391068189 0 -0.044473419521311869 0.15297756029890641 0 -0.060395274942560528 0.13416549391068189 0 -0.06050925962069742 0.14933122419088271 0 -0.055951783244603238 0.15683636846341581 0 -0.060817304647522517 0.16063211997463811 0 -0.049505964496477838 0.1551697129999251 0 -0.06050925962069742 0.14933122419088271 0 -0.055951783244603238 0.15683636846341581 0 -0.06435517074193417 0.179531982830265 0 -0.060817304647522517 0.16063211997463811 0 -0.054190933413391887 0.1696376128955723 0 -0.055951783244603238 0.15683636846341581 0 -0.060817304647522517 0.16063211997463811 0 -0.051816527970478227 0.163689949284544 0 -0.060817304647522517 0.16063211997463811 0 -0.054190933413391887 0.1696376128955723 0 -0.051816527970478227 0.163689949284544 0 -0.054190933413391887 0.1696376128955723 0 -0.051816527970478227 0.163689949284544 0 -0.038616654050395688 0.17617393208916859 0 -0.049505964496477838 0.1551697129999251 0 -0.055951783244603238 0.15683636846341581 0 -0.051816527970478227 0.163689949284544 0 -0.06435517074193417 0.179531982830265 0 -0.039445365178920423 0.19600482850445031 0 -0.038616654050395688 0.17617393208916859 0 -0.06435517074193417 0.179531982830265 0 -0.054190933413391887 0.1696376128955723 0 -0.038616654050395688 0.17617393208916859 0 -0.027727343604313569 0.197178151178412 0 -0.038616654050395688 0.17617393208916859 0 -0.027727343604313569 0.197178151178412 0 -0.038616654050395688 0.17617393208916859 0 -0.028750072776026619 0.18228756371234331 0 -0.038616654050395688 0.17617393208916859 0 -0.028551564100062751 0.1717896266871306 0 -0.028750072776026619 0.18228756371234331 0 -0.044473419521311869 0.15297756029890641 0 -0.028551564100062751 0.1717896266871306 0 -0.049505964496477838 0.1551697129999251 0 -0.051816527970478227 0.163689949284544 0 -0.038616654050395688 0.17617393208916859 0 -0.044473419521311869 0.15297756029890641 0 -0.031636506627965313 0.16150224911057051 0 -0.028551564100062751 0.1717896266871306 0 -0.049505964496477838 0.1551697129999251 0 -0.038616654050395688 0.17617393208916859 0 -0.044473419521311869 0.15297756029890641 0 -0.049505964496477838 0.1551697129999251 0 -0.038616654050395688 0.17617393208916859 0 -0.044473419521311869 0.15297756029890641 0 -0.038616654050395688 0.17617393208916859 0 -0.028551564100062751 0.1717896266871306 0 -0.037891307588098999 0.15301779907060481 0 -0.033404653207921721 0.15507918068198209 0 -0.031636506627965313 0.16150224911057051 0 -0.031636506627965313 0.16150224911057051 0 -0.02253447650115362 0.1626338424728738 0 -0.02776282729533102 0.15476173176141739 0 -0.033404653207921721 0.15507918068198209 0 -0.031636506627965313 0.16150224911057051 0 -0.02776282729533102 0.15476173176141739 0 -0.031636506627965313 0.16150224911057051 0 -0.028551564100062751 0.1717896266871306 0 -0.02253447650115362 0.1626338424728738 0 -0.028551564100062751 0.1717896266871306 0 -0.02253447650115362 0.1626338424728738 0 -0.01498566762474032 0.1721399223420339 0 -0.02253447650115362 0.1626338424728738 0 -0.01498566762474032 0.1721399223420339 0 -0.012046897657486009 0.15973393686910059 0 -0.02253447650115362 0.1626338424728738 0 -0.012046897657486009 0.15973393686910059 0 -0.01974455104335017 0.1550417818637245 0 -0.02253447650115362 0.1626338424728738 0 -0.01974455104335017 0.1550417818637245 0 -0.02776282729533102 0.15476173176141739 0 -0.028551564100062751 0.1717896266871306 0 -0.028750072776026619 0.18228756371234331 0 -0.020104729349334449 0.1840085448946619 0 -0.028551564100062751 0.1717896266871306 0 -0.020104729349334449 0.1840085448946619 0 -0.01498566762474032 0.1721399223420339 0 -0.020104729349334449 0.1840085448946619 0 -0.01498566762474032 0.1721399223420339 0 -0.0058150648891281392 0.18464487058732859 0 -0.01498566762474032 0.1721399223420339 0 -0.0058150648891281392 0.18464487058732859 0 9.8439874396488518e-06 0.16909653965514321 0 -0.01498566762474032 0.1721399223420339 0 -0.012046897657486009 0.15973393686910059 0 9.8439874396488518e-06 0.16909653965514321 0 -0.012046897657486009 0.15973393686910059 0 -0.001399927819642065 0.15853034608675531 0 -0.0067216127360385028 0.15176017281181059 0 -0.012046897657486009 0.15973393686910059 0 -0.001399927819642065 0.15853034608675531 0 9.8439874396488518e-06 0.16909653965514321 0 -0.0067216127360385028 0.15176017281181059 0 -0.001932496299644968 0.1459540675981712 0 0.002037105597096525 0.15151695060409001 0 -0.001399927819642065 0.15853034608675531 0 -0.0067216127360385028 0.15176017281181059 0 0.002037105597096525 0.15151695060409001 0 -0.001932496299644968 0.1459540675981712 0 -0.0047871023855838284 0.14117591745817429 0 0.000228448927285114 0.14012311706009631 0 -0.0067216127360385028 0.15176017281181059 0 -0.001932496299644968 0.1459540675981712 0 -0.0088873299160877918 0.1454187600715697 0 -0.001932496299644968 0.1459540675981712 0 -0.0047871023855838284 0.14117591745817429 0 -0.0088873299160877918 0.1454187600715697 0 -0.0047871023855838284 0.14117591745817429 0 -0.0088873299160877918 0.1454187600715697 0 -0.010460643721398131 0.13913610184510419 0 -0.0088873299160877918 0.1454187600715697 0 -0.015535574841907601 0.14368344141407929 0 -0.010460643721398131 0.13913610184510419 0 -0.0088873299160877918 0.1454187600715697 0 -0.015535574841907601 0.14368344141407929 0 -0.014413369338275051 0.15020994658701309 0 -0.012046897657486009 0.15973393686910059 0 -0.014413369338275051 0.15020994658701309 0 -0.01974455104335017 0.1550417818637245 0 -0.012046897657486009 0.15973393686910059 0 -0.0067216127360385028 0.15176017281181059 0 -0.014413369338275051 0.15020994658701309 0 -0.0067216127360385028 0.15176017281181059 0 -0.0088873299160877918 0.1454187600715697 0 -0.014413369338275051 0.15020994658701309 0 -0.01974455104335017 0.1550417818637245 0 -0.021965184424505169 0.1478694516282176 0 -0.02776282729533102 0.15476173176141739 0 -0.014413369338275051 0.15020994658701309 0 -0.01974455104335017 0.1550417818637245 0 -0.021965184424505169 0.1478694516282176 0 -0.015535574841907601 0.14368344141407929 0 -0.014413369338275051 0.15020994658701309 0 -0.021965184424505169 0.1478694516282176 0 -0.015535574841907601 0.14368344141407929 0 -0.02085887518683055 0.14051112573817109 0 -0.01572570720539903 0.1386245228663322 0 -0.015535574841907601 0.14368344141407929 0 -0.021965184424505169 0.1478694516282176 0 -0.02085887518683055 0.14051112573817109 0 -0.021965184424505169 0.1478694516282176 0 -0.027483842170251089 0.14162756103877569 0 -0.02085887518683055 0.14051112573817109 0 -0.021965184424505169 0.1478694516282176 0 -0.027483842170251089 0.14162756103877569 0 -0.02883591677782232 0.14796437992771719 0 -0.034180114506779158 0.14292432320853909 0 -0.027483842170251089 0.14162756103877569 0 -0.02883591677782232 0.14796437992771719 0 -0.035174347344809967 0.15001976644272921 0 -0.02883591677782232 0.14796437992771719 0 -0.02776282729533102 0.15476173176141739 0 -0.021965184424505169 0.1478694516282176 0 -0.02883591677782232 0.14796437992771719 0 -0.02776282729533102 0.15476173176141739 0 -0.035266368379565052 0.13009707587939279 0 -0.02498016711913827 0.1241785180753891 0 -0.033110622576494379 0.1214386067867833 0 -0.02667969692195489 0.13460984520473249 0 -0.019000604944366228 0.13406922866238341 0 -0.02498016711913827 0.1241785180753891 0 -0.035266368379565052 0.13009707587939279 0 -0.02667969692195489 0.13460984520473249 0 -0.02498016711913827 0.1241785180753891 0 -0.032488323731578138 0.13717556183428281 0 -0.027483842170251089 0.14162756103877569 0 -0.02667969692195489 0.13460984520473249 0 -0.027483842170251089 0.14162756103877569 0 -0.02667969692195489 0.13460984520473249 0 -0.02085887518683055 0.14051112573817109 0 -0.02667969692195489 0.13460984520473249 0 -0.02085887518683055 0.14051112573817109 0 -0.019000604944366228 0.13406922866238341 0 -0.02085887518683055 0.14051112573817109 0 -0.01572570720539903 0.1386245228663322 0 -0.019000604944366228 0.13406922866238341 0 -0.019000604944366228 0.13406922866238341 0 -0.013108962008021981 0.1259178359004969 0 -0.02498016711913827 0.1241785180753891 0 -0.019000604944366228 0.13406922866238341 0 -0.013108962008021981 0.1259178359004969 0 -0.011245417678365909 0.1339710152718474 0 -0.013108962008021981 0.1259178359004969 0 -0.011245417678365909 0.1339710152718474 0 -0.0043823690024683438 0.12942386948176529 0 -0.015535574841907601 0.14368344141407929 0 -0.01572570720539903 0.1386245228663322 0 -0.010460643721398131 0.13913610184510419 0 -0.01572570720539903 0.1386245228663322 0 -0.011245417678365909 0.1339710152718474 0 -0.010460643721398131 0.13913610184510419 0 -0.01572570720539903 0.1386245228663322 0 -0.019000604944366228 0.13406922866238341 0 -0.011245417678365909 0.1339710152718474 0 -0.011245417678365909 0.1339710152718474 0 -0.010460643721398131 0.13913610184510419 0 -0.0049074646713017818 0.13634897063783119 0 -0.0047871023855838284 0.14117591745817429 0 -0.010460643721398131 0.13913610184510419 0 -0.0049074646713017818 0.13634897063783119 0 -0.011245417678365909 0.1339710152718474 0 -0.0049074646713017818 0.13634897063783119 0 -0.0043823690024683438 0.12942386948176529 0 -0.0049074646713017818 0.13634897063783119 0 -0.0043823690024683438 0.12942386948176529 0 0.0012022958327204049 0.13426380270999949 0 -0.0047871023855838284 0.14117591745817429 0 -0.0049074646713017818 0.13634897063783119 0 0.000228448927285114 0.14012311706009631 0 -0.0049074646713017818 0.13634897063783119 0 0.000228448927285114 0.14012311706009631 0 0.0012022958327204049 0.13426380270999949 0 -0.0043823690024683438 0.12942386948176529 0 -0.0015382865690094869 0.1195819360983075 0 0.0028297340199113529 0.12737786763030409 0 -0.0043823690024683438 0.12942386948176529 0 0.0028297340199113529 0.12737786763030409 0 0.0012022958327204049 0.13426380270999949 0 -0.013108962008021981 0.1259178359004969 0 -0.0015382865690094869 0.1195819360983075 0 -0.018013141318310021 0.1118215823196331 0 -0.0015382865690094869 0.1195819360983075 0 -0.0093267163156350585 0.10220622611456499 0 -0.018013141318310021 0.1118215823196331 0 -0.0015382865690094869 0.1195819360983075 0 -0.0093267163156350585 0.10220622611456499 0 0.0088418889268726004 0.1125261115153213 0 -0.013108962008021981 0.1259178359004969 0 -0.0043823690024683438 0.12942386948176529 0 -0.0015382865690094869 0.1195819360983075 0 -0.0093267163156350585 0.10220622611456499 0 -0.028384651446471159 0.094232735224306696 0 -0.028384651446471159 0.094232735224306696 0 -0.030432249208768851 0.112355206427051 0 -0.018013141318310021 0.1118215823196331 0 -0.0093267163156350585 0.10220622611456499 0 -0.028384651446471159 0.094232735224306696 0 -0.018013141318310021 0.1118215823196331 0 -0.030432249208768851 0.112355206427051 0 -0.02498016711913827 0.1241785180753891 0 -0.018013141318310021 0.1118215823196331 0 -0.030432249208768851 0.112355206427051 0 -0.02498016711913827 0.1241785180753891 0 -0.033110622576494379 0.1214386067867833 0 -0.013108962008021981 0.1259178359004969 0 -0.02498016711913827 0.1241785180753891 0 -0.018013141318310021 0.1118215823196331 0 -0.019815605255134251 0.077564307382831099 0 -0.01123722517146284 0.061714947321965113 0 0.0078113760670387236 0.068869370431613411 0 -0.019815605255134251 0.077564307382831099 0 0.0078113760670387236 0.068869370431613411 0 -0.0022168413230157229 0.085736250976024914 0 -0.019815605255134251 0.077564307382831099 0 0.0078113760670387236 0.068869370431613411 0 -0.0093267163156350585 0.10220622611456499 0 -0.0022168413230157229 0.085736250976024914 0 -0.019815605255134251 0.077564307382831099 0 -0.0093267163156350585 0.10220622611456499 0 -0.028384651446471159 0.094232735224306696 0 -0.019815605255134251 0.077564307382831099 0 -0.019815605255134251 0.077564307382831099 0 -0.02897814582929455 0.062873885781940531 0 -0.01123722517146284 0.061714947321965113 0 -0.019815605255134251 0.077564307382831099 0 -0.02897814582929455 0.062873885781940531 0 -0.037351726516990362 0.072256576054196331 0 -0.037351726516990362 0.072256576054196331 0 -0.04744258657730735 0.086259244334048468 0 -0.048521472395479701 0.069705355416953899 0 -0.042000822527735973 0.064880087355207783 0 -0.037351726516990362 0.072256576054196331 0 -0.048521472395479701 0.069705355416953899 0 -0.042000822527735973 0.064880087355207783 0 -0.048521472395479701 0.069705355416953899 0 -0.048543751051203898 0.057697742817346243 0 -0.02897814582929455 0.062873885781940531 0 -0.042000822527735973 0.064880087355207783 0 -0.037351726516990362 0.072256576054196331 0 -0.028384651446471159 0.094232735224306696 0 -0.048484368781985768 0.092953390863835139 0 -0.04744258657730735 0.086259244334048468 0 -0.019815605255134251 0.077564307382831099 0 -0.037351726516990362 0.072256576054196331 0 -0.04744258657730735 0.086259244334048468 0 -0.019815605255134251 0.077564307382831099 0 -0.04744258657730735 0.086259244334048468 0 -0.028384651446471159 0.094232735224306696 0 -0.04744258657730735 0.086259244334048468 0 -0.028384651446471159 0.094232735224306696 0 -0.019815605255134251 0.077564307382831099 0 -0.04744258657730735 0.086259244334048468 0 -0.04744258657730735 0.086259244334048468 0 -0.056352896539992578 0.082531333895216066 0 -0.048521472395479701 0.069705355416953899 0 -0.04744258657730735 0.086259244334048468 0 -0.055667229109567583 0.088847755450422561 0 -0.048484368781985768 0.092953390863835139 0 -0.04744258657730735 0.086259244334048468 0 -0.055667229109567583 0.088847755450422561 0 -0.055667229109567583 0.088847755450422561 0 -0.056352896539992578 0.082531333895216066 0 -0.055667229109567583 0.088847755450422561 0 -0.056352896539992578 0.082531333895216066 0 -0.068535421204038979 0.084669133357873919 0 -0.04744258657730735 0.086259244334048468 0 -0.055667229109567583 0.088847755450422561 0 -0.056352896539992578 0.082531333895216066 0 -0.04744258657730735 0.086259244334048468 0 -0.056352896539992578 0.082531333895216066 0 -0.056352896539992578 0.082531333895216066 0 -0.048521472395479701 0.069705355416953899 0 -0.059557339835071388 0.053011753697425897 0 -0.056352896539992578 0.082531333895216066 0 -0.065455038900646412 0.063135680861219914 0 -0.059557339835071388 0.053011753697425897 0 -0.056352896539992578 0.082531333895216066 0 -0.059557339835071388 0.053011753697425897 0 -0.041763705598505362 0.11912362676530031 0 -0.040355805924582322 0.10811297036328291 0 -0.053061720868948711 0.1128498994681193 0 -0.030432249208768851 0.112355206427051 0 -0.041763705598505362 0.11912362676530031 0 -0.033110622576494379 0.1214386067867833 0 -0.035266368379565052 0.13009707587939279 0 -0.041763705598505362 0.11912362676530031 0 -0.033110622576494379 0.1214386067867833 0 -0.030432249208768851 0.112355206427051 0 -0.041763705598505362 0.11912362676530031 0 -0.040355805924582322 0.10811297036328291 0 -0.028384651446471159 0.094232735224306696 0 -0.040355805924582322 0.10811297036328291 0 -0.047601570349403252 0.1001146928854318 0 -0.028384651446471159 0.094232735224306696 0 -0.048484368781985768 0.092953390863835139 0 -0.047601570349403252 0.1001146928854318 0 -0.028384651446471159 0.094232735224306696 0 -0.030432249208768851 0.112355206427051 0 -0.040355805924582322 0.10811297036328291 0 -0.055667229109567583 0.088847755450422561 0 -0.047601570349403252 0.1001146928854318 0 -0.053061720868948711 0.1128498994681193 0 -0.055667229109567583 0.088847755450422561 0 -0.053061720868948711 0.1128498994681193 0 -0.040355805924582322 0.10811297036328291 0 -0.047601570349403252 0.1001146928854318 0 -0.053061720868948711 0.1128498994681193 0 -0.055667229109567583 0.088847755450422561 0 -0.061317563763440802 0.10299561175118491 0 -0.053061720868948711 0.1128498994681193 0 -0.048484368781985768 0.092953390863835139 0 -0.055667229109567583 0.088847755450422561 0 -0.047601570349403252 0.1001146928854318 0 -0.055667229109567583 0.088847755450422561 0 -0.061317563763440802 0.10299561175118491 0 -0.06797342141030252 0.10030920148610591 0 -0.061317563763440802 0.10299561175118491 0 -0.053061720868948711 0.1128498994681193 0 -0.066574353573826517 0.1091611438734031 0 -0.046331318124510253 0.13174141938699169 0 -0.041763705598505362 0.11912362676530031 0 -0.057376161549244957 0.12328487032798489 0 -0.041763705598505362 0.11912362676530031 0 -0.053061720868948711 0.1128498994681193 0 -0.057376161549244957 0.12328487032798489 0 -0.053061720868948711 0.1128498994681193 0 -0.057376161549244957 0.12328487032798489 0 -0.068008023874607193 0.1194813826226566 0 -0.060395274942560528 0.13416549391068189 0 -0.068008023874607193 0.1194813826226566 0 -0.077957056184904241 0.1134158145620357 0 -0.060395274942560528 0.13416549391068189 0 -0.077957056184904241 0.1134158145620357 0 -0.079964733767734122 0.12668506296934109 0 -0.060395274942560528 0.13416549391068189 0 -0.077957056184904241 0.1134158145620357 0 -0.053061720868948711 0.1128498994681193 0 -0.068008023874607193 0.1194813826226566 0 -0.066574353573826517 0.1091611438734031 0 -0.068008023874607193 0.1194813826226566 0 -0.075620772806654399 0.1047972713346316 0 -0.066574353573826517 0.1091611438734031 0 -0.068008023874607193 0.1194813826226566 0 -0.077957056184904241 0.1134158145620357 0 -0.075620772806654399 0.1047972713346316 0 -0.068008023874607193 0.1194813826226566 0 -0.075620772806654399 0.1047972713346316 0 -0.079964733767734122 0.12668506296934109 0 -0.077957056184904241 0.1134158145620357 0 -0.086534582504385088 0.1156474293511931 0 -0.077957056184904241 0.1134158145620357 0 -0.086534582504385088 0.1156474293511931 0 -0.083947310206231279 0.1074935535689709 0 -0.086534582504385088 0.1156474293511931 0 -0.095157466154961498 0.1222738246889692 0 -0.093760682860616423 0.1071519620079809 0 -0.086534582504385088 0.1156474293511931 0 -0.083947310206231279 0.1074935535689709 0 -0.093760682860616423 0.1071519620079809 0 -0.079964733767734122 0.12668506296934109 0 -0.086534582504385088 0.1156474293511931 0 -0.095157466154961498 0.1222738246889692 0 -0.084868150004751591 0.098297010781769723 0 -0.085645907343274513 0.087820148674278453 0 -0.093949525724613639 0.096173232947952741 0 -0.084868150004751591 0.098297010781769723 0 -0.093760682860616423 0.1071519620079809 0 -0.093949525724613639 0.096173232947952741 0 -0.083947310206231279 0.1074935535689709 0 -0.084868150004751591 0.098297010781769723 0 -0.093760682860616423 0.1071519620079809 0 -0.083947310206231279 0.1074935535689709 0 -0.084868150004751591 0.098297010781769723 0 -0.075620772806654399 0.1047972713346316 0 -0.077957056184904241 0.1134158145620357 0 -0.083947310206231279 0.1074935535689709 0 -0.075620772806654399 0.1047972713346316 0 -0.084868150004751591 0.098297010781769723 0 -0.07416284546680918 0.094668811910581629 0 -0.075620772806654399 0.1047972713346316 0 -0.07416284546680918 0.094668811910581629 0 -0.075620772806654399 0.1047972713346316 0 -0.06797342141030252 0.10030920148610591 0 -0.055667229109567583 0.088847755450422561 0 -0.07416284546680918 0.094668811910581629 0 -0.06797342141030252 0.10030920148610591 0 -0.075620772806654399 0.1047972713346316 0 -0.066574353573826517 0.1091611438734031 0 -0.06797342141030252 0.10030920148610591 0 -0.061317563763440802 0.10299561175118491 0 -0.066574353573826517 0.1091611438734031 0 -0.06797342141030252 0.10030920148610591 0 -0.055667229109567583 0.088847755450422561 0 -0.07416284546680918 0.094668811910581629 0 -0.055667229109567583 0.088847755450422561 0 -0.07416284546680918 0.094668811910581629 0 -0.068535421204038979 0.084669133357873919 0 -0.056352896539992578 0.082531333895216066 0 -0.068535421204038979 0.084669133357873919 0 -0.079954973421325709 0.072656657351692189 0 -0.068535421204038979 0.084669133357873919 0 -0.077074786858862099 0.084953687823606544 0 -0.079954973421325709 0.072656657351692189 0 -0.07416284546680918 0.094668811910581629 0 -0.068535421204038979 0.084669133357873919 0 -0.077074786858862099 0.084953687823606544 0 -0.056352896539992578 0.082531333895216066 0 -0.079954973421325709 0.072656657351692189 0 -0.056352896539992578 0.082531333895216066 0 -0.065455038900646412 0.063135680861219914 0 -0.079954973421325709 0.072656657351692189 0 -0.065455038900646412 0.063135680861219914 0 -0.079954973421325709 0.072656657351692189 0 -0.065455038900646412 0.063135680861219914 0 -0.079954973421325709 0.072656657351692189 0 -0.076524839145482512 0.060394734624827362 0 -0.079954973421325709 0.072656657351692189 0 -0.093524594780215381 0.066979376389898315 0 -0.098442440583084309 0.07567796336267002 0 -0.079954973421325709 0.072656657351692189 0 -0.087851637875022454 0.059069255740853588 0 -0.076524839145482512 0.060394734624827362 0 -0.079954973421325709 0.072656657351692189 0 -0.093524594780215381 0.066979376389898315 0 -0.079954973421325709 0.072656657351692189 0 -0.093524594780215381 0.066979376389898315 0 -0.087851637875022454 0.059069255740853588 0 -0.079954973421325709 0.072656657351692189 0 -0.085645907343274513 0.087820148674278453 0 -0.1018492251009645 0.087032905411369765 0 -0.079954973421325709 0.072656657351692189 0 -0.1018492251009645 0.087032905411369765 0 -0.079954973421325709 0.072656657351692189 0 -0.1018492251009645 0.087032905411369765 0 -0.098442440583084309 0.07567796336267002 0 -0.084868150004751591 0.098297010781769723 0 -0.07416284546680918 0.094668811910581629 0 -0.085645907343274513 0.087820148674278453 0 -0.07416284546680918 0.094668811910581629 0 -0.077074786858862099 0.084953687823606544 0 -0.085645907343274513 0.087820148674278453 0 -0.077074786858862099 0.084953687823606544 0 -0.079954973421325709 0.072656657351692189 0 -0.085645907343274513 0.087820148674278453 0 -0.085645907343274513 0.087820148674278453 0 -0.1018492251009645 0.087032905411369765 0 -0.093949525724613639 0.096173232947952741 0 -0.1018492251009645 0.087032905411369765 0 -0.098442440583084309 0.07567796336267002 0 -0.1104905068726369 0.082990227197258584 0 -0.093524594780215381 0.066979376389898315 0 -0.106392902740279 0.068730650463131246 0 -0.095695867018895209 0.061386095523021718 0 -0.093524594780215381 0.066979376389898315 0 -0.098442440583084309 0.07567796336267002 0 -0.106392902740279 0.068730650463131246 0 -0.098442440583084309 0.07567796336267002 0 -0.106392902740279 0.068730650463131246 0 -0.1104905068726369 0.082990227197258584 0 -0.106392902740279 0.068730650463131246 0 -0.1143187324205953 0.061132814960732959 0 -0.1040003188276042 0.06051796656090451 0 -0.13471537800020611 0.069932196640817734 0 -0.1158200249735767 0.081810356583590621 0 -0.1143187324205953 0.061132814960732959 0 -0.1158200249735767 0.081810356583590621 0 -0.1143187324205953 0.061132814960732959 0 -0.106392902740279 0.068730650463131246 0 -0.1158200249735767 0.081810356583590621 0 -0.1143187324205953 0.061132814960732959 0 -0.106392902740279 0.068730650463131246 0 -0.1104905068726369 0.082990227197258584 0 -0.1158200249735767 0.081810356583590621 0 -0.106392902740279 0.068730650463131246 0 -0.1158200249735767 0.081810356583590621 0 -0.1104905068726369 0.082990227197258584 0 -0.1158200249735767 0.081810356583590621 0 -0.123743476780604 0.10140915347104661 0 -0.12576525993317081 0.095608920700106598 0 -0.1158200249735767 0.081810356583590621 0 -0.123743476780604 0.10140915347104661 0 -0.1018492251009645 0.087032905411369765 0 -0.1104905068726369 0.082990227197258584 0 -0.123743476780604 0.10140915347104661 0 -0.12576525993317081 0.095608920700106598 0 -0.1158200249735767 0.081810356583590621 0 -0.1018492251009645 0.087032905411369765 0 -0.123743476780604 0.10140915347104661 0 -0.10362366331346121 0.1005641378643648 0 -0.123743476780604 0.10140915347104661 0 -0.1048537663643479 0.1137288284916211 0 -0.10362366331346121 0.1005641378643648 0 -0.1018492251009645 0.087032905411369765 0 -0.123743476780604 0.10140915347104661 0 -0.12576525993317081 0.095608920700106598 0 -0.123743476780604 0.10140915347104661 0 -0.13074244959953979 0.11946175785799951 0 -0.11549744085296181 0.12506595749432459 0 -0.123743476780604 0.10140915347104661 0 -0.11549744085296181 0.12506595749432459 0 -0.123743476780604 0.10140915347104661 0 -0.1048537663643479 0.1137288284916211 0 -0.11549744085296181 0.12506595749432459 0 -0.123743476780604 0.10140915347104661 0 -0.11549744085296181 0.12506595749432459 0 -0.1048537663643479 0.1137288284916211 0 -0.095157466154961498 0.1222738246889692 0 -0.1048537663643479 0.1137288284916211 0 -0.095157466154961498 0.1222738246889692 0 -0.093760682860616423 0.1071519620079809 0 -0.1048537663643479 0.1137288284916211 0 -0.093760682860616423 0.1071519620079809 0 -0.10362366331346121 0.1005641378643648 0 -0.093760682860616423 0.1071519620079809 0 -0.093949525724613639 0.096173232947952741 0 -0.10362366331346121 0.1005641378643648 0 -0.1018492251009645 0.087032905411369765 0 -0.093949525724613639 0.096173232947952741 0 -0.10362366331346121 0.1005641378643648 0 -0.098111174817663571 0.029299933210101211 0 -0.11131614731463491 0.019777731715017489 0 -0.093270919285344131 0.021002023320940321 0 -0.099902477996615974 0.0097047614334804834 0 -0.11131614731463491 0.019777731715017489 0 -0.093270919285344131 0.021002023320940321 0 -0.098111174817663571 0.029299933210101211 0 -0.11131614731463491 0.019777731715017489 0 -0.1037154685123088 0.036850908914803658 0 -0.11131614731463491 0.019777731715017489 0 -0.1037154685123088 0.036850908914803658 0 -0.099902477996615974 0.0097047614334804834 0 -0.1099986790197032 0.001632030897992919 0 -0.11131614731463491 0.019777731715017489 0 -0.097318817554363779 -0.0057286893867275063 0 -0.099902477996615974 0.0097047614334804834 0 -0.087524390624848222 0.006688577221896419 0 -0.097318817554363779 -0.0057286893867275063 0 -0.099902477996615974 0.0097047614334804834 0 -0.1099986790197032 0.001632030897992919 0 -0.1236122261121546 -0.0078425818954372464 0 -0.13137048688310951 -0.003337023478303953 0 -0.11131614731463491 0.019777731715017489 0 -0.1099986790197032 0.001632030897992919 0 -0.11131614731463491 0.019777731715017489 0 -0.1236122261121546 -0.0078425818954372464 0 -0.1099986790197032 0.001632030897992919 0 -0.11131614731463491 0.019777731715017489 0 -0.1236122261121546 -0.0078425818954372464 0 -0.11131614731463491 0.019777731715017489 0 -0.1284208098020175 0.033179877632891097 0 -0.13460564055411489 0.01723703355858653 0 -0.11131614731463491 0.019777731715017489 0 -0.11131614731463491 0.019777731715017489 0 -0.1128174398676144 0.040455273337875242 0 -0.1284208098020175 0.033179877632891097 0 -0.11131614731463491 0.019777731715017489 0 -0.1128174398676144 0.040455273337875242 0 -0.12657932631233151 0.049909814768299969 0 -0.1284208098020175 0.033179877632891097 0 -0.1128174398676144 0.040455273337875242 0 -0.12657932631233151 0.049909814768299969 0 -0.1128174398676144 0.040455273337875242 0 -0.1143187324205953 0.061132814960732959 0 -0.1128174398676144 0.040455273337875242 0 -0.1143187324205953 0.061132814960732959 0 -0.1082223027228006 0.050485275180462093 0 -0.1128174398676144 0.040455273337875242 0 -0.1143187324205953 0.061132814960732959 0 -0.1143187324205953 0.061132814960732959 0 -0.10610639822075781 0.055771586811031351 0 -0.1082223027228006 0.050485275180462093 0 -0.1025152677102278 0.050750948389364392 0 -0.096114789709981496 0.053924086114589299 0 -0.1037154685123088 0.036850908914803658 0 -0.106392902740279 0.068730650463131246 0 -0.1040003188276042 0.06051796656090451 0 -0.096965780506980889 0.055650944342672051 0 -0.106392902740279 0.068730650463131246 0 -0.096965780506980889 0.055650944342672051 0 -0.1143187324205953 0.061132814960732959 0 -0.1040003188276042 0.06051796656090451 0 -0.10610639822075781 0.055771586811031351 0 -0.1040003188276042 0.06051796656090451 0 -0.10610639822075781 0.055771586811031351 0 -0.1014753694225613 0.055970928963692809 0 -0.10610639822075781 0.055771586811031351 0 -0.1025152677102278 0.050750948389364392 0 -0.1014753694225613 0.055970928963692809 0 -0.10610639822075781 0.055771586811031351 0 -0.1082223027228006 0.050485275180462093 0 -0.1025152677102278 0.050750948389364392 0 -0.1082223027228006 0.050485275180462093 0 -0.1025152677102278 0.050750948389364392 0 -0.1067356553623631 0.044178634216678392 0 -0.096408734094846682 0.047028599374544268 0 -0.094016665615900177 0.045027451179461733 0 -0.091788012541196298 0.052311951289322388 0 -0.096114789709981496 0.053924086114589299 0 -0.093744419191978248 0.056500250678553403 0 -0.091788012541196298 0.052311951289322388 0 -0.096408734094846682 0.047028599374544268 0 -0.096114789709981496 0.053924086114589299 0 -0.091788012541196298 0.052311951289322388 0 -0.096114789709981496 0.053924086114589299 0 -0.099124967027144822 0.054450492792824511 0 -0.096965780506980889 0.055650944342672051 0 -0.1025152677102278 0.050750948389364392 0 -0.096114789709981496 0.053924086114589299 0 -0.099124967027144822 0.054450492792824511 0 -0.1025152677102278 0.050750948389364392 0 -0.099124967027144822 0.054450492792824511 0 -0.1014753694225613 0.055970928963692809 0 -0.106392902740279 0.068730650463131246 0 -0.096965780506980889 0.055650944342672051 0 -0.095695867018895209 0.061386095523021718 0 -0.1040003188276042 0.06051796656090451 0 -0.1014753694225613 0.055970928963692809 0 -0.096965780506980889 0.055650944342672051 0 -0.099124967027144822 0.054450492792824511 0 -0.1014753694225613 0.055970928963692809 0 -0.096965780506980889 0.055650944342672051 0 -0.096965780506980889 0.055650944342672051 0 -0.095695867018895209 0.061386095523021718 0 -0.093744419191978248 0.056500250678553403 0 -0.096114789709981496 0.053924086114589299 0 -0.096965780506980889 0.055650944342672051 0 -0.093744419191978248 0.056500250678553403 0 -0.096408734094846682 0.047028599374544268 0 -0.096114789709981496 0.053924086114589299 0 -0.1037154685123088 0.036850908914803658 0 -0.11131614731463491 0.019777731715017489 0 -0.1128174398676144 0.040455273337875242 0 -0.1037154685123088 0.036850908914803658 0 -0.096114789709981496 0.053924086114589299 0 -0.1037154685123088 0.036850908914803658 0 -0.1128174398676144 0.040455273337875242 0 -0.1037154685123088 0.036850908914803658 0 -0.1067356553623631 0.044178634216678392 0 -0.1128174398676144 0.040455273337875242 0 -0.1082223027228006 0.050485275180462093 0 -0.1067356553623631 0.044178634216678392 0 -0.1025152677102278 0.050750948389364392 0 -0.1037154685123088 0.036850908914803658 0 -0.1067356553623631 0.044178634216678392 0 -0.096408734094846682 0.047028599374544268 0 -0.1037154685123088 0.036850908914803658 0 -0.094016665615900177 0.045027451179461733 0 -0.1037154685123088 0.036850908914803658 0 -0.094016665615900177 0.045027451179461733 0 -0.094491571965461013 0.037104767562455593 0 -0.098111174817663571 0.029299933210101211 0 -0.1037154685123088 0.036850908914803658 0 -0.094491571965461013 0.037104767562455593 0 -0.098111174817663571 0.029299933210101211 0 -0.094491571965461013 0.037104767562455593 0 -0.087647185425064736 0.031842659612238623 0 -0.087647185425064736 0.031842659612238623 0 -0.089854685869044451 0.040908764775179712 0 -0.081629424010395357 0.041419166804349421 0 -0.094491571965461013 0.037104767562455593 0 -0.087647185425064736 0.031842659612238623 0 -0.089854685869044451 0.040908764775179712 0 -0.089854685869044451 0.040908764775179712 0 -0.081629424010395357 0.041419166804349421 0 -0.086707275669269182 0.049908642651155542 0 -0.094016665615900177 0.045027451179461733 0 -0.089854685869044451 0.040908764775179712 0 -0.086707275669269182 0.049908642651155542 0 -0.094016665615900177 0.045027451179461733 0 -0.094491571965461013 0.037104767562455593 0 -0.089854685869044451 0.040908764775179712 0 -0.087647185425064736 0.031842659612238623 0 -0.081629424010395357 0.041419166804349421 0 -0.076164181077954182 0.032009494226678391 0 -0.095695867018895209 0.061386095523021718 0 -0.087851637875022454 0.059069255740853588 0 -0.093744419191978248 0.056500250678553403 0 -0.093524594780215381 0.066979376389898315 0 -0.095695867018895209 0.061386095523021718 0 -0.087851637875022454 0.059069255740853588 0 -0.087851637875022454 0.059069255740853588 0 -0.093744419191978248 0.056500250678553403 0 -0.091788012541196298 0.052311951289322388 0 -0.087851637875022454 0.059069255740853588 0 -0.091788012541196298 0.052311951289322388 0 -0.086707275669269182 0.049908642651155542 0 -0.094016665615900177 0.045027451179461733 0 -0.091788012541196298 0.052311951289322388 0 -0.086707275669269182 0.049908642651155542 0 -0.086707275669269182 0.049908642651155542 0 -0.081818850965788142 0.055238295402956307 0 -0.077896340682555187 0.050949615115596543 0 -0.081629424010395357 0.041419166804349421 0 -0.086707275669269182 0.049908642651155542 0 -0.077896340682555187 0.050949615115596543 0 -0.087851637875022454 0.059069255740853588 0 -0.086707275669269182 0.049908642651155542 0 -0.081818850965788142 0.055238295402956307 0 -0.081818850965788142 0.055238295402956307 0 -0.076524839145482512 0.060394734624827362 0 -0.077896340682555187 0.050949615115596543 0 -0.087851637875022454 0.059069255740853588 0 -0.081818850965788142 0.055238295402956307 0 -0.076524839145482512 0.060394734624827362 0 -0.076524839145482512 0.060394734624827362 0 -0.077896340682555187 0.050949615115596543 0 -0.069328576095109715 0.053744354209428961 0 -0.065455038900646412 0.063135680861219914 0 -0.076524839145482512 0.060394734624827362 0 -0.069328576095109715 0.053744354209428961 0 -0.077896340682555187 0.050949615115596543 0 -0.069328576095109715 0.053744354209428961 0 -0.071506875338484571 0.042895824445247768 0 -0.069328576095109715 0.053744354209428961 0 -0.071506875338484571 0.042895824445247768 0 -0.059557339835071388 0.053011753697425897 0 -0.065455038900646412 0.063135680861219914 0 -0.069328576095109715 0.053744354209428961 0 -0.059557339835071388 0.053011753697425897 0 -0.076164181077954182 0.032009494226678391 0 -0.071506875338484571 0.042895824445247768 0 -0.062761783130148519 0.02349217349963555 0 -0.071506875338484571 0.042895824445247768 0 -0.062761783130148519 0.02349217349963555 0 -0.059557339835071388 0.053011753697425897 0 -0.081629424010395357 0.041419166804349421 0 -0.076164181077954182 0.032009494226678391 0 -0.071506875338484571 0.042895824445247768 0 -0.081629424010395357 0.041419166804349421 0 -0.077896340682555187 0.050949615115596543 0 -0.071506875338484571 0.042895824445247768 0 -0.076164181077954182 0.032009494226678391 0 -0.062761783130148519 0.02349217349963555 0 -0.078304733749917463 0.018406078267593839 0 -0.087647185425064736 0.031842659612238623 0 -0.076164181077954182 0.032009494226678391 0 -0.078304733749917463 0.018406078267593839 0 -0.098111174817663571 0.029299933210101211 0 -0.087647185425064736 0.031842659612238623 0 -0.093270919285344131 0.021002023320940321 0 -0.087647185425064736 0.031842659612238623 0 -0.078304733749917463 0.018406078267593839 0 -0.093270919285344131 0.021002023320940321 0 -0.099902477996615974 0.0097047614334804834 0 -0.093270919285344131 0.021002023320940321 0 -0.087524390624848222 0.006688577221896419 0 -0.078304733749917463 0.018406078267593839 0 -0.093270919285344131 0.021002023320940321 0 -0.087524390624848222 0.006688577221896419 0 -0.065966226425225663 -0.0060274066981548767 0 -0.062761783130148519 0.02349217349963555 0 -0.078304733749917463 0.018406078267593839 0 -0.065966226425225663 -0.0060274066981548767 0 -0.078304733749917463 0.018406078267593839 0 -0.087524390624848222 0.006688577221896419 0 -0.065966226425225663 -0.0060274066981548767 0 -0.062761783130148519 0.02349217349963555 0 -0.065966226425225663 -0.0060274066981548767 0 -0.062761783130148519 0.02349217349963555 0 -0.041285176168578859 0.002941795093874656 0 -0.062761783130148519 0.02349217349963555 0 -0.036272784281526353 0.030700192342145501 0 -0.041285176168578859 0.002941795093874656 0 -0.036272784281526353 0.030700192342145501 0 -0.041285176168578859 0.002941795093874656 0 -0.01693898921702304 0.0117618500821222 0 -0.048521472395479701 0.069705355416953899 0 -0.048543751051203898 0.057697742817346243 0 -0.059557339835071388 0.053011753697425897 0 -0.048543751051203898 0.057697742817346243 0 -0.059557339835071388 0.053011753697425897 0 -0.04189961413571635 0.0481337511233643 0 -0.062761783130148519 0.02349217349963555 0 -0.059557339835071388 0.053011753697425897 0 -0.062761783130148519 0.02349217349963555 0 -0.036272784281526353 0.030700192342145501 0 -0.04189961413571635 0.0481337511233643 0 -0.062761783130148519 0.02349217349963555 0 -0.059557339835071388 0.053011753697425897 0 -0.04189961413571635 0.0481337511233643 0 -0.036272784281526353 0.030700192342145501 0 -0.04189961413571635 0.0481337511233643 0 -0.022255981323007819 0.049811798938199467 0 -0.042000822527735973 0.064880087355207783 0 -0.048543751051203898 0.057697742817346243 0 -0.04189961413571635 0.0481337511233643 0 -0.02897814582929455 0.062873885781940531 0 -0.042000822527735973 0.064880087355207783 0 -0.04189961413571635 0.0481337511233643 0 -0.02897814582929455 0.062873885781940531 0 -0.022255981323007819 0.049811798938199467 0 -0.01123722517146284 0.061714947321965113 0 -0.02897814582929455 0.062873885781940531 0 -0.04189961413571635 0.0481337511233643 0 -0.022255981323007819 0.049811798938199467 0 -0.036272784281526353 0.030700192342145501 0 -0.022255981323007819 0.049811798938199467 0 -0.01438021634244922 0.03170234610626791 0 -0.01438021634244922 0.03170234610626791 0 0.0022615025708572051 0.02103125876278546 0 0.0031430691038015031 0.043008717564808917 0 -0.022255981323007819 0.049811798938199467 0 -0.01438021634244922 0.03170234610626791 0 0.0031430691038015031 0.043008717564808917 0 -0.022255981323007819 0.049811798938199467 0 -0.01123722517146284 0.061714947321965113 0 0.0031430691038015031 0.043008717564808917 0 -0.01123722517146284 0.061714947321965113 0 0.0031430691038015031 0.043008717564808917 0 0.0078113760670387236 0.068869370431613411 0 -0.018090432812363919 -0.0051789454257338127 0 -0.041285176168578859 0.002941795093874656 0 -0.01693898921702304 0.0117618500821222 0 -0.036272784281526353 0.030700192342145501 0 -0.01693898921702304 0.0117618500821222 0 -0.036272784281526353 0.030700192342145501 0 -0.01438021634244922 0.03170234610626791 0 -0.01693898921702304 0.0117618500821222 0 -0.01438021634244922 0.03170234610626791 0 -0.01693898921702304 0.0117618500821222 0 0.0022615025708572051 0.02103125876278546 0 -0.01693898921702304 0.0117618500821222 0 0.002394805847480138 -0.0071764921779012506 0 -0.01693898921702304 0.0117618500821222 0 0.0022615025708572051 0.02103125876278546 0 0.002394805847480138 -0.0071764921779012506 0 0.0022615025708572051 0.02103125876278546 0 0.01988593924933146 0.01021281285273932 0 0.002394805847480138 -0.0071764921779012506 0 0.01988593924933146 0.01021281285273932 0 0.018044735406519189 -0.0027914786915071068 0 0.002394805847480138 -0.0071764921779012506 0 0.01988593924933146 0.01021281285273932 0 0.002394805847480138 -0.0071764921779012506 0 0.0022615025708572051 0.02103125876278546 0 0.01988593924933146 0.01021281285273932 0 0.01967507988536589 0.033248318378640847 0 0.01988593924933146 0.01021281285273932 0 0.037377072651182792 0.027602117883379889 0 0.01988593924933146 0.01021281285273932 0 0.01967507988536589 0.033248318378640847 0 0.037377072651182792 0.027602117883379889 0 0.01988593924933146 0.01021281285273932 0 0.035622497167505339 0.0063925700628825917 0 0.018044735406519189 -0.0027914786915071068 0 0.01988593924933146 0.01021281285273932 0 0.035622497167505339 0.0063925700628825917 0 0.037377072651182792 0.027602117883379889 0 0.0031430691038015031 0.043008717564808917 0 0.019783223174817739 0.050872415177661792 0 0.0078113760670387236 0.068869370431613411 0 0.0031430691038015031 0.043008717564808917 0 0.0078113760670387236 0.068869370431613411 0 0.0031430691038015031 0.043008717564808917 0 0.01967507988536589 0.033248318378640847 0 0.019783223174817739 0.050872415177661792 0 0.0022615025708572051 0.02103125876278546 0 0.0031430691038015031 0.043008717564808917 0 0.01967507988536589 0.033248318378640847 0 0.01967507988536589 0.033248318378640847 0 0.019783223174817739 0.050872415177661792 0 0.035662389103733989 0.047481221614176811 0 0.01967507988536589 0.033248318378640847 0 0.035662389103733989 0.047481221614176811 0 0.037377072651182792 0.027602117883379889 0 0.019783223174817739 0.050872415177661792 0 0.035662389103733989 0.047481221614176811 0 0.032141493454138102 0.060275729162332752 0 0.019783223174817739 0.050872415177661792 0 0.021142096610139102 0.064673842397447556 0 0.0078113760670387236 0.068869370431613411 0 0.019783223174817739 0.050872415177661792 0 0.032141493454138102 0.060275729162332752 0 0.021142096610139102 0.064673842397447556 0 0.035662389103733989 0.047481221614176811 0 0.032141493454138102 0.060275729162332752 0 0.049290572992936238 0.066355209737614357 0 0.035662389103733989 0.047481221614176811 0 0.054868206053034503 0.044991422914020113 0 0.049290572992936238 0.066355209737614357 0 0.054868206053034503 0.044991422914020113 0 0.037377072651182792 0.027602117883379889 0 0.035662389103733989 0.047481221614176811 0 0.054868206053034503 0.044991422914020113 0 0.037377072651182792 0.027602117883379889 0 0.054868206053034503 0.044991422914020113 0 0.037377072651182792 0.027602117883379889 0 0.059466454908930037 0.027378932586910581 0 0.054868206053034503 0.044991422914020113 0 0.059466454908930037 0.027378932586910581 0 0.054868206053034503 0.044991422914020113 0 0.049290572992936238 0.066355209737614357 0 0.054868206053034503 0.044991422914020113 0 0.067806688972275458 0.057854581689803772 0 0.049290572992936238 0.066355209737614357 0 0.054868206053034503 0.044991422914020113 0 0.067806688972275458 0.057854581689803772 0 0.035622497167505339 0.0063925700628825917 0 0.048661329883321183 0.016868832195515299 0 0.04884534130661923 0.0054823796607835363 0 0.035622497167505339 0.0063925700628825917 0 0.04884534130661923 0.0054823796607835363 0 0.045210290485040869 -0.0034719151203993228 0 0.035622497167505339 0.0063925700628825917 0 0.037377072651182792 0.027602117883379889 0 0.048661329883321183 0.016868832195515299 0 0.037377072651182792 0.027602117883379889 0 0.048661329883321183 0.016868832195515299 0 0.059466454908930037 0.027378932586910581 0 0.048661329883321183 0.016868832195515299 0 0.059466454908930037 0.027378932586910581 0 0.059551554903704583 0.012329945274186901 0 0.048661329883321183 0.016868832195515299 0 0.059551554903704583 0.012329945274186901 0 0.04884534130661923 0.0054823796607835363 0 0.04884534130661923 0.0054823796607835363 0 0.058196269712748661 -0.0010094984802769141 0 0.045210290485040869 -0.0034719151203993228 0 0.059551554903704583 0.012329945274186901 0 0.04884534130661923 0.0054823796607835363 0 0.058196269712748661 -0.0010094984802769141 0 0.059551554903704583 0.012329945274186901 0 0.070381517258247442 0.0054324954822656396 0 0.058196269712748661 -0.0010094984802769141 0 0.059551554903704583 0.012329945274186901 0 0.070381517258247442 0.0054324954822656396 0 0.071076364355982968 0.019572888861291889 0 0.070381517258247442 0.0054324954822656396 0 0.083131704911828669 0.010948624559543209 0 0.071076364355982968 0.019572888861291889 0 0.083131704911828669 0.010948624559543209 0 0.096167504599054904 0.0042442054759202954 0 0.09879577097810871 0.02017555683513389 0 0.070381517258247442 0.0054324954822656396 0 0.083131704911828669 0.010948624559543209 0 0.081717153665888317 -0.0025063239881197622 0 0.083131704911828669 0.010948624559543209 0 0.096167504599054904 0.0042442054759202954 0 0.081717153665888317 -0.0025063239881197622 0 0.083131704911828669 0.010948624559543209 0 0.084020254894405358 0.02481244236443322 0 0.09879577097810871 0.02017555683513389 0 0.084020254894405358 0.02481244236443322 0 0.089449236229465365 0.03685286092118592 0 0.09879577097810871 0.02017555683513389 0 0.083131704911828669 0.010948624559543209 0 0.084020254894405358 0.02481244236443322 0 0.071076364355982968 0.019572888861291889 0 0.084020254894405358 0.02481244236443322 0 0.071076364355982968 0.019572888861291889 0 0.073196751006103261 0.040000434485980937 0 0.059466454908930037 0.027378932586910581 0 0.071076364355982968 0.019572888861291889 0 0.073196751006103261 0.040000434485980937 0 0.059466454908930037 0.027378932586910581 0 0.059551554903704583 0.012329945274186901 0 0.071076364355982968 0.019572888861291889 0 0.054868206053034503 0.044991422914020113 0 0.059466454908930037 0.027378932586910581 0 0.073196751006103261 0.040000434485980937 0 0.073196751006103261 0.040000434485980937 0 0.067806688972275458 0.057854581689803772 0 0.092977810154944648 0.053070117425326267 0 0.054868206053034503 0.044991422914020113 0 0.073196751006103261 0.040000434485980937 0 0.067806688972275458 0.057854581689803772 0 0.092977810154944648 0.053070117425326267 0 0.080745171891517087 0.070717740465586792 0 0.067806688972275458 0.057854581689803772 0 0.092977810154944648 0.053070117425326267 0 0.080745171891517087 0.070717740465586792 0 0.084020254894405358 0.02481244236443322 0 0.073196751006103261 0.040000434485980937 0 0.089449236229465365 0.03685286092118592 0 0.073196751006103261 0.040000434485980937 0 0.092977810154944648 0.053070117425326267 0 0.089449236229465365 0.03685286092118592 0 0.092977810154944648 0.053070117425326267 0 0.10521044841837041 0.035422494385064417 0 0.092977810154944648 0.053070117425326267 0 0.089449236229465365 0.03685286092118592 0 0.10521044841837041 0.035422494385064417 0 0.092977810154944648 0.053070117425326267 0 0.1133392402374467 0.053204142399891047 0 0.1035655079248483 0.069632380985197889 0 0.092977810154944648 0.053070117425326267 0 0.10521044841837041 0.035422494385064417 0 0.1133392402374467 0.053204142399891047 0 0.1133392402374467 0.053204142399891047 0 0.1220245952479405 0.07004619687739172 0 0.13318341665519781 0.054736537254868822 0 0.1133392402374467 0.053204142399891047 0 0.12506256882025399 0.035699134337412737 0 0.13318341665519781 0.054736537254868822 0 0.10521044841837041 0.035422494385064417 0 0.1133392402374467 0.053204142399891047 0 0.12506256882025399 0.035699134337412737 0 0.10521044841837041 0.035422494385064417 0 0.11744308668179609 0.017774871344802521 0 0.12506256882025399 0.035699134337412737 0 0.10521044841837041 0.035422494385064417 0 0.11744308668179609 0.017774871344802521 0 0.10847276501169199 0.0092252325767439008 0 0.12681727907172599 0.0028609529651058472 0 0.11158832231026521 -0.002538519333972472 0 0.11744308668179609 0.017774871344802521 0 0.10847276501169199 0.0092252325767439008 0 0.12681727907172599 0.0028609529651058472 0 0.10847276501169199 0.0092252325767439008 0 0.096167504599054904 0.0042442054759202954 0 0.09879577097810871 0.02017555683513389 0 0.10847276501169199 0.0092252325767439008 0 0.096167504599054904 0.0042442054759202954 0 0.11158832231026521 -0.002538519333972472 0 0.10521044841837041 0.035422494385064417 0 0.11744308668179609 0.017774871344802521 0 0.09879577097810871 0.02017555683513389 0 0.089449236229465365 0.03685286092118592 0 0.10521044841837041 0.035422494385064417 0 0.09879577097810871 0.02017555683513389 0 0.11744308668179609 0.017774871344802521 0 0.10847276501169199 0.0092252325767439008 0 0.09879577097810871 0.02017555683513389 0 0.10882650996042049 0.098635597023528671 0 0.099321881767187231 0.10979448526446239 0 0.11057203073837581 0.10974959828000851 0 0.10882650996042049 0.098635597023528671 0 0.099321881767187231 0.10979448526446239 0 0.093532106097527157 0.097201512098380446 0 0.099321881767187231 0.10979448526446239 0 0.10718004060487731 0.1186919078288297 0 0.094925170845575335 0.12812185349131111 0 0.099321881767187231 0.10979448526446239 0 0.10718004060487731 0.1186919078288297 0 0.11057203073837581 0.10974959828000851 0 0.10718004060487731 0.1186919078288297 0 0.11057203073837581 0.10974959828000851 0 0.11923934643535521 0.1171320194813406 0 0.11923934643535521 0.1171320194813406 0 0.11184177323789279 0.12866158262702601 0 0.12877089149896251 0.12628235461406201 0 0.11057203073837581 0.10974959828000851 0 0.11923934643535521 0.1171320194813406 0 0.1204523462490521 0.10350528248164099 0 0.10718004060487731 0.1186919078288297 0 0.11923934643535521 0.1171320194813406 0 0.11184177323789279 0.12866158262702601 0 0.11923934643535521 0.1171320194813406 0 0.1204523462490521 0.10350528248164099 0 0.13278919984088661 0.11230677671938701 0 0.10882650996042049 0.098635597023528671 0 0.1204523462490521 0.10350528248164099 0 0.1175203890912727 0.086079419998433368 0 0.1204523462490521 0.10350528248164099 0 0.1175203890912727 0.086079419998433368 0 0.13376660142800201 0.097128283387147629 0 0.10882650996042049 0.098635597023528671 0 0.11057203073837581 0.10974959828000851 0 0.1204523462490521 0.10350528248164099 0 0.1175203890912727 0.086079419998433368 0 0.1220245952479405 0.07004619687739172 0 0.1035655079248483 0.069632380985197889 0 0.1133392402374467 0.053204142399891047 0 0.1220245952479405 0.07004619687739172 0 0.1035655079248483 0.069632380985197889 0 0.1175203890912727 0.086079419998433368 0 0.1035655079248483 0.069632380985197889 0 0.094785840925968687 0.084676668744557898 0 0.10882650996042049 0.098635597023528671 0 0.1175203890912727 0.086079419998433368 0 0.094785840925968687 0.084676668744557898 0 0.10882650996042049 0.098635597023528671 0 0.094785840925968687 0.084676668744557898 0 0.10882650996042049 0.098635597023528671 0 0.094785840925968687 0.084676668744557898 0 0.093532106097527157 0.097201512098380446 0 0.094785840925968687 0.084676668744557898 0 0.083309168386930019 0.090214104788044758 0 0.093532106097527157 0.097201512098380446 0 0.094785840925968687 0.084676668744557898 0 0.083309168386930019 0.090214104788044758 0 0.080745171891517087 0.070717740465586792 0 0.092977810154944648 0.053070117425326267 0 0.1035655079248483 0.069632380985197889 0 0.080745171891517087 0.070717740465586792 0 0.1035655079248483 0.069632380985197889 0 0.094785840925968687 0.084676668744557898 0 0.080745171891517087 0.070717740465586792 0 0.094785840925968687 0.084676668744557898 0 0.080745171891517087 0.070717740465586792 0 0.067806688972275458 0.057854581689803772 0 0.080745171891517087 0.070717740465586792 0 0.06101355018332804 0.07564509050647375 0 0.067806688972275458 0.057854581689803772 0 0.080745171891517087 0.070717740465586792 0 0.080745171891517087 0.070717740465586792 0 0.063512377127071362 0.095578924078155048 0 0.083309168386930019 0.090214104788044758 0 0.080745171891517087 0.070717740465586792 0 0.063512377127071362 0.095578924078155048 0 0.080745171891517087 0.070717740465586792 0 0.063512377127071362 0.095578924078155048 0 0.06101355018332804 0.07564509050647375 0 0.083309168386930019 0.090214104788044758 0 0.063512377127071362 0.095578924078155048 0 0.081417129447129324 0.1026867046713085 0 0.063512377127071362 0.095578924078155048 0 0.081417129447129324 0.1026867046713085 0 0.063512377127071362 0.095578924078155048 0 0.081417129447129324 0.1026867046713085 0 0.067817743154455989 0.1135840018968045 0 0.099321881767187231 0.10979448526446239 0 0.081417129447129324 0.1026867046713085 0 0.093532106097527157 0.097201512098380446 0 0.099321881767187231 0.10979448526446239 0 0.081417129447129324 0.1026867046713085 0 0.083309168386930019 0.090214104788044758 0 0.081417129447129324 0.1026867046713085 0 0.093532106097527157 0.097201512098380446 0 0.099321881767187231 0.10979448526446239 0 0.081417129447129324 0.1026867046713085 0 0.08262403040743542 0.1174427642681065 0 0.099321881767187231 0.10979448526446239 0 0.08262403040743542 0.1174427642681065 0 0.094925170845575335 0.12812185349131111 0 0.067817743154455989 0.1135840018968045 0 0.056785074219297037 0.123962922715022 0 0.069638226822829233 0.13302677601664631 0 0.08262403040743542 0.1174427642681065 0 0.067817743154455989 0.1135840018968045 0 0.069638226822829233 0.13302677601664631 0 0.081417129447129324 0.1026867046713085 0 0.08262403040743542 0.1174427642681065 0 0.067817743154455989 0.1135840018968045 0 0.067817743154455989 0.1135840018968045 0 0.056785074219297037 0.123962922715022 0 0.051472524226887043 0.11294842204475181 0 0.056785074219297037 0.123962922715022 0 0.051472524226887043 0.11294842204475181 0 0.045358146108277778 0.122235841909611 0 0.063512377127071362 0.095578924078155048 0 0.067817743154455989 0.1135840018968045 0 0.051472524226887043 0.11294842204475181 0 0.063512377127071362 0.095578924078155048 0 0.04894346805059932 0.099918275759685315 0 0.043712939932840048 0.087718996561209156 0 0.063512377127071362 0.095578924078155048 0 0.051472524226887043 0.11294842204475181 0 0.04894346805059932 0.099918275759685315 0 0.063512377127071362 0.095578924078155048 0 0.051472524226887043 0.11294842204475181 0 0.038417021745327531 0.1080037420749501 0 0.043712939932840048 0.087718996561209156 0 0.028330160343379221 0.096092512071592709 0 0.051472524226887043 0.11294842204475181 0 0.04894346805059932 0.099918275759685315 0 0.038417021745327531 0.1080037420749501 0 0.04894346805059932 0.099918275759685315 0 0.038417021745327531 0.1080037420749501 0 0.043712939932840048 0.087718996561209156 0 0.038417021745327531 0.1080037420749501 0 0.043712939932840048 0.087718996561209156 0 0.038417021745327531 0.1080037420749501 0 0.028403759718925791 0.1183090902513565 0 0.03312110355781811 0.12828848758869171 0 0.038417021745327531 0.1080037420749501 0 0.03312110355781811 0.12828848758869171 0 0.038417021745327531 0.1080037420749501 0 0.045358146108277778 0.122235841909611 0 0.03312110355781811 0.12828848758869171 0 0.051472524226887043 0.11294842204475181 0 0.038417021745327531 0.1080037420749501 0 0.045358146108277778 0.122235841909611 0 0.06101355018332804 0.07564509050647375 0 0.049290572992936238 0.066355209737614357 0 0.043712939932840048 0.087718996561209156 0 0.067806688972275458 0.057854581689803772 0 0.06101355018332804 0.07564509050647375 0 0.049290572992936238 0.066355209737614357 0 0.063512377127071362 0.095578924078155048 0 0.06101355018332804 0.07564509050647375 0 0.043712939932840048 0.087718996561209156 0 0.063512377127071362 0.095578924078155048 0 0.043712939932840048 0.087718996561209156 0 0.043712939932840048 0.087718996561209156 0 0.034829185389063419 0.071995956884763276 0 0.02079066235970875 0.078619372239532512 0 0.043712939932840048 0.087718996561209156 0 0.02079066235970875 0.078619372239532512 0 0.032141493454138102 0.060275729162332752 0 0.049290572992936238 0.066355209737614357 0 0.034829185389063419 0.071995956884763276 0 0.049290572992936238 0.066355209737614357 0 0.043712939932840048 0.087718996561209156 0 0.049290572992936238 0.066355209737614357 0 0.043712939932840048 0.087718996561209156 0 0.034829185389063419 0.071995956884763276 0 0.032141493454138102 0.060275729162332752 0 0.034829185389063419 0.071995956884763276 0 0.021142096610139102 0.064673842397447556 0 0.034829185389063419 0.071995956884763276 0 0.021142096610139102 0.064673842397447556 0 0.02079066235970875 0.078619372239532512 0 0.021142096610139102 0.064673842397447556 0 0.02079066235970875 0.078619372239532512 0 0.0078113760670387236 0.068869370431613411 0 0.043712939932840048 0.087718996561209156 0 0.02079066235970875 0.078619372239532512 0 0.028330160343379221 0.096092512071592709 0 0.02079066235970875 0.078619372239532512 0 0.028330160343379221 0.096092512071592709 0 0.013121597576430799 0.098285986815611973 0 -0.0022168413230157229 0.085736250976024914 0 0.0078113760670387236 0.068869370431613411 0 0.013121597576430799 0.098285986815611973 0 0.02079066235970875 0.078619372239532512 0 0.0078113760670387236 0.068869370431613411 0 0.013121597576430799 0.098285986815611973 0 0.0078113760670387236 0.068869370431613411 0 0.013121597576430799 0.098285986815611973 0 0.021142096610139102 0.064673842397447556 0 0.0078113760670387236 0.068869370431613411 0 0.013121597576430799 0.098285986815611973 0 0.018955942675363529 0.12769885014017149 0 0.018915766464259819 0.12208814763948179 0 0.025608580102588829 0.10783446266666021 0 0.013121597576430799 0.098285986815611973 0 0.018915766464259819 0.12208814763948179 0 0.013121597576430799 0.098285986815611973 0 0.018955942675363529 0.12769885014017149 0 0.018915766464259819 0.12208814763948179 0 0.018955942675363529 0.12769885014017149 0 0.028403759718925791 0.1183090902513565 0 0.025756287217072099 0.1254558848223972 0 0.03312110355781811 0.12828848758869171 0 0.018915766464259819 0.12208814763948179 0 0.028403759718925791 0.1183090902513565 0 0.025756287217072099 0.1254558848223972 0 0.038417021745327531 0.1080037420749501 0 0.028403759718925791 0.1183090902513565 0 0.025608580102588829 0.10783446266666021 0 0.018915766464259819 0.12208814763948179 0 0.028403759718925791 0.1183090902513565 0 0.025608580102588829 0.10783446266666021 0 0.038417021745327531 0.1080037420749501 0 0.025608580102588829 0.10783446266666021 0 0.028330160343379221 0.096092512071592709 0 0.025608580102588829 0.10783446266666021 0 0.028330160343379221 0.096092512071592709 0 0.013121597576430799 0.098285986815611973 0 -0.0093267163156350585 0.10220622611456499 0 -0.0022168413230157229 0.085736250976024914 0 0.013121597576430799 0.098285986815611973 0 -0.0093267163156350585 0.10220622611456499 0 0.013121597576430799 0.098285986815611973 0 0.0088418889268726004 0.1125261115153213 0 -0.0015382865690094869 0.1195819360983075 0 0.0088418889268726004 0.1125261115153213 0 0.0068357907514690393 0.1194307534492897 0 0.013121597576430799 0.098285986815611973 0 0.0088418889268726004 0.1125261115153213 0 0.018955942675363529 0.12769885014017149 0 0.01159030187937234 0.123800118292041 0 0.0068357907514690393 0.1194307534492897 0 0.0093864348306887096 0.12963523465885829 0 0.0088418889268726004 0.1125261115153213 0 0.01159030187937234 0.123800118292041 0 0.0068357907514690393 0.1194307534492897 0 0.0088418889268726004 0.1125261115153213 0 0.01159030187937234 0.123800118292041 0 0.018955942675363529 0.12769885014017149 0 -0.0015382865690094869 0.1195819360983075 0 0.0068357907514690393 0.1194307534492897 0 0.0028297340199113529 0.12737786763030409 0 0.0068357907514690393 0.1194307534492897 0 0.0028297340199113529 0.12737786763030409 0 0.0093864348306887096 0.12963523465885829 0 0.0028297340199113529 0.12737786763030409 0 0.0012022958327204049 0.13426380270999949 0 0.0063902301850321547 0.13414384741273511 0 0.0028297340199113529 0.12737786763030409 0 0.0063902301850321547 0.13414384741273511 0 0.0093864348306887096 0.12963523465885829 0 0.000228448927285114 0.14012311706009631 0 0.0012022958327204049 0.13426380270999949 0 0.0046739851119457828 0.13844047711548191 0 0.0012022958327204049 0.13426380270999949 0 0.0063902301850321547 0.13414384741273511 0 0.0046739851119457828 0.13844047711548191 0 0.0063902301850321547 0.13414384741273511 0 0.0046739851119457828 0.13844047711548191 0 0.0087417741184536643 0.13987837293796551 0 0.0063902301850321547 0.13414384741273511 0 0.0087417741184536643 0.13987837293796551 0 0.01188448664637911 0.13630481734698929 0 0.0087417741184536643 0.13987837293796551 0 0.01188448664637911 0.13630481734698929 0 0.01238480926519909 0.14086949425419931 0 0.0063902301850321547 0.13414384741273511 0 0.01188448664637911 0.13630481734698929 0 0.0093864348306887096 0.12963523465885829 0 0.01538181754864224 0.13462442671806851 0 0.01188448664637911 0.13630481734698929 0 0.01363814740762942 0.13063558522106289 0 0.01538181754864224 0.13462442671806851 0 0.01188448664637911 0.13630481734698929 0 0.014424460637306021 0.13832412831929569 0 0.01188448664637911 0.13630481734698929 0 0.014424460637306021 0.13832412831929569 0 0.01238480926519909 0.14086949425419931 0 0.014424460637306021 0.13832412831929569 0 0.01238480926519909 0.14086949425419931 0 0.015363480448823189 0.14129096320990631 0 0.01159030187937234 0.123800118292041 0 0.0093864348306887096 0.12963523465885829 0 0.01363814740762942 0.13063558522106289 0 0.01188448664637911 0.13630481734698929 0 0.0093864348306887096 0.12963523465885829 0 0.01363814740762942 0.13063558522106289 0 0.01159030187937234 0.123800118292041 0 0.01363814740762942 0.13063558522106289 0 0.018955942675363529 0.12769885014017149 0 0.018915766464259819 0.12208814763948179 0 0.018955942675363529 0.12769885014017149 0 0.022387711081268351 0.13069146168119281 0 0.025814451866404291 0.1323851931955756 0 0.019064338777337181 0.1428366210673169 0 0.044351282800083193 0.13793169854198151 0 0.018915766464259819 0.12208814763948179 0 0.022387711081268351 0.13069146168119281 0 0.025756287217072099 0.1254558848223972 0 0.01538181754864224 0.13462442671806851 0 0.01363814740762942 0.13063558522106289 0 0.018955942675363529 0.12769885014017149 0 0.022387711081268351 0.13069146168119281 0 0.025814451866404291 0.1323851931955756 0 0.019064338777337181 0.1428366210673169 0 0.01538181754864224 0.13462442671806851 0 0.018955942675363529 0.12769885014017149 0 0.01710770927748647 0.13853094006731531 0 0.018955942675363529 0.12769885014017149 0 0.01710770927748647 0.13853094006731531 0 0.019064338777337181 0.1428366210673169 0 0.018955942675363529 0.12769885014017149 0 0.019064338777337181 0.1428366210673169 0 0.018955942675363529 0.12769885014017149 0 0.022387711081268351 0.13069146168119281 0 0.019064338777337181 0.1428366210673169 0 0.01538181754864224 0.13462442671806851 0 0.014424460637306021 0.13832412831929569 0 0.01710770927748647 0.13853094006731531 0 0.014424460637306021 0.13832412831929569 0 0.01710770927748647 0.13853094006731531 0 0.015363480448823189 0.14129096320990631 0 0.01710770927748647 0.13853094006731531 0 0.017202595513394939 0.14154074390788901 0 0.015363480448823189 0.14129096320990631 0 0.025756287217072099 0.1254558848223972 0 0.025814451866404291 0.1323851931955756 0 0.03312110355781811 0.12828848758869171 0 0.022387711081268351 0.13069146168119281 0 0.025756287217072099 0.1254558848223972 0 0.025814451866404291 0.1323851931955756 0 0.019064338777337181 0.1428366210673169 0 0.01923932509198778 0.16727387202292701 0 0.034840635627581551 0.15270641195697809 0 0.019064338777337181 0.1428366210673169 0 0.01923932509198778 0.16727387202292701 0 0.01710770927748647 0.13853094006731531 0 0.019064338777337181 0.1428366210673169 0 0.017202595513394939 0.14154074390788901 0 0.019064338777337181 0.1428366210673169 0 0.017214352546369539 0.14319546392027949 0 0.017202595513394939 0.14154074390788901 0 0.019064338777337181 0.1428366210673169 0 0.017214352546369539 0.14319546392027949 0 0.017214352546369539 0.14319546392027949 0 0.017202595513394939 0.14154074390788901 0 0.015363480448823189 0.14129096320990631 0 0.019064338777337181 0.1428366210673169 0 0.010573304973877311 0.14810099588445341 0 0.0097219217107780143 0.1605441304936322 0 0.019064338777337181 0.1428366210673169 0 0.017214352546369539 0.14319546392027949 0 0.010573304973877311 0.14810099588445341 0 0.017214352546369539 0.14319546392027949 0 0.015363480448823189 0.14129096320990631 0 0.01311844662929992 0.14341517628664141 0 0.01238480926519909 0.14086949425419931 0 0.015363480448823189 0.14129096320990631 0 0.01311844662929992 0.14341517628664141 0 0.01238480926519909 0.14086949425419931 0 0.01311844662929992 0.14341517628664141 0 0.010056285912230499 0.14361896416436881 0 0.017214352546369539 0.14319546392027949 0 0.01311844662929992 0.14341517628664141 0 0.010573304973877311 0.14810099588445341 0 0.010573304973877311 0.14810099588445341 0 0.010056285912230499 0.14361896416436881 0 0.0052711451322874966 0.14430649706712931 0 0.01311844662929992 0.14341517628664141 0 0.010573304973877311 0.14810099588445341 0 0.010056285912230499 0.14361896416436881 0 0.0087417741184536643 0.13987837293796551 0 0.010056285912230499 0.14361896416436881 0 0.0052711451322874966 0.14430649706712931 0 0.0087417741184536643 0.13987837293796551 0 0.01238480926519909 0.14086949425419931 0 0.010056285912230499 0.14361896416436881 0 0.010573304973877311 0.14810099588445341 0 0.0052711451322874966 0.14430649706712931 0 0.002037105597096525 0.15151695060409001 0 0.0046739851119457828 0.13844047711548191 0 0.0087417741184536643 0.13987837293796551 0 0.0052711451322874966 0.14430649706712931 0 -0.001932496299644968 0.1459540675981712 0 0.0052711451322874966 0.14430649706712931 0 0.002037105597096525 0.15151695060409001 0 -0.001932496299644968 0.1459540675981712 0 0.000228448927285114 0.14012311706009631 0 0.0052711451322874966 0.14430649706712931 0 0.000228448927285114 0.14012311706009631 0 0.0046739851119457828 0.13844047711548191 0 0.0052711451322874966 0.14430649706712931 0 0.010573304973877311 0.14810099588445341 0 0.002037105597096525 0.15151695060409001 0 0.0097219217107780143 0.1605441304936322 0 -0.001399927819642065 0.15853034608675531 0 9.8439874396488518e-06 0.16909653965514321 0 0.0097219217107780143 0.1605441304936322 0 9.8439874396488518e-06 0.16909653965514321 0 0.0097219217107780143 0.1605441304936322 0 0.01923932509198778 0.16727387202292701 0 -0.001399927819642065 0.15853034608675531 0 0.002037105597096525 0.15151695060409001 0 0.0097219217107780143 0.1605441304936322 0 0.0075192663374202447 0.1824792222503463 0 0.01923932509198778 0.16727387202292701 0 0.019414311406637581 0.19171112297853721 0 9.8439874396488518e-06 0.16909653965514321 0 0.0075192663374202447 0.1824792222503463 0 0.01923932509198778 0.16727387202292701 0 -0.0058150648891281392 0.18464487058732859 0 9.8439874396488518e-06 0.16909653965514321 0 0.0075192663374202447 0.1824792222503463 0 0.01923932509198778 0.16727387202292701 0 0.019414311406637581 0.19171112297853721 0 0.01923932509198778 0.16727387202292701 0 0.041253151311174942 0.18351428487242299 0 0.019414311406637581 0.19171112297853721 0 0.019064338777337181 0.1428366210673169 0 0.0097219217107780143 0.1605441304936322 0 0.01923932509198778 0.16727387202292701 0 0.01923932509198778 0.16727387202292701 0 0.045192968381937218 0.16506141320240761 0 0.034840635627581551 0.15270641195697809 0 0.01923932509198778 0.16727387202292701 0 0.045192968381937218 0.16506141320240761 0 0.041253151311174942 0.18351428487242299 0 0.041253151311174942 0.18351428487242299 0 0.056495320393279057 0.1758938039325593 0 0.06399941055398814 0.19765529411200519 0 0.045192968381937218 0.16506141320240761 0 0.041253151311174942 0.18351428487242299 0 0.056495320393279057 0.1758938039325593 0 0.045192968381937218 0.16506141320240761 0 0.058418108920392182 0.16045602069262471 0 0.053913444208845418 0.15009958673064799 0 0.045192968381937218 0.16506141320240761 0 0.056495320393279057 0.1758938039325593 0 0.058418108920392182 0.16045602069262471 0 0.058418108920392182 0.16045602069262471 0 0.053913444208845418 0.15009958673064799 0 0.071039442700249214 0.1514151999732502 0 0.053913444208845418 0.15009958673064799 0 0.044351282800083193 0.13793169854198151 0 0.069638226822829233 0.13302677601664631 0 0.044351282800083193 0.13793169854198151 0 0.069638226822829233 0.13302677601664631 0 0.056785074219297037 0.123962922715022 0 0.045358146108277778 0.122235841909611 0 0.044351282800083193 0.13793169854198151 0 0.056785074219297037 0.123962922715022 0 0.044351282800083193 0.13793169854198151 0 0.069638226822829233 0.13302677601664631 0 0.025814451866404291 0.1323851931955756 0 0.044351282800083193 0.13793169854198151 0 0.03312110355781811 0.12828848758869171 0 0.045358146108277778 0.122235841909611 0 0.044351282800083193 0.13793169854198151 0 0.03312110355781811 0.12828848758869171 0 0.019064338777337181 0.1428366210673169 0 0.044351282800083193 0.13793169854198151 0 0.053913444208845418 0.15009958673064799 0 0.044351282800083193 0.13793169854198151 0 0.034840635627581551 0.15270641195697809 0 0.045192968381937218 0.16506141320240761 0 0.053913444208845418 0.15009958673064799 0 0.034840635627581551 0.15270641195697809 0 0.019064338777337181 0.1428366210673169 0 0.044351282800083193 0.13793169854198151 0 0.034840635627581551 0.15270641195697809 0 0.019733428038529611 0.23627651218177001 0 0.032395297456559217 0.24990448186487541 0 0.01992807415890703 0.26345930130890138 0 0.019733428038529611 0.23627651218177001 0 0.01992807415890703 0.26345930130890138 0 0.019733428038529611 0.23627651218177001 0 0.032900500049065431 0.23758744706011731 0 0.032395297456559217 0.24990448186487541 0 0.019733428038529611 0.23627651218177001 0 0.032900500049065431 0.23758744706011731 0 -0.0054403593235216562 0.23377016940133941 0 0.019733428038529611 0.23627651218177001 0 -0.0054403593235216562 0.23377016940133941 0 0.019733428038529611 0.23627651218177001 0 0.0051881906427589239 0.2429023142665572 0 0.019733428038529611 0.23627651218177001 0 0.0051881906427589239 0.2429023142665572 0 0.0108212759879371 0.25143582124693198 0 -0.004361582131907446 0.25012675423618741 0 0.0051881906427589239 0.2429023142665572 0 0.0108212759879371 0.25143582124693198 0 -0.0054403593235216562 0.23377016940133941 0 0.019733428038529611 0.23627651218177001 0 0.0022205822065663882 0.22338098429998751 0 0.0022205822065663882 0.22338098429998751 0 0.019589297721289551 0.2161483739341474 0 0.019733428038529611 0.23627651218177001 0 0.0022205822065663882 0.22338098429998751 0 0.019589297721289551 0.2161483739341474 0 0.019733428038529611 0.23627651218177001 0 0.019589297721289551 0.2161483739341474 0 0.034101449494264802 0.22244897456428839 0 0.019733428038529611 0.23627651218177001 0 0.019589297721289551 0.2161483739341474 0 0.019733428038529611 0.23627651218177001 0 0.034101449494264802 0.22244897456428839 0 0.032900500049065431 0.23758744706011731 0 0.019589297721289551 0.2161483739341474 0 0.019414311406637581 0.19171112297853721 0 0.041794354137638927 0.20690183402307669 0 0.019589297721289551 0.2161483739341474 0 0.041794354137638927 0.20690183402307669 0 0.019589297721289551 0.2161483739341474 0 0.019414311406637581 0.19171112297853721 0 -0.001618838316679704 0.21186515805952549 0 0.0022205822065663882 0.22338098429998751 0 0.019589297721289551 0.2161483739341474 0 -0.001618838316679704 0.21186515805952549 0 0.019589297721289551 0.2161483739341474 0 0.0047479160901643591 0.19966970600779571 0 0.0075192663374202447 0.1824792222503463 0 0.0047479160901643591 0.19966970600779571 0 0.019414311406637581 0.19171112297853721 0 0.019589297721289551 0.2161483739341474 0 0.0047479160901643591 0.19966970600779571 0 0.019414311406637581 0.19171112297853721 0 -0.0058150648891281392 0.18464487058732859 0 0.0075192663374202447 0.1824792222503463 0 0.0047479160901643591 0.19966970600779571 0 0.041253151311174942 0.18351428487242299 0 0.019414311406637581 0.19171112297853721 0 0.041794354137638927 0.20690183402307669 0 0.041253151311174942 0.18351428487242299 0 0.041794354137638927 0.20690183402307669 0 0.06399941055398814 0.19765529411200519 0 0.041794354137638927 0.20690183402307669 0 0.06399941055398814 0.19765529411200519 0 0.061093413050727782 0.21440081318481749 0 0.041794354137638927 0.20690183402307669 0 0.06399941055398814 0.19765529411200519 0 0.061093413050727782 0.21440081318481749 0 0.041794354137638927 0.20690183402307669 0 0.049967951794046297 0.22590254710105601 0 0.019589297721289551 0.2161483739341474 0 0.041794354137638927 0.20690183402307669 0 0.034101449494264802 0.22244897456428839 0 0.041794354137638927 0.20690183402307669 0 0.034101449494264802 0.22244897456428839 0 0.049967951794046297 0.22590254710105601 0 0.034101449494264802 0.22244897456428839 0 0.049967951794046297 0.22590254710105601 0 0.032900500049065431 0.23758744706011731 0 0.049967951794046297 0.22590254710105601 0 0.049298807743375681 0.24401567068345059 0 0.070152213389441304 0.23042254488525729 0 0.061093413050727782 0.21440081318481749 0 0.049967951794046297 0.22590254710105601 0 0.070152213389441304 0.23042254488525729 0 0.049298807743375681 0.24401567068345059 0 0.032900500049065431 0.23758744706011731 0 0.032395297456559217 0.24990448186487541 0 0.049967951794046297 0.22590254710105601 0 0.049298807743375681 0.24401567068345059 0 0.032900500049065431 0.23758744706011731 0 0.081494970558903312 0.2413152449973858 0 0.068539877812152941 0.25484826761588569 0 0.094153496178737847 0.25278652485753728 0 0.081494970558903312 0.2413152449973858 0 0.092408256837057293 0.22639029288367121 0 0.094153496178737847 0.25278652485753728 0 0.081494970558903312 0.2413152449973858 0 0.070152213389441304 0.23042254488525729 0 0.068539877812152941 0.25484826761588569 0 0.049298807743375681 0.24401567068345059 0 0.070152213389441304 0.23042254488525729 0 0.068539877812152941 0.25484826761588569 0 0.070152213389441304 0.23042254488525729 0 0.079553135378524209 0.21112184580269211 0 0.081494970558903312 0.2413152449973858 0 0.070152213389441304 0.23042254488525729 0 0.092408256837057293 0.22639029288367121 0 0.070152213389441304 0.23042254488525729 0 0.092408256837057293 0.22639029288367121 0 0.079553135378524209 0.21112184580269211 0 0.092408256837057293 0.22639029288367121 0 0.090685729118578778 0.2092827598877062 0 0.079553135378524209 0.21112184580269211 0 0.090685729118578778 0.2092827598877062 0 0.079553135378524209 0.21112184580269211 0 0.088954057367607559 0.19182114672012679 0 0.061093413050727782 0.21440081318481749 0 0.070152213389441304 0.23042254488525729 0 0.079553135378524209 0.21112184580269211 0 0.061093413050727782 0.21440081318481749 0 0.079553135378524209 0.21112184580269211 0 0.06399941055398814 0.19765529411200519 0 0.079553135378524209 0.21112184580269211 0 0.06399941055398814 0.19765529411200519 0 0.086204466970337151 0.18840875420093359 0 0.06399941055398814 0.19765529411200519 0 0.086204466970337151 0.18840875420093359 0 0.079553135378524209 0.21112184580269211 0 0.088954057367607559 0.19182114672012679 0 0.079553135378524209 0.21112184580269211 0 0.086204466970337151 0.18840875420093359 0 0.088954057367607559 0.19182114672012679 0 0.088954057367607559 0.19182114672012679 0 0.091738629482519291 0.1861042405989983 0 0.086204466970337151 0.18840875420093359 0 0.088954057367607559 0.19182114672012679 0 0.091738629482519291 0.1861042405989983 0 0.086204466970337151 0.18840875420093359 0 0.088954057367607559 0.19182114672012679 0 0.10188013338443321 0.1945805347119858 0 0.1223034951297057 0.2015047654836217 0 0.1018274668911264 0.2077977541443348 0 0.090685729118578778 0.2092827598877062 0 0.088954057367607559 0.19182114672012679 0 0.1018274668911264 0.2077977541443348 0 0.088954057367607559 0.19182114672012679 0 0.10188013338443321 0.1945805347119858 0 0.1018274668911264 0.2077977541443348 0 0.088954057367607559 0.19182114672012679 0 0.1018274668911264 0.2077977541443348 0 0.088954057367607559 0.19182114672012679 0 0.10188013338443321 0.1945805347119858 0 0.091738629482519291 0.1861042405989983 0 0.10188013338443321 0.1945805347119858 0 0.1223034951297057 0.2015047654836217 0 0.1143056367611561 0.17670697857169981 0 0.1223034951297057 0.2015047654836217 0 0.1018274668911264 0.2077977541443348 0 0.11470087641464451 0.22377436156854341 0 0.1223034951297057 0.2015047654836217 0 0.11470087641464451 0.22377436156854341 0 0.12985428442346111 0.22473904082679019 0 0.092408256837057293 0.22639029288367121 0 0.090685729118578778 0.2092827598877062 0 0.1018274668911264 0.2077977541443348 0 0.1018274668911264 0.2077977541443348 0 0.11470087641464451 0.22377436156854341 0 0.092408256837057293 0.22639029288367121 0 0.11470087641464451 0.22377436156854341 0 0.1077236677954151 0.23904346403323151 0 0.092408256837057293 0.22639029288367121 0 0.1018274668911264 0.2077977541443348 0 0.11470087641464451 0.22377436156854341 0 0.11470087641464451 0.22377436156854341 0 0.12757428593816261 0.239750968992752 0 0.11470087641464451 0.22377436156854341 0 0.1077236677954151 0.23904346403323151 0 0.12757428593816261 0.239750968992752 0 0.11470087641464451 0.22377436156854341 0 0.12757428593816261 0.239750968992752 0 0.12985428442346111 0.22473904082679019 0 0.1077236677954151 0.23904346403323151 0 0.12757428593816261 0.239750968992752 0 0.1197671145453226 0.2507247820991888 0 0.1077236677954151 0.23904346403323151 0 0.1197671145453226 0.2507247820991888 0 0.094153496178737847 0.25278652485753728 0 0.092408256837057293 0.22639029288367121 0 0.1077236677954151 0.23904346403323151 0 0.094153496178737847 0.25278652485753728 0 0.089241880289002096 0.14489141207420311 0 0.071039442700249214 0.1514151999732502 0 0.087740544640930687 0.16123122417456451 0 0.08262403040743542 0.1174427642681065 0 0.069638226822829233 0.13302677601664631 0 0.094925170845575335 0.12812185349131111 0 0.069638226822829233 0.13302677601664631 0 0.094925170845575335 0.12812185349131111 0 0.089241880289002096 0.14489141207420311 0 0.069638226822829233 0.13302677601664631 0 0.094925170845575335 0.12812185349131111 0 0.053913444208845418 0.15009958673064799 0 0.069638226822829233 0.13302677601664631 0 0.071039442700249214 0.1514151999732502 0 0.089241880289002096 0.14489141207420311 0 0.069638226822829233 0.13302677601664631 0 0.071039442700249214 0.1514151999732502 0 0.058418108920392182 0.16045602069262471 0 0.071039442700249214 0.1514151999732502 0 0.073612962798902823 0.17278200678333611 0 0.071039442700249214 0.1514151999732502 0 0.073612962798902823 0.17278200678333611 0 0.087740544640930687 0.16123122417456451 0 0.056495320393279057 0.1758938039325593 0 0.058418108920392182 0.16045602069262471 0 0.073612962798902823 0.17278200678333611 0 0.06399941055398814 0.19765529411200519 0 0.086204466970337151 0.18840875420093359 0 0.073612962798902823 0.17278200678333611 0 0.056495320393279057 0.1758938039325593 0 0.06399941055398814 0.19765529411200519 0 0.073612962798902823 0.17278200678333611 0 0.086204466970337151 0.18840875420093359 0 0.073612962798902823 0.17278200678333611 0 0.086204466970337151 0.18840875420093359 0 0.073612962798902823 0.17278200678333611 0 0.087615468279621078 0.1760345128920231 0 0.087615468279621078 0.1760345128920231 0 0.091738629482519291 0.1861042405989983 0 0.098780737505415703 0.17164633870228399 0 0.086204466970337151 0.18840875420093359 0 0.087615468279621078 0.1760345128920231 0 0.091738629482519291 0.1861042405989983 0 0.086204466970337151 0.18840875420093359 0 0.091738629482519291 0.1861042405989983 0 0.073612962798902823 0.17278200678333611 0 0.087615468279621078 0.1760345128920231 0 0.087740544640930687 0.16123122417456451 0 0.087615468279621078 0.1760345128920231 0 0.087740544640930687 0.16123122417456451 0 0.098780737505415703 0.17164633870228399 0 0.087740544640930687 0.16123122417456451 0 0.098780737505415703 0.17164633870228399 0 0.10582284552831139 0.15718843680556929 0 0.098780737505415703 0.17164633870228399 0 0.1143056367611561 0.17670697857169981 0 0.11439408025226031 0.1643128731168863 0 0.098780737505415703 0.17164633870228399 0 0.10582284552831139 0.15718843680556929 0 0.11439408025226031 0.1643128731168863 0 0.098780737505415703 0.17164633870228399 0 0.10582284552831139 0.15718843680556929 0 0.091738629482519291 0.1861042405989983 0 0.1143056367611561 0.17670697857169981 0 0.10188013338443321 0.1945805347119858 0 0.091738629482519291 0.1861042405989983 0 0.1143056367611561 0.17670697857169981 0 0.091738629482519291 0.1861042405989983 0 0.098780737505415703 0.17164633870228399 0 0.1143056367611561 0.17670697857169981 0 0.091738629482519291 0.1861042405989983 0 0.098780737505415703 0.17164633870228399 0 0.1223034951297057 0.2015047654836217 0 0.1143056367611561 0.17670697857169981 0 0.12984245568560021 0.18336402612102581 0 0.10582284552831139 0.15718843680556929 0 0.11439408025226031 0.1643128731168863 0 0.118827144549028 0.15045938834785799 0 0.1143056367611561 0.17670697857169981 0 0.11439408025226031 0.1643128731168863 0 0.1269873440417035 0.1621457976822499 0 0.11439408025226031 0.1643128731168863 0 0.118827144549028 0.15045938834785799 0 0.1269873440417035 0.1621457976822499 0 0.10582284552831139 0.15718843680556929 0 0.118827144549028 0.15045938834785799 0 0.1060715668831175 0.14085190817348309 0 0.118827144549028 0.15045938834785799 0 0.1060715668831175 0.14085190817348309 0 0.12165438094055341 0.1382202250837688 0 0.089241880289002096 0.14489141207420311 0 0.10582284552831139 0.15718843680556929 0 0.1060715668831175 0.14085190817348309 0 0.089241880289002096 0.14489141207420311 0 0.087740544640930687 0.16123122417456451 0 0.10582284552831139 0.15718843680556929 0 0.1060715668831175 0.14085190817348309 0 0.094925170845575335 0.12812185349131111 0 0.11184177323789279 0.12866158262702601 0 0.10718004060487731 0.1186919078288297 0 0.094925170845575335 0.12812185349131111 0 0.11184177323789279 0.12866158262702601 0 0.089241880289002096 0.14489141207420311 0 0.1060715668831175 0.14085190817348309 0 0.094925170845575335 0.12812185349131111 0 0.11184177323789279 0.12866158262702601 0 0.12165438094055341 0.1382202250837688 0 0.12877089149896251 0.12628235461406201 0 0.1060715668831175 0.14085190817348309 0 0.11184177323789279 0.12866158262702601 0 0.12165438094055341 0.1382202250837688 0 0.12877089149896251 0.12628235461406201 0 0.13720160688724839 0.13964518263404729 0 0.14559099576285081 0.1211645137464301 0 0.12165438094055341 0.1382202250837688 0 0.13720160688724839 0.13964518263404729 0 0.12165438094055341 0.1382202250837688 0 0.12877089149896251 0.12628235461406201 0 0.13720160688724839 0.13964518263404729 0 0.13720160688724839 0.13964518263404729 0 0.15632661280319129 0.13068902382275449 0 0.14559099576285081 0.1211645137464301 0 0.13720160688724839 0.13964518263404729 0 0.14559099576285081 0.1211645137464301 0 0.13720160688724839 0.13964518263404729 0 0.15632661280319129 0.13068902382275449 0 0.16429194695006341 0.14212810690262639 0 0.13720160688724839 0.13964518263404729 0 0.16429194695006341 0.14212810690262639 0 0.13720160688724839 0.13964518263404729 0 0.14941591407077959 0.14904867938194569 0 0.13673045112737631 0.1565089734740045 0 0.13720160688724839 0.13964518263404729 0 0.14941591407077959 0.14904867938194569 0 0.16429194695006341 0.14212810690262639 0 0.14941591407077959 0.14904867938194569 0 0.13673045112737631 0.1565089734740045 0 0.15943965131843141 0.15791245451710681 0 0.118827144549028 0.15045938834785799 0 0.13720160688724839 0.13964518263404729 0 0.1269873440417035 0.1621457976822499 0 0.13720160688724839 0.13964518263404729 0 0.1269873440417035 0.1621457976822499 0 0.13720160688724839 0.13964518263404729 0 0.1269873440417035 0.1621457976822499 0 0.13673045112737631 0.1565089734740045 0 0.118827144549028 0.15045938834785799 0 0.12165438094055341 0.1382202250837688 0 0.13720160688724839 0.13964518263404729 0 0.1143056367611561 0.17670697857169981 0 0.1269873440417035 0.1621457976822499 0 0.1368726440397933 0.1673097165444021 0 0.1269873440417035 0.1621457976822499 0 0.1368726440397933 0.1673097165444021 0 0.13673045112737631 0.1565089734740045 0 0.1143056367611561 0.17670697857169981 0 0.1368726440397933 0.1673097165444021 0 0.12984245568560021 0.18336402612102581 0 0.1143056367611561 0.17670697857169981 0 0.1368726440397933 0.1673097165444021 0 0.1368726440397933 0.1673097165444021 0 0.12984245568560021 0.18336402612102581 0 0.14395995749662011 0.19046676877908139 0 0.1368726440397933 0.1673097165444021 0 0.1557014301669345 0.17418450516490519 0 0.14395995749662011 0.19046676877908139 0 0.13673045112737631 0.1565089734740045 0 0.15943965131843141 0.15791245451710681 0 0.1368726440397933 0.1673097165444021 0 0.15943965131843141 0.15791245451710681 0 0.1368726440397933 0.1673097165444021 0 0.1557014301669345 0.17418450516490519 0 0.15943965131843141 0.15791245451710681 0 0.1368726440397933 0.1673097165444021 0 0.13673045112737631 0.1565089734740045 0 0.15943965131843141 0.15791245451710681 0 0.1557014301669345 0.17418450516490519 0 0.15943965131843141 0.15791245451710681 0 0.16838221510295989 0.1692040805085635 0 0.15943965131843141 0.15791245451710681 0 0.16838221510295989 0.1692040805085635 0 0.17970147406593759 0.15916468197935521 0 0.15943965131843141 0.15791245451710681 0 0.17970147406593759 0.15916468197935521 0 0.1557014301669345 0.17418450516490519 0 0.16985268287686869 0.18602950547537461 0 0.14395995749662011 0.19046676877908139 0 0.1557014301669345 0.17418450516490519 0 0.16838221510295989 0.1692040805085635 0 0.16985268287686869 0.18602950547537461 0 0.16985268287686869 0.18602950547537461 0 0.17776577537378679 0.1717491724038096 0 0.19009851561998109 0.17546705170333859 0 0.16985268287686869 0.18602950547537461 0 0.1921007491770006 0.19413511782623061 0 0.19009851561998109 0.17546705170333859 0 0.16838221510295989 0.1692040805085635 0 0.16985268287686869 0.18602950547537461 0 0.17776577537378679 0.1717491724038096 0 0.17776577537378679 0.1717491724038096 0 0.17970147406593759 0.15916468197935521 0 0.19009851561998109 0.17546705170333859 0 0.16838221510295989 0.1692040805085635 0 0.17776577537378679 0.1717491724038096 0 0.17970147406593759 0.15916468197935521 0 0.17970147406593759 0.15916468197935521 0 0.17541096916565421 0.151261742844153 0 0.19138228701287849 0.14461103117120311 0 0.17541096916565421 0.151261742844153 0 0.19138228701287849 0.14461103117120311 0 0.17541096916565421 0.151261742844153 0 0.16429194695006341 0.14212810690262639 0 0.19138228701287849 0.14461103117120311 0 0.16429194695006341 0.14212810690262639 0 0.19138228701287849 0.14461103117120311 0 0.1826996939178501 0.134395064982826 0 0.17014020092281509 0.1303647164313487 0 0.16429194695006341 0.14212810690262639 0 0.1826996939178501 0.134395064982826 0 0.16429194695006341 0.14212810690262639 0 0.19138228701287849 0.14461103117120311 0 0.1826996939178501 0.134395064982826 0 0.19400001601888209 0.1301444430180784 0 0.18282874988353909 0.12176719670840121 0 0.1826996939178501 0.134395064982826 0 0.17014020092281509 0.1303647164313487 0 0.18282874988353909 0.12176719670840121 0 0.17014020092281509 0.1303647164313487 0 0.15632661280319129 0.13068902382275449 0 0.1644083134929788 0.12014259939932 0 0.17014020092281509 0.1303647164313487 0 0.15632661280319129 0.13068902382275449 0 0.16429194695006341 0.14212810690262639 0 0.14941591407077959 0.14904867938194569 0 0.15943965131843141 0.15791245451710681 0 0.16429194695006341 0.14212810690262639 0 0.15943965131843141 0.15791245451710681 0 0.17970147406593759 0.15916468197935521 0 0.17541096916565421 0.151261742844153 0 0.15943965131843141 0.15791245451710681 0 0.17541096916565421 0.151261742844153 0 0.15943965131843141 0.15791245451710681 0 0.17541096916565421 0.151261742844153 0 0.16429194695006341 0.14212810690262639 0 0.15269041899089261 0.24018887904249059 0 0.1453807329119074 0.24866303934084041 0 0.15466915334416509 0.25190660019890743 0 0.15269041899089261 0.24018887904249059 0 0.1453807329119074 0.24866303934084041 0 0.14060451702156199 0.2357308345711725 0 0.1453807329119074 0.24866303934084041 0 0.12757428593816261 0.239750968992752 0 0.14060451702156199 0.2357308345711725 0 0.1453807329119074 0.24866303934084041 0 0.1197671145453226 0.2507247820991888 0 0.1453807329119074 0.24866303934084041 0 0.12757428593816261 0.239750968992752 0 0.1197671145453226 0.2507247820991888 0 0.14060451702156199 0.2357308345711725 0 0.12985428442346111 0.22473904082679019 0 0.14752286284338639 0.22531224465298941 0 0.12985428442346111 0.22473904082679019 0 0.14752286284338639 0.22531224465298941 0 0.1398831682024731 0.2101323370399282 0 0.12757428593816261 0.239750968992752 0 0.14060451702156199 0.2357308345711725 0 0.12985428442346111 0.22473904082679019 0 0.15269041899089261 0.24018887904249059 0 0.14752286284338639 0.22531224465298941 0 0.16513181717874489 0.22933158445530699 0 0.14752286284338639 0.22531224465298941 0 0.155775241119192 0.20863886545715829 0 0.16513181717874489 0.22933158445530699 0 0.15269041899089261 0.24018887904249059 0 0.14060451702156199 0.2357308345711725 0 0.14752286284338639 0.22531224465298941 0 0.14752286284338639 0.22531224465298941 0 0.155775241119192 0.20863886545715829 0 0.1398831682024731 0.2101323370399282 0 0.1223034951297057 0.2015047654836217 0 0.12985428442346111 0.22473904082679019 0 0.1398831682024731 0.2101323370399282 0 0.1223034951297057 0.2015047654836217 0 0.12984245568560021 0.18336402612102581 0 0.14395995749662011 0.19046676877908139 0 0.1223034951297057 0.2015047654836217 0 0.1398831682024731 0.2101323370399282 0 0.14395995749662011 0.19046676877908139 0 0.155775241119192 0.20863886545715829 0 0.1398831682024731 0.2101323370399282 0 0.14395995749662011 0.19046676877908139 0 0.16985268287686869 0.18602950547537461 0 0.155775241119192 0.20863886545715829 0 0.17615578699577941 0.211297655888005 0 0.16985268287686869 0.18602950547537461 0 0.155775241119192 0.20863886545715829 0 0.14395995749662011 0.19046676877908139 0 0.16985268287686869 0.18602950547537461 0 0.17615578699577941 0.211297655888005 0 0.1921007491770006 0.19413511782623061 0 0.155775241119192 0.20863886545715829 0 0.17615578699577941 0.211297655888005 0 0.16513181717874489 0.22933158445530699 0 0.17615578699577941 0.211297655888005 0 0.1832321526603185 0.22988712241990911 0 0.19922996910836269 0.2206298732412626 0 0.17615578699577941 0.211297655888005 0 0.16513181717874489 0.22933158445530699 0 0.1832321526603185 0.22988712241990911 0 0.1832321526603185 0.22988712241990911 0 0.17921266192405369 0.24485401564359771 0 0.19643052809465181 0.2433224828713732 0 0.16513181717874489 0.22933158445530699 0 0.1832321526603185 0.22988712241990911 0 0.17921266192405369 0.24485401564359771 0 0.17921266192405369 0.24485401564359771 0 0.19643052809465181 0.2433224828713732 0 0.18608903078984079 0.25995697105729071 0 0.17921266192405369 0.24485401564359771 0 0.1648484701696567 0.24744362212440471 0 0.17332134199895571 0.25758983019522791 0 0.15269041899089261 0.24018887904249059 0 0.16513181717874489 0.22933158445530699 0 0.1648484701696567 0.24744362212440471 0 0.16513181717874489 0.22933158445530699 0 0.17921266192405369 0.24485401564359771 0 0.1648484701696567 0.24744362212440471 0 0.15269041899089261 0.24018887904249059 0 0.1648484701696567 0.24744362212440471 0 0.15466915334416509 0.25190660019890743 0 0.21227379049082179 0.2367256787841478 0 0.19643052809465181 0.2433224828713732 0 0.21668623523937189 0.25273648673926968 0 0.21227379049082179 0.2367256787841478 0 0.19643052809465181 0.2433224828713732 0 0.19922996910836269 0.2206298732412626 0 0.1832321526603185 0.22988712241990911 0 0.19643052809465181 0.2433224828713732 0 0.19922996910836269 0.2206298732412626 0 0.21227379049082179 0.2367256787841478 0 0.19922996910836269 0.2206298732412626 0 0.219709047837161 0.22243828454522341 0 0.19922996910836269 0.2206298732412626 0 0.21843520523288221 0.2053181895842969 0 0.1921007491770006 0.19413511782623061 0 0.19922996910836269 0.2206298732412626 0 0.21843520523288221 0.2053181895842969 0 0.219709047837161 0.22243828454522341 0 0.17615578699577941 0.211297655888005 0 0.19922996910836269 0.2206298732412626 0 0.1921007491770006 0.19413511782623061 0 0.21843520523288221 0.2053181895842969 0 0.1921007491770006 0.19413511782623061 0 0.21508853132578909 0.18630480878971589 0 0.21843520523288221 0.2053181895842969 0 0.1921007491770006 0.19413511782623061 0 0.21843520523288221 0.2053181895842969 0 0.23255597692269961 0.1986700960591046 0 0.21508853132578909 0.18630480878971589 0 0.23255597692269961 0.1986700960591046 0 0.21508853132578909 0.18630480878971589 0 0.23658713197922801 0.1849604865578777 0 0.23255597692269961 0.1986700960591046 0 0.24443808169503289 0.19165573435540739 0 0.23658713197922801 0.1849604865578777 0 0.24443808169503289 0.19165573435540739 0 0.2445919001722652 0.2027793092260104 0 0.25672659357731442 0.18931439154619459 0 0.23255597692269961 0.1986700960591046 0 0.24443808169503289 0.19165573435540739 0 0.2445919001722652 0.2027793092260104 0 0.2445919001722652 0.2027793092260104 0 0.2447696612887639 0.21650126134236319 0 0.26045320274891359 0.2075872277184421 0 0.23255597692269961 0.1986700960591046 0 0.2445919001722652 0.2027793092260104 0 0.2447696612887639 0.21650126134236319 0 0.21843520523288221 0.2053181895842969 0 0.2447696612887639 0.21650126134236319 0 0.21843520523288221 0.2053181895842969 0 0.2447696612887639 0.21650126134236319 0 0.2325803478497725 0.22060216126394189 0 0.21843520523288221 0.2053181895842969 0 0.219709047837161 0.22243828454522341 0 0.2325803478497725 0.22060216126394189 0 0.21843520523288221 0.2053181895842969 0 0.23255597692269961 0.1986700960591046 0 0.2447696612887639 0.21650126134236319 0 0.219709047837161 0.22243828454522341 0 0.2325803478497725 0.22060216126394189 0 0.2358022310961575 0.23066856374322481 0 0.21227379049082179 0.2367256787841478 0 0.219709047837161 0.22243828454522341 0 0.2358022310961575 0.23066856374322481 0 0.2325803478497725 0.22060216126394189 0 0.24210869832250451 0.2249280049623063 0 0.2358022310961575 0.23066856374322481 0 0.2447696612887639 0.21650126134236319 0 0.2325803478497725 0.22060216126394189 0 0.24210869832250451 0.2249280049623063 0 0.2447696612887639 0.21650126134236319 0 0.24210869832250451 0.2249280049623063 0 0.24965972363503919 0.22122943443424911 0 0.24210869832250451 0.2249280049623063 0 0.24965972363503919 0.22122943443424911 0 0.2477315277427897 0.2356386040277525 0 0.24210869832250451 0.2249280049623063 0 0.2358022310961575 0.23066856374322481 0 0.2477315277427897 0.2356386040277525 0 0.2477315277427897 0.2356386040277525 0 0.24791323415382371 0.2458877298954085 0 0.23190300684591059 0.2469757189771403 0 0.2358022310961575 0.23066856374322481 0 0.2477315277427897 0.2356386040277525 0 0.23190300684591059 0.2469757189771403 0 0.21227379049082179 0.2367256787841478 0 0.23190300684591059 0.2469757189771403 0 0.21227379049082179 0.2367256787841478 0 0.23190300684591059 0.2469757189771403 0 0.21668623523937189 0.25273648673926968 0 0.21227379049082179 0.2367256787841478 0 0.2358022310961575 0.23066856374322481 0 0.23190300684591059 0.2469757189771403 0 0.20748271977021249 0.138902265540051 0 0.1939758213121906 0.1435310420930529 0 0.2197013820994709 0.14720657512863261 0 0.19138228701287849 0.14461103117120311 0 0.19996329681344399 0.160416909441601 0 0.2197013820994709 0.14720657512863261 0 0.19138228701287849 0.14461103117120311 0 0.2197013820994709 0.14720657512863261 0 0.2166933327952508 0.13146831334115849 0 0.20748271977021249 0.138902265540051 0 0.2197013820994709 0.14720657512863261 0 0.2166933327952508 0.13146831334115849 0 0.20603233854846789 0.12643210165642249 0 0.20748271977021249 0.138902265540051 0 0.20603233854846789 0.12643210165642249 0 0.20748271977021249 0.138902265540051 0 0.1992161984030385 0.13597632749908109 0 0.20748271977021249 0.138902265540051 0 0.1992161984030385 0.13597632749908109 0 0.1939758213121906 0.1435310420930529 0 0.20603233854846789 0.12643210165642249 0 0.1992161984030385 0.13597632749908109 0 0.19400001601888209 0.1301444430180784 0 0.20603233854846789 0.12643210165642249 0 0.19400001601888209 0.1301444430180784 0 0.19603586944622961 0.11914225126713909 0 0.1826996939178501 0.134395064982826 0 0.19400001601888209 0.1301444430180784 0 0.19225480333296779 0.137731581752848 0 0.1826996939178501 0.134395064982826 0 0.19225480333296779 0.137731581752848 0 0.19138228701287849 0.14461103117120311 0 0.1992161984030385 0.13597632749908109 0 0.19225480333296779 0.137731581752848 0 0.1939758213121906 0.1435310420930529 0 0.1992161984030385 0.13597632749908109 0 0.19400001601888209 0.1301444430180784 0 0.19225480333296779 0.137731581752848 0 0.17970147406593759 0.15916468197935521 0 0.19138228701287849 0.14461103117120311 0 0.19996329681344399 0.160416909441601 0 0.19138228701287849 0.14461103117120311 0 0.1939758213121906 0.1435310420930529 0 0.2197013820994709 0.14720657512863261 0 0.19225480333296779 0.137731581752848 0 0.19138228701287849 0.14461103117120311 0 0.1939758213121906 0.1435310420930529 0 0.19138228701287849 0.14461103117120311 0 0.1939758213121906 0.1435310420930529 0 0.17970147406593759 0.15916468197935521 0 0.19996329681344399 0.160416909441601 0 0.19009851561998109 0.17546705170333859 0 0.19996329681344399 0.160416909441601 0 0.19009851561998109 0.17546705170333859 0 0.20950303158443601 0.17060862998040069 0 0.17970147406593759 0.15916468197935521 0 0.19996329681344399 0.160416909441601 0 0.1921007491770006 0.19413511782623061 0 0.19009851561998109 0.17546705170333859 0 0.21508853132578909 0.18630480878971589 0 0.19009851561998109 0.17546705170333859 0 0.21508853132578909 0.18630480878971589 0 0.20950303158443601 0.17060862998040069 0 0.21508853132578909 0.18630480878971589 0 0.20950303158443601 0.17060862998040069 0 0.2262564526410854 0.1725101510884221 0 0.19996329681344399 0.160416909441601 0 0.22022511956095039 0.16166913690384679 0 0.2197013820994709 0.14720657512863261 0 0.19996329681344399 0.160416909441601 0 0.22022511956095039 0.16166913690384679 0 0.20950303158443601 0.17060862998040069 0 0.22022511956095039 0.16166913690384679 0 0.2262564526410854 0.1725101510884221 0 0.19996329681344399 0.160416909441601 0 0.20950303158443601 0.17060862998040069 0 0.22022511956095039 0.16166913690384679 0 0.22022511956095039 0.16166913690384679 0 0.23219216216083469 0.16070882341124321 0 0.2197013820994709 0.14720657512863261 0 0.23219216216083469 0.16070882341124321 0 0.2262564526410854 0.1725101510884221 0 0.24394273923527451 0.1708090208874482 0 0.22022511956095039 0.16166913690384679 0 0.23219216216083469 0.16070882341124321 0 0.2262564526410854 0.1725101510884221 0 0.21508853132578909 0.18630480878971589 0 0.2262564526410854 0.1725101510884221 0 0.23658713197922801 0.1849604865578777 0 0.2262564526410854 0.1725101510884221 0 0.23658713197922801 0.1849604865578777 0 0.24394273923527451 0.1708090208874482 0 0.23658713197922801 0.1849604865578777 0 0.24394273923527451 0.1708090208874482 0 0.25069145747160237 0.17986975870422739 0 0.24443808169503289 0.19165573435540739 0 0.23658713197922801 0.1849604865578777 0 0.25069145747160237 0.17986975870422739 0 0.23219216216083469 0.16070882341124321 0 0.24394273923527451 0.1708090208874482 0 0.24802047718606329 0.14980211908606039 0 0.24802047718606329 0.14980211908606039 0 0.2197013820994709 0.14720657512863261 0 0.23748423865396681 0.1372069433891186 0 0.24802047718606329 0.14980211908606039 0 0.23748423865396681 0.1372069433891186 0 0.23219216216083469 0.16070882341124321 0 0.24802047718606329 0.14980211908606039 0 0.2197013820994709 0.14720657512863261 0 0.24802047718606329 0.14980211908606039 0 0.2197013820994709 0.14720657512863261 0 0.2166933327952508 0.13146831334115849 0 0.23748423865396681 0.1372069433891186 0 0.2269480001218708 0.1246117676921763 0 0.2166933327952508 0.13146831334115849 0 0.2197013820994709 0.14720657512863261 0 0.23748423865396681 0.1372069433891186 0 0.23748423865396681 0.1372069433891186 0 0.2269480001218708 0.1246117676921763 0 0.23748423865396681 0.1372069433891186 0 0.23787758618680691 0.12376630322824581 0 0.2269480001218708 0.1246117676921763 0 0.24802047718606329 0.14980211908606039 0 0.23748423865396681 0.1372069433891186 0 0.25370366287882878 0.1241816415692342 0 0.23748423865396681 0.1372069433891186 0 0.23787758618680691 0.12376630322824581 0 0.25370366287882878 0.1241816415692342 0 0.24537668551697431 0.097277083683747018 0 0.23337444309256139 0.1090648602624541 0 0.25370366287882878 0.1241816415692342 0 0.24537668551697431 0.097277083683747018 0 0.25370366287882878 0.1241816415692342 0 0.23787758618680691 0.12376630322824581 0 0.23337444309256139 0.1090648602624541 0 0.25370366287882878 0.1241816415692342 0 0.24537668551697431 0.097277083683747018 0 0.23337444309256139 0.1090648602624541 0 0.22484289426170589 0.086614640480542404 0 0.23337444309256139 0.1090648602624541 0 0.21826071202707401 0.1016769895838342 0 0.22484289426170589 0.086614640480542404 0 0.23337444309256139 0.1090648602624541 0 0.21899261390952071 0.1157063141952675 0 0.21826071202707401 0.1016769895838342 0 0.2166933327952508 0.13146831334115849 0 0.2269480001218708 0.1246117676921763 0 0.21899261390952071 0.1157063141952675 0 0.23787758618680691 0.12376630322824581 0 0.23337444309256139 0.1090648602624541 0 0.2269480001218708 0.1246117676921763 0 0.23337444309256139 0.1090648602624541 0 0.2269480001218708 0.1246117676921763 0 0.21899261390952071 0.1157063141952675 0 0.20603233854846789 0.12643210165642249 0 0.21899261390952071 0.1157063141952675 0 0.20619401079708341 0.1103047766005421 0 0.2166933327952508 0.13146831334115849 0 0.20603233854846789 0.12643210165642249 0 0.21899261390952071 0.1157063141952675 0 0.20619401079708341 0.1103047766005421 0 0.20469956129863859 0.094216075576966402 0 0.21826071202707401 0.1016769895838342 0 0.21899261390952071 0.1157063141952675 0 0.20619401079708341 0.1103047766005421 0 0.21826071202707401 0.1016769895838342 0 0.20469956129863859 0.094216075576966402 0 0.21826071202707401 0.1016769895838342 0 0.22484289426170589 0.086614640480542404 0 0.20469956129863859 0.094216075576966402 0 0.1920226837756919 0.1062731432897658 0 0.18562998291260069 0.083724599791867624 0 0.20619401079708341 0.1103047766005421 0 0.20469956129863859 0.094216075576966402 0 0.1920226837756919 0.1062731432897658 0 0.1920226837756919 0.1062731432897658 0 0.19603586944622961 0.11914225126713909 0 0.18282874988353909 0.12176719670840121 0 0.20603233854846789 0.12643210165642249 0 0.20619401079708341 0.1103047766005421 0 0.19603586944622961 0.11914225126713909 0 0.19400001601888209 0.1301444430180784 0 0.19603586944622961 0.11914225126713909 0 0.18282874988353909 0.12176719670840121 0 0.20619401079708341 0.1103047766005421 0 0.1920226837756919 0.1062731432897658 0 0.19603586944622961 0.11914225126713909 0 0.19477888427106471 0.068028226971776184 0 0.20783404156105389 0.078077887697304768 0 0.18562998291260069 0.083724599791867624 0 0.20469956129863859 0.094216075576966402 0 0.20783404156105389 0.078077887697304768 0 0.18562998291260069 0.083724599791867624 0 0.20469956129863859 0.094216075576966402 0 0.20783404156105389 0.078077887697304768 0 0.22484289426170589 0.086614640480542404 0 0.20783404156105389 0.078077887697304768 0 0.2213202312424721 0.066581526905057059 0 0.20805697342917059 0.059178341543759817 0 0.20783404156105389 0.078077887697304768 0 0.2213202312424721 0.066581526905057059 0 0.22484289426170589 0.086614640480542404 0 0.19477888427106471 0.068028226971776184 0 0.20783404156105389 0.078077887697304768 0 0.20805697342917059 0.059178341543759817 0 0.2213202312424721 0.066581526905057059 0 0.23704970815511969 0.070372525798259866 0 0.2300545306497668 0.055557326715756347 0 0.2213202312424721 0.066581526905057059 0 0.22484289426170589 0.086614640480542404 0 0.23704970815511969 0.070372525798259866 0 0.24537668551697431 0.097277083683747018 0 0.22484289426170589 0.086614640480542404 0 0.23704970815511969 0.070372525798259866 0 0.24537668551697431 0.097277083683747018 0 0.23704970815511969 0.070372525798259866 0 0.25923100858263742 0.079351551944828513 0 0.24537668551697431 0.097277083683747018 0 0.23704970815511969 0.070372525798259866 0 0.23704970815511969 0.070372525798259866 0 0.24612717135886061 0.053158967820149818 0 0.25923100858263742 0.079351551944828513 0 0.23704970815511969 0.070372525798259866 0 0.24612717135886061 0.053158967820149818 0 0.2300545306497668 0.055557326715756347 0 0.24612717135886061 0.053158967820149818 0 0.22874243829254329 0.043439904086905012 0 0.2300545306497668 0.055557326715756347 0 0.24612717135886061 0.053158967820149818 0 0.24915942417082321 0.043562136642382059 0 0.25194780840825542 0.047502886957762752 0 0.24612717135886061 0.053158967820149818 0 0.2330233341350838 0.026966383695471149 0 0.24915942417082321 0.043562136642382059 0 0.24442705739527931 0.034620488068712277 0 0.25585841565974538 0.042233258010133973 0 0.24442705739527931 0.034620488068712277 0 0.2489069739425 0.021637400389674748 0 0.25585841565974538 0.042233258010133973 0 0.24612717135886061 0.053158967820149818 0 0.24442705739527931 0.034620488068712277 0 0.2330233341350838 0.026966383695471149 0 0.24612717135886061 0.053158967820149818 0 0.24915942417082321 0.043562136642382059 0 0.24442705739527931 0.034620488068712277 0 0.24612717135886061 0.053158967820149818 0 0.22874243829254329 0.043439904086905012 0 0.2330233341350838 0.026966383695471149 0 0.22874243829254329 0.043439904086905012 0 0.2330233341350838 0.026966383695471149 0 0.21578861999574539 0.032179983081358873 0 0.22874243829254329 0.043439904086905012 0 0.21871853532325961 0.049336859121788867 0 0.21578861999574539 0.032179983081358873 0 0.22874243829254329 0.043439904086905012 0 0.2300545306497668 0.055557326715756347 0 0.21871853532325961 0.049336859121788867 0 0.2213202312424721 0.066581526905057059 0 0.2300545306497668 0.055557326715756347 0 0.21871853532325961 0.049336859121788867 0 0.2489069739425 0.021637400389674748 0 0.2403210271001277 -0.0038011986657945939 0 0.2489069739425 0.021637400389674748 0 0.25900523844679291 0.0090906536209348996 0 0.2403210271001277 -0.0038011986657945939 0 0.23441323542690259 0.011205599980234709 0 0.2489069739425 0.021637400389674748 0 0.2403210271001277 -0.0038011986657945939 0 0.23441323542690259 0.011205599980234709 0 0.24019265022494121 0.023607468033523541 0 0.2330233341350838 0.026966383695471149 0 0.23441323542690259 0.011205599980234709 0 0.2489069739425 0.021637400389674748 0 0.23441323542690259 0.011205599980234709 0 0.2489069739425 0.021637400389674748 0 0.24019265022494121 0.023607468033523541 0 0.24442705739527931 0.034620488068712277 0 0.2489069739425 0.021637400389674748 0 0.24019265022494121 0.023607468033523541 0 0.24442705739527931 0.034620488068712277 0 0.24019265022494121 0.023607468033523541 0 0.2330233341350838 0.026966383695471149 0 0.2330233341350838 0.026966383695471149 0 0.2171386306806895 0.017395263111216398 0 0.21578861999574539 0.032179983081358873 0 0.23441323542690259 0.011205599980234709 0 0.2330233341350838 0.026966383695471149 0 0.21991949691130641 0.00077379957079282309 0 0.2330233341350838 0.026966383695471149 0 0.21991949691130641 0.00077379957079282309 0 0.2171386306806895 0.017395263111216398 0 0.2330233341350838 0.026966383695471149 0 0.21991949691130641 0.00077379957079282309 0 0.23441323542690259 0.011205599980234709 0 0.21991949691130641 0.00077379957079282309 0 0.2403210271001277 -0.0038011986657945939 0 0.23441323542690259 0.011205599980234709 0 0.21991949691130641 0.00077379957079282309 0 0.21991949691130641 0.00077379957079282309 0 0.21233724185039379 0.0083260795074358591 0 0.2171386306806895 0.017395263111216398 0 0.1913914811785945 0.0015479160267864781 0 0.21709144706251299 -0.0012616760615819459 0 0.21233724185039379 0.0083260795074358591 0 0.1913914811785945 0.0015479160267864781 0 0.21709144706251299 -0.0012616760615819459 0 0.21991949691130641 0.00077379957079282309 0 0.21233724185039379 0.0083260795074358591 0 0.21709144706251299 -0.0012616760615819459 0 0.21233724185039379 0.0083260795074358591 0 0.20462446051091829 0.018730069701022731 0 0.2171386306806895 0.017395263111216398 0 0.20462446051091829 0.018730069701022731 0 0.21578861999574539 0.032179983081358873 0 0.19600975553610309 0.033109727657073172 0 0.20462446051091829 0.018730069701022731 0 0.2171386306806895 0.017395263111216398 0 0.21578861999574539 0.032179983081358873 0 0.20462446051091829 0.018730069701022731 0 0.18949896143577891 0.016667400663256809 0 0.19600975553610309 0.033109727657073172 0 0.18949896143577891 0.016667400663256809 0 0.19600975553610309 0.033109727657073172 0 0.17707217964719771 0.025267716345226881 0 0.20462446051091829 0.018730069701022731 0 0.18949896143577891 0.016667400663256809 0 0.1913914811785945 0.0015479160267864781 0 0.21233724185039379 0.0083260795074358591 0 0.20462446051091829 0.018730069701022731 0 0.1913914811785945 0.0015479160267864781 0 0.2213202312424721 0.066581526905057059 0 0.20805697342917059 0.059178341543759817 0 0.21871853532325961 0.049336859121788867 0 0.20805697342917059 0.059178341543759817 0 0.2071731341036451 0.043988411023532258 0 0.1951942265281848 0.052365244609145413 0 0.20805697342917059 0.059178341543759817 0 0.21871853532325961 0.049336859121788867 0 0.2071731341036451 0.043988411023532258 0 0.21578861999574539 0.032179983081358873 0 0.2071731341036451 0.043988411023532258 0 0.19600975553610309 0.033109727657073172 0 0.21871853532325961 0.049336859121788867 0 0.21578861999574539 0.032179983081358873 0 0.2071731341036451 0.043988411023532258 0 0.19600975553610309 0.033109727657073172 0 0.1951942265281848 0.052365244609145413 0 0.18205947828297289 0.04260924739081328 0 0.2071731341036451 0.043988411023532258 0 0.19600975553610309 0.033109727657073172 0 0.1951942265281848 0.052365244609145413 0 0.19477888427106471 0.068028226971776184 0 0.20805697342917059 0.059178341543759817 0 0.1951942265281848 0.052365244609145413 0 0.19477888427106471 0.068028226971776184 0 0.1951942265281848 0.052365244609145413 0 0.1764837945120816 0.061910742511003793 0 0.1951942265281848 0.052365244609145413 0 0.1764837945120816 0.061910742511003793 0 0.18205947828297289 0.04260924739081328 0 0.1764837945120816 0.061910742511003793 0 0.18205947828297289 0.04260924739081328 0 0.16553743519129729 0.040392805831617133 0 0.18205947828297289 0.04260924739081328 0 0.16553743519129729 0.040392805831617133 0 0.17707217964719771 0.025267716345226881 0 0.19600975553610309 0.033109727657073172 0 0.18205947828297289 0.04260924739081328 0 0.17707217964719771 0.025267716345226881 0 0.16553743519129729 0.040392805831617133 0 0.1613139894326964 0.024121653580078981 0 0.1482006011997502 0.031747138067586222 0 0.1764837945120816 0.061910742511003793 0 0.16553743519129729 0.040392805831617133 0 0.15002216982279071 0.058334232048501217 0 0.177795833794237 0.0058736288592868176 0 0.17707217964719771 0.025267716345226881 0 0.16471785852727919 0.01090484445761932 0 0.18949896143577891 0.016667400663256809 0 0.1913914811785945 0.0015479160267864781 0 0.177795833794237 0.0058736288592868176 0 0.18949896143577891 0.016667400663256809 0 0.177795833794237 0.0058736288592868176 0 0.17707217964719771 0.025267716345226881 0 0.16553743519129729 0.040392805831617133 0 0.17707217964719771 0.025267716345226881 0 0.1613139894326964 0.024121653580078981 0 0.17707217964719771 0.025267716345226881 0 0.1613139894326964 0.024121653580078981 0 0.16471785852727919 0.01090484445761932 0 0.1613139894326964 0.024121653580078981 0 0.16471785852727919 0.01090484445761932 0 0.1510418725979574 0.012295763198345371 0 0.16471785852727919 0.01090484445761932 0 0.15628357420278671 0.003810722324721363 0 0.1510418725979574 0.012295763198345371 0 0.16471785852727919 0.01090484445761932 0 0.15628357420278671 0.003810722324721363 0 0.16638725000284621 -0.0041024332455818144 0 0.177795833794237 0.0058736288592868176 0 0.16471785852727919 0.01090484445761932 0 0.16638725000284621 -0.0041024332455818144 0 0.15628357420278671 0.003810722324721363 0 0.1463790325767105 0.0051600440866713393 0 0.1510418725979574 0.012295763198345371 0 0.15628357420278671 0.003810722324721363 0 0.1463790325767105 0.0051600440866713393 0 0.15462421245165581 -0.0058893527151400796 0 0.1463790325767105 0.0051600440866713393 0 0.1510418725979574 0.012295763198345371 0 0.1613139894326964 0.024121653580078981 0 0.1510418725979574 0.012295763198345371 0 0.1482006011997502 0.031747138067586222 0 0.1463790325767105 0.0051600440866713393 0 0.1482006011997502 0.031747138067586222 0 0.1463790325767105 0.0051600440866713393 0 0.1510418725979574 0.012295763198345371 0 0.1482006011997502 0.031747138067586222 0 0.1463790325767105 0.0051600440866713393 0 0.13437116548480091 0.018926778797625429 0 0.1482006011997502 0.031747138067586222 0 0.11744308668179609 0.017774871344802521 0 0.13437116548480091 0.018926778797625429 0 0.12506256882025399 0.035699134337412737 0 0.13437116548480091 0.018926778797625429 0 0.1482006011997502 0.031747138067586222 0 0.12506256882025399 0.035699134337412737 0 0.11744308668179609 0.017774871344802521 0 0.13437116548480091 0.018926778797625429 0 0.12681727907172599 0.0028609529651058472 0 0.1463790325767105 0.0051600440866713393 0 0.13437116548480091 0.018926778797625429 0 0.12681727907172599 0.0028609529651058472 0 0.15002216982279071 0.058334232048501217 0 0.1482006011997502 0.031747138067586222 0 0.13318341665519781 0.054736537254868822 0 0.16553743519129729 0.040392805831617133 0 0.15002216982279071 0.058334232048501217 0 0.1482006011997502 0.031747138067586222 0 0.15002216982279071 0.058334232048501217 0 0.1482006011997502 0.031747138067586222 0 0.1482006011997502 0.031747138067586222 0 0.12506256882025399 0.035699134337412737 0 0.13318341665519781 0.054736537254868822 0 0.1220245952479405 0.07004619687739172 0 0.13318341665519781 0.054736537254868822 0 0.140451324603005 0.079388379798429956 0 0.15002216982279071 0.058334232048501217 0 0.13318341665519781 0.054736537254868822 0 0.140451324603005 0.079388379798429956 0 0.15002216982279071 0.058334232048501217 0 0.140451324603005 0.079388379798429956 0 0.16236977351405571 0.08420317597119574 0 0.140451324603005 0.079388379798429956 0 0.13376660142800201 0.097128283387147629 0 0.1539803846384532 0.10268384485881291 0 0.140451324603005 0.079388379798429956 0 0.1539803846384532 0.10268384485881291 0 0.16236977351405571 0.08420317597119574 0 0.1175203890912727 0.086079419998433368 0 0.140451324603005 0.079388379798429956 0 0.13376660142800201 0.097128283387147629 0 0.1175203890912727 0.086079419998433368 0 0.1220245952479405 0.07004619687739172 0 0.140451324603005 0.079388379798429956 0 0.13376660142800201 0.097128283387147629 0 0.13278919984088661 0.11230677671938701 0 0.1539803846384532 0.10268384485881291 0 0.1204523462490521 0.10350528248164099 0 0.13376660142800201 0.097128283387147629 0 0.13278919984088661 0.11230677671938701 0 0.12877089149896251 0.12628235461406201 0 0.13278919984088661 0.11230677671938701 0 0.14559099576285081 0.1211645137464301 0 0.11923934643535521 0.1171320194813406 0 0.12877089149896251 0.12628235461406201 0 0.13278919984088661 0.11230677671938701 0 0.14559099576285081 0.1211645137464301 0 0.1539803846384532 0.10268384485881291 0 0.15632661280319129 0.13068902382275449 0 0.14559099576285081 0.1211645137464301 0 0.1644083134929788 0.12014259939932 0 0.13278919984088661 0.11230677671938701 0 0.14559099576285081 0.1211645137464301 0 0.1539803846384532 0.10268384485881291 0 0.14559099576285081 0.1211645137464301 0 0.1539803846384532 0.10268384485881291 0 0.1644083134929788 0.12014259939932 0 0.1539803846384532 0.10268384485881291 0 0.1644083134929788 0.12014259939932 0 0.1735399813695532 0.1031324266698939 0 0.1539803846384532 0.10268384485881291 0 0.1735399813695532 0.1031324266698939 0 0.16236977351405571 0.08420317597119574 0 0.1644083134929788 0.12014259939932 0 0.18282874988353909 0.12176719670840121 0 0.1735399813695532 0.1031324266698939 0 0.17014020092281509 0.1303647164313487 0 0.1644083134929788 0.12014259939932 0 0.18282874988353909 0.12176719670840121 0 0.1920226837756919 0.1062731432897658 0 0.18282874988353909 0.12176719670840121 0 0.1735399813695532 0.1031324266698939 0 0.1920226837756919 0.1062731432897658 0 0.1735399813695532 0.1031324266698939 0 0.18562998291260069 0.083724599791867624 0 0.1735399813695532 0.1031324266698939 0 0.18562998291260069 0.083724599791867624 0 0.16236977351405571 0.08420317597119574 0 0.1764837945120816 0.061910742511003793 0 0.18562998291260069 0.083724599791867624 0 0.16236977351405571 0.08420317597119574 0 0.19477888427106471 0.068028226971776184 0 0.1764837945120816 0.061910742511003793 0 0.18562998291260069 0.083724599791867624 0 0.1764837945120816 0.061910742511003793 0 0.15002216982279071 0.058334232048501217 0 0.16236977351405571 0.08420317597119574 0 0.1539803846384532 0.10268384485881291 0 0.16236977351405571 0.08420317597119574 0 0.1048222847563673 0.4786668097115272 0 0.091479988498646442 0.48354315307299939 0 0.09327677099031946 0.46903920507515112 0 0.1048222847563673 0.4786668097115272 0 0.10316008329641591 0.49260778903299252 0 0.092978519966910561 0.49654355170423659 0 0.1048222847563673 0.4786668097115272 0 0.092978519966910561 0.49654355170423659 0 0.1048222847563673 0.4786668097115272 0 0.091479988498646442 0.48354315307299939 0 0.092978519966910561 0.49654355170423659 0 0.10316008329641591 0.49260778903299252 0 0.10312521592474901 0.5 0 0.092978519966910561 0.49654355170423659 0 0.10316008329641591 0.49260778903299252 0 0.10312521592474901 0.5 0 0.1137569863567818 0.48891352741171218 0 0.1048222847563673 0.4786668097115272 0 0.10316008329641591 0.49260778903299252 0 0.1137569863567818 0.48891352741171218 0 0.1048222847563673 0.4786668097115272 0 0.10316008329641591 0.49260778903299252 0 0.1137569863567818 0.48891352741171218 0 0.12567845600013469 0.47929569400969452 0 0.1306299125622308 0.5 0 0.10312521592474901 0.5 0 0.1137569863567818 0.48891352741171218 0 0.1306299125622308 0.5 0 0.1048222847563673 0.4786668097115272 0 0.11648320602364499 0.46106604807885698 0 0.12567845600013469 0.47929569400969452 0 0.1048222847563673 0.4786668097115272 0 0.1137569863567818 0.48891352741171218 0 0.12567845600013469 0.47929569400969452 0 0.1048222847563673 0.4786668097115272 0 0.11648320602364499 0.46106604807885698 0 0.1048222847563673 0.4786668097115272 0 0.11648320602364499 0.46106604807885698 0 0.1073203574995146 0.45771532982499841 0 0.1119099515656637 0.4541769576285038 0 0.11648320602364499 0.46106604807885698 0 0.1073203574995146 0.45771532982499841 0 0.1119099515656637 0.4541769576285038 0 0.11648320602364499 0.46106604807885698 0 0.128144127290927 0.44346528644618949 0 0.1119099515656637 0.4541769576285038 0 0.1098184302426566 0.43676384993846878 0 0.128144127290927 0.44346528644618949 0 0.1119099515656637 0.4541769576285038 0 0.1073203574995146 0.45771532982499841 0 0.1098184302426566 0.43676384993846878 0 0.11648320602364499 0.46106604807885698 0 0.128144127290927 0.44346528644618949 0 0.1119099515656637 0.4541769576285038 0 0.1098184302426566 0.43676384993846878 0 0.1007171253458153 0.44820701469258212 0 0.1073203574995146 0.45771532982499841 0 0.1098184302426566 0.43676384993846878 0 0.1073203574995146 0.45771532982499841 0 0.1098184302426566 0.43676384993846878 0 0.1007171253458153 0.44820701469258212 0 0.097642268156116166 0.44157878137516282 0 0.1098184302426566 0.43676384993846878 0 0.097642268156116166 0.44157878137516282 0 0.1020591419526216 0.43422428691783338 0 0.1098184302426566 0.43676384993846878 0 0.097642268156116166 0.44157878137516282 0 0.1098184302426566 0.43676384993846878 0 0.09475968248970798 0.44694335582238792 0 0.1007171253458153 0.44820701469258212 0 0.092889002414179245 0.45276651635374332 0 0.1007171253458153 0.44820701469258212 0 0.096868601935243229 0.45789063626048049 0 0.092889002414179245 0.45276651635374332 0 0.09475968248970798 0.44694335582238792 0 0.1007171253458153 0.44820701469258212 0 0.097642268156116166 0.44157878137516282 0 0.09475968248970798 0.44694335582238792 0 0.097642268156116166 0.44157878137516282 0 0.088987703810336438 0.44500113512203671 0 0.1007171253458153 0.44820701469258212 0 0.097642268156116166 0.44157878137516282 0 0.1048222847563673 0.4786668097115272 0 0.1073203574995146 0.45771532982499841 0 0.09327677099031946 0.46903920507515112 0 0.1048222847563673 0.4786668097115272 0 0.1073203574995146 0.45771532982499841 0 0.1007171253458153 0.44820701469258212 0 0.1073203574995146 0.45771532982499841 0 0.096868601935243229 0.45789063626048049 0 0.1073203574995146 0.45771532982499841 0 0.096868601935243229 0.45789063626048049 0 0.09327677099031946 0.46903920507515112 0 0.090139753426387581 0.46172511535592747 0 0.079256630923375745 0.46616111205340521 0 0.09327677099031946 0.46903920507515112 0 0.096868601935243229 0.45789063626048049 0 0.090139753426387581 0.46172511535592747 0 0.09327677099031946 0.46903920507515112 0 0.090139753426387581 0.46172511535592747 0 0.092889002414179245 0.45276651635374332 0 0.081384578054001289 0.45283886102268139 0 0.096868601935243229 0.45789063626048049 0 0.090139753426387581 0.46172511535592747 0 0.092889002414179245 0.45276651635374332 0 0.090139753426387581 0.46172511535592747 0 0.079256630923375745 0.46616111205340521 0 0.081384578054001289 0.45283886102268139 0 0.088987703810336438 0.44500113512203671 0 0.082419728037930629 0.44071508101891732 0 0.08961571608665983 0.43565438773200948 0 0.097642268156116166 0.44157878137516282 0 0.088987703810336438 0.44500113512203671 0 0.097642268156116166 0.44157878137516282 0 0.088987703810336438 0.44500113512203671 0 0.08961571608665983 0.43565438773200948 0 0.088987703810336438 0.44500113512203671 0 0.092889002414179245 0.45276651635374332 0 0.081384578054001289 0.45283886102268139 0 0.09475968248970798 0.44694335582238792 0 0.088987703810336438 0.44500113512203671 0 0.092889002414179245 0.45276651635374332 0 0.088987703810336438 0.44500113512203671 0 0.081384578054001289 0.45283886102268139 0 0.082419728037930629 0.44071508101891732 0 0.067599685253138281 0.45287595272104653 0 0.081892131328371143 0.4314429342789402 0 0.067599685253138281 0.45287595272104653 0 0.066001473138610989 0.43632828312433408 0 0.081892131328371143 0.4314429342789402 0 0.082419728037930629 0.44071508101891732 0 0.067599685253138281 0.45287595272104653 0 0.081892131328371143 0.4314429342789402 0 0.081384578054001289 0.45283886102268139 0 0.082419728037930629 0.44071508101891732 0 0.067599685253138281 0.45287595272104653 0 0.079256630923375745 0.46616111205340521 0 0.067599685253138281 0.45287595272104653 0 0.069001794002684108 0.47224329730437981 0 0.067599685253138281 0.45287595272104653 0 0.069001794002684108 0.47224329730437981 0 0.053307239177905349 0.47430897116315313 0 0.079256630923375745 0.46616111205340521 0 0.081384578054001289 0.45283886102268139 0 0.067599685253138281 0.45287595272104653 0 0.069001794002684108 0.47224329730437981 0 0.079794243665170225 0.47979706117662119 0 0.065051170993830898 0.48807338940767292 0 0.079256630923375745 0.46616111205340521 0 0.069001794002684108 0.47224329730437981 0 0.079794243665170225 0.47979706117662119 0 0.079256630923375745 0.46616111205340521 0 0.079794243665170225 0.47979706117662119 0 0.09327677099031946 0.46903920507515112 0 0.079794243665170225 0.47979706117662119 0 0.091479988498646442 0.48354315307299939 0 0.09327677099031946 0.46903920507515112 0 0.092978519966910561 0.49654355170423659 0 0.084553660660575528 0.49009386622585083 0 0.075620519287267318 0.5 0 0.10312521592474901 0.5 0 0.092978519966910561 0.49654355170423659 0 0.075620519287267318 0.5 0 0.091479988498646442 0.48354315307299939 0 0.092978519966910561 0.49654355170423659 0 0.084553660660575528 0.49009386622585083 0 0.079794243665170225 0.47979706117662119 0 0.091479988498646442 0.48354315307299939 0 0.084553660660575528 0.49009386622585083 0 0.079794243665170225 0.47979706117662119 0 0.084553660660575528 0.49009386622585083 0 0.065051170993830898 0.48807338940767292 0 0.065051170993830898 0.48807338940767292 0 0.075620519287267318 0.5 0 0.048115822649785527 0.5 0 0.084553660660575528 0.49009386622585083 0 0.065051170993830898 0.48807338940767292 0 0.075620519287267318 0.5 0 0.065051170993830898 0.48807338940767292 0 0.048115822649785527 0.5 0 0.053307239177905349 0.47430897116315313 0 0.069001794002684108 0.47224329730437981 0 0.065051170993830898 0.48807338940767292 0 0.053307239177905349 0.47430897116315313 0 0.053307239177905349 0.47430897116315313 0 0.036467756559221701 0.47774208688151631 0 0.038707058205945111 0.46145460703462421 0 0.036467756559221701 0.47774208688151631 0 0.024551868698660679 0.47115282030446087 0 0.038707058205945111 0.46145460703462421 0 0.053307239177905349 0.47430897116315313 0 0.036467756559221701 0.47774208688151631 0 0.039014793102672522 0.49574198960525939 0 0.053307239177905349 0.47430897116315313 0 0.039014793102672522 0.49574198960525939 0 0.048115822649785527 0.5 0 0.053307239177905349 0.47430897116315313 0 0.039014793102672522 0.49574198960525939 0 0.048115822649785527 0.5 0 0.039014793102672522 0.49574198960525939 0 0.020611126012303801 0.5 0 0.036467756559221701 0.47774208688151631 0 0.039014793102672522 0.49574198960525939 0 0.026757823610924832 0.48605204630008392 0 0.039014793102672522 0.49574198960525939 0 0.020611126012303801 0.5 0 0.026757823610924832 0.48605204630008392 0 0.020611126012303801 0.5 0 0.026757823610924832 0.48605204630008392 0 0.01184792134048173 0.48364435332619582 0 0.036467756559221701 0.47774208688151631 0 0.026757823610924832 0.48605204630008392 0 0.024551868698660679 0.47115282030446087 0 0.024551868698660679 0.47115282030446087 0 0.01184792134048173 0.48364435332619582 0 0.0113986727330041 0.46548394976725249 0 0.026757823610924832 0.48605204630008392 0 0.024551868698660679 0.47115282030446087 0 0.01184792134048173 0.48364435332619582 0 -0.003089566724048357 0.47326761514296101 0 0.01184792134048173 0.48364435332619582 0 0.0113986727330041 0.46548394976725249 0 -0.0068935706251778139 0.5 0 -0.003089566724048357 0.47326761514296101 0 0.01184792134048173 0.48364435332619582 0 -0.0068935706251778139 0.5 0 0.020611126012303801 0.5 0 0.01184792134048173 0.48364435332619582 0 -0.0072392309157056894 0.43649428994281841 0 0.0026031304198410629 0.45131346537392758 0 0.017959463550051329 0.43401198815683267 0 0.0026031304198410629 0.45131346537392758 0 0.021372524407465811 0.45253342051953771 0 0.017959463550051329 0.43401198815683267 0 0.0026031304198410629 0.45131346537392758 0 0.0113986727330041 0.46548394976725249 0 0.021372524407465811 0.45253342051953771 0 -0.003089566724048357 0.47326761514296101 0 0.0026031304198410629 0.45131346537392758 0 0.0113986727330041 0.46548394976725249 0 0.024551868698660679 0.47115282030446087 0 0.0113986727330041 0.46548394976725249 0 0.021372524407465811 0.45253342051953771 0 0.024551868698660679 0.47115282030446087 0 0.021372524407465811 0.45253342051953771 0 0.038707058205945111 0.46145460703462421 0 0.021372524407465811 0.45253342051953771 0 0.037958531274121507 0.44366308696102769 0 0.017959463550051329 0.43401198815683267 0 0.037958531274121507 0.44366308696102769 0 0.05227214254911447 0.45021359508833869 0 0.050058868244965561 0.43265066952584708 0 0.021372524407465811 0.45253342051953771 0 0.037958531274121507 0.44366308696102769 0 0.038707058205945111 0.46145460703462421 0 0.037958531274121507 0.44366308696102769 0 0.038707058205945111 0.46145460703462421 0 0.05227214254911447 0.45021359508833869 0 0.067599685253138281 0.45287595272104653 0 0.053307239177905349 0.47430897116315313 0 0.053307239177905349 0.47430897116315313 0 0.038707058205945111 0.46145460703462421 0 0.05227214254911447 0.45021359508833869 0 0.067599685253138281 0.45287595272104653 0 0.053307239177905349 0.47430897116315313 0 0.05227214254911447 0.45021359508833869 0 0.05227214254911447 0.45021359508833869 0 0.050058868244965561 0.43265066952584708 0 0.066001473138610989 0.43632828312433408 0 0.067599685253138281 0.45287595272104653 0 0.05227214254911447 0.45021359508833869 0 0.066001473138610989 0.43632828312433408 0 0.050058868244965561 0.43265066952584708 0 0.068804754243522781 0.41994166461739918 0 0.066001473138610989 0.43632828312433408 0 0.050058868244965561 0.43265066952584708 0 0.048852687291388877 0.41459777654824598 0 0.068804754243522781 0.41994166461739918 0 0.048852687291388877 0.41459777654824598 0 0.061313779414970418 0.39987885693449271 0 0.068804754243522781 0.41994166461739918 0 0.048852687291388877 0.41459777654824598 0 0.068804754243522781 0.41994166461739918 0 0.048852687291388877 0.41459777654824598 0 0.036746034139956453 0.42683548193420928 0 0.028900620339254991 0.40925388847909272 0 0.048852687291388877 0.41459777654824598 0 0.028900620339254991 0.40925388847909272 0 0.048852687291388877 0.41459777654824598 0 0.028900620339254991 0.40925388847909272 0 0.042007131815748507 0.39655655075565333 0 0.050058868244965561 0.43265066952584708 0 0.048852687291388877 0.41459777654824598 0 0.036746034139956453 0.42683548193420928 0 0.037958531274121507 0.44366308696102769 0 0.050058868244965561 0.43265066952584708 0 0.036746034139956453 0.42683548193420928 0 0.037958531274121507 0.44366308696102769 0 0.036746034139956453 0.42683548193420928 0 0.017959463550051329 0.43401198815683267 0 0.036746034139956453 0.42683548193420928 0 0.017959463550051329 0.43401198815683267 0 0.028900620339254991 0.40925388847909272 0 0.017959463550051329 0.43401198815683267 0 0.028900620339254991 0.40925388847909272 0 0.0059488009041311612 0.41735624870114602 0 0.028900620339254991 0.40925388847909272 0 0.0059488009041311612 0.41735624870114602 0 0.0058412231562265226 0.39891749499975832 0 -0.0081246324890641812 0.40805065625530412 0 0.0059488009041311612 0.41735624870114602 0 0.0058412231562265226 0.39891749499975832 0 -0.0072392309157056894 0.43649428994281841 0 0.017959463550051329 0.43401198815683267 0 0.0059488009041311612 0.41735624870114602 0 -0.0036227877329230301 0.37947700469323042 0 0.0058412231562265226 0.39891749499975832 0 0.017841208666312069 0.37762534579018298 0 0.028900620339254991 0.40925388847909272 0 0.0058412231562265226 0.39891749499975832 0 0.024450360446550148 0.39274026509825583 0 0.024450360446550148 0.39274026509825583 0 0.017841208666312069 0.37762534579018298 0 0.035089121590226528 0.38253825820529852 0 0.0058412231562265226 0.39891749499975832 0 0.024450360446550148 0.39274026509825583 0 0.017841208666312069 0.37762534579018298 0 0.035089121590226528 0.38253825820529852 0 0.042007131815748507 0.39655655075565333 0 0.051605655867250001 0.38149668432143541 0 0.035089121590226528 0.38253825820529852 0 0.051605655867250001 0.38149668432143541 0 0.039541251155271878 0.36427244506096468 0 0.024450360446550148 0.39274026509825583 0 0.035089121590226528 0.38253825820529852 0 0.042007131815748507 0.39655655075565333 0 0.028900620339254991 0.40925388847909272 0 0.024450360446550148 0.39274026509825583 0 0.042007131815748507 0.39655655075565333 0 0.048852687291388877 0.41459777654824598 0 0.042007131815748507 0.39655655075565333 0 0.061313779414970418 0.39987885693449271 0 0.042007131815748507 0.39655655075565333 0 0.061313779414970418 0.39987885693449271 0 0.051605655867250001 0.38149668432143541 0 0.051605655867250001 0.38149668432143541 0 0.071205150989249344 0.38459031979425368 0 0.062117748859898458 0.36500130546073062 0 0.061313779414970418 0.39987885693449271 0 0.051605655867250001 0.38149668432143541 0 0.071205150989249344 0.38459031979425368 0 0.071205150989249344 0.38459031979425368 0 0.082619379705498486 0.3760424233717975 0 0.075022727430642186 0.36942391052545742 0 0.082619379705498486 0.3760424233717975 0 0.089989672908486834 0.38531380646189939 0 0.096111415589441723 0.36906918257109511 0 0.071205150989249344 0.38459031979425368 0 0.082619379705498486 0.3760424233717975 0 0.089989672908486834 0.38531380646189939 0 0.071205150989249344 0.38459031979425368 0 0.089989672908486834 0.38531380646189939 0 0.080292553118600216 0.40417933412777668 0 0.089989672908486834 0.38531380646189939 0 0.080292553118600216 0.40417933412777668 0 0.098794269534858231 0.4008464147916751 0 0.071205150989249344 0.38459031979425368 0 0.080292553118600216 0.40417933412777668 0 0.061313779414970418 0.39987885693449271 0 0.071205150989249344 0.38459031979425368 0 0.080292553118600216 0.40417933412777668 0 0.061313779414970418 0.39987885693449271 0 0.080292553118600216 0.40417933412777668 0 0.068804754243522781 0.41994166461739918 0 0.068804754243522781 0.41994166461739918 0 0.066001473138610989 0.43632828312433408 0 0.081892131328371143 0.4314429342789402 0 0.068804754243522781 0.41994166461739918 0 0.088756821195656727 0.42528555268655249 0 0.089379955247950782 0.42376834846129979 0 0.068804754243522781 0.41994166461739918 0 0.081892131328371143 0.4314429342789402 0 0.088756821195656727 0.42528555268655249 0 0.068804754243522781 0.41994166461739918 0 0.088756821195656727 0.42528555268655249 0 0.097642268156116166 0.44157878137516282 0 0.090272059233259302 0.42569138845737808 0 0.08961571608665983 0.43565438773200948 0 0.082419728037930629 0.44071508101891732 0 0.088756821195656727 0.42528555268655249 0 0.082419728037930629 0.44071508101891732 0 0.081892131328371143 0.4314429342789402 0 0.088756821195656727 0.42528555268655249 0 0.088756821195656727 0.42528555268655249 0 0.090272059233259302 0.42569138845737808 0 0.08961571608665983 0.43565438773200948 0 0.089379955247950782 0.42376834846129979 0 0.090272059233259302 0.42569138845737808 0 0.100849049247472 0.42323949502706593 0 0.088756821195656727 0.42528555268655249 0 0.089379955247950782 0.42376834846129979 0 0.090272059233259302 0.42569138845737808 0 0.088756821195656727 0.42528555268655249 0 0.090272059233259302 0.42569138845737808 0 0.089379955247950782 0.42376834846129979 0 0.090272059233259302 0.42569138845737808 0 0.088756821195656727 0.42528555268655249 0 0.089379955247950782 0.42376834846129979 0 0.082419728037930629 0.44071508101891732 0 0.088756821195656727 0.42528555268655249 0 0.08961571608665983 0.43565438773200948 0 0.080292553118600216 0.40417933412777668 0 0.089379955247950782 0.42376834846129979 0 0.080292553118600216 0.40417933412777668 0 0.068804754243522781 0.41994166461739918 0 0.089379955247950782 0.42376834846129979 0 0.080292553118600216 0.40417933412777668 0 0.089379955247950782 0.42376834846129979 0 0.098794269534858231 0.4008464147916751 0 0.089379955247950782 0.42376834846129979 0 0.10179294521624289 0.41380452076605601 0 0.098794269534858231 0.4008464147916751 0 0.089379955247950782 0.42376834846129979 0 0.098794269534858231 0.4008464147916751 0 0.10179294521624289 0.41380452076605601 0 0.1107041231999616 0.42933549212480232 0 0.10945635351086461 0.40362998662342647 0 0.089379955247950782 0.42376834846129979 0 0.10179294521624289 0.41380452076605601 0 0.100849049247472 0.42323949502706593 0 0.097642268156116166 0.44157878137516282 0 0.090272059233259302 0.42569138845737808 0 0.1020591419526216 0.43422428691783338 0 0.090272059233259302 0.42569138845737808 0 0.1020591419526216 0.43422428691783338 0 0.1093682320879097 0.430806037006286 0 0.090272059233259302 0.42569138845737808 0 0.1093682320879097 0.430806037006286 0 0.090272059233259302 0.42569138845737808 0 0.100849049247472 0.42323949502706593 0 0.1093682320879097 0.430806037006286 0 0.097642268156116166 0.44157878137516282 0 0.090272059233259302 0.42569138845737808 0 0.100849049247472 0.42323949502706593 0 0.1093682320879097 0.430806037006286 0 0.1107041231999616 0.42933549212480232 0 0.10179294521624289 0.41380452076605601 0 0.100849049247472 0.42323949502706593 0 0.1107041231999616 0.42933549212480232 0 0.1020591419526216 0.43422428691783338 0 0.1093682320879097 0.430806037006286 0 0.1103398931765668 0.43239031029619718 0 0.1020591419526216 0.43422428691783338 0 0.1098184302426566 0.43676384993846878 0 0.1103398931765668 0.43239031029619718 0 0.1020591419526216 0.43422428691783338 0 0.1103398931765668 0.43239031029619718 0 0.1103398931765668 0.43239031029619718 0 0.1206950902667107 0.42206632785564402 0 0.13429496844172059 0.42708486797366702 0 0.1098184302426566 0.43676384993846878 0 0.1103398931765668 0.43239031029619718 0 0.13429496844172059 0.42708486797366702 0 0.1098184302426566 0.43676384993846878 0 0.13429496844172059 0.42708486797366702 0 0.128144127290927 0.44346528644618949 0 0.1103398931765668 0.43239031029619718 0 0.13429496844172059 0.42708486797366702 0 0.1098184302426566 0.43676384993846878 0 0.13429496844172059 0.42708486797366702 0 0.1098184302426566 0.43676384993846878 0 0.1103398931765668 0.43239031029619718 0 0.1093682320879097 0.430806037006286 0 0.1103398931765668 0.43239031029619718 0 0.1107041231999616 0.42933549212480232 0 0.1103398931765668 0.43239031029619718 0 0.1107041231999616 0.42933549212480232 0 0.1103398931765668 0.43239031029619718 0 0.1107041231999616 0.42933549212480232 0 0.1206950902667107 0.42206632785564402 0 0.1107041231999616 0.42933549212480232 0 0.10945635351086461 0.40362998662342647 0 0.1107041231999616 0.42933549212480232 0 0.1127079119913361 0.41252960019287183 0 0.10945635351086461 0.40362998662342647 0 0.1107041231999616 0.42933549212480232 0 0.1206950902667107 0.42206632785564402 0 0.1127079119913361 0.41252960019287183 0 0.1107041231999616 0.42933549212480232 0 0.1127079119913361 0.41252960019287183 0 0.1127079119913361 0.41252960019287183 0 0.11966152561727041 0.40521647558469348 0 0.10945635351086461 0.40362998662342647 0 0.1206950902667107 0.42206632785564402 0 0.1127079119913361 0.41252960019287183 0 0.1238244133614653 0.41259348140785829 0 0.1127079119913361 0.41252960019287183 0 0.1238244133614653 0.41259348140785829 0 0.11966152561727041 0.40521647558469348 0 0.10945635351086461 0.40362998662342647 0 0.12302526621810631 0.39483339242702431 0 0.1082085838217669 0.37792448112205068 0 0.11966152561727041 0.40521647558469348 0 0.12302526621810631 0.39483339242702431 0 0.1317921164680903 0.40545952647836342 0 0.11966152561727041 0.40521647558469348 0 0.10945635351086461 0.40362998662342647 0 0.12302526621810631 0.39483339242702431 0 0.12302526621810631 0.39483339242702431 0 0.1082085838217669 0.37792448112205068 0 0.12936302614305781 0.3806702380723882 0 0.1082085838217669 0.37792448112205068 0 0.1269429757455281 0.3700741961410311 0 0.12936302614305781 0.3806702380723882 0 0.089989672908486834 0.38531380646189939 0 0.1082085838217669 0.37792448112205068 0 0.098794269534858231 0.4008464147916751 0 0.089989672908486834 0.38531380646189939 0 0.1082085838217669 0.37792448112205068 0 0.096111415589441723 0.36906918257109511 0 0.1082085838217669 0.37792448112205068 0 0.098794269534858231 0.4008464147916751 0 0.10945635351086461 0.40362998662342647 0 0.1082085838217669 0.37792448112205068 0 0.098794269534858231 0.4008464147916751 0 0.10945635351086461 0.40362998662342647 0 0.1082085838217669 0.37792448112205068 0 0.10179294521624289 0.41380452076605601 0 0.10945635351086461 0.40362998662342647 0 0.098794269534858231 0.4008464147916751 0 0.1071786794515654 0.3567072543489932 0 0.10614877508136331 0.33549002757593549 0 0.1071786794515654 0.3567072543489932 0 0.113306419652784 0.34577619835524942 0 0.10614877508136331 0.33549002757593549 0 0.1071786794515654 0.3567072543489932 0 0.095546341163152998 0.34721348103654748 0 0.10614877508136331 0.33549002757593549 0 0.1071786794515654 0.3567072543489932 0 0.095546341163152998 0.34721348103654748 0 0.095306363846323322 0.35760506086541671 0 0.1082085838217669 0.37792448112205068 0 0.1071786794515654 0.3567072543489932 0 0.096111415589441723 0.36906918257109511 0 0.1082085838217669 0.37792448112205068 0 0.1071786794515654 0.3567072543489932 0 0.1071786794515654 0.3567072543489932 0 0.095306363846323322 0.35760506086541671 0 0.096111415589441723 0.36906918257109511 0 0.1082085838217669 0.37792448112205068 0 0.1071786794515654 0.3567072543489932 0 0.1164276567709608 0.35791271614101089 0 0.1082085838217669 0.37792448112205068 0 0.1207019799918789 0.36117572882690419 0 0.1269429757455281 0.3700741961410311 0 0.1082085838217669 0.37792448112205068 0 0.1207019799918789 0.36117572882690419 0 0.1164276567709608 0.35791271614101089 0 0.1082085838217669 0.37792448112205068 0 0.1164276567709608 0.35791271614101089 0 0.1207019799918789 0.36117572882690419 0 0.12020614592151201 0.35183052892485178 0 0.1164276567709608 0.35791271614101089 0 0.1207019799918789 0.36117572882690419 0 0.12020614592151201 0.35183052892485178 0 0.1327104347709552 0.34833671648866182 0 0.1071786794515654 0.3567072543489932 0 0.1164276567709608 0.35791271614101089 0 0.1142797254492055 0.35305667444252631 0 0.1071786794515654 0.3567072543489932 0 0.1142797254492055 0.35305667444252631 0 0.113306419652784 0.34577619835524942 0 0.12020614592151201 0.35183052892485178 0 0.1164276567709608 0.35791271614101089 0 0.1142797254492055 0.35305667444252631 0 0.12020614592151201 0.35183052892485178 0 0.1142797254492055 0.35305667444252631 0 0.113306419652784 0.34577619835524942 0 0.12020614592151201 0.35183052892485178 0 0.113306419652784 0.34577619835524942 0 0.12565642337597641 0.34531162420386119 0 0.113306419652784 0.34577619835524942 0 0.10614877508136331 0.33549002757593549 0 0.12728204636342119 0.33264440370185788 0 0.113306419652784 0.34577619835524942 0 0.12728204636342119 0.33264440370185788 0 0.12565642337597641 0.34531162420386119 0 0.1046413786221535 0.32421374287331212 0 0.10614877508136331 0.33549002757593549 0 0.12728204636342119 0.33264440370185788 0 0.1046413786221535 0.32421374287331212 0 0.12728204636342119 0.33264440370185788 0 0.1167242617350734 0.31677866348064548 0 0.1046413786221535 0.32421374287331212 0 0.12728204636342119 0.33264440370185788 0 0.1167242617350734 0.31677866348064548 0 0.1046413786221535 0.32421374287331212 0 0.1046413786221535 0.32421374287331212 0 0.077692308094581719 0.31417877058986282 0 0.103629968386694 0.31192557858664272 0 0.1167242617350734 0.31677866348064548 0 0.1046413786221535 0.32421374287331212 0 0.103629968386694 0.31192557858664272 0 0.1046413786221535 0.32421374287331212 0 0.08294133613319174 0.33756664360252769 0 0.1046413786221535 0.32421374287331212 0 0.10614877508136331 0.33549002757593549 0 0.08294133613319174 0.33756664360252769 0 0.095546341163152998 0.34721348103654748 0 0.10614877508136331 0.33549002757593549 0 0.08294133613319174 0.33756664360252769 0 0.1046413786221535 0.32421374287331212 0 0.077692308094581719 0.31417877058986282 0 0.1046413786221535 0.32421374287331212 0 0.08294133613319174 0.33756664360252769 0 0.077692308094581719 0.31417877058986282 0 0.077692308094581719 0.31417877058986282 0 0.067976715374811009 0.32361441744144559 0 0.058789612577710128 0.31476722793512929 0 0.08294133613319174 0.33756664360252769 0 0.077692308094581719 0.31417877058986282 0 0.067976715374811009 0.32361441744144559 0 0.08294133613319174 0.33756664360252769 0 0.067976715374811009 0.32361441744144559 0 0.060135280265193262 0.33376627043538171 0 0.08294133613319174 0.33756664360252769 0 0.061241293644231747 0.35091954433174621 0 0.060135280265193262 0.33376627043538171 0 0.08294133613319174 0.33756664360252769 0 0.061241293644231747 0.35091954433174621 0 0.08294133613319174 0.33756664360252769 0 0.074215767858206258 0.35718016320722129 0 0.061241293644231747 0.35091954433174621 0 0.074215767858206258 0.35718016320722129 0 0.062117748859898458 0.36500130546073062 0 0.061241293644231747 0.35091954433174621 0 0.08294133613319174 0.33756664360252769 0 0.074215767858206258 0.35718016320722129 0 0.086887140600208246 0.35260595290123381 0 0.074215767858206258 0.35718016320722129 0 0.086887140600208246 0.35260595290123381 0 0.085272644414092907 0.36373677956425621 0 0.095546341163152998 0.34721348103654748 0 0.095306363846323322 0.35760506086541671 0 0.086887140600208246 0.35260595290123381 0 0.095306363846323322 0.35760506086541671 0 0.086887140600208246 0.35260595290123381 0 0.085272644414092907 0.36373677956425621 0 0.095546341163152998 0.34721348103654748 0 0.08294133613319174 0.33756664360252769 0 0.086887140600208246 0.35260595290123381 0 0.082619379705498486 0.3760424233717975 0 0.096111415589441723 0.36906918257109511 0 0.085272644414092907 0.36373677956425621 0 0.095306363846323322 0.35760506086541671 0 0.096111415589441723 0.36906918257109511 0 0.085272644414092907 0.36373677956425621 0 0.074215767858206258 0.35718016320722129 0 0.085272644414092907 0.36373677956425621 0 0.075022727430642186 0.36942391052545742 0 0.082619379705498486 0.3760424233717975 0 0.085272644414092907 0.36373677956425621 0 0.075022727430642186 0.36942391052545742 0 0.071205150989249344 0.38459031979425368 0 0.075022727430642186 0.36942391052545742 0 0.062117748859898458 0.36500130546073062 0 0.071205150989249344 0.38459031979425368 0 0.062117748859898458 0.36500130546073062 0 0.074215767858206258 0.35718016320722129 0 0.075022727430642186 0.36942391052545742 0 0.062117748859898458 0.36500130546073062 0 0.062117748859898458 0.36500130546073062 0 0.061241293644231747 0.35091954433174621 0 0.039541251155271878 0.36427244506096468 0 0.051605655867250001 0.38149668432143541 0 0.062117748859898458 0.36500130546073062 0 0.039541251155271878 0.36427244506096468 0 0.061241293644231747 0.35091954433174621 0 0.039541251155271878 0.36427244506096468 0 0.061241293644231747 0.35091954433174621 0 0.044784474582475392 0.34869393697364293 0 0.052607857505341568 0.34198871306916279 0 0.061241293644231747 0.35091954433174621 0 0.044784474582475392 0.34869393697364293 0 0.039541251155271878 0.36427244506096468 0 0.044784474582475392 0.34869393697364293 0 0.039541251155271878 0.36427244506096468 0 0.023969970644136189 0.34780247639640383 0 0.017841208666312069 0.37762534579018298 0 0.039541251155271878 0.36427244506096468 0 0.022364176625033282 0.36301365865426333 0 0.017841208666312069 0.37762534579018298 0 0.035089121590226528 0.38253825820529852 0 0.039541251155271878 0.36427244506096468 0 0.017841208666312069 0.37762534579018298 0 0.039541251155271878 0.36427244506096468 0 0.017841208666312069 0.37762534579018298 0 0.022364176625033282 0.36301365865426333 0 0.0070688581490178301 0.36290469613376197 0 0.022364176625033282 0.36301365865426333 0 0.023969970644136189 0.34780247639640383 0 0.0070688581490178301 0.36290469613376197 0 0.039541251155271878 0.36427244506096468 0 0.022364176625033282 0.36301365865426333 0 0.023969970644136189 0.34780247639640383 0 0.023969970644136189 0.34780247639640383 0 0.0070688581490178301 0.36290469613376197 0 0.010160838263171251 0.33572436441868259 0 -0.0072621374188671052 0.34147004492185079 0 0.0070688581490178301 0.36290469613376197 0 0.010160838263171251 0.33572436441868259 0 -0.0036227877329230301 0.37947700469323042 0 0.017841208666312069 0.37762534579018298 0 0.0070688581490178301 0.36290469613376197 0 -0.00017254440855824261 0.32560037032276101 0 0.010160838263171251 0.33572436441868259 0 0.020336227673690289 0.32045890090113183 0 -0.0025045175740335168 0.31031314766219981 0 -0.00017254440855824261 0.32560037032276101 0 0.020336227673690289 0.32045890090113183 0 -0.0072621374188671052 0.34147004492185079 0 -0.00017254440855824261 0.32560037032276101 0 0.010160838263171251 0.33572436441868259 0 0.023969970644136189 0.34780247639640383 0 0.010160838263171251 0.33572436441868259 0 0.020336227673690289 0.32045890090113183 0 0.023969970644136189 0.34780247639640383 0 0.020336227673690289 0.32045890090113183 0 0.041998086792626607 0.33406523967628299 0 0.04333949094528719 0.3160267531553359 0 0.041998086792626607 0.33406523967628299 0 0.052729264779742331 0.32427979797466039 0 0.020336227673690289 0.32045890090113183 0 0.04333949094528719 0.3160267531553359 0 0.041998086792626607 0.33406523967628299 0 0.044784474582475392 0.34869393697364293 0 0.023969970644136189 0.34780247639640383 0 0.041998086792626607 0.33406523967628299 0 0.044784474582475392 0.34869393697364293 0 0.041998086792626607 0.33406523967628299 0 0.052607857505341568 0.34198871306916279 0 0.061241293644231747 0.35091954433174621 0 0.052607857505341568 0.34198871306916279 0 0.060135280265193262 0.33376627043538171 0 0.041998086792626607 0.33406523967628299 0 0.060135280265193262 0.33376627043538171 0 0.052729264779742331 0.32427979797466039 0 0.041998086792626607 0.33406523967628299 0 0.052607857505341568 0.34198871306916279 0 0.060135280265193262 0.33376627043538171 0 0.04333949094528719 0.3160267531553359 0 0.052729264779742331 0.32427979797466039 0 0.058789612577710128 0.31476722793512929 0 0.067976715374811009 0.32361441744144559 0 0.052729264779742331 0.32427979797466039 0 0.058789612577710128 0.31476722793512929 0 0.067976715374811009 0.32361441744144559 0 0.060135280265193262 0.33376627043538171 0 0.052729264779742331 0.32427979797466039 0 0.058789612577710128 0.31476722793512929 0 0.050743237567011198 0.30414379830640997 0 0.077692308094581719 0.31417877058986282 0 0.058789612577710128 0.31476722793512929 0 0.050743237567011198 0.30414379830640997 0 0.04333949094528719 0.3160267531553359 0 0.058789612577710128 0.31476722793512929 0 0.050743237567011198 0.30414379830640997 0 0.050743237567011198 0.30414379830640997 0 0.057014991513141711 0.27962034081982778 0 0.068251428351683213 0.29416468787043332 0 0.050743237567011198 0.30414379830640997 0 0.035335655862959579 0.28380154980765537 0 0.057014991513141711 0.27962034081982778 0 0.050743237567011198 0.30414379830640997 0 0.035335655862959579 0.28380154980765537 0 0.050743237567011198 0.30414379830640997 0 0.035335655862959579 0.28380154980765537 0 0.035440516280943121 0.29844555413839979 0 0.020336227673690289 0.32045890090113183 0 0.04333949094528719 0.3160267531553359 0 0.035440516280943121 0.29844555413839979 0 0.04333949094528719 0.3160267531553359 0 0.050743237567011198 0.30414379830640997 0 0.035440516280943121 0.29844555413839979 0 0.050743237567011198 0.30414379830640997 0 0.035440516280943121 0.29844555413839979 0 0.020336227673690289 0.32045890090113183 0 0.035440516280943121 0.29844555413839979 0 0.020137794994874249 0.2927473099703915 0 0.020336227673690289 0.32045890090113183 0 0.020137794994874249 0.2927473099703915 0 0.020336227673690289 0.32045890090113183 0 0.020137794994874249 0.2927473099703915 0 0.010209922096268529 0.3014659822355169 0 0.035335655862959579 0.28380154980765537 0 0.035440516280943121 0.29844555413839979 0 0.020137794994874249 0.2927473099703915 0 0.035440516280943121 0.29844555413839979 0 0.020137794994874249 0.2927473099703915 0 0.020137794994874249 0.2927473099703915 0 0.014388475155295941 0.29060644707198668 0 0.01992807415890703 0.26345930130890138 0 0.020137794994874249 0.2927473099703915 0 0.014388475155295941 0.29060644707198668 0 0.020137794994874249 0.2927473099703915 0 0.014388475155295941 0.29060644707198668 0 0.010209922096268529 0.3014659822355169 0 -0.001308369768482999 0.29320410557187471 0 0.014388475155295941 0.29060644707198668 0 0.010209922096268529 0.3014659822355169 0 -0.001308369768482999 0.29320410557187471 0 0.014388475155295941 0.29060644707198668 0 0.0042686616650212863 0.27440264234540929 0 -0.0025045175740335168 0.31031314766219981 0 0.020336227673690289 0.32045890090113183 0 0.010209922096268529 0.3014659822355169 0 -0.0025045175740335168 0.31031314766219981 0 -0.001308369768482999 0.29320410557187471 0 0.010209922096268529 0.3014659822355169 0 0.0108212759879371 0.25143582124693198 0 0.0045166499774289158 0.26107549289106269 0 0.01992807415890703 0.26345930130890138 0 0.0108212759879371 0.25143582124693198 0 0.01992807415890703 0.26345930130890138 0 -0.004361582131907446 0.25012675423618741 0 0.0108212759879371 0.25143582124693198 0 0.0045166499774289158 0.26107549289106269 0 -0.0080731797928139601 0.26595294531788349 0 0.0045166499774289158 0.26107549289106269 0 0.0042686616650212863 0.27440264234540929 0 0.014388475155295941 0.29060644707198668 0 0.0042686616650212863 0.27440264234540929 0 0.01992807415890703 0.26345930130890138 0 0.0045166499774289158 0.26107549289106269 0 0.0042686616650212863 0.27440264234540929 0 0.01992807415890703 0.26345930130890138 0 0.020137794994874249 0.2927473099703915 0 0.01992807415890703 0.26345930130890138 0 0.035335655862959579 0.28380154980765537 0 0.020137794994874249 0.2927473099703915 0 0.01992807415890703 0.26345930130890138 0 0.035335655862959579 0.28380154980765537 0 0.01992807415890703 0.26345930130890138 0 0.019733428038529611 0.23627651218177001 0 0.0108212759879371 0.25143582124693198 0 0.01992807415890703 0.26345930130890138 0 0.032395297456559217 0.24990448186487541 0 0.01992807415890703 0.26345930130890138 0 0.043558334625058162 0.26267399305688549 0 0.049298807743375681 0.24401567068345059 0 0.032395297456559217 0.24990448186487541 0 0.043558334625058162 0.26267399305688549 0 0.035335655862959579 0.28380154980765537 0 0.01992807415890703 0.26345930130890138 0 0.043558334625058162 0.26267399305688549 0 0.035335655862959579 0.28380154980765537 0 0.043558334625058162 0.26267399305688549 0 0.057014991513141711 0.27962034081982778 0 0.043558334625058162 0.26267399305688549 0 0.057014991513141711 0.27962034081982778 0 0.068539877812152941 0.25484826761588569 0 0.049298807743375681 0.24401567068345059 0 0.043558334625058162 0.26267399305688549 0 0.068539877812152941 0.25484826761588569 0 0.068539877812152941 0.25484826761588569 0 0.094153496178737847 0.25278652485753728 0 0.068539877812152941 0.25484826761588569 0 0.094153496178737847 0.25278652485753728 0 0.094570315268327418 0.27155612350054997 0 0.076756394676448791 0.2775889904003081 0 0.087579642181032397 0.29054902922906578 0 0.094570315268327418 0.27155612350054997 0 0.068539877812152941 0.25484826761588569 0 0.076756394676448791 0.2775889904003081 0 0.094570315268327418 0.27155612350054997 0 0.057014991513141711 0.27962034081982778 0 0.068539877812152941 0.25484826761588569 0 0.076756394676448791 0.2775889904003081 0 0.076756394676448791 0.2775889904003081 0 0.068251428351683213 0.29416468787043332 0 0.087579642181032397 0.29054902922906578 0 0.057014991513141711 0.27962034081982778 0 0.076756394676448791 0.2775889904003081 0 0.068251428351683213 0.29416468787043332 0 0.077692308094581719 0.31417877058986282 0 0.050743237567011198 0.30414379830640997 0 0.068251428351683213 0.29416468787043332 0 0.077692308094581719 0.31417877058986282 0 0.050743237567011198 0.30414379830640997 0 0.077692308094581719 0.31417877058986282 0 0.068251428351683213 0.29416468787043332 0 0.087579642181032397 0.29054902922906578 0 0.077692308094581719 0.31417877058986282 0 0.087579642181032397 0.29054902922906578 0 0.1000908984509512 0.30112340397666981 0 0.087579642181032397 0.29054902922906578 0 0.1081165082442021 0.28468219903657133 0 0.1000908984509512 0.30112340397666981 0 0.1081165082442021 0.28468219903657133 0 0.1000908984509512 0.30112340397666981 0 0.1144297267004354 0.30168664743999352 0 0.087579642181032397 0.29054902922906578 0 0.1081165082442021 0.28468219903657133 0 0.094570315268327418 0.27155612350054997 0 0.077692308094581719 0.31417877058986282 0 0.1000908984509512 0.30112340397666981 0 0.103629968386694 0.31192557858664272 0 0.1000908984509512 0.30112340397666981 0 0.103629968386694 0.31192557858664272 0 0.1144297267004354 0.30168664743999352 0 0.1167242617350734 0.31677866348064548 0 0.1144297267004354 0.30168664743999352 0 0.13022117462186741 0.30154725623692402 0 0.1167242617350734 0.31677866348064548 0 0.103629968386694 0.31192557858664272 0 0.1144297267004354 0.30168664743999352 0 0.1081165082442021 0.28468219903657133 0 0.1144297267004354 0.30168664743999352 0 0.12390947864198219 0.28542069115612873 0 0.1144297267004354 0.30168664743999352 0 0.12390947864198219 0.28542069115612873 0 0.13022117462186741 0.30154725623692402 0 0.112671388523889 0.26641905049976811 0 0.123100174820058 0.26168293397560438 0 0.12910128816626559 0.2715879755468264 0 0.1081165082442021 0.28468219903657133 0 0.12390947864198219 0.28542069115612873 0 0.112671388523889 0.26641905049976811 0 0.12390947864198219 0.28542069115612873 0 0.112671388523889 0.26641905049976811 0 0.12910128816626559 0.2715879755468264 0 0.112671388523889 0.26641905049976811 0 0.123100174820058 0.26168293397560438 0 0.1197671145453226 0.2507247820991888 0 0.112671388523889 0.26641905049976811 0 0.1197671145453226 0.2507247820991888 0 0.094153496178737847 0.25278652485753728 0 0.112671388523889 0.26641905049976811 0 0.094153496178737847 0.25278652485753728 0 0.094570315268327418 0.27155612350054997 0 0.1197671145453226 0.2507247820991888 0 0.094153496178737847 0.25278652485753728 0 0.1081165082442021 0.28468219903657133 0 0.112671388523889 0.26641905049976811 0 0.094570315268327418 0.27155612350054997 0 0.1484138213405074 0.25936399499983281 0 0.14891678559523411 0.28660101817668943 0 0.16201232330786131 0.26387346548696822 0 0.1484138213405074 0.25936399499983281 0 0.1401857002278207 0.2693725498640136 0 0.14891678559523411 0.28660101817668943 0 0.1484138213405074 0.25936399499983281 0 0.14891678559523411 0.28660101817668943 0 0.15466915334416509 0.25190660019890743 0 0.1484138213405074 0.25936399499983281 0 0.16201232330786131 0.26387346548696822 0 0.1453807329119074 0.24866303934084041 0 0.15466915334416509 0.25190660019890743 0 0.1484138213405074 0.25936399499983281 0 0.1453807329119074 0.24866303934084041 0 0.1484138213405074 0.25936399499983281 0 0.13431090580927579 0.25993721073270593 0 0.1484138213405074 0.25936399499983281 0 0.13431090580927579 0.25993721073270593 0 0.1401857002278207 0.2693725498640136 0 0.1453807329119074 0.24866303934084041 0 0.1197671145453226 0.2507247820991888 0 0.13431090580927579 0.25993721073270593 0 0.123100174820058 0.26168293397560438 0 0.1197671145453226 0.2507247820991888 0 0.13431090580927579 0.25993721073270593 0 0.123100174820058 0.26168293397560438 0 0.13431090580927579 0.25993721073270593 0 0.12910128816626559 0.2715879755468264 0 0.12910128816626559 0.2715879755468264 0 0.1401857002278207 0.2693725498640136 0 0.14891678559523411 0.28660101817668943 0 0.12390947864198219 0.28542069115612873 0 0.12910128816626559 0.2715879755468264 0 0.14891678559523411 0.28660101817668943 0 0.13431090580927579 0.25993721073270593 0 0.12910128816626559 0.2715879755468264 0 0.1401857002278207 0.2693725498640136 0 0.12390947864198219 0.28542069115612873 0 0.13022117462186741 0.30154725623692402 0 0.14891678559523411 0.28660101817668943 0 0.13022117462186741 0.30154725623692402 0 0.1494197498499607 0.31383804135354598 0 0.13362732087883861 0.31825791726589631 0 0.1167242617350734 0.31677866348064548 0 0.13022117462186741 0.30154725623692402 0 0.13362732087883861 0.31825791726589631 0 0.14891678559523411 0.28660101817668943 0 0.16502192730860321 0.29833672799327199 0 0.1494197498499607 0.31383804135354598 0 0.14891678559523411 0.28660101817668943 0 0.1494197498499607 0.31383804135354598 0 0.13022117462186741 0.30154725623692402 0 0.14891678559523411 0.28660101817668943 0 0.1494197498499607 0.31383804135354598 0 0.14891678559523411 0.28660101817668943 0 0.16502192730860321 0.29833672799327199 0 0.17258825255407231 0.27567175281796641 0 0.16502192730860321 0.29833672799327199 0 0.17750724151807151 0.31691505049664243 0 0.1494197498499607 0.31383804135354598 0 0.16502192730860321 0.29833672799327199 0 0.18306544781706219 0.29535972807124689 0 0.17750724151807151 0.31691505049664243 0 0.18306544781706219 0.29535972807124689 0 0.19825331032735899 0.30649929221888439 0 0.17750724151807151 0.31691505049664243 0 0.16502192730860321 0.29833672799327199 0 0.18306544781706219 0.29535972807124689 0 0.17258825255407231 0.27567175281796641 0 0.18306544781706219 0.29535972807124689 0 0.17258825255407231 0.27567175281796641 0 0.19225514168233229 0.27637801024750158 0 0.17258825255407231 0.27567175281796641 0 0.18608903078984079 0.25995697105729071 0 0.19225514168233229 0.27637801024750158 0 0.17258825255407231 0.27567175281796641 0 0.16201232330786131 0.26387346548696822 0 0.17332134199895571 0.25758983019522791 0 0.14891678559523411 0.28660101817668943 0 0.17258825255407231 0.27567175281796641 0 0.16201232330786131 0.26387346548696822 0 0.1648484701696567 0.24744362212440471 0 0.15466915334416509 0.25190660019890743 0 0.16201232330786131 0.26387346548696822 0 0.1648484701696567 0.24744362212440471 0 0.16201232330786131 0.26387346548696822 0 0.17332134199895571 0.25758983019522791 0 0.17921266192405369 0.24485401564359771 0 0.17332134199895571 0.25758983019522791 0 0.18608903078984079 0.25995697105729071 0 0.17258825255407231 0.27567175281796641 0 0.17332134199895571 0.25758983019522791 0 0.18608903078984079 0.25995697105729071 0 0.19643052809465181 0.2433224828713732 0 0.18608903078984079 0.25995697105729071 0 0.20272625848497891 0.26192573456807738 0 0.18608903078984079 0.25995697105729071 0 0.20272625848497891 0.26192573456807738 0 0.19225514168233229 0.27637801024750158 0 0.19225514168233229 0.27637801024750158 0 0.20931999553351249 0.2747097540570328 0 0.20479240245397259 0.28930189362021808 0 0.20272625848497891 0.26192573456807738 0 0.19225514168233229 0.27637801024750158 0 0.20931999553351249 0.2747097540570328 0 0.20272625848497891 0.26192573456807738 0 0.20931999553351249 0.2747097540570328 0 0.22276706595432569 0.26722786124429282 0 0.19643052809465181 0.2433224828713732 0 0.20272625848497891 0.26192573456807738 0 0.21668623523937189 0.25273648673926968 0 0.20272625848497891 0.26192573456807738 0 0.21668623523937189 0.25273648673926968 0 0.22276706595432569 0.26722786124429282 0 0.23190300684591059 0.2469757189771403 0 0.21668623523937189 0.25273648673926968 0 0.2340167615655426 0.26024144399058702 0 0.21668623523937189 0.25273648673926968 0 0.2340167615655426 0.26024144399058702 0 0.22276706595432569 0.26722786124429282 0 0.20931999553351249 0.2747097540570328 0 0.22276706595432569 0.26722786124429282 0 0.23407023324957901 0.28358253799766081 0 0.22276706595432569 0.26722786124429282 0 0.2428012282252888 0.27040414858390061 0 0.23407023324957901 0.28358253799766081 0 0.2340167615655426 0.26024144399058702 0 0.22276706595432569 0.26722786124429282 0 0.2428012282252888 0.27040414858390061 0 0.2428012282252888 0.27040414858390061 0 0.23407023324957901 0.28358253799766081 0 0.25491758893057909 0.27951005592881761 0 0.2428012282252888 0.27040414858390061 0 0.23407023324957901 0.28358253799766081 0 0.2428012282252888 0.27040414858390061 0 0.25153222320099622 0.25722575917013901 0 0.25536006440587672 0.26878811273571068 0 0.2428012282252888 0.27040414858390061 0 0.25153222320099622 0.25722575917013901 0 0.2340167615655426 0.26024144399058702 0 0.2428012282252888 0.27040414858390061 0 0.25153222320099622 0.25722575917013901 0 0.24791323415382371 0.2458877298954085 0 0.23190300684591059 0.2469757189771403 0 0.25153222320099622 0.25722575917013901 0 0.23190300684591059 0.2469757189771403 0 0.2340167615655426 0.26024144399058702 0 0.25153222320099622 0.25722575917013901 0 0.23190300684591059 0.2469757189771403 0 0.25153222320099622 0.25722575917013901 0 0.24543399627141721 0.29887735901603257 0 0.2199905643657564 0.30483410896799212 0 0.2412863906095909 0.31706614216088019 0 0.24543399627141721 0.29887735901603257 0 0.2412863906095909 0.31706614216088019 0 0.26071219069447599 0.31197788889560879 0 0.24543399627141721 0.29887735901603257 0 0.23407023324957901 0.28358253799766081 0 0.25491758893057909 0.27951005592881761 0 0.23407023324957901 0.28358253799766081 0 0.25491758893057909 0.27951005592881761 0 0.23407023324957901 0.28358253799766081 0 0.2199905643657564 0.30483410896799212 0 0.20479240245397259 0.28930189362021808 0 0.24543399627141721 0.29887735901603257 0 0.23407023324957901 0.28358253799766081 0 0.2199905643657564 0.30483410896799212 0 0.23407023324957901 0.28358253799766081 0 0.20479240245397259 0.28930189362021808 0 0.23407023324957901 0.28358253799766081 0 0.2199905643657564 0.30483410896799212 0 0.2199905643657564 0.30483410896799212 0 0.19825331032735899 0.30649929221888439 0 0.20591089548193209 0.32608567993832238 0 0.2199905643657564 0.30483410896799212 0 0.20479240245397259 0.28930189362021808 0 0.19825331032735899 0.30649929221888439 0 0.20931999553351249 0.2747097540570328 0 0.23407023324957901 0.28358253799766081 0 0.20479240245397259 0.28930189362021808 0 0.18306544781706219 0.29535972807124689 0 0.19225514168233229 0.27637801024750158 0 0.20479240245397259 0.28930189362021808 0 0.18306544781706219 0.29535972807124689 0 0.20479240245397259 0.28930189362021808 0 0.19825331032735899 0.30649929221888439 0 0.19825331032735899 0.30649929221888439 0 0.20591089548193209 0.32608567993832238 0 0.17750724151807151 0.31691505049664243 0 0.20591089548193209 0.32608567993832238 0 0.1834453935528689 0.33477958080273051 0 0.17750724151807151 0.31691505049664243 0 0.20591089548193209 0.32608567993832238 0 0.1918312265981009 0.34733725090864831 0 0.1834453935528689 0.33477958080273051 0 0.20591089548193209 0.32608567993832238 0 0.1918312265981009 0.34733725090864831 0 0.2120062173118393 0.34341212619813682 0 0.20591089548193209 0.32608567993832238 0 0.2241124479696345 0.32285479690430968 0 0.2120062173118393 0.34341212619813682 0 0.20591089548193209 0.32608567993832238 0 0.1918312265981009 0.34733725090864831 0 0.2199905643657564 0.30483410896799212 0 0.20591089548193209 0.32608567993832238 0 0.2199905643657564 0.30483410896799212 0 0.20591089548193209 0.32608567993832238 0 0.2241124479696345 0.32285479690430968 0 0.2199905643657564 0.30483410896799212 0 0.2241124479696345 0.32285479690430968 0 0.2412863906095909 0.31706614216088019 0 0.2241124479696345 0.32285479690430968 0 0.23218120802557979 0.3394870014876365 0 0.2412863906095909 0.31706614216088019 0 0.2120062173118393 0.34341212619813682 0 0.2241124479696345 0.32285479690430968 0 0.23218120802557979 0.3394870014876365 0 0.2120062173118393 0.34341212619813682 0 0.23218120802557979 0.3394870014876365 0 0.23218120802557979 0.3394870014876365 0 0.2412863906095909 0.31706614216088019 0 0.25235619873932041 0.33556187677713623 0 0.23218120802557979 0.3394870014876365 0 0.25235619873932041 0.33556187677713623 0 0.23218120802557979 0.3394870014876365 0 0.2438273554430464 0.34812574592335249 0 0.25235619873932041 0.33556187677713623 0 0.2412863906095909 0.31706614216088019 0 0.25496362040665271 0.32267745764425643 0 0.25235619873932041 0.33556187677713623 0 0.2444030594993066 0.36261468031945582 0 0.22630598985240971 0.37543582988375418 0 0.247713784970646 0.38075050805242922 0 0.2444030594993066 0.36261468031945582 0 0.22630598985240971 0.37543582988375418 0 0.2444030594993066 0.36261468031945582 0 0.247713784970646 0.38075050805242922 0 0.25490457918629872 0.37507349251653871 0 0.2444030594993066 0.36261468031945582 0 0.2438273554430464 0.34812574592335249 0 0.25711451900508148 0.35258648987221092 0 0.23218120802557979 0.3394870014876365 0 0.2438273554430464 0.34812574592335249 0 0.2288636426087374 0.35578594420060722 0 0.2444030594993066 0.36261468031945582 0 0.2438273554430464 0.34812574592335249 0 0.2288636426087374 0.35578594420060722 0 0.2120062173118393 0.34341212619813682 0 0.23218120802557979 0.3394870014876365 0 0.2288636426087374 0.35578594420060722 0 0.2444030594993066 0.36261468031945582 0 0.2288636426087374 0.35578594420060722 0 0.22630598985240971 0.37543582988375418 0 0.2288636426087374 0.35578594420060722 0 0.21324276167256731 0.36206450472990792 0 0.22630598985240971 0.37543582988375418 0 0.21324276167256731 0.36206450472990792 0 0.19654986060048771 0.37047802484019998 0 0.20820892020551271 0.38825697944805271 0 0.2120062173118393 0.34341212619813682 0 0.2288636426087374 0.35578594420060722 0 0.21324276167256731 0.36206450472990792 0 0.2120062173118393 0.34341212619813682 0 0.21324276167256731 0.36206450472990792 0 0.1918312265981009 0.34733725090864831 0 0.2120062173118393 0.34341212619813682 0 0.1918312265981009 0.34733725090864831 0 0.1918312265981009 0.34733725090864831 0 0.19654986060048771 0.37047802484019998 0 0.1753588575145448 0.37220031576602253 0 0.21324276167256731 0.36206450472990792 0 0.1918312265981009 0.34733725090864831 0 0.19654986060048771 0.37047802484019998 0 0.1918312265981009 0.34733725090864831 0 0.1753588575145448 0.37220031576602253 0 0.1731188016947007 0.36781558424519839 0 0.1753588575145448 0.37220031576602253 0 0.1802318714797885 0.35236122573149797 0 0.1731188016947007 0.36781558424519839 0 0.167364966647951 0.35975083588178058 0 0.1802318714797885 0.35236122573149797 0 0.1731188016947007 0.36781558424519839 0 0.1753588575145448 0.37220031576602253 0 0.1731188016947007 0.36781558424519839 0 0.1753588575145448 0.37220031576602253 0 0.16523354001105911 0.37409983959611109 0 0.1731188016947007 0.36781558424519839 0 0.16523354001105911 0.37409983959611109 0 0.1662459251842697 0.36710584608423269 0 0.167364966647951 0.35975083588178058 0 0.15926639238336801 0.36675712461384091 0 0.15018796347142391 0.35543911342959528 0 0.167364966647951 0.35975083588178058 0 0.1662459251842697 0.36710584608423269 0 0.15926639238336801 0.36675712461384091 0 0.1731188016947007 0.36781558424519839 0 0.167364966647951 0.35975083588178058 0 0.1662459251842697 0.36710584608423269 0 0.16523354001105911 0.37409983959611109 0 0.15926639238336801 0.36675712461384091 0 0.15062115634747231 0.37889780715207888 0 0.16523354001105911 0.37409983959611109 0 0.1662459251842697 0.36710584608423269 0 0.15926639238336801 0.36675712461384091 0 0.1753506460241005 0.35054361342806389 0 0.14992271410468949 0.34107506453040248 0 0.167364966647951 0.35975083588178058 0 0.1753506460241005 0.35054361342806389 0 0.15018796347142391 0.35543911342959528 0 0.1753506460241005 0.35054361342806389 0 0.14992271410468949 0.34107506453040248 0 0.15018796347142391 0.35543911342959528 0 0.1753506460241005 0.35054361342806389 0 0.15018796347142391 0.35543911342959528 0 0.1918312265981009 0.34733725090864831 0 0.1753506460241005 0.35054361342806389 0 0.1918312265981009 0.34733725090864831 0 0.1753506460241005 0.35054361342806389 0 0.1834453935528689 0.33477958080273051 0 0.1918312265981009 0.34733725090864831 0 0.1753506460241005 0.35054361342806389 0 0.1802318714797885 0.35236122573149797 0 0.1918312265981009 0.34733725090864831 0 0.1753588575145448 0.37220031576602253 0 0.1802318714797885 0.35236122573149797 0 0.1753506460241005 0.35054361342806389 0 0.1802318714797885 0.35236122573149797 0 0.167364966647951 0.35975083588178058 0 0.1753506460241005 0.35054361342806389 0 0.1802318714797885 0.35236122573149797 0 0.1753506460241005 0.35054361342806389 0 0.1834453935528689 0.33477958080273051 0 0.1666269581421321 0.33301630924197367 0 0.1834453935528689 0.33477958080273051 0 0.17750724151807151 0.31691505049664243 0 0.1666269581421321 0.33301630924197367 0 0.17750724151807151 0.31691505049664243 0 0.1666269581421321 0.33301630924197367 0 0.1494197498499607 0.31383804135354598 0 0.1753506460241005 0.35054361342806389 0 0.1666269581421321 0.33301630924197367 0 0.14992271410468949 0.34107506453040248 0 0.1666269581421321 0.33301630924197367 0 0.14992271410468949 0.34107506453040248 0 0.1494197498499607 0.31383804135354598 0 0.14992271410468949 0.34107506453040248 0 0.1494197498499607 0.31383804135354598 0 0.14992271410468949 0.34107506453040248 0 0.1494197498499607 0.31383804135354598 0 0.13362732087883861 0.31825791726589631 0 0.1167242617350734 0.31677866348064548 0 0.13362732087883861 0.31825791726589631 0 0.12728204636342119 0.33264440370185788 0 0.14992271410468949 0.34107506453040248 0 0.13362732087883861 0.31825791726589631 0 0.12728204636342119 0.33264440370185788 0 0.14992271410468949 0.34107506453040248 0 0.12728204636342119 0.33264440370185788 0 0.1327104347709552 0.34833671648866182 0 0.14992271410468949 0.34107506453040248 0 0.12728204636342119 0.33264440370185788 0 0.12728204636342119 0.33264440370185788 0 0.12565642337597641 0.34531162420386119 0 0.1327104347709552 0.34833671648866182 0 0.1207019799918789 0.36117572882690419 0 0.1327104347709552 0.34833671648866182 0 0.15018796347142391 0.35543911342959528 0 0.12020614592151201 0.35183052892485178 0 0.12565642337597641 0.34531162420386119 0 0.1327104347709552 0.34833671648866182 0 0.1207019799918789 0.36117572882690419 0 0.15018796347142391 0.35543911342959528 0 0.1207019799918789 0.36117572882690419 0 0.13593835547877689 0.36822566204290602 0 0.15018796347142391 0.35543911342959528 0 0.1207019799918789 0.36117572882690419 0 0.1269429757455281 0.3700741961410311 0 0.13593835547877689 0.36822566204290602 0 0.1269429757455281 0.3700741961410311 0 0.13593835547877689 0.36822566204290602 0 0.12936302614305781 0.3806702380723882 0 0.13593835547877689 0.36822566204290602 0 0.15018796347142391 0.35543911342959528 0 0.15062115634747231 0.37889780715207888 0 0.15018796347142391 0.35543911342959528 0 0.15062115634747231 0.37889780715207888 0 0.15926639238336801 0.36675712461384091 0 0.15018796347142391 0.35543911342959528 0 0.15062115634747231 0.37889780715207888 0 0.14992271410468949 0.34107506453040248 0 0.1327104347709552 0.34833671648866182 0 0.15018796347142391 0.35543911342959528 0 0.14992271410468949 0.34107506453040248 0 0.15018796347142391 0.35543911342959528 0 0.14138495384440489 0.39322107909200571 0 0.1317921164680903 0.40545952647836342 0 0.15222999220591241 0.40711056306127658 0 0.14138495384440489 0.39322107909200571 0 0.15222999220591241 0.40711056306127658 0 0.16379442486022849 0.38965543941364961 0 0.14138495384440489 0.39322107909200571 0 0.15062115634747231 0.37889780715207888 0 0.16379442486022849 0.38965543941364961 0 0.13593835547877689 0.36822566204290602 0 0.15062115634747231 0.37889780715207888 0 0.12936302614305781 0.3806702380723882 0 0.14138495384440489 0.39322107909200571 0 0.15062115634747231 0.37889780715207888 0 0.12936302614305781 0.3806702380723882 0 0.12302526621810631 0.39483339242702431 0 0.14138495384440489 0.39322107909200571 0 0.12936302614305781 0.3806702380723882 0 0.12302526621810631 0.39483339242702431 0 0.14138495384440489 0.39322107909200571 0 0.1317921164680903 0.40545952647836342 0 0.1238244133614653 0.41259348140785829 0 0.11966152561727041 0.40521647558469348 0 0.1317921164680903 0.40545952647836342 0 0.1238244133614653 0.41259348140785829 0 0.1317921164680903 0.40545952647836342 0 0.13391702338258271 0.41648007558095218 0 0.1317921164680903 0.40545952647836342 0 0.13391702338258271 0.41648007558095218 0 0.15222999220591241 0.40711056306127658 0 0.1206950902667107 0.42206632785564402 0 0.1238244133614653 0.41259348140785829 0 0.13391702338258271 0.41648007558095218 0 0.14066555955159241 0.42456568670890099 0 0.128144127290927 0.44346528644618949 0 0.13429496844172059 0.42708486797366702 0 0.14066555955159241 0.42456568670890099 0 0.128144127290927 0.44346528644618949 0 0.14066555955159241 0.42456568670890099 0 0.1468621194973313 0.4432032004000479 0 0.128144127290927 0.44346528644618949 0 0.1206950902667107 0.42206632785564402 0 0.13391702338258271 0.41648007558095218 0 0.13429496844172059 0.42708486797366702 0 0.13391702338258271 0.41648007558095218 0 0.13429496844172059 0.42708486797366702 0 0.14066555955159241 0.42456568670890099 0 0.13429496844172059 0.42708486797366702 0 0.14066555955159241 0.42456568670890099 0 0.14066555955159241 0.42456568670890099 0 0.16808955766080291 0.41960022257260449 0 0.15915405200730839 0.43380743940711708 0 0.14066555955159241 0.42456568670890099 0 0.16808955766080291 0.41960022257260449 0 0.14066555955159241 0.42456568670890099 0 0.15915405200730839 0.43380743940711708 0 0.1468621194973313 0.4432032004000479 0 0.14066555955159241 0.42456568670890099 0 0.15222999220591241 0.40711056306127658 0 0.14066555955159241 0.42456568670890099 0 0.15222999220591241 0.40711056306127658 0 0.16201542307939579 0.41612311438285787 0 0.14066555955159241 0.42456568670890099 0 0.16201542307939579 0.41612311438285787 0 0.13391702338258271 0.41648007558095218 0 0.14066555955159241 0.42456568670890099 0 0.15222999220591241 0.40711056306127658 0 0.16201542307939579 0.41612311438285787 0 0.16941052998224071 0.40948279892878392 0 0.18336528660720119 0.40768054205682042 0 0.16808955766080291 0.41960022257260449 0 0.16201542307939579 0.41612311438285787 0 0.18336528660720119 0.40768054205682042 0 0.14066555955159241 0.42456568670890099 0 0.16808955766080291 0.41960022257260449 0 0.16201542307939579 0.41612311438285787 0 0.15222999220591241 0.40711056306127658 0 0.16201542307939579 0.41612311438285787 0 0.1623232745498161 0.40583988766108697 0 0.16201542307939579 0.41612311438285787 0 0.16941052998224071 0.40948279892878392 0 0.1623232745498161 0.40583988766108697 0 0.16808955766080291 0.41960022257260449 0 0.15915405200730839 0.43380743940711708 0 0.1766721112776041 0.43405941705504181 0 0.18398920852212189 0.42222731617319992 0 0.1766721112776041 0.43405941705504181 0 0.19310721835761019 0.42992761007563862 0 0.16808955766080291 0.41960022257260449 0 0.18398920852212189 0.42222731617319992 0 0.1766721112776041 0.43405941705504181 0 0.1766721112776041 0.43405941705504181 0 0.19310721835761019 0.42992761007563862 0 0.189468296445607 0.44161966517716561 0 0.16808955766080291 0.41960022257260449 0 0.18398920852212189 0.42222731617319992 0 0.19637406676339619 0.41333592033168631 0 0.16201542307939579 0.41612311438285787 0 0.18336528660720119 0.40768054205682042 0 0.16808955766080291 0.41960022257260449 0 0.19637406676339619 0.41333592033168631 0 0.16808955766080291 0.41960022257260449 0 0.18336528660720119 0.40768054205682042 0 0.19637406676339619 0.41333592033168631 0 0.16941052998224071 0.40948279892878392 0 0.18336528660720119 0.40768054205682042 0 0.18177969473327391 0.40698117398671069 0 0.16941052998224071 0.40948279892878392 0 0.18177969473327391 0.40698117398671069 0 0.17544170441619431 0.40324048585703531 0 0.17550339911694879 0.39641485139935639 0 0.16379442486022849 0.38965543941364961 0 0.18273535403657959 0.38663922238918558 0 0.18177969473327391 0.40698117398671069 0 0.18171278421578699 0.39924093208501849 0 0.19011185055861429 0.40107812901234902 0 0.18336528660720119 0.40768054205682042 0 0.18177969473327391 0.40698117398671069 0 0.19011185055861429 0.40107812901234902 0 0.18177969473327391 0.40698117398671069 0 0.19011185055861429 0.40107812901234902 0 0.18171278421578699 0.39924093208501849 0 0.17550339911694879 0.39641485139935639 0 0.18273535403657959 0.38663922238918558 0 0.18171278421578699 0.39924093208501849 0 0.18273535403657959 0.38663922238918558 0 0.19011185055861429 0.40107812901234902 0 0.18273535403657959 0.38663922238918558 0 0.19011185055861429 0.40107812901234902 0 0.18177969473327391 0.40698117398671069 0 0.18171278421578699 0.39924093208501849 0 0.17544170441619431 0.40324048585703531 0 0.18171278421578699 0.39924093208501849 0 0.17550339911694879 0.39641485139935639 0 0.17544170441619431 0.40324048585703531 0 0.17550339911694879 0.39641485139935639 0 0.17544170441619431 0.40324048585703531 0 0.1689722959232661 0.40169126431279728 0 0.16941052998224071 0.40948279892878392 0 0.17544170441619431 0.40324048585703531 0 0.1689722959232661 0.40169126431279728 0 0.1689722959232661 0.40169126431279728 0 0.1623232745498161 0.40583988766108697 0 0.16379442486022849 0.38965543941364961 0 0.15222999220591241 0.40711056306127658 0 0.1623232745498161 0.40583988766108697 0 0.16379442486022849 0.38965543941364961 0 0.15222999220591241 0.40711056306127658 0 0.16379442486022849 0.38965543941364961 0 0.16941052998224071 0.40948279892878392 0 0.1689722959232661 0.40169126431279728 0 0.1623232745498161 0.40583988766108697 0 0.17550339911694879 0.39641485139935639 0 0.1689722959232661 0.40169126431279728 0 0.16379442486022849 0.38965543941364961 0 0.1753588575145448 0.37220031576602253 0 0.16523354001105911 0.37409983959611109 0 0.16379442486022849 0.38965543941364961 0 0.1753588575145448 0.37220031576602253 0 0.16379442486022849 0.38965543941364961 0 0.16523354001105911 0.37409983959611109 0 0.15062115634747231 0.37889780715207888 0 0.16379442486022849 0.38965543941364961 0 0.1753588575145448 0.37220031576602253 0 0.18273535403657959 0.38663922238918558 0 0.1753588575145448 0.37220031576602253 0 0.16379442486022849 0.38965543941364961 0 0.18273535403657959 0.38663922238918558 0 0.19654986060048771 0.37047802484019998 0 0.1753588575145448 0.37220031576602253 0 0.18273535403657959 0.38663922238918558 0 0.19654986060048771 0.37047802484019998 0 0.18273535403657959 0.38663922238918558 0 0.20820892020551271 0.38825697944805271 0 0.19011185055861429 0.40107812901234902 0 0.20820892020551271 0.38825697944805271 0 0.19011185055861429 0.40107812901234902 0 0.20429538739721931 0.40183734425620671 0 0.20820892020551271 0.38825697944805271 0 0.18273535403657959 0.38663922238918558 0 0.19011185055861429 0.40107812901234902 0 0.20820892020551271 0.38825697944805271 0 0.19011185055861429 0.40107812901234902 0 0.20429538739721931 0.40183734425620671 0 0.19637406676339619 0.41333592033168631 0 0.20429538739721931 0.40183734425620671 0 0.20820892020551271 0.38825697944805271 0 0.2202735525657262 0.39552406566479109 0 0.20429538739721931 0.40183734425620671 0 0.2202735525657262 0.39552406566479109 0 0.2145024493426794 0.40932094283274068 0 0.21324276167256731 0.36206450472990792 0 0.20820892020551271 0.38825697944805271 0 0.22630598985240971 0.37543582988375418 0 0.20820892020551271 0.38825697944805271 0 0.22630598985240971 0.37543582988375418 0 0.20820892020551271 0.38825697944805271 0 0.22630598985240971 0.37543582988375418 0 0.2202735525657262 0.39552406566479109 0 0.22630598985240971 0.37543582988375418 0 0.2319341774640927 0.38940141535347877 0 0.2202735525657262 0.39552406566479109 0 0.2202735525657262 0.39552406566479109 0 0.23263083192196299 0.40530596533379709 0 0.2145024493426794 0.40932094283274068 0 0.2319341774640927 0.38940141535347877 0 0.2202735525657262 0.39552406566479109 0 0.23263083192196299 0.40530596533379709 0 0.2386671862694576 0.40396906576347452 0 0.24985329529781791 0.39990667252734718 0 0.247713784970646 0.38075050805242922 0 0.2319341774640927 0.38940141535347877 0 0.23263083192196299 0.40530596533379709 0 0.247713784970646 0.38075050805242922 0 0.23263083192196299 0.40530596533379709 0 0.247713784970646 0.38075050805242922 0 0.23263083192196299 0.40530596533379709 0 0.2386671862694576 0.40396906576347452 0 0.247713784970646 0.38075050805242922 0 0.23263083192196299 0.40530596533379709 0 0.2386671862694576 0.40396906576347452 0 0.23263083192196299 0.40530596533379709 0 0.2386671862694576 0.40396906576347452 0 0.23835521004243199 0.40923349084829558 0 0.2386671862694576 0.40396906576347452 0 0.24985329529781791 0.39990667252734718 0 0.23835521004243199 0.40923349084829558 0 0.22630598985240971 0.37543582988375418 0 0.2319341774640927 0.38940141535347877 0 0.247713784970646 0.38075050805242922 0 0.2385665307870003 0.42747740564887549 0 0.25702987725108101 0.42925349536772212 0 0.2385665307870003 0.42747740564887549 0 0.2488221034234695 0.4223051763495565 0 0.25702987725108101 0.42925349536772212 0 0.2385665307870003 0.42747740564887549 0 0.2448364132796593 0.44231000148378752 0 0.25702987725108101 0.42925349536772212 0 0.2385665307870003 0.42747740564887549 0 0.2406669044851476 0.42214558790778223 0 0.2368791315523423 0.42061341875551328 0 0.2385665307870003 0.42747740564887549 0 0.2406669044851476 0.42214558790778223 0 0.2488221034234695 0.4223051763495565 0 0.24985329529781791 0.39990667252734718 0 0.2383998521777784 0.41818635087718381 0 0.24985329529781791 0.39990667252734718 0 0.23835521004243199 0.40923349084829558 0 0.2383998521777784 0.41818635087718381 0 0.24985329529781791 0.39990667252734718 0 0.2383998521777784 0.41818635087718381 0 0.25380059083303341 0.40846212201461762 0 0.2406669044851476 0.42214558790778223 0 0.2488221034234695 0.4223051763495565 0 0.2383998521777784 0.41818635087718381 0 0.23835521004243199 0.40923349084829558 0 0.2350244704201927 0.41211241555610317 0 0.2383998521777784 0.41818635087718381 0 0.23263083192196299 0.40530596533379709 0 0.23835521004243199 0.40923349084829558 0 0.2350244704201927 0.41211241555610317 0 0.2406669044851476 0.42214558790778223 0 0.2383998521777784 0.41818635087718381 0 0.2368791315523423 0.42061341875551328 0 0.2350244704201927 0.41211241555610317 0 0.2383998521777784 0.41818635087718381 0 0.23071198753859651 0.41572385516513549 0 0.2383998521777784 0.41818635087718381 0 0.2368791315523423 0.42061341875551328 0 0.2383998521777784 0.41818635087718381 0 0.2368791315523423 0.42061341875551328 0 0.22312475613875049 0.42078211493492951 0 0.23263083192196299 0.40530596533379709 0 0.2145024493426794 0.40932094283274068 0 0.23263083192196299 0.40530596533379709 0 0.22312475613875049 0.42078211493492951 0 0.2145024493426794 0.40932094283274068 0 0.2383998521777784 0.41818635087718381 0 0.22312475613875049 0.42078211493492951 0 0.2383998521777784 0.41818635087718381 0 0.23071198753859651 0.41572385516513549 0 0.22312475613875049 0.42078211493492951 0 0.23263083192196299 0.40530596533379709 0 0.2350244704201927 0.41211241555610317 0 0.23071198753859651 0.41572385516513549 0 0.23263083192196299 0.40530596533379709 0 0.23071198753859651 0.41572385516513549 0 0.22312475613875049 0.42078211493492951 0 0.23263083192196299 0.40530596533379709 0 0.22312475613875049 0.42078211493492951 0 0.2385665307870003 0.42747740564887549 0 0.2201031843229195 0.42570131593002969 0 0.2201031843229195 0.42570131593002969 0 0.21059740683120351 0.44117697990449289 0 0.23005064234993169 0.44460645584696262 0 0.2385665307870003 0.42747740564887549 0 0.22312475613875049 0.42078211493492951 0 0.2201031843229195 0.42570131593002969 0 0.22312475613875049 0.42078211493492951 0 0.2201031843229195 0.42570131593002969 0 0.2385665307870003 0.42747740564887549 0 0.2201031843229195 0.42570131593002969 0 0.23005064234993169 0.44460645584696262 0 0.2385665307870003 0.42747740564887549 0 0.2368791315523423 0.42061341875551328 0 0.22312475613875049 0.42078211493492951 0 0.22312475613875049 0.42078211493492951 0 0.2201031843229195 0.42570131593002969 0 0.20354836167302259 0.42410881749736329 0 0.20096476004407141 0.4356284052502909 0 0.202011140198494 0.4243700442839049 0 0.21059740683120351 0.44117697990449289 0 0.20354836167302259 0.42410881749736329 0 0.202011140198494 0.4243700442839049 0 0.21059740683120351 0.44117697990449289 0 0.2201031843229195 0.42570131593002969 0 0.21059740683120351 0.44117697990449289 0 0.2201031843229195 0.42570131593002969 0 0.20354836167302259 0.42410881749736329 0 0.21059740683120351 0.44117697990449289 0 0.2201031843229195 0.42570131593002969 0 0.20354836167302259 0.42410881749736329 0 0.202011140198494 0.4243700442839049 0 0.21059740683120351 0.44117697990449289 0 0.22312475613875049 0.42078211493492951 0 0.20354836167302259 0.42410881749736329 0 0.2145024493426794 0.40932094283274068 0 0.19637406676339619 0.41333592033168631 0 0.22312475613875049 0.42078211493492951 0 0.20354836167302259 0.42410881749736329 0 0.2145024493426794 0.40932094283274068 0 0.20429538739721931 0.40183734425620671 0 0.2145024493426794 0.40932094283274068 0 0.19637406676339619 0.41333592033168631 0 0.20354836167302259 0.42410881749736329 0 0.2145024493426794 0.40932094283274068 0 0.19637406676339619 0.41333592033168631 0 0.18398920852212189 0.42222731617319992 0 0.19637406676339619 0.41333592033168631 0 0.202011140198494 0.4243700442839049 0 0.20354836167302259 0.42410881749736329 0 0.19637406676339619 0.41333592033168631 0 0.202011140198494 0.4243700442839049 0 0.19637406676339619 0.41333592033168631 0 0.202011140198494 0.4243700442839049 0 0.19011185055861429 0.40107812901234902 0 0.19637406676339619 0.41333592033168631 0 0.18336528660720119 0.40768054205682042 0 0.19011185055861429 0.40107812901234902 0 0.19637406676339619 0.41333592033168631 0 0.18398920852212189 0.42222731617319992 0 0.202011140198494 0.4243700442839049 0 0.19310721835761019 0.42992761007563862 0 0.18398920852212189 0.42222731617319992 0 0.202011140198494 0.4243700442839049 0 0.20096476004407141 0.4356284052502909 0 0.19931207414017729 0.42860996549168562 0 0.19310721835761019 0.42992761007563862 0 0.19931207414017729 0.42860996549168562 0 0.202011140198494 0.4243700442839049 0 0.19310721835761019 0.42992761007563862 0 0.20096476004407141 0.4356284052502909 0 0.19931207414017729 0.42860996549168562 0 0.202011140198494 0.4243700442839049 0 0.20354836167302259 0.42410881749736329 0 0.202011140198494 0.4243700442839049 0 0.20096476004407141 0.4356284052502909 0 0.19310721835761019 0.42992761007563862 0 0.189468296445607 0.44161966517716561 0 0.189468296445607 0.44161966517716561 0 0.19808345402660399 0.44429013419941671 0 0.18816718916202771 0.45764189265325561 0 0.19808345402660399 0.44429013419941671 0 0.18816718916202771 0.45764189265325561 0 0.20509446468425149 0.45013591920339668 0 0.20096476004407141 0.4356284052502909 0 0.189468296445607 0.44161966517716561 0 0.19808345402660399 0.44429013419941671 0 0.18816718916202771 0.45764189265325561 0 0.2005182123172754 0.46504183791057307 0 0.20509446468425149 0.45013591920339668 0 0.18816718916202771 0.45764189265325561 0 0.2005182123172754 0.46504183791057307 0 0.18719455148605621 0.47613314112345201 0 0.2103116034304838 0.4602104470792151 0 0.21059740683120351 0.44117697990449289 0 0.22229140550900001 0.46406705440744211 0 0.2103116034304838 0.4602104470792151 0 0.22229140550900001 0.46406705440744211 0 0.21058997783642669 0.48154513501692131 0 0.2005182123172754 0.46504183791057307 0 0.2103116034304838 0.4602104470792151 0 0.20509446468425149 0.45013591920339668 0 0.21059740683120351 0.44117697990449289 0 0.22229140550900001 0.46406705440744211 0 0.2103116034304838 0.4602104470792151 0 0.21059740683120351 0.44117697990449289 0 0.20509446468425149 0.45013591920339668 0 0.20096476004407141 0.4356284052502909 0 0.19808345402660399 0.44429013419941671 0 0.21059740683120351 0.44117697990449289 0 0.19808345402660399 0.44429013419941671 0 0.21059740683120351 0.44117697990449289 0 0.20509446468425149 0.45013591920339668 0 0.21059740683120351 0.44117697990449289 0 0.20509446468425149 0.45013591920339668 0 0.21059740683120351 0.44117697990449289 0 0.23005064234993169 0.44460645584696262 0 0.22229140550900001 0.46406705440744211 0 0.23005064234993169 0.44460645584696262 0 0.22229140550900001 0.46406705440744211 0 0.24184120684035099 0.4581976946154846 0 0.22229140550900001 0.46406705440744211 0 0.24184120684035099 0.4581976946154846 0 0.24193409961780649 0.47367643658526698 0 0.24184120684035099 0.4581976946154846 0 0.2448364132796593 0.44231000148378752 0 0.25709847220363119 0.45283566357848187 0 0.23005064234993169 0.44460645584696262 0 0.24184120684035099 0.4581976946154846 0 0.2448364132796593 0.44231000148378752 0 0.2385665307870003 0.42747740564887549 0 0.23005064234993169 0.44460645584696262 0 0.2448364132796593 0.44231000148378752 0 0.24064869911215761 0.50000000000000244 0 0.24324303354975521 0.48909866857844392 0 0.2572356621087325 0.50000000000000155 0 0.24324303354975521 0.48909866857844392 0 0.2339854041867972 0.48695712891039089 0 0.24064869911215761 0.50000000000000244 0 0.24324303354975521 0.48909866857844392 0 0.2339854041867972 0.48695712891039089 0 0.24064869911215761 0.50000000000000244 0 0.2339854041867972 0.48695712891039089 0 0.24184120684035099 0.4581976946154846 0 0.24193409961780649 0.47367643658526698 0 0.25716706715618193 0.47641783178924169 0 0.24324303354975521 0.48909866857844392 0 0.24193409961780649 0.47367643658526698 0 0.25716706715618193 0.47641783178924169 0 0.24324303354975521 0.48909866857844392 0 0.24193409961780649 0.47367643658526698 0 0.2339854041867972 0.48695712891039089 0 0.22229140550900001 0.46406705440744211 0 0.24193409961780649 0.47367643658526698 0 0.2339854041867972 0.48695712891039089 0 0.22229140550900001 0.46406705440744211 0 0.2339854041867972 0.48695712891039089 0 0.22229140550900001 0.46406705440744211 0 0.2339854041867972 0.48695712891039089 0 0.21058997783642669 0.48154513501692131 0 0.2339854041867972 0.48695712891039089 0 0.21058997783642669 0.48154513501692131 0 0.2339854041867972 0.48695712891039089 0 0.21314400247467591 0.5 0 0.21058997783642669 0.48154513501692131 0 0.24064869911215761 0.50000000000000244 0 0.2339854041867972 0.48695712891039089 0 0.21314400247467591 0.5 0 0.21314400247467591 0.5 0 0.21058997783642669 0.48154513501692131 0 0.19841687033665559 0.48922266484742172 0 0.2005182123172754 0.46504183791057307 0 0.2103116034304838 0.4602104470792151 0 0.21058997783642669 0.48154513501692131 0 0.21058997783642669 0.48154513501692131 0 0.18719455148605621 0.47613314112345201 0 0.21058997783642669 0.48154513501692131 0 0.19841687033665559 0.48922266484742172 0 0.18719455148605621 0.47613314112345201 0 0.2005182123172754 0.46504183791057307 0 0.21058997783642669 0.48154513501692131 0 0.18719455148605621 0.47613314112345201 0 0.21314400247467591 0.5 0 0.19841687033665559 0.48922266484742172 0 0.18563930583719421 0.5 0 0.19841687033665559 0.48922266484742172 0 0.18563930583719421 0.5 0 0.18719455148605621 0.47613314112345201 0 0.18563930583719421 0.5 0 0.17133697046385701 0.48683307990629038 0 0.18719455148605621 0.47613314112345201 0 0.17133697046385701 0.48683307990629038 0 0.15813460919971251 0.5 0 0.1479106042039405 0.48283460682922269 0 0.18563930583719421 0.5 0 0.17133697046385701 0.48683307990629038 0 0.15813460919971251 0.5 0 0.17133697046385701 0.48683307990629038 0 0.16379912513568581 0.47072114722998237 0 0.1479106042039405 0.48283460682922269 0 0.17133697046385701 0.48683307990629038 0 0.16379912513568581 0.47072114722998237 0 0.18719455148605621 0.47613314112345201 0 0.16379912513568581 0.47072114722998237 0 0.18719455148605621 0.47613314112345201 0 0.18816718916202771 0.45764189265325561 0 0.16379912513568581 0.47072114722998237 0 0.18719455148605621 0.47613314112345201 0 0.18816718916202771 0.45764189265325561 0 0.16379912513568581 0.47072114722998237 0 0.1764896290127039 0.45007039086196288 0 0.1766721112776041 0.43405941705504181 0 0.1764896290127039 0.45007039086196288 0 0.16434142304259489 0.44630983219436898 0 0.189468296445607 0.44161966517716561 0 0.18816718916202771 0.45764189265325561 0 0.1764896290127039 0.45007039086196288 0 0.1766721112776041 0.43405941705504181 0 0.189468296445607 0.44161966517716561 0 0.1764896290127039 0.45007039086196288 0 0.15915405200730839 0.43380743940711708 0 0.1766721112776041 0.43405941705504181 0 0.16434142304259489 0.44630983219436898 0 0.15915405200730839 0.43380743940711708 0 0.16434142304259489 0.44630983219436898 0 0.1468621194973313 0.4432032004000479 0 0.16379912513568581 0.47072114722998237 0 0.1764896290127039 0.45007039086196288 0 0.16434142304259489 0.44630983219436898 0 0.16379912513568581 0.47072114722998237 0 0.16434142304259489 0.44630983219436898 0 0.15386760244336481 0.45613183796281243 0 0.16379912513568581 0.47072114722998237 0 0.15386760244336481 0.45613183796281243 0 0.14046774209784721 0.46429317202685039 0 0.15386760244336481 0.45613183796281243 0 0.1468621194973313 0.4432032004000479 0 0.14046774209784721 0.46429317202685039 0 0.16434142304259489 0.44630983219436898 0 0.15386760244336481 0.45613183796281243 0 0.1468621194973313 0.4432032004000479 0 0.1468621194973313 0.4432032004000479 0 0.128144127290927 0.44346528644618949 0 0.14046774209784721 0.46429317202685039 0 0.11648320602364499 0.46106604807885698 0 0.128144127290927 0.44346528644618949 0 0.14046774209784721 0.46429317202685039 0 0.11648320602364499 0.46106604807885698 0 0.14046774209784721 0.46429317202685039 0 0.12567845600013469 0.47929569400969452 0 0.14046774209784721 0.46429317202685039 0 0.12567845600013469 0.47929569400969452 0 0.1479106042039405 0.48283460682922269 0 0.12567845600013469 0.47929569400969452 0 0.1306299125622308 0.5 0 0.1479106042039405 0.48283460682922269 0 0.15813460919971251 0.5 0 0.1306299125622308 0.5 0 0.1479106042039405 0.48283460682922269 0 0.16379912513568581 0.47072114722998237 0 0.14046774209784721 0.46429317202685039 0 0.1479106042039405 0.48283460682922269 0 0.34528538451660062 0.47773379418631268 0 0.36004097027348331 0.48461391470660581 0 0.33995603526071178 0.48633656933393699 0 0.3490806650621458 0.46922782941321262 0 0.36004097027348331 0.48461391470660581 0 0.36717500093372668 0.46757054210475929 0 0.3490806650621458 0.46922782941321262 0 0.36004097027348331 0.48461391470660581 0 0.3490806650621458 0.46922782941321262 0 0.34528538451660062 0.47773379418631268 0 0.36004097027348331 0.48461391470660581 0 0.34701069105550569 0.5 0 0.36004097027348331 0.48461391470660581 0 0.33995603526071178 0.48633656933393699 0 0.34701069105550569 0.5 0 0.36004097027348331 0.48461391470660581 0 0.37100127548482031 0.49999999999999922 0 0.36004097027348331 0.48461391470660581 0 0.37100127548482031 0.49999999999999922 0 0.37501723488010369 0.48021086780116401 0 0.36004097027348331 0.48461391470660581 0 0.37100127548482031 0.49999999999999922 0 0.36004097027348331 0.48461391470660581 0 0.36717500093372668 0.46757054210475929 0 0.37501723488010369 0.48021086780116401 0 0.37143629651032872 0.45720686114999193 0 0.36367632925015653 0.45252291112370391 0 0.35567836915472589 0.45678778088016703 0 0.36415499449082389 0.46121224231392488 0 0.37143629651032872 0.45720686114999193 0 0.38198070339643708 0.45705904394289942 0 0.36415499449082389 0.46121224231392488 0 0.37143629651032872 0.45720686114999193 0 0.35567836915472589 0.45678778088016703 0 0.36415499449082389 0.46121224231392488 0 0.36717500093372668 0.46757054210475929 0 0.38198070339643708 0.45705904394289942 0 0.36415499449082389 0.46121224231392488 0 0.38198070339643708 0.45705904394289942 0 0.3490806650621458 0.46922782941321262 0 0.36415499449082389 0.46121224231392488 0 0.36717500093372668 0.46757054210475929 0 0.37143629651032872 0.45720686114999193 0 0.35567836915472589 0.45678778088016703 0 0.37143629651032872 0.45720686114999193 0 0.36657482697318761 0.446748226791508 0 0.38198070339643708 0.45705904394289942 0 0.36657482697318761 0.446748226791508 0 0.37193014631584848 0.42999924720615068 0 0.38198070339643708 0.45705904394289942 0 0.37143629651032872 0.45720686114999193 0 0.36367632925015653 0.45252291112370391 0 0.36657482697318761 0.446748226791508 0 0.36367632925015653 0.45252291112370391 0 0.36657482697318761 0.446748226791508 0 0.3562845012834378 0.4482926986491193 0 0.34808057550305938 0.44600590612250468 0 0.35567836915472589 0.45678778088016703 0 0.33992044179912329 0.45636870061034079 0 0.36657482697318761 0.446748226791508 0 0.3562845012834378 0.4482926986491193 0 0.35414098508291708 0.43540859867718368 0 0.3562845012834378 0.4482926986491193 0 0.34808057550305938 0.44600590612250468 0 0.35414098508291708 0.43540859867718368 0 0.36367632925015653 0.45252291112370391 0 0.3562845012834378 0.4482926986491193 0 0.35567836915472589 0.45678778088016703 0 0.3562845012834378 0.4482926986491193 0 0.34808057550305938 0.44600590612250468 0 0.35567836915472589 0.45678778088016703 0 0.34808057550305938 0.44600590612250468 0 0.33961570140635172 0.4362099185178574 0 0.35414098508291708 0.43540859867718368 0 0.35567836915472589 0.45678778088016703 0 0.34632928558521042 0.46536544068494828 0 0.33992044179912329 0.45636870061034079 0 0.35567836915472589 0.45678778088016703 0 0.33992044179912329 0.45636870061034079 0 0.3490806650621458 0.46922782941321262 0 0.36415499449082389 0.46121224231392488 0 0.34632928558521042 0.46536544068494828 0 0.3490806650621458 0.46922782941321262 0 0.36717500093372668 0.46757054210475929 0 0.36415499449082389 0.46121224231392488 0 0.35567836915472589 0.45678778088016703 0 0.34632928558521042 0.46536544068494828 0 0.36415499449082389 0.46121224231392488 0 0.34632928558521042 0.46536544068494828 0 0.3490806650621458 0.46922782941321262 0 0.34632928558521042 0.46536544068494828 0 0.3490806650621458 0.46922782941321262 0 0.34632928558521042 0.46536544068494828 0 0.32696081697792789 0.47125381941113659 0 0.34632928558521042 0.46536544068494828 0 0.32521862645877231 0.47028399711148339 0 0.34632928558521042 0.46536544068494828 0 0.33992044179912329 0.45636870061034079 0 0.32521862645877231 0.47028399711148339 0 0.34632928558521042 0.46536544068494828 0 0.33992044179912329 0.45636870061034079 0 0.34808057550305938 0.44600590612250468 0 0.3323541236552271 0.44574709709892307 0 0.33961570140635172 0.4362099185178574 0 0.33992044179912329 0.45636870061034079 0 0.3323541236552271 0.44574709709892307 0 0.32253421818534123 0.44684829148095362 0 0.34808057550305938 0.44600590612250468 0 0.33992044179912329 0.45636870061034079 0 0.3323541236552271 0.44574709709892307 0 0.33992044179912329 0.45636870061034079 0 0.3323541236552271 0.44574709709892307 0 0.3323541236552271 0.44574709709892307 0 0.32610359684421192 0.43678193879044119 0 0.33961570140635172 0.4362099185178574 0 0.33992044179912329 0.45636870061034079 0 0.32253421818534123 0.44684829148095362 0 0.3152464127007425 0.45571249763777588 0 0.32253421818534123 0.44684829148095362 0 0.3152464127007425 0.45571249763777588 0 0.31209623941360759 0.43776564917250638 0 0.3152464127007425 0.45571249763777588 0 0.31209623941360759 0.43776564917250638 0 0.3323541236552271 0.44574709709892307 0 0.32253421818534123 0.44684829148095362 0 0.32610359684421192 0.43678193879044119 0 0.32253421818534123 0.44684829148095362 0 0.31209623941360759 0.43776564917250638 0 0.32610359684421192 0.43678193879044119 0 0.33992044179912329 0.45636870061034079 0 0.3152464127007425 0.45571249763777588 0 0.32521862645877231 0.47028399711148339 0 0.3152464127007425 0.45571249763777588 0 0.31913325966346701 0.47785624881888772 0 0.32521862645877231 0.47028399711148339 0 0.33992044179912329 0.45636870061034079 0 0.3152464127007425 0.45571249763777588 0 0.3152464127007425 0.45571249763777588 0 0.31913325966346701 0.47785624881888772 0 0.30420975952634299 0.46947331586472302 0 0.3152464127007425 0.45571249763777588 0 0.31913325966346701 0.47785624881888772 0 0.31913325966346701 0.47785624881888772 0 0.32591742888426312 0.47548348654552591 0 0.329001796240801 0.48161473987402198 0 0.32591742888426312 0.47548348654552591 0 0.32927264508034731 0.47640862751209928 0 0.329001796240801 0.48161473987402198 0 0.31913325966346701 0.47785624881888772 0 0.32591742888426312 0.47548348654552591 0 0.32521862645877231 0.47028399711148339 0 0.32591742888426312 0.47548348654552591 0 0.32696081697792789 0.47125381941113659 0 0.32927264508034731 0.47640862751209928 0 0.32591742888426312 0.47548348654552591 0 0.32521862645877231 0.47028399711148339 0 0.32696081697792789 0.47125381941113659 0 0.3490806650621458 0.46922782941321262 0 0.32696081697792789 0.47125381941113659 0 0.33647616413196407 0.47630837646213342 0 0.34632928558521042 0.46536544068494828 0 0.32521862645877231 0.47028399711148339 0 0.32696081697792789 0.47125381941113659 0 0.32696081697792789 0.47125381941113659 0 0.32927264508034731 0.47640862751209928 0 0.33647616413196407 0.47630837646213342 0 0.3490806650621458 0.46922782941321262 0 0.32696081697792789 0.47125381941113659 0 0.32927264508034731 0.47640862751209928 0 0.329001796240801 0.48161473987402198 0 0.33647616413196407 0.47630837646213342 0 0.329001796240801 0.48161473987402198 0 0.33647616413196407 0.47630837646213342 0 0.33995603526071178 0.48633656933393699 0 0.34528538451660062 0.47773379418631268 0 0.33647616413196407 0.47630837646213342 0 0.33995603526071178 0.48633656933393699 0 0.3490806650621458 0.46922782941321262 0 0.34528538451660062 0.47773379418631268 0 0.33647616413196407 0.47630837646213342 0 0.329001796240801 0.48161473987402198 0 0.33995603526071178 0.48633656933393699 0 0.32302010662619118 0.49999999999999961 0 0.34701069105550569 0.5 0 0.33995603526071178 0.48633656933393699 0 0.32302010662619118 0.49999999999999961 0 0.31913325966346701 0.47785624881888772 0 0.32302010662619118 0.49999999999999961 0 0.30499869470741492 0.48476163660817662 0 0.31913325966346701 0.47785624881888772 0 0.329001796240801 0.48161473987402198 0 0.32302010662619118 0.49999999999999961 0 0.31913325966346701 0.47785624881888772 0 0.32302010662619118 0.49999999999999961 0 0.30109195845370501 0.5 0 0.30499869470741492 0.48476163660817662 0 0.28958375731165181 0.48005255167767952 0 0.32302010662619118 0.49999999999999961 0 0.30109195845370501 0.5 0 0.30499869470741492 0.48476163660817662 0 0.31913325966346701 0.47785624881888772 0 0.30499869470741492 0.48476163660817662 0 0.30420975952634299 0.46947331586472302 0 0.30499869470741492 0.48476163660817662 0 0.30420975952634299 0.46947331586472302 0 0.28958375731165181 0.48005255167767952 0 0.30109195845370501 0.5 0 0.28958375731165181 0.48005255167767952 0 0.27916381028121873 0.5 0 0.27916381028121873 0.5 0 0.27240166341444522 0.48425749185169831 0 0.2572356621087325 0.50000000000000155 0 0.28958375731165181 0.48005255167767952 0 0.27916381028121873 0.5 0 0.27240166341444522 0.48425749185169831 0 0.27240166341444522 0.48425749185169831 0 0.25716706715618193 0.47641783178924169 0 0.27345808637904001 0.4661952126215072 0 0.28958375731165181 0.48005255167767952 0 0.27240166341444522 0.48425749185169831 0 0.27345808637904001 0.4661952126215072 0 0.25716706715618193 0.47641783178924169 0 0.2572356621087325 0.50000000000000155 0 0.24324303354975521 0.48909866857844392 0 0.25716706715618193 0.47641783178924169 0 0.2572356621087325 0.50000000000000155 0 0.27240166341444522 0.48425749185169831 0 0.25716706715618193 0.47641783178924169 0 0.2572356621087325 0.50000000000000155 0 0.25709847220363119 0.45283566357848187 0 0.25702987725108101 0.42925349536772212 0 0.25709847220363119 0.45283566357848187 0 0.25702987725108101 0.42925349536772212 0 0.25836746492245471 0.43174768403659147 0 0.25709847220363119 0.45283566357848187 0 0.2660695066302855 0.43871015010979147 0 0.25836746492245471 0.43174768403659147 0 0.2448364132796593 0.44231000148378752 0 0.25709847220363119 0.45283566357848187 0 0.25702987725108101 0.42925349536772212 0 0.25716706715618193 0.47641783178924169 0 0.25709847220363119 0.45283566357848187 0 0.25716706715618193 0.47641783178924169 0 0.25709847220363119 0.45283566357848187 0 0.27345808637904001 0.4661952126215072 0 0.24184120684035099 0.4581976946154846 0 0.25716706715618193 0.47641783178924169 0 0.25709847220363119 0.45283566357848187 0 0.27345808637904001 0.4661952126215072 0 0.27379346358837398 0.44854793932786308 0 0.29070409459995628 0.45505979750407899 0 0.25709847220363119 0.45283566357848187 0 0.27345808637904001 0.4661952126215072 0 0.27379346358837398 0.44854793932786308 0 0.25709847220363119 0.45283566357848187 0 0.27379346358837398 0.44854793932786308 0 0.2660695066302855 0.43871015010979147 0 0.27379346358837398 0.44854793932786308 0 0.2660695066302855 0.43871015010979147 0 0.27312045032292342 0.43870088492299869 0 0.27379346358837398 0.44854793932786308 0 0.27312045032292342 0.43870088492299869 0 0.28291697042830632 0.43588410089467061 0 0.27379346358837398 0.44854793932786308 0 0.29070409459995628 0.45505979750407899 0 0.28291697042830632 0.43588410089467061 0 0.29070409459995628 0.45505979750407899 0 0.29777872383227422 0.43475991775429229 0 0.28291697042830632 0.43588410089467061 0 0.28958375731165181 0.48005255167767952 0 0.27345808637904001 0.4661952126215072 0 0.29070409459995628 0.45505979750407899 0 0.30420975952634299 0.46947331586472302 0 0.28958375731165181 0.48005255167767952 0 0.29070409459995628 0.45505979750407899 0 0.3152464127007425 0.45571249763777588 0 0.30420975952634299 0.46947331586472302 0 0.29070409459995628 0.45505979750407899 0 0.3152464127007425 0.45571249763777588 0 0.29070409459995628 0.45505979750407899 0 0.3152464127007425 0.45571249763777588 0 0.29070409459995628 0.45505979750407899 0 0.31209623941360759 0.43776564917250638 0 0.29070409459995628 0.45505979750407899 0 0.31209623941360759 0.43776564917250638 0 0.29777872383227422 0.43475991775429229 0 0.29777872383227422 0.43475991775429229 0 0.28982240375417168 0.42299913491174501 0 0.31495791781995791 0.41600820478279921 0 0.31209623941360759 0.43776564917250638 0 0.29777872383227422 0.43475991775429229 0 0.31495791781995791 0.41600820478279921 0 0.28982240375417168 0.42299913491174501 0 0.31495791781995791 0.41600820478279921 0 0.28950248352475311 0.4095022566254774 0 0.28982240375417168 0.42299913491174501 0 0.31495791781995791 0.41600820478279921 0 0.28950248352475311 0.4095022566254774 0 0.29925209770985872 0.40107025153885512 0 0.31495791781995791 0.41600820478279921 0 0.28950248352475311 0.4095022566254774 0 0.28982240375417168 0.42299913491174501 0 0.27496603255160451 0.42014298348928741 0 0.29777872383227422 0.43475991775429229 0 0.28982240375417168 0.42299913491174501 0 0.28291697042830632 0.43588410089467061 0 0.28982240375417168 0.42299913491174501 0 0.26935029905594432 0.43043866375212297 0 0.26468688968838561 0.42999006504069143 0 0.27312045032292342 0.43870088492299869 0 0.28291697042830632 0.43588410089467061 0 0.26935029905594432 0.43043866375212297 0 0.28982240375417168 0.42299913491174501 0 0.26468688968838561 0.42999006504069143 0 0.28982240375417168 0.42299913491174501 0 0.28291697042830632 0.43588410089467061 0 0.26935029905594432 0.43043866375212297 0 0.28982240375417168 0.42299913491174501 0 0.27496603255160451 0.42014298348928741 0 0.26468688968838561 0.42999006504069143 0 0.2660695066302855 0.43871015010979147 0 0.26935029905594432 0.43043866375212297 0 0.26468688968838561 0.42999006504069143 0 0.2660695066302855 0.43871015010979147 0 0.27312045032292342 0.43870088492299869 0 0.26935029905594432 0.43043866375212297 0 0.26935029905594432 0.43043866375212297 0 0.26468688968838561 0.42999006504069143 0 0.27496603255160451 0.42014298348928741 0 0.26468688968838561 0.42999006504069143 0 0.2651281327625446 0.42188031555685962 0 0.28950248352475311 0.4095022566254774 0 0.26395116785126571 0.41384430375133069 0 0.28950248352475311 0.4095022566254774 0 0.27496603255160451 0.42014298348928741 0 0.26395116785126571 0.41384430375133069 0 0.28950248352475311 0.4095022566254774 0 0.26395116785126571 0.41384430375133069 0 0.27343145984221179 0.40601604463393609 0 0.26395116785126571 0.41384430375133069 0 0.26299804800527138 0.40191116090260848 0 0.27343145984221179 0.40601604463393609 0 0.27496603255160451 0.42014298348928741 0 0.26395116785126571 0.41384430375133069 0 0.2651281327625446 0.42188031555685962 0 0.26395116785126571 0.41384430375133069 0 0.25700903327720531 0.4220875730974884 0 0.2651281327625446 0.42188031555685962 0 0.2383998521777784 0.41818635087718381 0 0.26395116785126571 0.41384430375133069 0 0.25380059083303341 0.40846212201461762 0 0.2488221034234695 0.4223051763495565 0 0.2383998521777784 0.41818635087718381 0 0.26395116785126571 0.41384430375133069 0 0.2383998521777784 0.41818635087718381 0 0.26395116785126571 0.41384430375133069 0 0.26395116785126571 0.41384430375133069 0 0.25380059083303341 0.40846212201461762 0 0.26299804800527138 0.40191116090260848 0 0.2488221034234695 0.4223051763495565 0 0.26395116785126571 0.41384430375133069 0 0.25700903327720531 0.4220875730974884 0 0.2488221034234695 0.4223051763495565 0 0.25700903327720531 0.4220875730974884 0 0.25702987725108101 0.42925349536772212 0 0.25700903327720531 0.4220875730974884 0 0.25702987725108101 0.42925349536772212 0 0.25836746492245471 0.43174768403659147 0 0.26468688968838561 0.42999006504069143 0 0.25702987725108101 0.42925349536772212 0 0.25836746492245471 0.43174768403659147 0 0.26468688968838561 0.42999006504069143 0 0.2660695066302855 0.43871015010979147 0 0.25836746492245471 0.43174768403659147 0 0.26468688968838561 0.42999006504069143 0 0.25702987725108101 0.42925349536772212 0 0.26468688968838561 0.42999006504069143 0 0.2651281327625446 0.42188031555685962 0 0.25700903327720531 0.4220875730974884 0 0.25702987725108101 0.42925349536772212 0 0.2651281327625446 0.42188031555685962 0 0.25702987725108101 0.42925349536772212 0 0.26468688968838561 0.42999006504069143 0 0.24985329529781791 0.39990667252734718 0 0.247713784970646 0.38075050805242922 0 0.26130673841785779 0.38162699417751078 0 0.26130673841785779 0.38162699417751078 0 0.25751014003425049 0.39127202551525408 0 0.26130673841785779 0.38162699417751078 0 0.25751014003425049 0.39127202551525408 0 0.26555566989124457 0.39385691981445009 0 0.247713784970646 0.38075050805242922 0 0.26130673841785779 0.38162699417751078 0 0.25490457918629872 0.37507349251653871 0 0.24985329529781791 0.39990667252734718 0 0.26130673841785779 0.38162699417751078 0 0.24985329529781791 0.39990667252734718 0 0.26130673841785779 0.38162699417751078 0 0.25751014003425049 0.39127202551525408 0 0.24985329529781791 0.39990667252734718 0 0.25751014003425049 0.39127202551525408 0 0.26299804800527138 0.40191116090260848 0 0.24985329529781791 0.39990667252734718 0 0.25380059083303341 0.40846212201461762 0 0.26299804800527138 0.40191116090260848 0 0.25751014003425049 0.39127202551525408 0 0.26299804800527138 0.40191116090260848 0 0.26555566989124457 0.39385691981445009 0 0.26555566989124457 0.39385691981445009 0 0.27430006382294309 0.39784586166294189 0 0.27120134665021761 0.38756895009831732 0 0.26299804800527138 0.40191116090260848 0 0.26555566989124457 0.39385691981445009 0 0.27430006382294309 0.39784586166294189 0 0.26299804800527138 0.40191116090260848 0 0.27343145984221179 0.40601604463393609 0 0.27430006382294309 0.39784586166294189 0 0.27343145984221179 0.40601604463393609 0 0.28106797903805247 0.40257602375425933 0 0.27430006382294309 0.39784586166294189 0 0.28106797903805247 0.40257602375425933 0 0.27430006382294309 0.39784586166294189 0 0.28703790896230208 0.39693993209468148 0 0.27430006382294309 0.39784586166294189 0 0.27993136792368678 0.39059144184020128 0 0.27120134665021761 0.38756895009831732 0 0.27430006382294309 0.39784586166294189 0 0.27993136792368678 0.39059144184020128 0 0.28703790896230208 0.39693993209468148 0 0.27993136792368678 0.39059144184020128 0 0.27120134665021761 0.38756895009831732 0 0.27779903165459169 0.3822920493098666 0 0.26130673841785779 0.38162699417751078 0 0.26555566989124457 0.39385691981445009 0 0.27120134665021761 0.38756895009831732 0 0.27120134665021761 0.38756895009831732 0 0.27107463499663109 0.37851234507980008 0 0.27779903165459169 0.3822920493098666 0 0.26130673841785779 0.38162699417751078 0 0.27120134665021761 0.38756895009831732 0 0.27107463499663109 0.37851234507980008 0 0.27107463499663109 0.37851234507980008 0 0.27779903165459169 0.3822920493098666 0 0.2766490591355068 0.37433388147839908 0 0.27779903165459169 0.3822920493098666 0 0.28390095120816711 0.37562544504190132 0 0.2766490591355068 0.37433388147839908 0 0.28390095120816711 0.37562544504190132 0 0.28652318226166418 0.38492160690775928 0 0.29373006398809498 0.37700175091789651 0 0.27779903165459169 0.3822920493098666 0 0.28390095120816711 0.37562544504190132 0 0.28652318226166418 0.38492160690775928 0 0.27993136792368678 0.39059144184020128 0 0.27779903165459169 0.3822920493098666 0 0.28652318226166418 0.38492160690775928 0 0.28652318226166418 0.38492160690775928 0 0.29667622102462171 0.38885955313607279 0 0.28703790896230208 0.39693993209468148 0 0.28652318226166418 0.38492160690775928 0 0.29667622102462171 0.38885955313607279 0 0.29373006398809498 0.37700175091789651 0 0.28950248352475311 0.4095022566254774 0 0.27343145984221179 0.40601604463393609 0 0.28106797903805247 0.40257602375425933 0 0.28950248352475311 0.4095022566254774 0 0.28106797903805247 0.40257602375425933 0 0.28703790896230208 0.39693993209468148 0 0.27993136792368678 0.39059144184020128 0 0.28652318226166418 0.38492160690775928 0 0.28703790896230208 0.39693993209468148 0 0.29667622102462171 0.38885955313607279 0 0.28703790896230208 0.39693993209468148 0 0.29925209770985872 0.40107025153885512 0 0.28950248352475311 0.4095022566254774 0 0.28703790896230208 0.39693993209468148 0 0.29925209770985872 0.40107025153885512 0 0.29925209770985872 0.40107025153885512 0 0.30808595721765852 0.39404131105524431 0 0.31495791781995791 0.41600820478279921 0 0.29667622102462171 0.38885955313607279 0 0.29925209770985872 0.40107025153885512 0 0.30808595721765852 0.39404131105524431 0 0.29667622102462171 0.38885955313607279 0 0.29373006398809498 0.37700175091789651 0 0.30704607127102962 0.37874789135054893 0 0.29667622102462171 0.38885955313607279 0 0.30808595721765852 0.39404131105524431 0 0.30704607127102962 0.37874789135054893 0 0.30808595721765852 0.39404131105524431 0 0.30704607127102962 0.37874789135054893 0 0.32845424032326143 0.38484820442882378 0 0.32845424032326143 0.38484820442882378 0 0.35182903215467742 0.3758796537326512 0 0.34790646022865218 0.39538457505576469 0 0.32845424032326143 0.38484820442882378 0 0.35182903215467742 0.3758796537326512 0 0.33494999436834533 0.36683291921078343 0 0.32845424032326143 0.38484820442882378 0 0.34009343188574281 0.40901727465384918 0 0.34790646022865218 0.39538457505576469 0 0.32845424032326143 0.38484820442882378 0 0.34009343188574281 0.40901727465384918 0 0.32845424032326143 0.38484820442882378 0 0.31495791781995791 0.41600820478279921 0 0.34009343188574281 0.40901727465384918 0 0.30808595721765852 0.39404131105524431 0 0.32845424032326143 0.38484820442882378 0 0.31495791781995791 0.41600820478279921 0 0.31495791781995791 0.41600820478279921 0 0.32365546110746413 0.42694996431045568 0 0.33527312640506091 0.41934143736272778 0 0.31495791781995791 0.41600820478279921 0 0.34009343188574281 0.40901727465384918 0 0.31209623941360759 0.43776564917250638 0 0.31495791781995791 0.41600820478279921 0 0.32365546110746413 0.42694996431045568 0 0.32365546110746413 0.42694996431045568 0 0.32610359684421192 0.43678193879044119 0 0.33309445048640007 0.42842800460629599 0 0.31209623941360759 0.43776564917250638 0 0.32365546110746413 0.42694996431045568 0 0.32610359684421192 0.43678193879044119 0 0.32610359684421192 0.43678193879044119 0 0.33309445048640007 0.42842800460629599 0 0.33961570140635172 0.4362099185178574 0 0.32365546110746413 0.42694996431045568 0 0.33309445048640007 0.42842800460629599 0 0.33527312640506091 0.41934143736272778 0 0.33309445048640007 0.42842800460629599 0 0.33527312640506091 0.41934143736272778 0 0.34392047686629479 0.42488796581179539 0 0.33309445048640007 0.42842800460629599 0 0.33961570140635172 0.4362099185178574 0 0.34392047686629479 0.42488796581179539 0 0.31495791781995791 0.41600820478279921 0 0.33527312640506091 0.41934143736272778 0 0.34009343188574281 0.40901727465384918 0 0.33527312640506091 0.41934143736272778 0 0.34212939465805281 0.41814630590263291 0 0.34392047686629479 0.42488796581179539 0 0.33527312640506091 0.41934143736272778 0 0.34212939465805281 0.41814630590263291 0 0.34186442441667098 0.41269478460960501 0 0.34212939465805281 0.41814630590263291 0 0.34186442441667098 0.41269478460960501 0 0.34552380666320143 0.41323543455967687 0 0.34186442441667098 0.41269478460960501 0 0.34009343188574281 0.40901727465384918 0 0.34552380666320143 0.41323543455967687 0 0.33527312640506091 0.41934143736272778 0 0.34186442441667098 0.41269478460960501 0 0.34009343188574281 0.40901727465384918 0 0.34186442441667098 0.41269478460960501 0 0.34009343188574281 0.40901727465384918 0 0.34009343188574281 0.40901727465384918 0 0.35091829865975332 0.41092335925812529 0 0.35727600754431599 0.40423829199409889 0 0.34009343188574281 0.40901727465384918 0 0.35727600754431599 0.40423829199409889 0 0.34009343188574281 0.40901727465384918 0 0.35091829865975332 0.41092335925812529 0 0.34552380666320143 0.41323543455967687 0 0.35091829865975332 0.41092335925812529 0 0.34552380666320143 0.41323543455967687 0 0.34772672207850669 0.4169791994607831 0 0.34212939465805281 0.41814630590263291 0 0.34772672207850669 0.4169791994607831 0 0.34392047686629479 0.42488796581179539 0 0.34212939465805281 0.41814630590263291 0 0.34552380666320143 0.41323543455967687 0 0.34772672207850669 0.4169791994607831 0 0.34772672207850669 0.4169791994607831 0 0.35532758082363769 0.41783269502340331 0 0.34392047686629479 0.42488796581179539 0 0.35091829865975332 0.41092335925812529 0 0.34772672207850669 0.4169791994607831 0 0.35532758082363769 0.41783269502340331 0 0.35091829865975332 0.41092335925812529 0 0.35532758082363769 0.41783269502340331 0 0.35727600754431599 0.40423829199409889 0 0.35532758082363769 0.41783269502340331 0 0.36187958923526292 0.40293945046940088 0 0.35727600754431599 0.40423829199409889 0 0.35532758082363769 0.41783269502340331 0 0.34392047686629479 0.42488796581179539 0 0.35414098508291708 0.43540859867718368 0 0.33961570140635172 0.4362099185178574 0 0.34392047686629479 0.42488796581179539 0 0.35414098508291708 0.43540859867718368 0 0.35532758082363769 0.41783269502340331 0 0.35414098508291708 0.43540859867718368 0 0.37193014631584848 0.42999924720615068 0 0.36657482697318761 0.446748226791508 0 0.35414098508291708 0.43540859867718368 0 0.37193014631584848 0.42999924720615068 0 0.35532758082363769 0.41783269502340331 0 0.37193014631584848 0.42999924720615068 0 0.36187958923526292 0.40293945046940088 0 0.37193014631584848 0.42999924720615068 0 0.36187958923526292 0.40293945046940088 0 0.37193014631584848 0.42999924720615068 0 0.36187958923526292 0.40293945046940088 0 0.39091832328282361 0.41087193027100549 0 0.36187958923526292 0.40293945046940088 0 0.35182903215467742 0.3758796537326512 0 0.37807898130569972 0.38198010331448301 0 0.36187958923526292 0.40293945046940088 0 0.35182903215467742 0.3758796537326512 0 0.36187958923526292 0.40293945046940088 0 0.35182903215467742 0.3758796537326512 0 0.34790646022865218 0.39538457505576469 0 0.34009343188574281 0.40901727465384918 0 0.34790646022865218 0.39538457505576469 0 0.35727600754431599 0.40423829199409889 0 0.36187958923526292 0.40293945046940088 0 0.34790646022865218 0.39538457505576469 0 0.35727600754431599 0.40423829199409889 0 0.35182903215467742 0.3758796537326512 0 0.3722477765496085 0.35016695762591221 0 0.37807898130569972 0.38198010331448301 0 0.35182903215467742 0.3758796537326512 0 0.3722477765496085 0.35016695762591221 0 0.34177847507409181 0.34881985699590151 0 0.35182903215467742 0.3758796537326512 0 0.34177847507409181 0.34881985699590151 0 0.3722477765496085 0.35016695762591221 0 0.37069175466933912 0.32875176142968793 0 0.35660426620688718 0.33158813156598749 0 0.3722477765496085 0.35016695762591221 0 0.37069175466933912 0.32875176142968793 0 0.38018026091455548 0.33583017463534492 0 0.36908544359869788 0.31711993858565868 0 0.37552929986171052 0.31147094895867028 0 0.37512131353827649 0.31993777409944391 0 0.37069175466933912 0.32875176142968793 0 0.36908544359869788 0.31711993858565868 0 0.37512131353827649 0.31993777409944391 0 0.37069175466933912 0.32875176142968793 0 0.36908544359869788 0.31711993858565868 0 0.36227265828944472 0.32102596309161863 0 0.37069175466933912 0.32875176142968793 0 0.36227265828944472 0.32102596309161863 0 0.35660426620688718 0.33158813156598749 0 0.36908544359869788 0.31711993858565868 0 0.36216199407232552 0.31421251507807352 0 0.36873564116109159 0.30732066885645792 0 0.36908544359869788 0.31711993858565868 0 0.36227265828944472 0.32102596309161863 0 0.36216199407232552 0.31421251507807352 0 0.36227265828944472 0.32102596309161863 0 0.36216199407232552 0.31421251507807352 0 0.35548040964913802 0.3182867922552447 0 0.33172791799350532 0.32176006025915199 0 0.34669185149407039 0.31235854363774268 0 0.35483192959872478 0.30892549123100937 0 0.34679263072992478 0.32222161781041447 0 0.33172791799350532 0.32176006025915199 0 0.35483192959872478 0.30892549123100937 0 0.35548040964913802 0.3182867922552447 0 0.34679263072992478 0.32222161781041447 0 0.35483192959872478 0.30892549123100937 0 0.36216199407232552 0.31421251507807352 0 0.35548040964913802 0.3182867922552447 0 0.35483192959872478 0.30892549123100937 0 0.35548040964913802 0.3182867922552447 0 0.34679263072992478 0.32222161781041447 0 0.35660426620688718 0.33158813156598749 0 0.36227265828944472 0.32102596309161863 0 0.35548040964913802 0.3182867922552447 0 0.35660426620688718 0.33158813156598749 0 0.34679263072992478 0.32222161781041447 0 0.35660426620688718 0.33158813156598749 0 0.34177847507409181 0.34881985699590151 0 0.3722477765496085 0.35016695762591221 0 0.35660426620688718 0.33158813156598749 0 0.34177847507409181 0.34881985699590151 0 0.33172791799350532 0.32176006025915199 0 0.32481653016515311 0.34395618279456119 0 0.34177847507409181 0.34881985699590151 0 0.34679263072992478 0.32222161781041447 0 0.33172791799350532 0.32176006025915199 0 0.34177847507409181 0.34881985699590151 0 0.33172791799350532 0.32176006025915199 0 0.34177847507409181 0.34881985699590151 0 0.33172791799350532 0.32176006025915199 0 0.35483192959872478 0.30892549123100937 0 0.33172791799350532 0.32176006025915199 0 0.33433715661558527 0.30915126849091529 0 0.34669185149407039 0.31235854363774268 0 0.33172791799350532 0.32176006025915199 0 0.32649517228490349 0.30767158395733452 0 0.33433715661558527 0.30915126849091529 0 0.33172791799350532 0.32176006025915199 0 0.32649517228490349 0.30767158395733452 0 0.33172791799350532 0.32176006025915199 0 0.31845188759589887 0.32913506211895882 0 0.3124215414252603 0.31463851826348332 0 0.33172791799350532 0.32176006025915199 0 0.3124215414252603 0.31463851826348332 0 0.32649517228490349 0.30767158395733452 0 0.33172791799350532 0.32176006025915199 0 0.31845188759589887 0.32913506211895882 0 0.33172791799350532 0.32176006025915199 0 0.31845188759589887 0.32913506211895882 0 0.32481653016515311 0.34395618279456119 0 0.31845188759589887 0.32913506211895882 0 0.32481653016515311 0.34395618279456119 0 0.3051758571982971 0.3365100639787737 0 0.32481653016515311 0.34395618279456119 0 0.31681504876077932 0.36067913420379871 0 0.3051758571982971 0.3365100639787737 0 0.32481653016515311 0.34395618279456119 0 0.33494999436834533 0.36683291921078343 0 0.31681504876077932 0.36067913420379871 0 0.32481653016515311 0.34395618279456119 0 0.34177847507409181 0.34881985699590151 0 0.33494999436834533 0.36683291921078343 0 0.35182903215467742 0.3758796537326512 0 0.34177847507409181 0.34881985699590151 0 0.33494999436834533 0.36683291921078343 0 0.30704607127102962 0.37874789135054893 0 0.32845424032326143 0.38484820442882378 0 0.31681504876077932 0.36067913420379871 0 0.32845424032326143 0.38484820442882378 0 0.31681504876077932 0.36067913420379871 0 0.32845424032326143 0.38484820442882378 0 0.33494999436834533 0.36683291921078343 0 0.31681504876077932 0.36067913420379871 0 0.30704607127102962 0.37874789135054893 0 0.31681504876077932 0.36067913420379871 0 0.30062517624183088 0.36676896646786628 0 0.31681504876077932 0.36067913420379871 0 0.30062517624183088 0.36676896646786628 0 0.29985560249366611 0.35416009340586768 0 0.29373006398809498 0.37700175091789651 0 0.30704607127102962 0.37874789135054893 0 0.30062517624183088 0.36676896646786628 0 0.31681504876077932 0.36067913420379871 0 0.3051758571982971 0.3365100639787737 0 0.31681504876077932 0.36067913420379871 0 0.29985560249366611 0.35416009340586768 0 0.3051758571982971 0.3365100639787737 0 0.29985560249366611 0.35416009340586768 0 0.29642893485056382 0.34373170356788069 0 0.3051758571982971 0.3365100639787737 0 0.29156997961887149 0.34921014654590388 0 0.28547266882539629 0.3430582048410174 0 0.29642893485056382 0.34373170356788069 0 0.29985560249366611 0.35416009340586768 0 0.29156997961887149 0.34921014654590388 0 0.29642893485056382 0.34373170356788069 0 0.29985560249366611 0.35416009340586768 0 0.2845227123058599 0.35589058436884952 0 0.28847801066549428 0.36644572303251932 0 0.29985560249366611 0.35416009340586768 0 0.29156997961887149 0.34921014654590388 0 0.2845227123058599 0.35589058436884952 0 0.29156997961887149 0.34921014654590388 0 0.2845227123058599 0.35589058436884952 0 0.28547266882539629 0.3430582048410174 0 0.29373006398809498 0.37700175091789651 0 0.30062517624183088 0.36676896646786628 0 0.28847801066549428 0.36644572303251932 0 0.30062517624183088 0.36676896646786628 0 0.29985560249366611 0.35416009340586768 0 0.28847801066549428 0.36644572303251932 0 0.2845227123058599 0.35589058436884952 0 0.28170395393251652 0.36324765217496502 0 0.28847801066549428 0.36644572303251932 0 0.28170395393251652 0.36324765217496502 0 0.28847801066549428 0.36644572303251932 0 0.28042538913708492 0.36831170178922717 0 0.28390095120816711 0.37562544504190132 0 0.29373006398809498 0.37700175091789651 0 0.28847801066549428 0.36644572303251932 0 0.28390095120816711 0.37562544504190132 0 0.28847801066549428 0.36644572303251932 0 0.28042538913708492 0.36831170178922717 0 0.28042538913708492 0.36831170178922717 0 0.2766490591355068 0.37433388147839908 0 0.27338970362162712 0.36234259950926417 0 0.26130673841785779 0.38162699417751078 0 0.27338970362162712 0.36234259950926417 0 0.26130673841785779 0.38162699417751078 0 0.27338970362162712 0.36234259950926417 0 0.27075156819252399 0.35763296848608189 0 0.26130673841785779 0.38162699417751078 0 0.27107463499663109 0.37851234507980008 0 0.27338970362162712 0.36234259950926417 0 0.26130673841785779 0.38162699417751078 0 0.27075156819252399 0.35763296848608189 0 0.27107463499663109 0.37851234507980008 0 0.2766490591355068 0.37433388147839908 0 0.27338970362162712 0.36234259950926417 0 0.28390095120816711 0.37562544504190132 0 0.28042538913708492 0.36831170178922717 0 0.2766490591355068 0.37433388147839908 0 0.28170395393251652 0.36324765217496502 0 0.28042538913708492 0.36831170178922717 0 0.27338970362162712 0.36234259950926417 0 0.2845227123058599 0.35589058436884952 0 0.28170395393251652 0.36324765217496502 0 0.27338970362162712 0.36234259950926417 0 0.27075156819252399 0.35763296848608189 0 0.26558463596339632 0.34150625501184179 0 0.28019639796719031 0.33363894279465311 0 0.27075156819252399 0.35763296848608189 0 0.28019639796719031 0.33363894279465311 0 0.28547266882539629 0.3430582048410174 0 0.2845227123058599 0.35589058436884952 0 0.27338970362162712 0.36234259950926417 0 0.28547266882539629 0.3430582048410174 0 0.27075156819252399 0.35763296848608189 0 0.28019639796719031 0.33363894279465311 0 0.27338970362162712 0.36234259950926417 0 0.28547266882539629 0.3430582048410174 0 0.27338970362162712 0.36234259950926417 0 0.27075156819252399 0.35763296848608189 0 0.28547266882539629 0.3430582048410174 0 0.27075156819252399 0.35763296848608189 0 0.25711451900508148 0.35258648987221092 0 0.26558463596339632 0.34150625501184179 0 0.2438273554430464 0.34812574592335249 0 0.25711451900508148 0.35258648987221092 0 0.25235619873932041 0.33556187677713623 0 0.27075156819252399 0.35763296848608189 0 0.25711451900508148 0.35258648987221092 0 0.25830082874688443 0.36636652218621663 0 0.26130673841785779 0.38162699417751078 0 0.27075156819252399 0.35763296848608189 0 0.25830082874688443 0.36636652218621663 0 0.2444030594993066 0.36261468031945582 0 0.25711451900508148 0.35258648987221092 0 0.25830082874688443 0.36636652218621663 0 0.2444030594993066 0.36261468031945582 0 0.25490457918629872 0.37507349251653871 0 0.25830082874688443 0.36636652218621663 0 0.26130673841785779 0.38162699417751078 0 0.25490457918629872 0.37507349251653871 0 0.25830082874688443 0.36636652218621663 0 0.2412863906095909 0.31706614216088019 0 0.25496362040665271 0.32267745764425643 0 0.26071219069447599 0.31197788889560879 0 0.25496362040665271 0.32267745764425643 0 0.26589958482641279 0.32752631364072038 0 0.26071219069447599 0.31197788889560879 0 0.25496362040665271 0.32267745764425643 0 0.25235619873932041 0.33556187677713623 0 0.26589958482641279 0.32752631364072038 0 0.25711451900508148 0.35258648987221092 0 0.25235619873932041 0.33556187677713623 0 0.26558463596339632 0.34150625501184179 0 0.25235619873932041 0.33556187677713623 0 0.26558463596339632 0.34150625501184179 0 0.26589958482641279 0.32752631364072038 0 0.26558463596339632 0.34150625501184179 0 0.28019639796719031 0.33363894279465311 0 0.26589958482641279 0.32752631364072038 0 0.28019639796719031 0.33363894279465311 0 0.26589958482641279 0.32752631364072038 0 0.27489680020354851 0.31780650302536112 0 0.26589958482641279 0.32752631364072038 0 0.27489680020354851 0.31780650302536112 0 0.26071219069447599 0.31197788889560879 0 0.28019639796719031 0.33363894279465311 0 0.28964122774185652 0.30964491710322428 0 0.28019639796719031 0.33363894279465311 0 0.27489680020354851 0.31780650302536112 0 0.28964122774185652 0.30964491710322428 0 0.28019639796719031 0.33363894279465311 0 0.29537221966939131 0.31615256727250862 0 0.28964122774185652 0.30964491710322428 0 0.28019639796719031 0.33363894279465311 0 0.29537221966939131 0.31615256727250862 0 0.29755563402916552 0.32377381017277068 0 0.28019639796719031 0.33363894279465311 0 0.28547266882539629 0.3430582048410174 0 0.29755563402916552 0.32377381017277068 0 0.28547266882539629 0.3430582048410174 0 0.29755563402916552 0.32377381017277068 0 0.28547266882539629 0.3430582048410174 0 0.29642893485056382 0.34373170356788069 0 0.29755563402916552 0.32377381017277068 0 0.29642893485056382 0.34373170356788069 0 0.3051758571982971 0.3365100639787737 0 0.29755563402916552 0.32377381017277068 0 0.31845188759589887 0.32913506211895882 0 0.3051758571982971 0.3365100639787737 0 0.29537221966939131 0.31615256727250862 0 0.3051758571982971 0.3365100639787737 0 0.29755563402916552 0.32377381017277068 0 0.31845188759589887 0.32913506211895882 0 0.3051758571982971 0.3365100639787737 0 0.3124215414252603 0.31463851826348332 0 0.29537221966939131 0.31615256727250862 0 0.3051758571982971 0.3365100639787737 0 0.29537221966939131 0.31615256727250862 0 0.3051758571982971 0.3365100639787737 0 0.3124215414252603 0.31463851826348332 0 0.29537221966939131 0.31615256727250862 0 0.3064038210334884 0.30067388223127611 0 0.29780590900410991 0.29124285186599119 0 0.29537221966939131 0.31615256727250862 0 0.3124215414252603 0.31463851826348332 0 0.3064038210334884 0.30067388223127611 0 0.3124215414252603 0.31463851826348332 0 0.3064038210334884 0.30067388223127611 0 0.31797064105596812 0.29669460242380358 0 0.3064038210334884 0.30067388223127611 0 0.30706453001149392 0.28545611992336922 0 0.31797064105596812 0.29669460242380358 0 0.3064038210334884 0.30067388223127611 0 0.30706453001149392 0.28545611992336922 0 0.29780590900410991 0.29124285186599119 0 0.30706453001149392 0.28545611992336922 0 0.29780590900410991 0.29124285186599119 0 0.29516751126046797 0.28001135836836077 0 0.28556858214048553 0.29579507056624349 0 0.28351082165216779 0.2739244349354083 0 0.29516751126046797 0.28001135836836077 0 0.29780590900410991 0.29124285186599119 0 0.28556858214048553 0.29579507056624349 0 0.29516751126046797 0.28001135836836077 0 0.28556858214048553 0.29579507056624349 0 0.27576494461157991 0.27543757385997852 0 0.28351082165216779 0.2739244349354083 0 0.29537221966939131 0.31615256727250862 0 0.29780590900410991 0.29124285186599119 0 0.28556858214048553 0.29579507056624349 0 0.29537221966939131 0.31615256727250862 0 0.28556858214048553 0.29579507056624349 0 0.28964122774185652 0.30964491710322428 0 0.29537221966939131 0.31615256727250862 0 0.28556858214048553 0.29579507056624349 0 0.28556858214048553 0.29579507056624349 0 0.28964122774185652 0.30964491710322428 0 0.27438759942090191 0.30337842557507938 0 0.27489680020354851 0.31780650302536112 0 0.28964122774185652 0.30964491710322428 0 0.27438759942090191 0.30337842557507938 0 0.27489680020354851 0.31780650302536112 0 0.27438759942090191 0.30337842557507938 0 0.26071219069447599 0.31197788889560879 0 0.27248032494705132 0.28939396479480628 0 0.25491758893057909 0.27951005592881761 0 0.27576494461157991 0.27543757385997852 0 0.28556858214048553 0.29579507056624349 0 0.27576494461157991 0.27543757385997852 0 0.28556858214048553 0.29579507056624349 0 0.27248032494705132 0.28939396479480628 0 0.27576494461157991 0.27543757385997852 0 0.28556858214048553 0.29579507056624349 0 0.27438759942090191 0.30337842557507938 0 0.27248032494705132 0.28939396479480628 0 0.27438759942090191 0.30337842557507938 0 0.27248032494705132 0.28939396479480628 0 0.26162700977852021 0.29629342014523508 0 0.27248032494705132 0.28939396479480628 0 0.26162700977852021 0.29629342014523508 0 0.25491758893057909 0.27951005592881761 0 0.24543399627141721 0.29887735901603257 0 0.26162700977852021 0.29629342014523508 0 0.25491758893057909 0.27951005592881761 0 0.27438759942090191 0.30337842557507938 0 0.26162700977852021 0.29629342014523508 0 0.26071219069447599 0.31197788889560879 0 0.24543399627141721 0.29887735901603257 0 0.26162700977852021 0.29629342014523508 0 0.26071219069447599 0.31197788889560879 0 0.25153222320099622 0.25722575917013901 0 0.27218921726664158 0.26801248725998528 0 0.26048617882559622 0.24371083740660091 0 0.25153222320099622 0.25722575917013901 0 0.25536006440587672 0.26878811273571068 0 0.27218921726664158 0.26801248725998528 0 0.25153222320099622 0.25722575917013901 0 0.27218921726664158 0.26801248725998528 0 0.25153222320099622 0.25722575917013901 0 0.26048617882559622 0.24371083740660091 0 0.25491758893057909 0.27951005592881761 0 0.27576494461157991 0.27543757385997852 0 0.25536006440587672 0.26878811273571068 0 0.25491758893057909 0.27951005592881761 0 0.27218921726664158 0.26801248725998528 0 0.2428012282252888 0.27040414858390061 0 0.25536006440587672 0.26878811273571068 0 0.25491758893057909 0.27951005592881761 0 0.25491758893057909 0.27951005592881761 0 0.27218921726664158 0.26801248725998528 0 0.27576494461157991 0.27543757385997852 0 0.27576494461157991 0.27543757385997852 0 0.28351082165216779 0.2739244349354083 0 0.27218921726664158 0.26801248725998528 0 0.28351082165216779 0.2739244349354083 0 0.28241209558822961 0.26632916093747078 0 0.27218921726664158 0.26801248725998528 0 0.27576494461157991 0.27543757385997852 0 0.28351082165216779 0.2739244349354083 0 0.27218921726664158 0.26801248725998528 0 0.28351082165216779 0.2739244349354083 0 0.27218921726664158 0.26801248725998528 0 0.27576494461157991 0.27543757385997852 0 0.27218921726664158 0.26801248725998528 0 0.27691591880596222 0.25729022711116639 0 0.28241209558822961 0.26632916093747078 0 0.27218921726664158 0.26801248725998528 0 0.26048617882559622 0.24371083740660091 0 0.27218921726664158 0.26801248725998528 0 0.27691591880596222 0.25729022711116639 0 0.26048617882559622 0.24371083740660091 0 0.27691591880596222 0.25729022711116639 0 0.28359094229813148 0.25448793817281579 0 0.27685630599777589 0.2478154210616699 0 0.27691591880596222 0.25729022711116639 0 0.28359094229813148 0.25448793817281579 0 0.2851673007449898 0.26023557940088332 0 0.3039173510814423 0.25972757105281219 0 0.28965918427723281 0.24218391352450211 0 0.28359094229813148 0.25448793817281579 0 0.27685630599777589 0.2478154210616699 0 0.28494106210013392 0.2498489505319901 0 0.29345893722613059 0.25129825022350127 0 0.3039173510814423 0.25972757105281219 0 0.28965918427723281 0.24218391352450211 0 0.28868459035541499 0.25311981898255947 0 0.28494106210013392 0.2498489505319901 0 0.28892582916583598 0.2492018439528669 0 0.28868459035541499 0.25311981898255947 0 0.28359094229813148 0.25448793817281579 0 0.28494106210013392 0.2498489505319901 0 0.28868459035541499 0.25311981898255947 0 0.28687158554486092 0.25569243113247692 0 0.28359094229813148 0.25448793817281579 0 0.28687158554486092 0.25569243113247692 0 0.28359094229813148 0.25448793817281579 0 0.2851673007449898 0.26023557940088332 0 0.28687158554486092 0.25569243113247692 0 0.28807077596690611 0.2581880435182905 0 0.28931157611965458 0.25623197766376038 0 0.28868459035541499 0.25311981898255947 0 0.28687158554486092 0.25569243113247692 0 0.28931157611965458 0.25623197766376038 0 0.27691591880596222 0.25729022711116639 0 0.2851673007449898 0.26023557940088332 0 0.28241209558822961 0.26632916093747078 0 0.28612348479105743 0.26557280400170857 0 0.2851673007449898 0.26023557940088332 0 0.28241209558822961 0.26632916093747078 0 0.28612348479105743 0.26557280400170857 0 0.28820153575970392 0.26340271637493412 0 0.2851673007449898 0.26023557940088332 0 0.28612348479105743 0.26557280400170857 0 0.28820153575970392 0.26340271637493412 0 0.28928435291432292 0.26627202701476832 0 0.28820153575970392 0.26340271637493412 0 0.2851673007449898 0.26023557940088332 0 0.28910030818167282 0.2606462295185657 0 0.28687158554486092 0.25569243113247692 0 0.2851673007449898 0.26023557940088332 0 0.28807077596690611 0.2581880435182905 0 0.2851673007449898 0.26023557940088332 0 0.28807077596690611 0.2581880435182905 0 0.28910030818167282 0.2606462295185657 0 0.28807077596690611 0.2581880435182905 0 0.29012458656076978 0.25822105451885852 0 0.28910030818167282 0.2606462295185657 0 0.29012458656076978 0.25822105451885852 0 0.28910030818167282 0.2606462295185657 0 0.29181146649833112 0.25980397671080041 0 0.28910030818167282 0.2606462295185657 0 0.29181146649833112 0.25980397671080041 0 0.29208830856188789 0.26336840763512592 0 0.29012458656076978 0.25822105451885852 0 0.29181146649833112 0.25980397671080041 0 0.29232880603728451 0.25623504518287532 0 0.28820153575970392 0.26340271637493412 0 0.29208830856188789 0.26336840763512592 0 0.28928435291432292 0.26627202701476832 0 0.28820153575970392 0.26340271637493412 0 0.28910030818167282 0.2606462295185657 0 0.29208830856188789 0.26336840763512592 0 0.29208830856188789 0.26336840763512592 0 0.295861748010873 0.25998823260247511 0 0.29765944308527592 0.26593032899830249 0 0.29208830856188789 0.26336840763512592 0 0.29297695870925222 0.26738919668419731 0 0.29765944308527592 0.26593032899830249 0 0.29181146649833112 0.25980397671080041 0 0.29208830856188789 0.26336840763512592 0 0.295861748010873 0.25998823260247511 0 0.29181146649833112 0.25980397671080041 0 0.295861748010873 0.25998823260247511 0 0.29232880603728451 0.25623504518287532 0 0.295861748010873 0.25998823260247511 0 0.29345893722613059 0.25129825022350127 0 0.29232880603728451 0.25623504518287532 0 0.28868459035541499 0.25311981898255947 0 0.29345893722613059 0.25129825022350127 0 0.29232880603728451 0.25623504518287532 0 0.28868459035541499 0.25311981898255947 0 0.29345893722613059 0.25129825022350127 0 0.28892582916583598 0.2492018439528669 0 0.28868459035541499 0.25311981898255947 0 0.28931157611965458 0.25623197766376038 0 0.29232880603728451 0.25623504518287532 0 0.29012458656076978 0.25822105451885852 0 0.28931157611965458 0.25623197766376038 0 0.29232880603728451 0.25623504518287532 0 0.28807077596690611 0.2581880435182905 0 0.29012458656076978 0.25822105451885852 0 0.28931157611965458 0.25623197766376038 0 0.28351082165216779 0.2739244349354083 0 0.28733438825076368 0.27108796110478978 0 0.2907816862342732 0.27306575569366948 0 0.28733438825076368 0.27108796110478978 0 0.28661589797855402 0.26840505384568097 0 0.29024227766669058 0.26954619460490381 0 0.28733438825076368 0.27108796110478978 0 0.2848684593192698 0.27078404615639318 0 0.28661589797855402 0.26840505384568097 0 0.28351082165216779 0.2739244349354083 0 0.28733438825076368 0.27108796110478978 0 0.2848684593192698 0.27078404615639318 0 0.28351082165216779 0.2739244349354083 0 0.2848684593192698 0.27078404615639318 0 0.28241209558822961 0.26632916093747078 0 0.28612348479105743 0.26557280400170857 0 0.28241209558822961 0.26632916093747078 0 0.28661589797855402 0.26840505384568097 0 0.2848684593192698 0.27078404615639318 0 0.28241209558822961 0.26632916093747078 0 0.28661589797855402 0.26840505384568097 0 0.28661589797855402 0.26840505384568097 0 0.28928435291432292 0.26627202701476832 0 0.29024227766669058 0.26954619460490381 0 0.28612348479105743 0.26557280400170857 0 0.28661589797855402 0.26840505384568097 0 0.28928435291432292 0.26627202701476832 0 0.29208830856188789 0.26336840763512592 0 0.28928435291432292 0.26627202701476832 0 0.29297695870925222 0.26738919668419731 0 0.28928435291432292 0.26627202701476832 0 0.29297695870925222 0.26738919668419731 0 0.29024227766669058 0.26954619460490381 0 0.29297695870925222 0.26738919668419731 0 0.29576201226787813 0.27118247982537402 0 0.29024227766669058 0.26954619460490381 0 0.29297695870925222 0.26738919668419731 0 0.29576201226787813 0.27118247982537402 0 0.29765944308527592 0.26593032899830249 0 0.29576201226787813 0.27118247982537402 0 0.29024227766669058 0.26954619460490381 0 0.2907816862342732 0.27306575569366948 0 0.28733438825076368 0.27108796110478978 0 0.29024227766669058 0.26954619460490381 0 0.2907816862342732 0.27306575569366948 0 0.28351082165216779 0.2739244349354083 0 0.2907816862342732 0.27306575569366948 0 0.29516751126046797 0.28001135836836077 0 0.29576201226787813 0.27118247982537402 0 0.2907816862342732 0.27306575569366948 0 0.29516751126046797 0.28001135836836077 0 0.28351082165216779 0.2739244349354083 0 0.29516751126046797 0.28001135836836077 0 0.30323688172566321 0.27316773846810899 0 0.3039173510814423 0.25972757105281219 0 0.31817551788565168 0.27727122858112241 0 0.3039173510814423 0.25972757105281219 0 0.31817551788565168 0.27727122858112241 0 0.29576201226787813 0.27118247982537402 0 0.29516751126046797 0.28001135836836077 0 0.30323688172566321 0.27316773846810899 0 0.30706453001149392 0.28545611992336922 0 0.29516751126046797 0.28001135836836077 0 0.30323688172566321 0.27316773846810899 0 0.30323688172566321 0.27316773846810899 0 0.29765944308527592 0.26593032899830249 0 0.3039173510814423 0.25972757105281219 0 0.29576201226787813 0.27118247982537402 0 0.30323688172566321 0.27316773846810899 0 0.29765944308527592 0.26593032899830249 0 0.30706453001149392 0.28545611992336922 0 0.30323688172566321 0.27316773846810899 0 0.31817551788565168 0.27727122858112241 0 0.3039173510814423 0.25972757105281219 0 0.31246354634074469 0.25301562706991498 0 0.31817551788565168 0.27727122858112241 0 0.3039173510814423 0.25972757105281219 0 0.31246354634074469 0.25301562706991498 0 0.28965918427723281 0.24218391352450211 0 0.295861748010873 0.25998823260247511 0 0.29345893722613059 0.25129825022350127 0 0.3039173510814423 0.25972757105281219 0 0.295861748010873 0.25998823260247511 0 0.29765944308527592 0.26593032899830249 0 0.3039173510814423 0.25972757105281219 0 0.31246354634074469 0.25301562706991498 0 0.33526790840425669 0.26384734061532772 0 0.31246354634074469 0.25301562706991498 0 0.33526790840425669 0.26384734061532772 0 0.32643540241908581 0.2493154440826276 0 0.31246354634074469 0.25301562706991498 0 0.33526790840425669 0.26384734061532772 0 0.31817551788565168 0.27727122858112241 0 0.33526790840425669 0.26384734061532772 0 0.3379127634661398 0.24049180221066491 0 0.32643540241908581 0.2493154440826276 0 0.33526790840425669 0.26384734061532772 0 0.35634129443021012 0.25447852924978431 0 0.3379127634661398 0.24049180221066491 0 0.33526790840425669 0.26384734061532772 0 0.31817551788565168 0.27727122858112241 0 0.34172042880505471 0.28277804546335827 0 0.31817551788565168 0.27727122858112241 0 0.31797064105596812 0.29669460242380358 0 0.33243368468986112 0.29481488610943257 0 0.31817551788565168 0.27727122858112241 0 0.33243368468986112 0.29481488610943257 0 0.30706453001149392 0.28545611992336922 0 0.31817551788565168 0.27727122858112241 0 0.31797064105596812 0.29669460242380358 0 0.3124215414252603 0.31463851826348332 0 0.31797064105596812 0.29669460242380358 0 0.32649517228490349 0.30767158395733452 0 0.31797064105596812 0.29669460242380358 0 0.32649517228490349 0.30767158395733452 0 0.33243368468986112 0.29481488610943257 0 0.33433715661558527 0.30915126849091529 0 0.33243368468986112 0.29481488610943257 0 0.34669185149407039 0.31235854363774268 0 0.33243368468986112 0.29481488610943257 0 0.34669185149407039 0.31235854363774268 0 0.34568712778571031 0.29860929543060832 0 0.33243368468986112 0.29481488610943257 0 0.34669185149407039 0.31235854363774268 0 0.32649517228490349 0.30767158395733452 0 0.33433715661558527 0.30915126849091529 0 0.33243368468986112 0.29481488610943257 0 0.31817551788565168 0.27727122858112241 0 0.34172042880505471 0.28277804546335827 0 0.33243368468986112 0.29481488610943257 0 0.34172042880505471 0.28277804546335827 0 0.33243368468986112 0.29481488610943257 0 0.34568712778571031 0.29860929543060832 0 0.35199353865369548 0.28986078273705529 0 0.36153231744840347 0.2937746187606235 0 0.35807227046776868 0.27467905416074029 0 0.34172042880505471 0.28277804546335827 0 0.35199353865369548 0.28986078273705529 0 0.35807227046776868 0.27467905416074029 0 0.34172042880505471 0.28277804546335827 0 0.35199353865369548 0.28986078273705529 0 0.34568712778571031 0.29860929543060832 0 0.35199353865369548 0.28986078273705529 0 0.34568712778571031 0.29860929543060832 0 0.35295554876154028 0.29946289986994618 0 0.35199353865369548 0.28986078273705529 0 0.35295554876154028 0.29946289986994618 0 0.36153231744840347 0.2937746187606235 0 0.34669185149407039 0.31235854363774268 0 0.350707664864299 0.30502754758011252 0 0.35483192959872478 0.30892549123100937 0 0.34669185149407039 0.31235854363774268 0 0.350707664864299 0.30502754758011252 0 0.34568712778571031 0.29860929543060832 0 0.350707664864299 0.30502754758011252 0 0.34568712778571031 0.29860929543060832 0 0.35295554876154028 0.29946289986994618 0 0.35295554876154028 0.29946289986994618 0 0.35483192959872478 0.30892549123100937 0 0.36153231744840347 0.2937746187606235 0 0.350707664864299 0.30502754758011252 0 0.35295554876154028 0.29946289986994618 0 0.35483192959872478 0.30892549123100937 0 0.35483192959872478 0.30892549123100937 0 0.36873564116109159 0.30732066885645792 0 0.37793594120394791 0.29609092220287331 0 0.35483192959872478 0.30892549123100937 0 0.36153231744840347 0.2937746187606235 0 0.37793594120394791 0.29609092220287331 0 0.35483192959872478 0.30892549123100937 0 0.37793594120394791 0.29609092220287331 0 0.36216199407232552 0.31421251507807352 0 0.35483192959872478 0.30892549123100937 0 0.36873564116109159 0.30732066885645792 0 0.36873564116109159 0.30732066885645792 0 0.37793594120394791 0.29609092220287331 0 0.37618493526913999 0.30531787431980001 0 0.36908544359869788 0.31711993858565868 0 0.36873564116109159 0.30732066885645792 0 0.37552929986171052 0.31147094895867028 0 0.36873564116109159 0.30732066885645792 0 0.37552929986171052 0.31147094895867028 0 0.37618493526913999 0.30531787431980001 0 0.36153231744840347 0.2937746187606235 0 0.3696042904128502 0.28751384070759761 0 0.37793594120394791 0.29609092220287331 0 0.3696042904128502 0.28751384070759761 0 0.35807227046776868 0.27467905416074029 0 0.38087663253128068 0.28551076770615302 0 0.36153231744840347 0.2937746187606235 0 0.3696042904128502 0.28751384070759761 0 0.35807227046776868 0.27467905416074029 0 0.35807227046776868 0.27467905416074029 0 0.38087663253128068 0.28551076770615302 0 0.35807227046776868 0.27467905416074029 0 0.37543677279847171 0.26770278157766031 0 0.38087663253128068 0.28551076770615302 0 0.35634129443021012 0.25447852924978431 0 0.35807227046776868 0.27467905416074029 0 0.37543677279847171 0.26770278157766031 0 0.35634129443021012 0.25447852924978431 0 0.37543677279847171 0.26770278157766031 0 0.37588607332036628 0.2490878796733729 0 0.33526790840425669 0.26384734061532772 0 0.35634129443021012 0.25447852924978431 0 0.35807227046776868 0.27467905416074029 0 0.33526790840425669 0.26384734061532772 0 0.34172042880505471 0.28277804546335827 0 0.35807227046776868 0.27467905416074029 0 0.33526790840425669 0.26384734061532772 0 0.35807227046776868 0.27467905416074029 0 0.39392409312874033 0.26548119861246328 0 0.41196211293711438 0.28187451755155379 0 0.39392409312874033 0.26548119861246328 0 0.38745056937483863 0.27594374287878148 0 0.39653744276239639 0.28470199660397738 0 0.39392409312874033 0.26548119861246328 0 0.39653744276239639 0.28470199660397738 0 0.41196211293711438 0.28187451755155379 0 0.39392409312874033 0.26548119861246328 0 0.41530077718395331 0.26533492563787903 0 0.40933178642478668 0.24530746794650141 0 0.39392409312874033 0.26548119861246328 0 0.37543677279847171 0.26770278157766031 0 0.37588607332036628 0.2490878796733729 0 0.39392409312874033 0.26548119861246328 0 0.37588607332036628 0.2490878796733729 0 0.39392409312874033 0.26548119861246328 0 0.39103074677198191 0.2378645478919707 0 0.37588607332036628 0.2490878796733729 0 0.39392409312874033 0.26548119861246328 0 0.38745056937483863 0.27594374287878148 0 0.37543677279847171 0.26770278157766031 0 0.38745056937483863 0.27594374287878148 0 0.37543677279847171 0.26770278157766031 0 0.38087663253128068 0.28551076770615302 0 0.38087663253128068 0.28551076770615302 0 0.39129466819619951 0.29801807429951538 0 0.39653744276239639 0.28470199660397738 0 0.38745056937483863 0.27594374287878148 0 0.38087663253128068 0.28551076770615302 0 0.39653744276239639 0.28470199660397738 0 0.3696042904128502 0.28751384070759761 0 0.38087663253128068 0.28551076770615302 0 0.37793594120394791 0.29609092220287331 0 0.38087663253128068 0.28551076770615302 0 0.37793594120394791 0.29609092220287331 0 0.39129466819619951 0.29801807429951538 0 0.37552929986171052 0.31147094895867028 0 0.38253885884981009 0.30638895726119819 0 0.38253365066345929 0.31657150904984471 0 0.37552929986171052 0.31147094895867028 0 0.37618493526913999 0.30531787431980001 0 0.38253885884981009 0.30638895726119819 0 0.37793594120394791 0.29609092220287331 0 0.37618493526913999 0.30531787431980001 0 0.38253885884981009 0.30638895726119819 0 0.37793594120394791 0.29609092220287331 0 0.38253885884981009 0.30638895726119819 0 0.39129466819619951 0.29801807429951538 0 0.38253885884981009 0.30638895726119819 0 0.39212940840629362 0.31318847352025442 0 0.38253365066345929 0.31657150904984471 0 0.38253885884981009 0.30638895726119819 0 0.39129466819619951 0.29801807429951538 0 0.39212940840629362 0.31318847352025442 0 0.39129466819619951 0.29801807429951538 0 0.40057903262284272 0.30682002081122939 0 0.39212940840629362 0.31318847352025442 0 0.39129466819619951 0.29801807429951538 0 0.40479167519220871 0.29803551582379922 0 0.40057903262284272 0.30682002081122939 0 0.40057903262284272 0.30682002081122939 0 0.40276015360382211 0.3144041531339446 0 0.39212940840629362 0.31318847352025442 0 0.40479167519220871 0.29803551582379922 0 0.40057903262284272 0.30682002081122939 0 0.40860853726765339 0.309318938863758 0 0.40057903262284272 0.30682002081122939 0 0.40860853726765339 0.309318938863758 0 0.40276015360382211 0.3144041531339446 0 0.40479167519220871 0.29803551582379922 0 0.39653744276239639 0.28470199660397738 0 0.41196211293711438 0.28187451755155379 0 0.39129466819619951 0.29801807429951538 0 0.40479167519220871 0.29803551582379922 0 0.39653744276239639 0.28470199660397738 0 0.40479167519220871 0.29803551582379922 0 0.41196211293711438 0.28187451755155379 0 0.42604734048813458 0.28838989128274578 0 0.40479167519220871 0.29803551582379922 0 0.42604734048813458 0.28838989128274578 0 0.41196211293711438 0.28187451755155379 0 0.42604734048813458 0.28838989128274578 0 0.42096165520647338 0.27640965763746961 0 0.41751736358108449 0.30523346237375532 0 0.43213625579819431 0.30543734923285137 0 0.41316086399048302 0.31918962555795088 0 0.40479167519220871 0.29803551582379922 0 0.41751736358108449 0.30523346237375532 0 0.42604734048813458 0.28838989128274578 0 0.40860853726765339 0.309318938863758 0 0.41751736358108449 0.30523346237375532 0 0.41316086399048302 0.31918962555795088 0 0.40479167519220871 0.29803551582379922 0 0.40860853726765339 0.309318938863758 0 0.41751736358108449 0.30523346237375532 0 0.41751736358108449 0.30523346237375532 0 0.43213625579819431 0.30543734923285137 0 0.42604734048813458 0.28838989128274578 0 0.43213625579819431 0.30543734923285137 0 0.41316086399048302 0.31918962555795088 0 0.43213625579819431 0.30543734923285137 0 0.44422558879226298 0.30694386780845051 0 0.43154308657343537 0.31483265104709918 0 0.42604734048813458 0.28838989128274578 0 0.44730300578406051 0.27874426674169239 0 0.43914956241907371 0.29106414504126032 0 0.43213625579819431 0.30543734923285137 0 0.42604734048813458 0.28838989128274578 0 0.43914956241907371 0.29106414504126032 0 0.42604734048813458 0.28838989128274578 0 0.44730300578406051 0.27874426674169239 0 0.42604734048813458 0.28838989128274578 0 0.43053639021669149 0.27003929607769961 0 0.44730300578406051 0.27874426674169239 0 0.42604734048813458 0.28838989128274578 0 0.43053639021669149 0.27003929607769961 0 0.42096165520647338 0.27640965763746961 0 0.43053639021669149 0.27003929607769961 0 0.42096165520647338 0.27640965763746961 0 0.41530077718395331 0.26533492563787903 0 0.39392409312874033 0.26548119861246328 0 0.41196211293711438 0.28187451755155379 0 0.41530077718395331 0.26533492563787903 0 0.41196211293711438 0.28187451755155379 0 0.42096165520647338 0.27640965763746961 0 0.41530077718395331 0.26533492563787903 0 0.41530077718395331 0.26533492563787903 0 0.42507863072368701 0.2531856777568211 0 0.40933178642478668 0.24530746794650141 0 0.43053639021669149 0.27003929607769961 0 0.42507863072368701 0.2531856777568211 0 0.43671171400039921 0.25931077911745237 0 0.43053639021669149 0.27003929607769961 0 0.41530077718395331 0.26533492563787903 0 0.42507863072368701 0.2531856777568211 0 0.43053639021669149 0.27003929607769961 0 0.43671171400039921 0.25931077911745237 0 0.4433298154441227 0.26629613073356512 0 0.42507863072368701 0.2531856777568211 0 0.43671171400039921 0.25931077911745237 0 0.43876594592942619 0.2491002947533556 0 0.48930401013157893 0.26400543771054868 0 0.5 0.30014541135995981 0 0.50000000000000078 0.23475110787519651 0 0.43671171400039921 0.25931077911745237 0 0.44893917376128722 0.25670587451621701 0 0.43876594592942619 0.2491002947533556 0 0.43671171400039921 0.25931077911745237 0 0.44893917376128722 0.25670587451621701 0 0.4433298154441227 0.26629613073356512 0 0.44893917376128722 0.25670587451621701 0 0.4433298154441227 0.26629613073356512 0 0.45470448649478412 0.26606712633996182 0 0.43053639021669149 0.27003929607769961 0 0.4433298154441227 0.26629613073356512 0 0.44730300578406051 0.27874426674169239 0 0.4433298154441227 0.26629613073356512 0 0.44730300578406051 0.27874426674169239 0 0.45470448649478412 0.26606712633996182 0 0.44730300578406051 0.27874426674169239 0 0.45470448649478412 0.26606712633996182 0 0.46855867107998628 0.26909864220063873 0 0.44730300578406051 0.27874426674169239 0 0.46855867107998628 0.26909864220063873 0 0.47008703941361663 0.27793279658265219 0 0.44730300578406051 0.27874426674169239 0 0.46855867107998628 0.26909864220063873 0 0.44893917376128722 0.25670587451621701 0 0.4657425708042397 0.25282124097232528 0 0.45444189403291402 0.2411770147019261 0 0.46855867107998628 0.26909864220063873 0 0.4657425708042397 0.25282124097232528 0 0.45470448649478412 0.26606712633996182 0 0.46855867107998628 0.26909864220063873 0 0.4657425708042397 0.25282124097232528 0 0.44893917376128722 0.25670587451621701 0 0.45470448649478412 0.26606712633996182 0 0.4657425708042397 0.25282124097232528 0 0.4657425708042397 0.25282124097232528 0 0.48060284673389919 0.263633106558882 0 0.48319944748130261 0.24680576274814439 0 0.48060284673389919 0.263633106558882 0 0.48930401013157893 0.26400543771054868 0 0.48319944748130261 0.24680576274814439 0 0.46855867107998628 0.26909864220063873 0 0.4657425708042397 0.25282124097232528 0 0.48060284673389919 0.263633106558882 0 0.47008703941361663 0.27793279658265219 0 0.48930401013157893 0.26400543771054868 0 0.46855867107998628 0.26909864220063873 0 0.48060284673389919 0.263633106558882 0 0.48060284673389919 0.263633106558882 0 0.47008703941361663 0.27793279658265219 0 0.48930401013157893 0.26400543771054868 0 0.47008703941361663 0.27793279658265219 0 0.48006412771999057 0.27905949761247589 0 0.48930401013157893 0.26400543771054868 0 0.46855867107998628 0.26909864220063873 0 0.48060284673389919 0.263633106558882 0 0.47008703941361663 0.27793279658265219 0 0.46855867107998628 0.26909864220063873 0 0.47008703941361663 0.27793279658265219 0 0.48006412771999057 0.27905949761247589 0 0.48930401013157893 0.26400543771054868 0 0.48625483393177482 0.28246926535835643 0 0.48930401013157893 0.26400543771054868 0 0.5 0.30014541135995981 0 0.48625483393177482 0.28246926535835643 0 0.5 0.30014541135995981 0 0.48970041229178968 0.29406901354624332 0 0.4885492687023667 0.31475660787172299 0 0.5 0.30014541135995981 0 0.48625483393177482 0.28246926535835643 0 0.48970041229178968 0.29406901354624332 0 0.48625483393177482 0.28246926535835643 0 0.48970041229178968 0.29406901354624332 0 0.47848665946962488 0.28859017348115529 0 0.48970041229178968 0.29406901354624332 0 0.47848665946962488 0.28859017348115529 0 0.47416262890117539 0.30149019824985379 0 0.47008703941361663 0.27793279658265219 0 0.47416262890117539 0.30149019824985379 0 0.47008703941361663 0.27793279658265219 0 0.47848665946962488 0.28859017348115529 0 0.47416262890117539 0.30149019824985379 0 0.47008703941361663 0.27793279658265219 0 0.47416262890117539 0.30149019824985379 0 0.46463260069651119 0.29140132306620031 0 0.48006412771999057 0.27905949761247589 0 0.48625483393177482 0.28246926535835643 0 0.47848665946962488 0.28859017348115529 0 0.47008703941361663 0.27793279658265219 0 0.48006412771999057 0.27905949761247589 0 0.47848665946962488 0.28859017348115529 0 0.48970041229178968 0.29406901354624332 0 0.47416262890117539 0.30149019824985379 0 0.4885492687023667 0.31475660787172299 0 0.48970041229178968 0.29406901354624332 0 0.47416262890117539 0.30149019824985379 0 0.47416262890117539 0.30149019824985379 0 0.45853060084376801 0.29977374142415342 0 0.45560674310843452 0.3103528945782269 0 0.47416262890117539 0.30149019824985379 0 0.45560674310843452 0.3103528945782269 0 0.47416262890117539 0.30149019824985379 0 0.45853060084376801 0.29977374142415342 0 0.46463260069651119 0.29140132306620031 0 0.47008703941361663 0.27793279658265219 0 0.46463260069651119 0.29140132306620031 0 0.45111164760590539 0.29168507290775181 0 0.47008703941361663 0.27793279658265219 0 0.45111164760590539 0.29168507290775181 0 0.44730300578406051 0.27874426674169239 0 0.47008703941361663 0.27793279658265219 0 0.45111164760590539 0.29168507290775181 0 0.45853060084376801 0.29977374142415342 0 0.46463260069651119 0.29140132306620031 0 0.45111164760590539 0.29168507290775181 0 0.43213625579819431 0.30543734923285137 0 0.45111164760590539 0.29168507290775181 0 0.43914956241907371 0.29106414504126032 0 0.44730300578406051 0.27874426674169239 0 0.45111164760590539 0.29168507290775181 0 0.43914956241907371 0.29106414504126032 0 0.43213625579819431 0.30543734923285137 0 0.45111164760590539 0.29168507290775181 0 0.43213625579819431 0.30543734923285137 0 0.45111164760590539 0.29168507290775181 0 0.44422558879226298 0.30694386780845051 0 0.45560674310843452 0.3103528945782269 0 0.44422558879226298 0.30694386780845051 0 0.43842966418539248 0.31774810934188358 0 0.45853060084376801 0.29977374142415342 0 0.45560674310843452 0.3103528945782269 0 0.44422558879226298 0.30694386780845051 0 0.45853060084376801 0.29977374142415342 0 0.45111164760590539 0.29168507290775181 0 0.44422558879226298 0.30694386780845051 0 0.45560674310843452 0.3103528945782269 0 0.43705085731569332 0.31921559090659912 0 0.45560674310843452 0.3103528945782269 0 0.445574462909617 0.32293984437028 0 0.43705085731569332 0.31921559090659912 0 0.45560674310843452 0.3103528945782269 0 0.445574462909617 0.32293984437028 0 0.45356547482711718 0.33018117931006491 0 0.45560674310843452 0.3103528945782269 0 0.43842966418539248 0.31774810934188358 0 0.43705085731569332 0.31921559090659912 0 0.44422558879226298 0.30694386780845051 0 0.43842966418539248 0.31774810934188358 0 0.43154308657343537 0.31483265104709918 0 0.43842966418539248 0.31774810934188358 0 0.43705085731569332 0.31921559090659912 0 0.43892997145578388 0.32563168502311662 0 0.445574462909617 0.32293984437028 0 0.44083529419097978 0.33094373067874189 0 0.43892997145578388 0.32563168502311662 0 0.445574462909617 0.32293984437028 0 0.43705085731569332 0.31921559090659912 0 0.445574462909617 0.32293984437028 0 0.44083529419097978 0.33094373067874189 0 0.45356547482711718 0.33018117931006491 0 0.44165801472227312 0.34323984209273423 0 0.45356547482711718 0.33018117931006491 0 0.45850926574073331 0.34651392194864622 0 0.44165801472227312 0.34323984209273423 0 0.44083529419097978 0.33094373067874189 0 0.43166902790598161 0.33929201054700048 0 0.43892997145578388 0.32563168502311662 0 0.44083529419097978 0.33094373067874189 0 0.43317574323615998 0.33104402243960368 0 0.44165801472227312 0.34323984209273423 0 0.44083529419097978 0.33094373067874189 0 0.45356547482711718 0.33018117931006491 0 0.45356547482711718 0.33018117931006491 0 0.47888330231886822 0.32877626329145132 0 0.45850926574073331 0.34651392194864622 0 0.45560674310843452 0.3103528945782269 0 0.45356547482711718 0.33018117931006491 0 0.47888330231886822 0.32877626329145132 0 0.5 0.30014541135995981 0 0.4885492687023667 0.31475660787172299 0 0.5 0.34930215291110689 0 0.47888330231886822 0.32877626329145132 0 0.4885492687023667 0.31475660787172299 0 0.5 0.34930215291110689 0 0.47416262890117539 0.30149019824985379 0 0.45560674310843452 0.3103528945782269 0 0.47888330231886822 0.32877626329145132 0 0.47416262890117539 0.30149019824985379 0 0.47888330231886822 0.32877626329145132 0 0.4885492687023667 0.31475660787172299 0 0.47416262890117539 0.30149019824985379 0 0.47888330231886822 0.32877626329145132 0 0.47888330231886822 0.32877626329145132 0 0.47565767627723321 0.35367653303588131 0 0.45850926574073331 0.34651392194864622 0 0.5 0.34930215291110689 0 0.47565767627723321 0.35367653303588131 0 0.47781149018510388 0.37869427749857482 0 0.47888330231886822 0.32877626329145132 0 0.5 0.34930215291110689 0 0.47565767627723321 0.35367653303588131 0 0.47565767627723321 0.35367653303588131 0 0.45733288770108432 0.36201985544527537 0 0.47781149018510388 0.37869427749857482 0 0.47565767627723321 0.35367653303588131 0 0.45733288770108432 0.36201985544527537 0 0.45850926574073331 0.34651392194864622 0 0.44165801472227312 0.34323984209273423 0 0.45850926574073331 0.34651392194864622 0 0.4413887647347946 0.35929889092681982 0 0.45733288770108432 0.36201985544527537 0 0.45850926574073331 0.34651392194864622 0 0.4413887647347946 0.35929889092681982 0 0.45733288770108432 0.36201985544527537 0 0.4413887647347946 0.35929889092681982 0 0.44153901264778062 0.37343480580038879 0 0.45733288770108432 0.36201985544527537 0 0.44153901264778062 0.37343480580038879 0 0.45482676763662039 0.38809293299633429 0 0.42640845802995259 0.36892404556868708 0 0.41557269665981 0.35954071959013117 0 0.42852438312620561 0.35190461944610102 0 0.4413887647347946 0.35929889092681982 0 0.42640845802995259 0.36892404556868708 0 0.42852438312620561 0.35190461944610102 0 0.4413887647347946 0.35929889092681982 0 0.44153901264778062 0.37343480580038879 0 0.42640845802995259 0.36892404556868708 0 0.41557269665981 0.35954071959013117 0 0.39773627330903077 0.36105859917852151 0 0.40780080352149928 0.37567923871478631 0 0.42640845802995259 0.36892404556868708 0 0.41557269665981 0.35954071959013117 0 0.40780080352149928 0.37567923871478631 0 0.41557269665981 0.35954071959013117 0 0.42852438312620561 0.35190461944610102 0 0.41739356531236188 0.34013709504256018 0 0.41557269665981 0.35954071959013117 0 0.41739356531236188 0.34013709504256018 0 0.39773627330903077 0.36105859917852151 0 0.41739356531236188 0.34013709504256018 0 0.39773627330903077 0.36105859917852151 0 0.42852438312620561 0.35190461944610102 0 0.43166902790598161 0.33929201054700048 0 0.41739356531236188 0.34013709504256018 0 0.44165801472227312 0.34323984209273423 0 0.4413887647347946 0.35929889092681982 0 0.42852438312620561 0.35190461944610102 0 0.44165801472227312 0.34323984209273423 0 0.42852438312620561 0.35190461944610102 0 0.43166902790598161 0.33929201054700048 0 0.43705085731569332 0.31921559090659912 0 0.41739356531236188 0.34013709504256018 0 0.41544983039366512 0.32953271314637039 0 0.43705085731569332 0.31921559090659912 0 0.41739356531236188 0.34013709504256018 0 0.43317574323615998 0.33104402243960368 0 0.43705085731569332 0.31921559090659912 0 0.41739356531236188 0.34013709504256018 0 0.43166902790598161 0.33929201054700048 0 0.43317574323615998 0.33104402243960368 0 0.41739356531236188 0.34013709504256018 0 0.44083529419097978 0.33094373067874189 0 0.43166902790598161 0.33929201054700048 0 0.43317574323615998 0.33104402243960368 0 0.43213625579819431 0.30543734923285137 0 0.43154308657343537 0.31483265104709918 0 0.41316086399048302 0.31918962555795088 0 0.43705085731569332 0.31921559090659912 0 0.41544983039366512 0.32953271314637039 0 0.43705085731569332 0.31921559090659912 0 0.42444684759267981 0.32028615430654062 0 0.41544983039366512 0.32953271314637039 0 0.43154308657343537 0.31483265104709918 0 0.42444684759267981 0.32028615430654062 0 0.41316086399048302 0.31918962555795088 0 0.43154308657343537 0.31483265104709918 0 0.43705085731569332 0.31921559090659912 0 0.42444684759267981 0.32028615430654062 0 0.43842966418539248 0.31774810934188358 0 0.43154308657343537 0.31483265104709918 0 0.43705085731569332 0.31921559090659912 0 0.43892997145578388 0.32563168502311662 0 0.43317574323615998 0.33104402243960368 0 0.43705085731569332 0.31921559090659912 0 0.41316086399048302 0.31918962555795088 0 0.41544983039366512 0.32953271314637039 0 0.39418547218277172 0.33294190188305062 0 0.42444684759267981 0.32028615430654062 0 0.41316086399048302 0.31918962555795088 0 0.41544983039366512 0.32953271314637039 0 0.40860853726765339 0.309318938863758 0 0.41316086399048302 0.31918962555795088 0 0.40276015360382211 0.3144041531339446 0 0.41739356531236188 0.34013709504256018 0 0.41544983039366512 0.32953271314637039 0 0.39384880347163692 0.33984983538614127 0 0.41544983039366512 0.32953271314637039 0 0.39418547218277172 0.33294190188305062 0 0.39384880347163692 0.33984983538614127 0 0.41544983039366512 0.32953271314637039 0 0.39384880347163692 0.33984983538614127 0 0.39418547218277172 0.33294190188305062 0 0.39384880347163692 0.33984983538614127 0 0.38763626903965592 0.33142256612758492 0 0.39418547218277172 0.33294190188305062 0 0.39181849880786379 0.32717555703993689 0 0.38763626903965592 0.33142256612758492 0 0.41316086399048302 0.31918962555795088 0 0.39418547218277172 0.33294190188305062 0 0.39708961803314868 0.32200780813679419 0 0.41316086399048302 0.31918962555795088 0 0.40276015360382211 0.3144041531339446 0 0.39708961803314868 0.32200780813679419 0 0.41316086399048302 0.31918962555795088 0 0.39418547218277172 0.33294190188305062 0 0.39418547218277172 0.33294190188305062 0 0.39708961803314868 0.32200780813679419 0 0.39181849880786379 0.32717555703993689 0 0.39708961803314868 0.32200780813679419 0 0.39181849880786379 0.32717555703993689 0 0.38758066886242332 0.32336225559927501 0 0.39708961803314868 0.32200780813679419 0 0.39212940840629362 0.31318847352025442 0 0.38758066886242332 0.32336225559927501 0 0.40276015360382211 0.3144041531339446 0 0.39708961803314868 0.32200780813679419 0 0.39212940840629362 0.31318847352025442 0 0.39212940840629362 0.31318847352025442 0 0.38758066886242332 0.32336225559927501 0 0.38253365066345929 0.31657150904984471 0 0.38758066886242332 0.32336225559927501 0 0.37951212113643251 0.32682582922079478 0 0.38253365066345929 0.31657150904984471 0 0.39181849880786379 0.32717555703993689 0 0.38758066886242332 0.32336225559927501 0 0.38763626903965592 0.33142256612758492 0 0.38758066886242332 0.32336225559927501 0 0.37951212113643251 0.32682582922079478 0 0.38763626903965592 0.33142256612758492 0 0.37069175466933912 0.32875176142968793 0 0.37951212113643251 0.32682582922079478 0 0.37512131353827649 0.31993777409944391 0 0.37951212113643251 0.32682582922079478 0 0.38253365066345929 0.31657150904984471 0 0.37512131353827649 0.31993777409944391 0 0.37552929986171052 0.31147094895867028 0 0.38253365066345929 0.31657150904984471 0 0.37512131353827649 0.31993777409944391 0 0.3722477765496085 0.35016695762591221 0 0.39384880347163692 0.33984983538614127 0 0.38018026091455548 0.33583017463534492 0 0.39384880347163692 0.33984983538614127 0 0.38763626903965592 0.33142256612758492 0 0.38018026091455548 0.33583017463534492 0 0.37069175466933912 0.32875176142968793 0 0.37951212113643251 0.32682582922079478 0 0.38018026091455548 0.33583017463534492 0 0.37951212113643251 0.32682582922079478 0 0.38763626903965592 0.33142256612758492 0 0.38018026091455548 0.33583017463534492 0 0.3722477765496085 0.35016695762591221 0 0.39384880347163692 0.33984983538614127 0 0.3722477765496085 0.35016695762591221 0 0.39384880347163692 0.33984983538614127 0 0.38596182216836522 0.35527606173029752 0 0.3722477765496085 0.35016695762591221 0 0.38596182216836522 0.35527606173029752 0 0.37807898130569972 0.38198010331448301 0 0.38596182216836522 0.35527606173029752 0 0.39773627330903077 0.36105859917852151 0 0.37807898130569972 0.38198010331448301 0 0.39773627330903077 0.36105859917852151 0 0.37807898130569972 0.38198010331448301 0 0.39773627330903077 0.36105859917852151 0 0.37807898130569972 0.38198010331448301 0 0.40780080352149928 0.37567923871478631 0 0.41739356531236188 0.34013709504256018 0 0.39384880347163692 0.33984983538614127 0 0.39773627330903077 0.36105859917852151 0 0.39384880347163692 0.33984983538614127 0 0.38596182216836522 0.35527606173029752 0 0.39773627330903077 0.36105859917852151 0 0.40390821143883249 0.39309141821086863 0 0.37807898130569972 0.38198010331448301 0 0.39091832328282361 0.41087193027100549 0 0.40390821143883249 0.39309141821086863 0 0.39091832328282361 0.41087193027100549 0 0.41386422373874859 0.406371997932643 0 0.40390821143883249 0.39309141821086863 0 0.37807898130569972 0.38198010331448301 0 0.40780080352149928 0.37567923871478631 0 0.36187958923526292 0.40293945046940088 0 0.37807898130569972 0.38198010331448301 0 0.39091832328282361 0.41087193027100549 0 0.37193014631584848 0.42999924720615068 0 0.39355396721594382 0.43664913910555569 0 0.39091832328282361 0.41087193027100549 0 0.39355396721594382 0.43664913910555569 0 0.4086430402520686 0.43726383809014391 0 0.41286414250946218 0.42378426033622751 0 0.39355396721594382 0.43664913910555569 0 0.39091832328282361 0.41087193027100549 0 0.41286414250946218 0.42378426033622751 0 0.39091832328282361 0.41087193027100549 0 0.41386422373874859 0.406371997932643 0 0.41286414250946218 0.42378426033622751 0 0.41386422373874859 0.406371997932643 0 0.41286414250946218 0.42378426033622751 0 0.43221705047033082 0.4090921792360791 0 0.41286414250946218 0.42378426033622751 0 0.43133933500857929 0.43201167421733949 0 0.41892553910608071 0.43791135523627978 0 0.4086430402520686 0.43726383809014391 0 0.41286414250946218 0.42378426033622751 0 0.41892553910608071 0.43791135523627978 0 0.41286414250946218 0.42378426033622751 0 0.43133933500857929 0.43201167421733949 0 0.41286414250946218 0.42378426033622751 0 0.43133933500857929 0.43201167421733949 0 0.43221705047033082 0.4090921792360791 0 0.41386422373874859 0.406371997932643 0 0.43221705047033082 0.4090921792360791 0 0.42773818513645112 0.38883830406482728 0 0.40390821143883249 0.39309141821086863 0 0.41386422373874859 0.406371997932643 0 0.42773818513645112 0.38883830406482728 0 0.40390821143883249 0.39309141821086863 0 0.40780080352149928 0.37567923871478631 0 0.42773818513645112 0.38883830406482728 0 0.42640845802995259 0.36892404556868708 0 0.40780080352149928 0.37567923871478631 0 0.42773818513645112 0.38883830406482728 0 0.44153901264778062 0.37343480580038879 0 0.42640845802995259 0.36892404556868708 0 0.42773818513645112 0.38883830406482728 0 0.44153901264778062 0.37343480580038879 0 0.42773818513645112 0.38883830406482728 0 0.45482676763662039 0.38809293299633429 0 0.5 0.34930215291110689 0 0.47781149018510388 0.37869427749857482 0 0.5 0.41423412078117261 0 0.43221705047033082 0.4090921792360791 0 0.42773818513645112 0.38883830406482728 0 0.45482676763662039 0.38809293299633429 0 0.43221705047033082 0.4090921792360791 0 0.45482676763662039 0.38809293299633429 0 0.45232064757215651 0.41416601054739322 0 0.45482676763662039 0.38809293299633429 0 0.47121798163558132 0.40484318606820219 0 0.45232064757215651 0.41416601054739322 0 0.45482676763662039 0.38809293299633429 0 0.45232064757215651 0.41416601054739322 0 0.45733288770108432 0.36201985544527537 0 0.45482676763662039 0.38809293299633429 0 0.47781149018510388 0.37869427749857482 0 0.45482676763662039 0.38809293299633429 0 0.47781149018510388 0.37869427749857482 0 0.47121798163558132 0.40484318606820219 0 0.45733288770108432 0.36201985544527537 0 0.45482676763662039 0.38809293299633429 0 0.47781149018510388 0.37869427749857482 0 0.47121798163558132 0.40484318606820219 0 0.5 0.41423412078117261 0 0.5 0.41423412078117261 0 0.47113100278402542 0.42902858851753611 0 0.48237845739663598 0.45474052989964669 0 0.47121798163558132 0.40484318606820219 0 0.5 0.41423412078117261 0 0.47113100278402542 0.42902858851753611 0 0.47113100278402542 0.42902858851753611 0 0.45232064757215651 0.41416601054739322 0 0.44981452750769602 0.44023908809845258 0 0.47121798163558132 0.40484318606820219 0 0.47113100278402542 0.42902858851753611 0 0.45232064757215651 0.41416601054739322 0 0.43133933500857929 0.43201167421733949 0 0.43221705047033082 0.4090921792360791 0 0.45232064757215651 0.41416601054739322 0 0.43133933500857929 0.43201167421733949 0 0.44981452750769602 0.44023908809845258 0 0.45232064757215651 0.41416601054739322 0 0.44981452750769602 0.44023908809845258 0 0.43133933500857929 0.43201167421733949 0 0.45232064757215651 0.41416601054739322 0 0.44981452750769602 0.44023908809845258 0 0.43133933500857929 0.43201167421733949 0 0.44981452750769602 0.44023908809845258 0 0.43647632095713862 0.44436215142212632 0 0.44981452750769602 0.44023908809845258 0 0.44828887142136431 0.4561116514361514 0 0.43647632095713862 0.44436215142212632 0 0.5 0.41423412078117261 0 0.48237845739663598 0.45474052989964669 0 0.5 0.5 0 0.44981452750769602 0.44023908809845258 0 0.44828887142136431 0.4561116514361514 0 0.44828887142136431 0.4561116514361514 0 0.46262912319994498 0.4617517767316669 0 0.44676321533503599 0.47198421477385039 0 0.44828887142136431 0.4561116514361514 0 0.44676321533503599 0.47198421477385039 0 0.44828887142136431 0.4561116514361514 0 0.44676321533503599 0.47198421477385039 0 0.43105685511778941 0.46008286853249242 0 0.44828887142136431 0.4561116514361514 0 0.43105685511778941 0.46008286853249242 0 0.43647632095713862 0.44436215142212632 0 0.44828887142136431 0.4561116514361514 0 0.46262912319994498 0.4617517767316669 0 0.46609649245216622 0.44748980899904922 0 0.44981452750769602 0.44023908809845258 0 0.46609649245216622 0.44748980899904922 0 0.47113100278402542 0.42902858851753611 0 0.44981452750769602 0.44023908809845258 0 0.46609649245216622 0.44748980899904922 0 0.44981452750769602 0.44023908809845258 0 0.44828887142136431 0.4561116514361514 0 0.46609649245216622 0.44748980899904922 0 0.46609649245216622 0.44748980899904922 0 0.48237845739663598 0.45474052989964669 0 0.47113100278402542 0.42902858851753611 0 0.46609649245216622 0.44748980899904922 0 0.48237845739663598 0.45474052989964669 0 0.46262912319994498 0.4617517767316669 0 0.46609649245216622 0.44748980899904922 0 0.48237845739663598 0.45474052989964669 0 0.46262912319994498 0.4617517767316669 0 0.48237845739663598 0.45474052989964669 0 0.46961857939452217 0.47843267854963678 0 0.5 0.5 0 0.46961857939452217 0.47843267854963678 0 0.45695651283274419 0.5 0 0.48237845739663598 0.45474052989964669 0 0.5 0.5 0 0.46961857939452217 0.47843267854963678 0 0.46262912319994498 0.4617517767316669 0 0.46961857939452217 0.47843267854963678 0 0.44676321533503599 0.47198421477385039 0 0.46961857939452217 0.47843267854963678 0 0.45695651283274419 0.5 0 0.44676321533503599 0.47198421477385039 0 0.45695651283274419 0.5 0 0.44676321533503599 0.47198421477385039 0 0.42715067833807191 0.48563837301334373 0 0.45695651283274419 0.5 0 0.42715067833807191 0.48563837301334373 0 0.39792984500105372 0.49999999999999267 0 0.42715067833807191 0.48563837301334373 0 0.40953154044098622 0.4794767255128099 0 0.39792984500105372 0.49999999999999267 0 0.40953154044098622 0.4794767255128099 0 0.41525465208730261 0.46316685488367448 0 0.40032430733366781 0.47438196319643627 0 0.42715067833807191 0.48563837301334373 0 0.40953154044098622 0.4794767255128099 0 0.42565961132635199 0.47168315798381388 0 0.40953154044098622 0.4794767255128099 0 0.42565961132635199 0.47168315798381388 0 0.41525465208730261 0.46316685488367448 0 0.44676321533503599 0.47198421477385039 0 0.42715067833807191 0.48563837301334373 0 0.42565961132635199 0.47168315798381388 0 0.42565961132635199 0.47168315798381388 0 0.43105685511778941 0.46008286853249242 0 0.41525465208730261 0.46316685488367448 0 0.44676321533503599 0.47198421477385039 0 0.42565961132635199 0.47168315798381388 0 0.43105685511778941 0.46008286853249242 0 0.43647632095713862 0.44436215142212632 0 0.4092285121767878 0.4507105976825127 0 0.43133933500857929 0.43201167421733949 0 0.43647632095713862 0.44436215142212632 0 0.41892553910608071 0.43791135523627978 0 0.43105685511778941 0.46008286853249242 0 0.43647632095713862 0.44436215142212632 0 0.4092285121767878 0.4507105976825127 0 0.43647632095713862 0.44436215142212632 0 0.41892553910608071 0.43791135523627978 0 0.4092285121767878 0.4507105976825127 0 0.4086430402520686 0.43726383809014391 0 0.41892553910608071 0.43791135523627978 0 0.4092285121767878 0.4507105976825127 0 0.43105685511778941 0.46008286853249242 0 0.4092285121767878 0.4507105976825127 0 0.41525465208730261 0.46316685488367448 0 0.41525465208730261 0.46316685488367448 0 0.38526933680530762 0.46591325479630669 0 0.40032430733366781 0.47438196319643627 0 0.4092285121767878 0.4507105976825127 0 0.41525465208730261 0.46316685488367448 0 0.38526933680530762 0.46591325479630669 0 0.4092285121767878 0.4507105976825127 0 0.38526933680530762 0.46591325479630669 0 0.38198070339643708 0.45705904394289942 0 0.4092285121767878 0.4507105976825127 0 0.38198070339643708 0.45705904394289942 0 0.41525465208730261 0.46316685488367448 0 0.38526933680530762 0.46591325479630669 0 0.39355396721594382 0.43664913910555569 0 0.4086430402520686 0.43726383809014391 0 0.4092285121767878 0.4507105976825127 0 0.39355396721594382 0.43664913910555569 0 0.4092285121767878 0.4507105976825127 0 0.38198070339643708 0.45705904394289942 0 0.37193014631584848 0.42999924720615068 0 0.39355396721594382 0.43664913910555569 0 0.38198070339643708 0.45705904394289942 0 0.37193014631584848 0.42999924720615068 0 0.38198070339643708 0.45705904394289942 0 0.36717500093372668 0.46757054210475929 0 0.38526933680530762 0.46591325479630669 0 0.36717500093372668 0.46757054210475929 0 0.38526933680530762 0.46591325479630669 0 0.38198070339643708 0.45705904394289942 0 0.38526933680530762 0.46591325479630669 0 0.38198070339643708 0.45705904394289942 0 0.36717500093372668 0.46757054210475929 0 0.38526933680530762 0.46591325479630669 0 0.37501723488010369 0.48021086780116401 0 0.38526933680530762 0.46591325479630669 0 0.39159959090318019 0.48295662739814987 0 0.38526933680530762 0.46591325479630669 0 0.37501723488010369 0.48021086780116401 0 0.39159959090318019 0.48295662739814987 0 0.37100127548482031 0.49999999999999922 0 0.39792984500105372 0.49999999999999267 0 0.39159959090318019 0.48295662739814987 0 0.37100127548482031 0.49999999999999922 0 0.37501723488010369 0.48021086780116401 0 0.39159959090318019 0.48295662739814987 0 0.40953154044098622 0.4794767255128099 0 0.39792984500105372 0.49999999999999267 0 0.39159959090318019 0.48295662739814987 0 0.39792984500105372 0.49999999999999267 0 0.39159959090318019 0.48295662739814987 0 0.38526933680530762 0.46591325479630669 0 0.39159959090318019 0.48295662739814987 0 0.40032430733366781 0.47438196319643627 0 0.40953154044098622 0.4794767255128099 0 0.39159959090318019 0.48295662739814987 0 0.40032430733366781 0.47438196319643627 0 0.33044620589452839 0.087817198709655944 0 0.34171554996877818 0.096966806733087524 0 0.34881532063442522 0.082201530692034883 0 0.33044620589452839 0.087817198709655944 0 0.32566991147381341 0.070879840112157963 0 0.34881532063442522 0.082201530692034883 0 0.32566991147381341 0.070879840112157963 0 0.34881532063442522 0.082201530692034883 0 0.34230685448842202 0.061943355546023537 0 0.32566991147381341 0.070879840112157963 0 0.31072716300308328 0.059331554637136651 0 0.31153776068034922 0.089135316111794982 0 0.33044620589452839 0.087817198709655944 0 0.32806927392538099 0.098855845298032555 0 0.31153776068034922 0.089135316111794982 0 0.33044620589452839 0.087817198709655944 0 0.32566991147381341 0.070879840112157963 0 0.31153776068034922 0.089135316111794982 0 0.32260309590447922 0.1123122165003074 0 0.31153776068034922 0.089135316111794982 0 0.31234835835761571 0.11893907758645331 0 0.32806927392538099 0.098855845298032555 0 0.32260309590447922 0.1123122165003074 0 0.31153776068034922 0.089135316111794982 0 0.32260309590447922 0.1123122165003074 0 0.33019904407723683 0.1184739086744384 0 0.31234835835761571 0.11893907758645331 0 0.33019904407723683 0.1184739086744384 0 0.31234835835761571 0.11893907758645331 0 0.33442235067943221 0.13211305649348251 0 0.32260309590447922 0.1123122165003074 0 0.33019904407723683 0.1184739086744384 0 0.33404375717876961 0.1080476884353169 0 0.33404375717876961 0.1080476884353169 0 0.343988490580944 0.1176741160108202 0 0.33019904407723683 0.1184739086744384 0 0.33404375717876961 0.1080476884353169 0 0.343988490580944 0.1176741160108202 0 0.343988490580944 0.1176741160108202 0 0.33442235067943221 0.13211305649348251 0 0.33019904407723683 0.1184739086744384 0 0.343988490580944 0.1176741160108202 0 0.33442235067943221 0.13211305649348251 0 0.33404375717876961 0.1080476884353169 0 0.34171554996877818 0.096966806733087524 0 0.35392152912869879 0.10268138604034791 0 0.33044620589452839 0.087817198709655944 0 0.32806927392538099 0.098855845298032555 0 0.34171554996877818 0.096966806733087524 0 0.32806927392538099 0.098855845298032555 0 0.33404375717876961 0.1080476884353169 0 0.34171554996877818 0.096966806733087524 0 0.32806927392538099 0.098855845298032555 0 0.32260309590447922 0.1123122165003074 0 0.33404375717876961 0.1080476884353169 0 0.35392152912869879 0.10268138604034791 0 0.35491381869304151 0.1011836439930483 0 0.34881532063442522 0.082201530692034883 0 0.34171554996877818 0.096966806733087524 0 0.35392152912869879 0.10268138604034791 0 0.34881532063442522 0.082201530692034883 0 0.35392152912869879 0.10268138604034791 0 0.35546062987876292 0.1088543734464716 0 0.35491381869304151 0.1011836439930483 0 0.35392152912869879 0.10268138604034791 0 0.35491381869304151 0.1011836439930483 0 0.35392152912869879 0.10268138604034791 0 0.35546062987876292 0.1088543734464716 0 0.33404375717876961 0.1080476884353169 0 0.35392152912869879 0.10268138604034791 0 0.343988490580944 0.1176741160108202 0 0.35546062987876292 0.1088543734464716 0 0.35491381869304151 0.1011836439930483 0 0.36234477620530581 0.12431315491142481 0 0.35491381869304151 0.1011836439930483 0 0.36234477620530581 0.12431315491142481 0 0.343988490580944 0.1176741160108202 0 0.3557614600719885 0.1290702624504714 0 0.35392152912869879 0.10268138604034791 0 0.343988490580944 0.1176741160108202 0 0.35392152912869879 0.10268138604034791 0 0.35546062987876292 0.1088543734464716 0 0.343988490580944 0.1176741160108202 0 0.35546062987876292 0.1088543734464716 0 0.343988490580944 0.1176741160108202 0 0.35889290538618501 0.1204186727105461 0 0.343988490580944 0.1176741160108202 0 0.35889290538618501 0.1204186727105461 0 0.3557614600719885 0.1290702624504714 0 0.35546062987876292 0.1088543734464716 0 0.35889290538618501 0.1204186727105461 0 0.36234477620530581 0.12431315491142481 0 0.35889290538618501 0.1204186727105461 0 0.36234477620530581 0.12431315491142481 0 0.3557614600719885 0.1290702624504714 0 0.35491381869304151 0.1011836439930483 0 0.36234477620530581 0.12431315491142481 0 0.37533236417423199 0.11575217945856781 0 0.35889290538618501 0.1204186727105461 0 0.36234477620530581 0.12431315491142481 0 0.35491381869304151 0.1011836439930483 0 0.36864505415383159 0.080457991471440893 0 0.37989514383216261 0.1008811074142211 0 0.35491381869304151 0.1011836439930483 0 0.37989514383216261 0.1008811074142211 0 0.37533236417423199 0.11575217945856781 0 0.35491381869304151 0.1011836439930483 0 0.36864505415383159 0.080457991471440893 0 0.36864505415383159 0.080457991471440893 0 0.37194242117794668 0.076772614526931793 0 0.37989514383216261 0.1008811074142211 0 0.35491381869304151 0.1011836439930483 0 0.36864505415383159 0.080457991471440893 0 0.34881532063442522 0.082201530692034883 0 0.35491381869304151 0.1011836439930483 0 0.34881532063442522 0.082201530692034883 0 0.35392152912869879 0.10268138604034791 0 0.34881532063442522 0.082201530692034883 0 0.34881532063442522 0.082201530692034883 0 0.34230685448842202 0.061943355546023537 0 0.34881532063442522 0.082201530692034883 0 0.34385440331789768 0.06230440562327498 0 0.34881532063442522 0.082201530692034883 0 0.36113142589940772 0.067155945135465897 0 0.34385440331789768 0.06230440562327498 0 0.34881532063442522 0.082201530692034883 0 0.34385440331789768 0.06230440562327498 0 0.34230685448842202 0.061943355546023537 0 0.36864505415383159 0.080457991471440893 0 0.36113142589940772 0.067155945135465897 0 0.38237628961462611 0.059732338949836518 0 0.36864505415383159 0.080457991471440893 0 0.34881532063442522 0.082201530692034883 0 0.36113142589940772 0.067155945135465897 0 0.36864505415383159 0.080457991471440893 0 0.37194242117794668 0.076772614526931793 0 0.38237628961462611 0.059732338949836518 0 0.36113142589940772 0.067155945135465897 0 0.36196606177625779 0.051083458940742198 0 0.38237628961462611 0.059732338949836518 0 0.36196606177625779 0.051083458940742198 0 0.37923500638336632 0.043068186250585699 0 0.38237628961462611 0.059732338949836518 0 0.36196606177625779 0.051083458940742198 0 0.36321924137845568 0.02934286747329215 0 0.37923500638336632 0.043068186250585699 0 0.36196606177625779 0.051083458940742198 0 0.36321924137845568 0.02934286747329215 0 0.33889348600137009 0.042407280554515127 0 0.36321924137845568 0.02934286747329215 0 0.33393256868484111 0.02251015548575569 0 0.33889348600137009 0.042407280554515127 0 0.36113142589940772 0.067155945135465897 0 0.36196606177625779 0.051083458940742198 0 0.34385440331789768 0.06230440562327498 0 0.36196606177625779 0.051083458940742198 0 0.34385440331789768 0.06230440562327498 0 0.33889348600137009 0.042407280554515127 0 0.37357914744350779 0.002440479778912224 0 0.37424442014871812 0.021820824704299101 0 0.35598292622536432 0.0074660699477739154 0 0.37424442014871812 0.021820824704299101 0 0.35598292622536432 0.0074660699477739154 0 0.36321924137845568 0.02934286747329215 0 0.37424442014871812 0.021820824704299101 0 0.35598292622536432 0.0074660699477739154 0 0.36321924137845568 0.02934286747329215 0 0.34509322139385162 0.01518667904233665 0 0.33393256868484111 0.02251015548575569 0 0.36321924137845568 0.02934286747329215 0 0.33393256868484111 0.02251015548575569 0 0.36321924137845568 0.02934286747329215 0 0.35598292622536432 0.0074660699477739154 0 0.34509322139385162 0.01518667904233665 0 0.35598292622536432 0.0074660699477739154 0 0.33772143230201052 -0.0068886848087512803 0 0.35598292622536432 0.0074660699477739154 0 0.33877017139388149 0.0064718171092321003 0 0.33772143230201052 -0.0068886848087512803 0 0.35598292622536432 0.0074660699477739154 0 0.34509322139385162 0.01518667904233665 0 0.33877017139388149 0.0064718171092321003 0 0.33877017139388149 0.0064718171092321003 0 0.32325249182581611 0.0026349705202008129 0 0.33772143230201052 -0.0068886848087512803 0 0.33877017139388149 0.0064718171092321003 0 0.33180078522236511 0.01396005084460041 0 0.32325249182581611 0.0026349705202008129 0 0.34509322139385162 0.01518667904233665 0 0.33877017139388149 0.0064718171092321003 0 0.33180078522236511 0.01396005084460041 0 0.3292899221964134 0.021427005254001569 0 0.33393256868484111 0.02251015548575569 0 0.33579838834241882 0.04168518040001222 0 0.33180078522236511 0.01396005084460041 0 0.3292899221964134 0.021427005254001569 0 0.33393256868484111 0.02251015548575569 0 0.33180078522236511 0.01396005084460041 0 0.33393256868484111 0.02251015548575569 0 0.3292899221964134 0.021427005254001569 0 0.33393256868484111 0.02251015548575569 0 0.34509322139385162 0.01518667904233665 0 0.33180078522236511 0.01396005084460041 0 0.33393256868484111 0.02251015548575569 0 0.3292899221964134 0.021427005254001569 0 0.31293781791285569 0.017611986042758699 0 0.31923969929816981 0.035830495662194838 0 0.3292899221964134 0.021427005254001569 0 0.31293781791285569 0.017611986042758699 0 0.33180078522236511 0.01396005084460041 0 0.3292899221964134 0.021427005254001569 0 0.32325249182581611 0.0026349705202008129 0 0.3292899221964134 0.021427005254001569 0 0.31293781791285569 0.017611986042758699 0 0.32325249182581611 0.0026349705202008129 0 0.3292899221964134 0.021427005254001569 0 0.32325249182581611 0.0026349705202008129 0 0.31293781791285569 0.017611986042758699 0 0.32325249182581611 0.0026349705202008129 0 0.30690038754225768 -0.0011800486910433781 0 0.34230685448842202 0.061943355546023537 0 0.33579838834241882 0.04168518040001222 0 0.33889348600137009 0.042407280554515127 0 0.34385440331789768 0.06230440562327498 0 0.34230685448842202 0.061943355546023537 0 0.33889348600137009 0.042407280554515127 0 0.32566991147381341 0.070879840112157963 0 0.34230685448842202 0.061943355546023537 0 0.33579838834241882 0.04168518040001222 0 0.34230685448842202 0.061943355546023537 0 0.33579838834241882 0.04168518040001222 0 0.34385440331789768 0.06230440562327498 0 0.33889348600137009 0.042407280554515127 0 0.3292899221964134 0.021427005254001569 0 0.33579838834241882 0.04168518040001222 0 0.33393256868484111 0.02251015548575569 0 0.33889348600137009 0.042407280554515127 0 0.33393256868484111 0.02251015548575569 0 0.33579838834241882 0.04168518040001222 0 0.33889348600137009 0.042407280554515127 0 0.33579838834241882 0.04168518040001222 0 0.31923969929816981 0.035830495662194838 0 0.31072716300308328 0.059331554637136651 0 0.3292899221964134 0.021427005254001569 0 0.33579838834241882 0.04168518040001222 0 0.31923969929816981 0.035830495662194838 0 0.32566991147381341 0.070879840112157963 0 0.33579838834241882 0.04168518040001222 0 0.31072716300308328 0.059331554637136651 0 0.31072716300308328 0.059331554637136651 0 0.30691000426459791 0.042169890293137127 0 0.29424159478151202 0.042911142587019738 0 0.31923969929816981 0.035830495662194838 0 0.30691000426459791 0.042169890293137127 0 0.30060566889494089 0.02714657897289334 0 0.30691000426459791 0.042169890293137127 0 0.29424159478151202 0.042911142587019738 0 0.30060566889494089 0.02714657897289334 0 0.31923969929816981 0.035830495662194838 0 0.31072716300308328 0.059331554637136651 0 0.30691000426459791 0.042169890293137127 0 0.29424159478151202 0.042911142587019738 0 0.30060566889494089 0.02714657897289334 0 0.28762295502011598 0.027200489278051441 0 0.29424159478151202 0.042911142587019738 0 0.28762295502011598 0.027200489278051441 0 0.27805620151387522 0.042617420402232667 0 0.31072716300308328 0.059331554637136651 0 0.29424159478151202 0.042911142587019738 0 0.28127895804124392 0.05869653450612005 0 0.29424159478151202 0.042911142587019738 0 0.28127895804124392 0.05869653450612005 0 0.27805620151387522 0.042617420402232667 0 0.31293781791285569 0.017611986042758699 0 0.29658571362929892 0.01379696683151194 0 0.30690038754225768 -0.0011800486910433781 0 0.29658571362929892 0.01379696683151194 0 0.30050921735997521 -0.004605356182754896 0 0.30690038754225768 -0.0011800486910433781 0 0.29658571362929892 0.01379696683151194 0 0.30690038754225768 -0.0011800486910433781 0 0.31293781791285569 0.017611986042758699 0 0.30060566889494089 0.02714657897289334 0 0.29658571362929892 0.01379696683151194 0 0.31293781791285569 0.017611986042758699 0 0.31923969929816981 0.035830495662194838 0 0.30060566889494089 0.02714657897289334 0 0.31293781791285569 0.017611986042758699 0 0.29658571362929892 0.01379696683151194 0 0.30060566889494089 0.02714657897289334 0 0.29500274332330728 0.016095456443948788 0 0.29658571362929892 0.01379696683151194 0 0.30060566889494089 0.02714657897289334 0 0.28762295502011598 0.027200489278051441 0 0.29289454178864649 0.022456661223579269 0 0.28762295502011598 0.027200489278051441 0 0.28116395689077539 0.015207467567734259 0 0.27775173961206168 0.02941095978416057 0 0.28762295502011598 0.027200489278051441 0 0.28836526088227099 0.018465508051837269 0 0.28116395689077539 0.015207467567734259 0 0.28762295502011598 0.027200489278051441 0 0.28116395689077539 0.015207467567734259 0 0.30060566889494089 0.02714657897289334 0 0.29289454178864649 0.022456661223579269 0 0.29500274332330728 0.016095456443948788 0 0.28836526088227099 0.018465508051837269 0 0.29289454178864649 0.022456661223579269 0 0.29500274332330728 0.016095456443948788 0 0.28762295502011598 0.027200489278051441 0 0.28836526088227099 0.018465508051837269 0 0.29289454178864649 0.022456661223579269 0 0.28514691493175248 0.01112824383243886 0 0.30050921735997521 -0.004605356182754896 0 0.29658571362929892 0.01379696683151194 0 0.28514691493175248 0.01112824383243886 0 0.30050921735997521 -0.004605356182754896 0 0.28514691493175248 0.01112824383243886 0 0.27791710391185381 -0.0010379811687957271 0 0.28512431700806451 -0.0086992195202469716 0 0.29658571362929892 0.01379696683151194 0 0.28514691493175248 0.01112824383243886 0 0.28836526088227099 0.018465508051837269 0 0.29500274332330728 0.016095456443948788 0 0.28514691493175248 0.01112824383243886 0 0.29500274332330728 0.016095456443948788 0 0.29658571362929892 0.01379696683151194 0 0.28514691493175248 0.01112824383243886 0 0.29500274332330728 0.016095456443948788 0 0.29658571362929892 0.01379696683151194 0 0.28836526088227099 0.018465508051837269 0 0.28514691493175248 0.01112824383243886 0 0.28116395689077539 0.015207467567734259 0 0.28514691493175248 0.01112824383243886 0 0.27807895442698177 0.0094792569716416024 0 0.28116395689077539 0.015207467567734259 0 0.28514691493175248 0.01112824383243886 0 0.28116395689077539 0.015207467567734259 0 0.28514691493175248 0.01112824383243886 0 0.27807895442698177 0.0094792569716416024 0 0.27127393371108272 0.0054169343353159512 0 0.27807895442698177 0.0094792569716416024 0 0.2692248172919926 -0.0069610417805164738 0 0.27807895442698177 0.0094792569716416024 0 0.2692248172919926 -0.0069610417805164738 0 0.27807895442698177 0.0094792569716416024 0 0.2692248172919926 -0.0069610417805164738 0 0.27791710391185381 -0.0010379811687957271 0 0.26701986470523431 0.0028523954276382379 0 0.27127393371108272 0.0054169343353159512 0 0.2692248172919926 -0.0069610417805164738 0 0.26701986470523431 0.0028523954276382379 0 0.27127393371108272 0.0054169343353159512 0 0.26928034954363472 0.01099432455637152 0 0.28514691493175248 0.01112824383243886 0 0.27807895442698177 0.0094792569716416024 0 0.27791710391185381 -0.0010379811687957271 0 0.27807895442698177 0.0094792569716416024 0 0.27458783582826463 0.012565755321843329 0 0.27310560452179761 0.0095674853239665035 0 0.27127393371108272 0.0054169343353159512 0 0.27807895442698177 0.0094792569716416024 0 0.27310560452179761 0.0095674853239665035 0 0.27807895442698177 0.0094792569716416024 0 0.28116395689077539 0.015207467567734259 0 0.27807895442698177 0.0094792569716416024 0 0.28116395689077539 0.015207467567734259 0 0.27458783582826463 0.012565755321843329 0 0.27458783582826463 0.012565755321843329 0 0.26928034954363472 0.01099432455637152 0 0.26815911709364498 0.019514489362225031 0 0.27458783582826463 0.012565755321843329 0 0.27310560452179761 0.0095674853239665035 0 0.26928034954363472 0.01099432455637152 0 0.27127393371108272 0.0054169343353159512 0 0.27310560452179761 0.0095674853239665035 0 0.26928034954363472 0.01099432455637152 0 0.28116395689077539 0.015207467567734259 0 0.26416384502347939 0.032618461888623121 0 0.28116395689077539 0.015207467567734259 0 0.26815911709364498 0.019514489362225031 0 0.26416384502347939 0.032618461888623121 0 0.28116395689077539 0.015207467567734259 0 0.27775173961206168 0.02941095978416057 0 0.26416384502347939 0.032618461888623121 0 0.28116395689077539 0.015207467567734259 0 0.27458783582826463 0.012565755321843329 0 0.26815911709364498 0.019514489362225031 0 0.2489069739425 0.021637400389674748 0 0.25228035847618863 0.02688679106582054 0 0.25585841565974538 0.042233258010133973 0 0.26815911709364498 0.019514489362225031 0 0.25311855338379191 0.024668664965947041 0 0.26416384502347939 0.032618461888623121 0 0.25311855338379191 0.024668664965947041 0 0.26416384502347939 0.032618461888623121 0 0.25228035847618863 0.02688679106582054 0 0.25311855338379191 0.024668664965947041 0 0.26416384502347939 0.032618461888623121 0 0.2489069739425 0.021637400389674748 0 0.25228035847618863 0.02688679106582054 0 0.25311855338379191 0.024668664965947041 0 0.25228035847618863 0.02688679106582054 0 0.25311855338379191 0.024668664965947041 0 0.2489069739425 0.021637400389674748 0 0.25311855338379191 0.024668664965947041 0 0.25900523844679291 0.0090906536209348996 0 0.25311855338379191 0.024668664965947041 0 0.25900523844679291 0.0090906536209348996 0 0.2489069739425 0.021637400389674748 0 0.25311855338379191 0.024668664965947041 0 0.26815911709364498 0.019514489362225031 0 0.25311855338379191 0.024668664965947041 0 0.25900523844679291 0.0090906536209348996 0 0.26928034954363472 0.01099432455637152 0 0.26815911709364498 0.019514489362225031 0 0.25900523844679291 0.0090906536209348996 0 0.26701986470523431 0.0028523954276382379 0 0.26928034954363472 0.01099432455637152 0 0.25900523844679291 0.0090906536209348996 0 0.25900523844679291 0.0090906536209348996 0 0.26489192350979318 -0.0064873577240775106 0 0.26701986470523431 0.0028523954276382379 0 0.25900523844679291 0.0090906536209348996 0 0.26489192350979318 -0.0064873577240775106 0 0.28127895804124392 0.05869653450612005 0 0.26794279917258279 0.048584654113773551 0 0.27805620151387522 0.042617420402232667 0 0.28127895804124392 0.05869653450612005 0 0.26794279917258279 0.048584654113773551 0 0.26429652163301431 0.061701359010517647 0 0.26794279917258279 0.048584654113773551 0 0.27805620151387522 0.042617420402232667 0 0.26416384502347939 0.032618461888623121 0 0.28762295502011598 0.027200489278051441 0 0.27775173961206168 0.02941095978416057 0 0.27805620151387522 0.042617420402232667 0 0.27805620151387522 0.042617420402232667 0 0.26416384502347939 0.032618461888623121 0 0.27775173961206168 0.02941095978416057 0 0.27805620151387522 0.042617420402232667 0 0.26416384502347939 0.032618461888623121 0 0.26794279917258279 0.048584654113773551 0 0.2611959089814877 0.042898221548277563 0 0.26416384502347939 0.032618461888623121 0 0.2611959089814877 0.042898221548277563 0 0.25585841565974538 0.042233258010133973 0 0.25799090162224952 0.051667623778106117 0 0.2489069739425 0.021637400389674748 0 0.25585841565974538 0.042233258010133973 0 0.2611959089814877 0.042898221548277563 0 0.25868336492166327 0.038231401890038208 0 0.25585841565974538 0.042233258010133973 0 0.25228035847618863 0.02688679106582054 0 0.26416384502347939 0.032618461888623121 0 0.25868336492166327 0.038231401890038208 0 0.2611959089814877 0.042898221548277563 0 0.26416384502347939 0.032618461888623121 0 0.25868336492166327 0.038231401890038208 0 0.26416384502347939 0.032618461888623121 0 0.25868336492166327 0.038231401890038208 0 0.25228035847618863 0.02688679106582054 0 0.25868336492166327 0.038231401890038208 0 0.25585841565974538 0.042233258010133973 0 0.24915942417082321 0.043562136642382059 0 0.25585841565974538 0.042233258010133973 0 0.25194780840825542 0.047502886957762752 0 0.25585841565974538 0.042233258010133973 0 0.25194780840825542 0.047502886957762752 0 0.25799090162224952 0.051667623778106117 0 0.24612717135886061 0.053158967820149818 0 0.25194780840825542 0.047502886957762752 0 0.25799090162224952 0.051667623778106117 0 0.24612717135886061 0.053158967820149818 0 0.25799090162224952 0.051667623778106117 0 0.26429652163301431 0.061701359010517647 0 0.26794279917258279 0.048584654113773551 0 0.2611959089814877 0.042898221548277563 0 0.25799090162224952 0.051667623778106117 0 0.26794279917258279 0.048584654113773551 0 0.25799090162224952 0.051667623778106117 0 0.26429652163301431 0.061701359010517647 0 0.24612717135886061 0.053158967820149818 0 0.25923100858263742 0.079351551944828513 0 0.24612717135886061 0.053158967820149818 0 0.26429652163301431 0.061701359010517647 0 0.25923100858263742 0.079351551944828513 0 0.24537668551697431 0.097277083683747018 0 0.25923100858263742 0.079351551944828513 0 0.25922747002471352 0.097974378356717087 0 0.27555977218924488 0.077439952611008278 0 0.28759873658278978 0.090030408643589632 0 0.27101928807639453 0.09427347599549088 0 0.25923100858263742 0.079351551944828513 0 0.27555977218924488 0.077439952611008278 0 0.27101928807639453 0.09427347599549088 0 0.25923100858263742 0.079351551944828513 0 0.27101928807639453 0.09427347599549088 0 0.27233484580641432 0.1055441360695072 0 0.25923100858263742 0.079351551944828513 0 0.27233484580641432 0.1055441360695072 0 0.28127895804124392 0.05869653450612005 0 0.26429652163301431 0.061701359010517647 0 0.27555977218924488 0.077439952611008278 0 0.26429652163301431 0.061701359010517647 0 0.25923100858263742 0.079351551944828513 0 0.27555977218924488 0.077439952611008278 0 0.31072716300308328 0.059331554637136651 0 0.28127895804124392 0.05869653450612005 0 0.29303234378028109 0.075428628958087107 0 0.28127895804124392 0.05869653450612005 0 0.27555977218924488 0.077439952611008278 0 0.29303234378028109 0.075428628958087107 0 0.27555977218924488 0.077439952611008278 0 0.29303234378028109 0.075428628958087107 0 0.28759873658278978 0.090030408643589632 0 0.29303234378028109 0.075428628958087107 0 0.28759873658278978 0.090030408643589632 0 0.31153776068034922 0.089135316111794982 0 0.31072716300308328 0.059331554637136651 0 0.29303234378028109 0.075428628958087107 0 0.31153776068034922 0.089135316111794982 0 0.31072716300308328 0.059331554637136651 0 0.31153776068034922 0.089135316111794982 0 0.31234835835761571 0.11893907758645331 0 0.29168382321700531 0.1066062767909717 0 0.29960507646434792 0.12683409122409009 0 0.31234835835761571 0.11893907758645331 0 0.29168382321700531 0.1066062767909717 0 0.31153776068034922 0.089135316111794982 0 0.31234835835761571 0.11893907758645331 0 0.28759873658278978 0.090030408643589632 0 0.31153776068034922 0.089135316111794982 0 0.29168382321700531 0.1066062767909717 0 0.31153776068034922 0.089135316111794982 0 0.31234835835761571 0.11893907758645331 0 0.29168382321700531 0.1066062767909717 0 0.29168382321700531 0.1066062767909717 0 0.27101928807639453 0.09427347599549088 0 0.28759873658278978 0.090030408643589632 0 0.29168382321700531 0.1066062767909717 0 0.27101928807639453 0.09427347599549088 0 0.28726560712948962 0.11768030606968879 0 0.27233484580641432 0.1055441360695072 0 0.28543868303019121 0.131736720194186 0 0.29168382321700531 0.1066062767909717 0 0.28726560712948962 0.11768030606968879 0 0.29960507646434792 0.12683409122409009 0 0.29168382321700531 0.1066062767909717 0 0.28726560712948962 0.11768030606968879 0 0.27233484580641432 0.1055441360695072 0 0.2688255279836298 0.12262400996184721 0 0.27233484580641432 0.1055441360695072 0 0.28543868303019121 0.131736720194186 0 0.2688255279836298 0.12262400996184721 0 0.27233484580641432 0.1055441360695072 0 0.25996734019282808 0.1097247417287856 0 0.27233484580641432 0.1055441360695072 0 0.28543868303019121 0.131736720194186 0 0.29168382321700531 0.1066062767909717 0 0.27101928807639453 0.09427347599549088 0 0.27233484580641432 0.1055441360695072 0 0.25923100858263742 0.079351551944828513 0 0.27233484580641432 0.1055441360695072 0 0.25922747002471352 0.097974378356717087 0 0.27233484580641432 0.1055441360695072 0 0.25922747002471352 0.097974378356717087 0 0.25996734019282808 0.1097247417287856 0 0.24537668551697431 0.097277083683747018 0 0.25922747002471352 0.097974378356717087 0 0.25996734019282808 0.1097247417287856 0 0.24537668551697431 0.097277083683747018 0 0.25996734019282808 0.1097247417287856 0 0.25370366287882878 0.1241816415692342 0 0.2688255279836298 0.12262400996184721 0 0.25996734019282808 0.1097247417287856 0 0.25370366287882878 0.1241816415692342 0 0.25370366287882878 0.1241816415692342 0 0.26203064024068312 0.15108619945472171 0 0.2688255279836298 0.12262400996184721 0 0.25370366287882878 0.1241816415692342 0 0.27163016425534958 0.13738497633274069 0 0.25370366287882878 0.1241816415692342 0 0.27163016425534958 0.13738497633274069 0 0.26203064024068312 0.15108619945472171 0 0.2688255279836298 0.12262400996184721 0 0.27163016425534958 0.13738497633274069 0 0.28543868303019121 0.131736720194186 0 0.27163016425534958 0.13738497633274069 0 0.28543868303019121 0.131736720194186 0 0.2826446853024604 0.14124270427211749 0 0.27163016425534958 0.13738497633274069 0 0.27808704382392468 0.15255782491348299 0 0.26203064024068312 0.15108619945472171 0 0.27808704382392468 0.15255782491348299 0 0.26203064024068312 0.15108619945472171 0 0.26470071343822532 0.15971323610680241 0 0.27808704382392468 0.15255782491348299 0 0.26203064024068312 0.15108619945472171 0 0.27163016425534958 0.13738497633274069 0 0.27808704382392468 0.15255782491348299 0 0.2826446853024604 0.14124270427211749 0 0.27808704382392468 0.15255782491348299 0 0.26470071343822532 0.15971323610680241 0 0.24802047718606329 0.14980211908606039 0 0.25370366287882878 0.1241816415692342 0 0.26203064024068312 0.15108619945472171 0 0.26203064024068312 0.15108619945472171 0 0.26470071343822532 0.15971323610680241 0 0.26203064024068312 0.15108619945472171 0 0.25841385897244001 0.15585338151222791 0 0.26470071343822532 0.15971323610680241 0 0.24802047718606329 0.14980211908606039 0 0.25841385897244001 0.15585338151222791 0 0.25890360502478721 0.16281197140132819 0 0.24802047718606329 0.14980211908606039 0 0.26203064024068312 0.15108619945472171 0 0.24802047718606329 0.14980211908606039 0 0.26203064024068312 0.15108619945472171 0 0.25841385897244001 0.15585338151222791 0 0.26470071343822532 0.15971323610680241 0 0.25890360502478721 0.16281197140132819 0 0.26962736994955661 0.17563131892736969 0 0.24394273923527451 0.1708090208874482 0 0.25890360502478721 0.16281197140132819 0 0.25069145747160237 0.17986975870422739 0 0.24394273923527451 0.1708090208874482 0 0.24802047718606329 0.14980211908606039 0 0.25890360502478721 0.16281197140132819 0 0.24802047718606329 0.14980211908606039 0 0.25890360502478721 0.16281197140132819 0 0.24394273923527451 0.1708090208874482 0 0.25890360502478721 0.16281197140132819 0 0.25890360502478721 0.16281197140132819 0 0.26962736994955661 0.17563131892736969 0 0.26470071343822532 0.15971323610680241 0 0.25890360502478721 0.16281197140132819 0 0.25841385897244001 0.15585338151222791 0 0.26470071343822532 0.15971323610680241 0 0.25890360502478721 0.16281197140132819 0 0.25890360502478721 0.16281197140132819 0 0.25069145747160237 0.17986975870422739 0 0.2622875918713119 0.17871532590777511 0 0.25890360502478721 0.16281197140132819 0 0.2622875918713119 0.17871532590777511 0 0.26962736994955661 0.17563131892736969 0 0.24443808169503289 0.19165573435540739 0 0.25069145747160237 0.17986975870422739 0 0.25672659357731442 0.18931439154619459 0 0.25069145747160237 0.17986975870422739 0 0.2622875918713119 0.17871532590777511 0 0.25672659357731442 0.18931439154619459 0 0.2622875918713119 0.17871532590777511 0 0.2666871346110174 0.18721551203983949 0 0.25672659357731442 0.18931439154619459 0 0.2666871346110174 0.18721551203983949 0 0.2707313294469027 0.17919822452935469 0 0.28262567674856709 0.19158292471432059 0 0.2707313294469027 0.17919822452935469 0 0.26962736994955661 0.17563131892736969 0 0.28262567674856709 0.19158292471432059 0 0.26962736994955661 0.17563131892736969 0 0.28262567674856709 0.19158292471432059 0 0.26962736994955661 0.17563131892736969 0 0.28063414626850292 0.17836588696170111 0 0.28262567674856709 0.19158292471432059 0 0.2622875918713119 0.17871532590777511 0 0.2666871346110174 0.18721551203983949 0 0.2707313294469027 0.17919822452935469 0 0.2622875918713119 0.17871532590777511 0 0.2707313294469027 0.17919822452935469 0 0.26962736994955661 0.17563131892736969 0 0.2707313294469027 0.17919822452935469 0 0.26962736994955661 0.17563131892736969 0 0.26962736994955661 0.17563131892736969 0 0.28063414626850292 0.17836588696170111 0 0.27791551735799302 0.17228039079135241 0 0.26470071343822532 0.15971323610680241 0 0.26962736994955661 0.17563131892736969 0 0.26470071343822532 0.15971323610680241 0 0.26962736994955661 0.17563131892736969 0 0.27525802885731437 0.16516718346708009 0 0.27808704382392468 0.15255782491348299 0 0.26470071343822532 0.15971323610680241 0 0.27525802885731437 0.16516718346708009 0 0.26962736994955661 0.17563131892736969 0 0.27791551735799302 0.17228039079135241 0 0.27525802885731437 0.16516718346708009 0 0.27791551735799302 0.17228039079135241 0 0.27525802885731437 0.16516718346708009 0 0.28614252435659893 0.16995717380925851 0 0.27808704382392468 0.15255782491348299 0 0.27525802885731437 0.16516718346708009 0 0.28831271101088052 0.16150411312056051 0 0.27525802885731437 0.16516718346708009 0 0.28831271101088052 0.16150411312056051 0 0.28614252435659893 0.16995717380925851 0 0.28831271101088052 0.16150411312056051 0 0.28614252435659893 0.16995717380925851 0 0.2949765541501792 0.16654736560739511 0 0.28614252435659893 0.16995717380925851 0 0.2949765541501792 0.16654736560739511 0 0.2966990425067918 0.17398076245598329 0 0.28831271101088052 0.16150411312056051 0 0.2949765541501792 0.16654736560739511 0 0.29843684607612081 0.16152557188150271 0 0.28831271101088052 0.16150411312056051 0 0.29843684607612081 0.16152557188150271 0 0.2957188317017474 0.15417383984422159 0 0.28063414626850292 0.17836588696170111 0 0.28878787233227138 0.1800597202735717 0 0.28262567674856709 0.19158292471432059 0 0.28063414626850292 0.17836588696170111 0 0.28614252435659893 0.16995717380925851 0 0.28878787233227138 0.1800597202735717 0 0.28063414626850292 0.17836588696170111 0 0.27791551735799302 0.17228039079135241 0 0.28614252435659893 0.16995717380925851 0 0.28614252435659893 0.16995717380925851 0 0.28878787233227138 0.1800597202735717 0 0.2966990425067918 0.17398076245598329 0 0.28878787233227138 0.1800597202735717 0 0.2966990425067918 0.17398076245598329 0 0.29802567422580972 0.18704947290502161 0 0.28878787233227138 0.1800597202735717 0 0.29802567422580972 0.18704947290502161 0 0.28262567674856709 0.19158292471432059 0 0.29802567422580972 0.18704947290502161 0 0.32181551132831843 0.18004621980614391 0 0.2966990425067918 0.17398076245598329 0 0.29802567422580972 0.18704947290502161 0 0.31104746434799968 0.1673946430062502 0 0.29802567422580972 0.18704947290502161 0 0.31104746434799968 0.1673946430062502 0 0.29802567422580972 0.18704947290502161 0 0.31104746434799968 0.1673946430062502 0 0.32181551132831843 0.18004621980614391 0 0.30601579003330748 0.16116038764967211 0 0.2957188317017474 0.15417383984422159 0 0.31335061957957011 0.15578985477495891 0 0.29843684607612081 0.16152557188150271 0 0.30601579003330748 0.16116038764967211 0 0.2957188317017474 0.15417383984422159 0 0.29843684607612081 0.16152557188150271 0 0.3040416986791476 0.16682267597464789 0 0.30601579003330748 0.16116038764967211 0 0.2949765541501792 0.16654736560739511 0 0.2966990425067918 0.17398076245598329 0 0.3040416986791476 0.16682267597464789 0 0.2966990425067918 0.17398076245598329 0 0.3040416986791476 0.16682267597464789 0 0.31104746434799968 0.1673946430062502 0 0.2949765541501792 0.16654736560739511 0 0.29843684607612081 0.16152557188150271 0 0.3040416986791476 0.16682267597464789 0 0.3040416986791476 0.16682267597464789 0 0.31104746434799968 0.1673946430062502 0 0.30601579003330748 0.16116038764967211 0 0.3040416986791476 0.16682267597464789 0 0.31104746434799968 0.1673946430062502 0 0.31104746434799968 0.1673946430062502 0 0.30601579003330748 0.16116038764967211 0 0.31349927981525749 0.1612557404164488 0 0.30601579003330748 0.16116038764967211 0 0.31335061957957011 0.15578985477495891 0 0.31349927981525749 0.1612557404164488 0 0.30483300733717872 0.1478702823059759 0 0.29542285010037611 0.14329129564805981 0 0.31275865637682793 0.1340247663826373 0 0.30483300733717872 0.1478702823059759 0 0.31275865637682793 0.1340247663826373 0 0.31335061957957011 0.15578985477495891 0 0.30483300733717872 0.1478702823059759 0 0.2957188317017474 0.15417383984422159 0 0.31335061957957011 0.15578985477495891 0 0.2957188317017474 0.15417383984422159 0 0.31335061957957011 0.15578985477495891 0 0.30483300733717872 0.1478702823059759 0 0.2957188317017474 0.15417383984422159 0 0.29542285010037611 0.14329129564805981 0 0.29960507646434792 0.12683409122409009 0 0.29542285010037611 0.14329129564805981 0 0.31275865637682793 0.1340247663826373 0 0.29542285010037611 0.14329129564805981 0 0.31275865637682793 0.1340247663826373 0 0.31234835835761571 0.11893907758645331 0 0.29960507646434792 0.12683409122409009 0 0.31275865637682793 0.1340247663826373 0 0.29960507646434792 0.12683409122409009 0 0.28543868303019121 0.131736720194186 0 0.29542285010037611 0.14329129564805981 0 0.28726560712948962 0.11768030606968879 0 0.29960507646434792 0.12683409122409009 0 0.28543868303019121 0.131736720194186 0 0.28543868303019121 0.131736720194186 0 0.2826446853024604 0.14124270427211749 0 0.29542285010037611 0.14329129564805981 0 0.27808704382392468 0.15255782491348299 0 0.2826446853024604 0.14124270427211749 0 0.29542285010037611 0.14329129564805981 0 0.27808704382392468 0.15255782491348299 0 0.2957188317017474 0.15417383984422159 0 0.29542285010037611 0.14329129564805981 0 0.27808704382392468 0.15255782491348299 0 0.2957188317017474 0.15417383984422159 0 0.27808704382392468 0.15255782491348299 0 0.29542285010037611 0.14329129564805981 0 0.27808704382392468 0.15255782491348299 0 0.28831271101088052 0.16150411312056051 0 0.2957188317017474 0.15417383984422159 0 0.27685630599777589 0.2478154210616699 0 0.27299157826480569 0.23766007785357521 0 0.26048617882559622 0.24371083740660091 0 0.26048617882559622 0.24371083740660091 0 0.27110411734464762 0.2276843331004246 0 0.27299157826480569 0.23766007785357521 0 0.26048617882559622 0.24371083740660091 0 0.27110411734464762 0.2276843331004246 0 0.27691591880596222 0.25729022711116639 0 0.27685630599777589 0.2478154210616699 0 0.26048617882559622 0.24371083740660091 0 0.27685630599777589 0.2478154210616699 0 0.27901295757983852 0.24225897862297641 0 0.27299157826480569 0.23766007785357521 0 0.27685630599777589 0.2478154210616699 0 0.27901295757983852 0.24225897862297641 0 0.28234947844706793 0.24570967974740021 0 0.27901295757983852 0.24225897862297641 0 0.27719652076970691 0.235876877536806 0 0.2822644445936543 0.2387958425564555 0 0.27719652076970691 0.235876877536806 0 0.28215825558210461 0.2340236887935741 0 0.2822644445936543 0.2387958425564555 0 0.27901295757983852 0.24225897862297641 0 0.27719652076970691 0.235876877536806 0 0.27299157826480569 0.23766007785357521 0 0.24791323415382371 0.2458877298954085 0 0.25153222320099622 0.25722575917013901 0 0.26048617882559622 0.24371083740660091 0 0.2477315277427897 0.2356386040277525 0 0.24791323415382371 0.2458877298954085 0 0.26048617882559622 0.24371083740660091 0 0.24965972363503919 0.22122943443424911 0 0.26048617882559622 0.24371083740660091 0 0.27110411734464762 0.2276843331004246 0 0.2447696612887639 0.21650126134236319 0 0.24965972363503919 0.22122943443424911 0 0.27110411734464762 0.2276843331004246 0 0.24965972363503919 0.22122943443424911 0 0.26048617882559622 0.24371083740660091 0 0.2447696612887639 0.21650126134236319 0 0.27110411734464762 0.2276843331004246 0 0.2447696612887639 0.21650126134236319 0 0.27110411734464762 0.2276843331004246 0 0.2677963164460333 0.2150467959949465 0 0.24965972363503919 0.22122943443424911 0 0.2477315277427897 0.2356386040277525 0 0.26048617882559622 0.24371083740660091 0 0.27110411734464762 0.2276843331004246 0 0.28456489578522731 0.2073669030027222 0 0.2860351544522664 0.22291189892421159 0 0.27299157826480569 0.23766007785357521 0 0.27110411734464762 0.2276843331004246 0 0.27329338907126849 0.2286140193929726 0 0.27110411734464762 0.2276843331004246 0 0.27329338907126849 0.2286140193929726 0 0.27329338907126849 0.2286140193929726 0 0.27769713930278977 0.2310580429220736 0 0.28096010293809309 0.2280773344569369 0 0.27719652076970691 0.235876877536806 0 0.27299157826480569 0.23766007785357521 0 0.27329338907126849 0.2286140193929726 0 0.27110411734464762 0.2276843331004246 0 0.27329338907126849 0.2286140193929726 0 0.28096010293809309 0.2280773344569369 0 0.27719652076970691 0.235876877536806 0 0.27329338907126849 0.2286140193929726 0 0.27769713930278977 0.2310580429220736 0 0.27719652076970691 0.235876877536806 0 0.27769713930278977 0.2310580429220736 0 0.28215825558210461 0.2340236887935741 0 0.27769713930278977 0.2310580429220736 0 0.28096010293809309 0.2280773344569369 0 0.28215825558210461 0.2340236887935741 0 0.27110411734464762 0.2276843331004246 0 0.28096010293809309 0.2280773344569369 0 0.2860351544522664 0.22291189892421159 0 0.27110411734464762 0.2276843331004246 0 0.2677963164460333 0.2150467959949465 0 0.28456489578522731 0.2073669030027222 0 0.27110411734464762 0.2276843331004246 0 0.28456489578522731 0.2073669030027222 0 0.272670307474219 0.206747045740371 0 0.2677963164460333 0.2150467959949465 0 0.28456489578522731 0.2073669030027222 0 0.272670307474219 0.206747045740371 0 0.2677963164460333 0.2150467959949465 0 0.26045320274891359 0.2075872277184421 0 0.2447696612887639 0.21650126134236319 0 0.2677963164460333 0.2150467959949465 0 0.26045320274891359 0.2075872277184421 0 0.2445919001722652 0.2027793092260104 0 0.26045320274891359 0.2075872277184421 0 0.27130878719903789 0.19491439106551739 0 0.2445919001722652 0.2027793092260104 0 0.27130878719903789 0.19491439106551739 0 0.2445919001722652 0.2027793092260104 0 0.25672659357731442 0.18931439154619459 0 0.27130878719903789 0.19491439106551739 0 0.2666871346110174 0.18721551203983949 0 0.25672659357731442 0.18931439154619459 0 0.27130878719903789 0.19491439106551739 0 0.2666871346110174 0.18721551203983949 0 0.27130878719903789 0.19491439106551739 0 0.28262567674856709 0.19158292471432059 0 0.27130878719903789 0.19491439106551739 0 0.28262567674856709 0.19158292471432059 0 0.28456489578522731 0.2073669030027222 0 0.272670307474219 0.206747045740371 0 0.26045320274891359 0.2075872277184421 0 0.27130878719903789 0.19491439106551739 0 0.272670307474219 0.206747045740371 0 0.27130878719903789 0.19491439106551739 0 0.28456489578522731 0.2073669030027222 0 0.27130878719903789 0.19491439106551739 0 0.28262567674856709 0.19158292471432059 0 0.29802567422580972 0.18704947290502161 0 0.30459187314032082 0.20471057237354329 0 0.28456489578522731 0.2073669030027222 0 0.29802567422580972 0.18704947290502161 0 0.28456489578522731 0.2073669030027222 0 0.29802567422580972 0.18704947290502161 0 0.28262567674856709 0.19158292471432059 0 0.28456489578522731 0.2073669030027222 0 0.29802567422580972 0.18704947290502161 0 0.28262567674856709 0.19158292471432059 0 0.29802567422580972 0.18704947290502161 0 0.30459187314032082 0.20471057237354329 0 0.31598770299826118 0.19548598602398221 0 0.29802567422580972 0.18704947290502161 0 0.31598770299826118 0.19548598602398221 0 0.32181551132831843 0.18004621980614391 0 0.30459187314032082 0.20471057237354329 0 0.3112657248503683 0.22109255247881221 0 0.32160390274705047 0.2085142031879387 0 0.30459187314032082 0.20471057237354329 0 0.29694173849475131 0.21805006650638351 0 0.3112657248503683 0.22109255247881221 0 0.30459187314032082 0.20471057237354329 0 0.29694173849475131 0.21805006650638351 0 0.28456489578522731 0.2073669030027222 0 0.29694173849475131 0.21805006650638351 0 0.28456489578522731 0.2073669030027222 0 0.2860351544522664 0.22291189892421159 0 0.28096010293809309 0.2280773344569369 0 0.2860351544522664 0.22291189892421159 0 0.28751134043047888 0.23164143954930111 0 0.2860351544522664 0.22291189892421159 0 0.28751134043047888 0.23164143954930111 0 0.29310118177853489 0.2272447710257052 0 0.28096010293809309 0.2280773344569369 0 0.28215825558210461 0.2340236887935741 0 0.28751134043047888 0.23164143954930111 0 0.28215825558210461 0.2340236887935741 0 0.28751134043047888 0.23164143954930111 0 0.28579805486088677 0.2374330691078928 0 0.29310118177853489 0.2272447710257052 0 0.30108985200492661 0.22865112575325311 0 0.2939278235102516 0.23496932439537649 0 0.28751134043047888 0.23164143954930111 0 0.29310118177853489 0.2272447710257052 0 0.2939278235102516 0.23496932439537649 0 0.29694173849475131 0.21805006650638351 0 0.2860351544522664 0.22291189892421159 0 0.29310118177853489 0.2272447710257052 0 0.29694173849475131 0.21805006650638351 0 0.3112657248503683 0.22109255247881221 0 0.30108985200492661 0.22865112575325311 0 0.29694173849475131 0.21805006650638351 0 0.29310118177853489 0.2272447710257052 0 0.30108985200492661 0.22865112575325311 0 0.3112657248503683 0.22109255247881221 0 0.30108985200492661 0.22865112575325311 0 0.30814982578715833 0.23504095730125821 0 0.30108985200492661 0.22865112575325311 0 0.30079101833485439 0.23667575875814051 0 0.30814982578715833 0.23504095730125821 0 0.30108985200492661 0.22865112575325311 0 0.30079101833485439 0.23667575875814051 0 0.2939278235102516 0.23496932439537649 0 0.31246354634074469 0.25301562706991498 0 0.28965918427723281 0.24218391352450211 0 0.30079101833485439 0.23667575875814051 0 0.29637482176907359 0.2407438087058773 0 0.2939278235102516 0.23496932439537649 0 0.31246354634074469 0.25301562706991498 0 0.30301881801219099 0.2434786808704178 0 0.28965918427723281 0.24218391352450211 0 0.30079101833485439 0.23667575875814051 0 0.30814982578715833 0.23504095730125821 0 0.30301881801219099 0.2434786808704178 0 0.30079101833485439 0.23667575875814051 0 0.30301881801219099 0.2434786808704178 0 0.29637482176907359 0.2407438087058773 0 0.30814982578715833 0.23504095730125821 0 0.30301881801219099 0.2434786808704178 0 0.31261059057147461 0.2434248305083811 0 0.31246354634074469 0.25301562706991498 0 0.30301881801219099 0.2434786808704178 0 0.31261059057147461 0.2434248305083811 0 0.29345893722613059 0.25129825022350127 0 0.29035996411889098 0.24599513786664159 0 0.28965918427723281 0.24218391352450211 0 0.29345893722613059 0.25129825022350127 0 0.29035996411889098 0.24599513786664159 0 0.28892582916583598 0.2492018439528669 0 0.29035996411889098 0.24599513786664159 0 0.28965918427723281 0.24218391352450211 0 0.28783672664197268 0.24359463822150959 0 0.30301881801219099 0.2434786808704178 0 0.29637482176907359 0.2407438087058773 0 0.28965918427723281 0.24218391352450211 0 0.29637482176907359 0.2407438087058773 0 0.2939278235102516 0.23496932439537649 0 0.29248016532158921 0.23880015382188749 0 0.2939278235102516 0.23496932439537649 0 0.28995883172979869 0.23730356866179431 0 0.29248016532158921 0.23880015382188749 0 0.28751134043047888 0.23164143954930111 0 0.2939278235102516 0.23496932439537649 0 0.28995883172979869 0.23730356866179431 0 0.29637482176907359 0.2407438087058773 0 0.29248016532158921 0.23880015382188749 0 0.28965918427723281 0.24218391352450211 0 0.28995883172979869 0.23730356866179431 0 0.29248016532158921 0.23880015382188749 0 0.28965918427723281 0.24218391352450211 0 0.28995883172979869 0.23730356866179431 0 0.28965918427723281 0.24218391352450211 0 0.28579805486088677 0.2374330691078928 0 0.28965918427723281 0.24218391352450211 0 0.28777867495787518 0.24129070115530599 0 0.28579805486088677 0.2374330691078928 0 0.28965918427723281 0.24218391352450211 0 0.28777867495787518 0.24129070115530599 0 0.28965918427723281 0.24218391352450211 0 0.28579805486088677 0.2374330691078928 0 0.28777867495787518 0.24129070115530599 0 0.28579805486088677 0.2374330691078928 0 0.28505636658832489 0.24015885991938871 0 0.28777867495787518 0.24129070115530599 0 0.28505636658832489 0.24015885991938871 0 0.28397084752209928 0.24268433257024799 0 0.28751134043047888 0.23164143954930111 0 0.28995883172979869 0.23730356866179431 0 0.28579805486088677 0.2374330691078928 0 0.28215825558210461 0.2340236887935741 0 0.28579805486088677 0.2374330691078928 0 0.2822644445936543 0.2387958425564555 0 0.27901295757983852 0.24225897862297641 0 0.2822644445936543 0.2387958425564555 0 0.28397084752209928 0.24268433257024799 0 0.28505636658832489 0.24015885991938871 0 0.2822644445936543 0.2387958425564555 0 0.28397084752209928 0.24268433257024799 0 0.28579805486088677 0.2374330691078928 0 0.28505636658832489 0.24015885991938871 0 0.2822644445936543 0.2387958425564555 0 0.27901295757983852 0.24225897862297641 0 0.28234947844706793 0.24570967974740021 0 0.28397084752209928 0.24268433257024799 0 0.27685630599777589 0.2478154210616699 0 0.28234947844706793 0.24570967974740021 0 0.28494106210013392 0.2498489505319901 0 0.28234947844706793 0.24570967974740021 0 0.28397084752209928 0.24268433257024799 0 0.2869662190354918 0.2459407159501166 0 0.28234947844706793 0.24570967974740021 0 0.28494106210013392 0.2498489505319901 0 0.2869662190354918 0.2459407159501166 0 0.28494106210013392 0.2498489505319901 0 0.28892582916583598 0.2492018439528669 0 0.2869662190354918 0.2459407159501166 0 0.29035996411889098 0.24599513786664159 0 0.28892582916583598 0.2492018439528669 0 0.2869662190354918 0.2459407159501166 0 0.29035996411889098 0.24599513786664159 0 0.28783672664197268 0.24359463822150959 0 0.2869662190354918 0.2459407159501166 0 0.28965918427723281 0.24218391352450211 0 0.28777867495787518 0.24129070115530599 0 0.28783672664197268 0.24359463822150959 0 0.28397084752209928 0.24268433257024799 0 0.28783672664197268 0.24359463822150959 0 0.2869662190354918 0.2459407159501166 0 0.28777867495787518 0.24129070115530599 0 0.28397084752209928 0.24268433257024799 0 0.28783672664197268 0.24359463822150959 0 0.3379127634661398 0.24049180221066491 0 0.32643540241908581 0.2493154440826276 0 0.31942597565379999 0.2366753470562844 0 0.31246354634074469 0.25301562706991498 0 0.32643540241908581 0.2493154440826276 0 0.31261059057147461 0.2434248305083811 0 0.32643540241908581 0.2493154440826276 0 0.31261059057147461 0.2434248305083811 0 0.31942597565379999 0.2366753470562844 0 0.30814982578715833 0.23504095730125821 0 0.31261059057147461 0.2434248305083811 0 0.31942597565379999 0.2366753470562844 0 0.3379127634661398 0.24049180221066491 0 0.31942597565379999 0.2366753470562844 0 0.32600368008419539 0.22461502934577851 0 0.3112657248503683 0.22109255247881221 0 0.30814982578715833 0.23504095730125821 0 0.31942597565379999 0.2366753470562844 0 0.3112657248503683 0.22109255247881221 0 0.31942597565379999 0.2366753470562844 0 0.32600368008419539 0.22461502934577851 0 0.3379127634661398 0.24049180221066491 0 0.32600368008419539 0.22461502934577851 0 0.3398100337036184 0.2163012417951922 0 0.3398100337036184 0.2163012417951922 0 0.32160390274705047 0.2085142031879387 0 0.33063695298837592 0.19682719513420929 0 0.32600368008419539 0.22461502934577851 0 0.3398100337036184 0.2163012417951922 0 0.32160390274705047 0.2085142031879387 0 0.3112657248503683 0.22109255247881221 0 0.32600368008419539 0.22461502934577851 0 0.32160390274705047 0.2085142031879387 0 0.30459187314032082 0.20471057237354329 0 0.32160390274705047 0.2085142031879387 0 0.31598770299826118 0.19548598602398221 0 0.32160390274705047 0.2085142031879387 0 0.31598770299826118 0.19548598602398221 0 0.33063695298837592 0.19682719513420929 0 0.31598770299826118 0.19548598602398221 0 0.33063695298837592 0.19682719513420929 0 0.32181551132831843 0.18004621980614391 0 0.3398100337036184 0.2163012417951922 0 0.33063695298837592 0.19682719513420929 0 0.34652165966209031 0.1951830619424908 0 0.33063695298837592 0.19682719513420929 0 0.34652165966209031 0.1951830619424908 0 0.33808290749091702 0.1854324580495085 0 0.34652165966209031 0.1951830619424908 0 0.33808290749091702 0.1854324580495085 0 0.34805963641287802 0.18313381139210541 0 0.34652165966209031 0.1951830619424908 0 0.35834447101042982 0.1885307986193322 0 0.34805963641287802 0.18313381139210541 0 0.34652165966209031 0.1951830619424908 0 0.35697604229412883 0.20282503597125329 0 0.35834447101042982 0.1885307986193322 0 0.35834447101042982 0.1885307986193322 0 0.36867711819290189 0.19558193609178909 0 0.37211726383392318 0.18243968588977941 0 0.36867711819290189 0.19558193609178909 0 0.37211726383392318 0.18243968588977941 0 0.37959621891343998 0.18888004806970329 0 0.35697604229412883 0.20282503597125329 0 0.35834447101042982 0.1885307986193322 0 0.36867711819290189 0.19558193609178909 0 0.35697604229412883 0.20282503597125329 0 0.36867711819290189 0.19558193609178909 0 0.36464593244806109 0.2145418940701225 0 0.36867711819290189 0.19558193609178909 0 0.36464593244806109 0.2145418940701225 0 0.38262777372413942 0.20056577775977211 0 0.3398100337036184 0.2163012417951922 0 0.35697604229412883 0.20282503597125329 0 0.36464593244806109 0.2145418940701225 0 0.3398100337036184 0.2163012417951922 0 0.34652165966209031 0.1951830619424908 0 0.35697604229412883 0.20282503597125329 0 0.3379127634661398 0.24049180221066491 0 0.3398100337036184 0.2163012417951922 0 0.35784805351199239 0.2326945607342826 0 0.3398100337036184 0.2163012417951922 0 0.36464593244806109 0.2145418940701225 0 0.35784805351199239 0.2326945607342826 0 0.3398100337036184 0.2163012417951922 0 0.35784805351199239 0.2326945607342826 0 0.36464593244806109 0.2145418940701225 0 0.35784805351199239 0.2326945607342826 0 0.37504625414522869 0.2303727958758012 0 0.35784805351199239 0.2326945607342826 0 0.37588607332036628 0.2490878796733729 0 0.35784805351199239 0.2326945607342826 0 0.37588607332036628 0.2490878796733729 0 0.37504625414522869 0.2303727958758012 0 0.35634129443021012 0.25447852924978431 0 0.35784805351199239 0.2326945607342826 0 0.37588607332036628 0.2490878796733729 0 0.35634129443021012 0.25447852924978431 0 0.3379127634661398 0.24049180221066491 0 0.35784805351199239 0.2326945607342826 0 0.33844782525489081 0.14552375979656301 0 0.33442235067943221 0.13211305649348251 0 0.31842762243075678 0.15625517981560311 0 0.33844782525489081 0.14552375979656301 0 0.31842762243075678 0.15625517981560311 0 0.3463391887874393 0.1588133723418115 0 0.343988490580944 0.1176741160108202 0 0.33926610740018709 0.13500385884312699 0 0.33442235067943221 0.13211305649348251 0 0.33844782525489081 0.14552375979656301 0 0.33926610740018709 0.13500385884312699 0 0.33442235067943221 0.13211305649348251 0 0.33926610740018709 0.13500385884312699 0 0.33442235067943221 0.13211305649348251 0 0.31234835835761571 0.11893907758645331 0 0.33442235067943221 0.13211305649348251 0 0.31795714297393313 0.13124601312364301 0 0.33442235067943221 0.13211305649348251 0 0.31795714297393313 0.13124601312364301 0 0.31842762243075678 0.15625517981560311 0 0.31795714297393313 0.13124601312364301 0 0.31275865637682793 0.1340247663826373 0 0.31842762243075678 0.15625517981560311 0 0.31234835835761571 0.11893907758645331 0 0.33442235067943221 0.13211305649348251 0 0.31234835835761571 0.11893907758645331 0 0.31795714297393313 0.13124601312364301 0 0.31275865637682793 0.1340247663826373 0 0.31234835835761571 0.11893907758645331 0 0.31275865637682793 0.1340247663826373 0 0.31795714297393313 0.13124601312364301 0 0.31275865637682793 0.1340247663826373 0 0.31275865637682793 0.1340247663826373 0 0.31335061957957011 0.15578985477495891 0 0.31275865637682793 0.1340247663826373 0 0.31335061957957011 0.15578985477495891 0 0.31842762243075678 0.15625517981560311 0 0.33442235067943221 0.13211305649348251 0 0.31842762243075678 0.15625517981560311 0 0.31335061957957011 0.15578985477495891 0 0.31842762243075678 0.15625517981560311 0 0.31104746434799968 0.1673946430062502 0 0.31842762243075678 0.15625517981560311 0 0.33486110727476232 0.16933884429702981 0 0.31104746434799968 0.1673946430062502 0 0.31842762243075678 0.15625517981560311 0 0.31349927981525749 0.1612557404164488 0 0.31335061957957011 0.15578985477495891 0 0.31349927981525749 0.1612557404164488 0 0.31104746434799968 0.1673946430062502 0 0.33486110727476232 0.16933884429702981 0 0.31104746434799968 0.1673946430062502 0 0.31842762243075678 0.15625517981560311 0 0.31335061957957011 0.15578985477495891 0 0.31842762243075678 0.15625517981560311 0 0.31349927981525749 0.1612557404164488 0 0.31104746434799968 0.1673946430062502 0 0.32181551132831843 0.18004621980614391 0 0.33486110727476232 0.16933884429702981 0 0.32181551132831843 0.18004621980614391 0 0.33808290749091702 0.1854324580495085 0 0.34560534843082608 0.17304296670726349 0 0.33063695298837592 0.19682719513420929 0 0.32181551132831843 0.18004621980614391 0 0.33808290749091702 0.1854324580495085 0 0.32181551132831843 0.18004621980614391 0 0.33486110727476232 0.16933884429702981 0 0.34560534843082608 0.17304296670726349 0 0.32181551132831843 0.18004621980614391 0 0.34560534843082608 0.17304296670726349 0 0.31842762243075678 0.15625517981560311 0 0.33486110727476232 0.16933884429702981 0 0.3463391887874393 0.1588133723418115 0 0.31842762243075678 0.15625517981560311 0 0.3463391887874393 0.1588133723418115 0 0.33486110727476232 0.16933884429702981 0 0.35867475020152417 0.1712830455878149 0 0.33486110727476232 0.16933884429702981 0 0.3463391887874393 0.1588133723418115 0 0.35867475020152417 0.1712830455878149 0 0.33486110727476232 0.16933884429702981 0 0.35867475020152417 0.1712830455878149 0 0.34560534843082608 0.17304296670726349 0 0.35834447101042982 0.1885307986193322 0 0.35867475020152417 0.1712830455878149 0 0.34805963641287802 0.18313381139210541 0 0.33808290749091702 0.1854324580495085 0 0.34805963641287802 0.18313381139210541 0 0.34560534843082608 0.17304296670726349 0 0.35867475020152417 0.1712830455878149 0 0.34805963641287802 0.18313381139210541 0 0.34560534843082608 0.17304296670726349 0 0.35834447101042982 0.1885307986193322 0 0.35867475020152417 0.1712830455878149 0 0.37211726383392318 0.18243968588977941 0 0.35867475020152417 0.1712830455878149 0 0.37211726383392318 0.18243968588977941 0 0.38248839312828642 0.17322724687860011 0 0.35867475020152417 0.1712830455878149 0 0.38248839312828642 0.17322724687860011 0 0.3463391887874393 0.1588133723418115 0 0.35867475020152417 0.1712830455878149 0 0.37425075514412182 0.1613715648680196 0 0.35867475020152417 0.1712830455878149 0 0.37425075514412182 0.1613715648680196 0 0.38248839312828642 0.17322724687860011 0 0.3463391887874393 0.1588133723418115 0 0.37425075514412182 0.1613715648680196 0 0.37425075514412182 0.1613715648680196 0 0.36753442956304122 0.14046640889011411 0 0.37911076050976511 0.15167221068913639 0 0.37425075514412182 0.1613715648680196 0 0.35378385697663972 0.14543333148879159 0 0.36753442956304122 0.14046640889011411 0 0.37425075514412182 0.1613715648680196 0 0.36753442956304122 0.14046640889011411 0 0.36753442956304122 0.14046640889011411 0 0.37911076050976511 0.15167221068913639 0 0.3463391887874393 0.1588133723418115 0 0.37425075514412182 0.1613715648680196 0 0.35378385697663972 0.14543333148879159 0 0.33844782525489081 0.14552375979656301 0 0.33926610740018709 0.13500385884312699 0 0.35378385697663972 0.14543333148879159 0 0.33844782525489081 0.14552375979656301 0 0.3463391887874393 0.1588133723418115 0 0.35378385697663972 0.14543333148879159 0 0.343988490580944 0.1176741160108202 0 0.33926610740018709 0.13500385884312699 0 0.3557614600719885 0.1290702624504714 0 0.35378385697663972 0.14543333148879159 0 0.3557614600719885 0.1290702624504714 0 0.36753442956304122 0.14046640889011411 0 0.33926610740018709 0.13500385884312699 0 0.35378385697663972 0.14543333148879159 0 0.3557614600719885 0.1290702624504714 0 0.36234477620530581 0.12431315491142481 0 0.38206466283770479 0.146561596848436 0 0.36234477620530581 0.12431315491142481 0 0.36753442956304122 0.14046640889011411 0 0.38206466283770479 0.146561596848436 0 0.36234477620530581 0.12431315491142481 0 0.3557614600719885 0.1290702624504714 0 0.36753442956304122 0.14046640889011411 0 0.36234477620530581 0.12431315491142481 0 0.36753442956304122 0.14046640889011411 0 0.3557614600719885 0.1290702624504714 0 0.36753442956304122 0.14046640889011411 0 0.36234477620530581 0.12431315491142481 0 0.38206466283770479 0.146561596848436 0 0.38784786648637848 0.12498960030151041 0 0.39580058914059452 0.1490980931887998 0 0.38206466283770479 0.146561596848436 0 0.38784786648637848 0.12498960030151041 0 0.39580058914059452 0.1490980931887998 0 0.38784786648637848 0.12498960030151041 0 0.39497711538788383 0.13620291539220281 0 0.38784786648637848 0.12498960030151041 0 0.40536034682354632 0.12481683740862159 0 0.39497711538788383 0.13620291539220281 0 0.40981053908925419 0.14123984962813549 0 0.40536034682354632 0.12481683740862159 0 0.39497711538788383 0.13620291539220281 0 0.39580058914059452 0.1490980931887998 0 0.38784786648637848 0.12498960030151041 0 0.39497711538788383 0.13620291539220281 0 0.40981053908925419 0.14123984962813549 0 0.39580058914059452 0.1490980931887998 0 0.38206466283770479 0.146561596848436 0 0.39687031602956763 0.16326568453002829 0 0.39580058914059452 0.1490980931887998 0 0.40981053908925419 0.14123984962813549 0 0.41018078742555969 0.15504633733473569 0 0.39497711538788383 0.13620291539220281 0 0.39580058914059452 0.1490980931887998 0 0.40981053908925419 0.14123984962813549 0 0.38206466283770479 0.146561596848436 0 0.37911076050976511 0.15167221068913639 0 0.39068709145648911 0.16287801248815861 0 0.38206466283770479 0.146561596848436 0 0.39687031602956763 0.16326568453002829 0 0.36753442956304122 0.14046640889011411 0 0.38206466283770479 0.146561596848436 0 0.37911076050976511 0.15167221068913639 0 0.37425075514412182 0.1613715648680196 0 0.37911076050976511 0.15167221068913639 0 0.39068709145648911 0.16287801248815861 0 0.38206466283770479 0.146561596848436 0 0.39687031602956763 0.16326568453002829 0 0.39068709145648911 0.16287801248815861 0 0.37425075514412182 0.1613715648680196 0 0.39068709145648911 0.16287801248815861 0 0.37425075514412182 0.1613715648680196 0 0.38248839312828642 0.17322724687860011 0 0.39068709145648911 0.16287801248815861 0 0.38248839312828642 0.17322724687860011 0 0.39068709145648911 0.16287801248815861 0 0.39173266295372422 0.1703821586821625 0 0.37911076050976511 0.15167221068913639 0 0.39068709145648911 0.16287801248815861 0 0.37211726383392318 0.18243968588977941 0 0.38456142671463689 0.18119341109058101 0 0.37959621891343998 0.18888004806970329 0 0.37211726383392318 0.18243968588977941 0 0.38248839312828642 0.17322724687860011 0 0.38456142671463689 0.18119341109058101 0 0.38248839312828642 0.17322724687860011 0 0.39015071041641458 0.1752968202883449 0 0.38456142671463689 0.18119341109058101 0 0.39015071041641458 0.1752968202883449 0 0.38456142671463689 0.18119341109058101 0 0.3936647719149563 0.17997510126181099 0 0.38248839312828642 0.17322724687860011 0 0.39015071041641458 0.1752968202883449 0 0.39173266295372422 0.1703821586821625 0 0.38935120208080087 0.18734156415524739 0 0.38456142671463689 0.18119341109058101 0 0.37959621891343998 0.18888004806970329 0 0.38935120208080087 0.18734156415524739 0 0.38456142671463689 0.18119341109058101 0 0.3936647719149563 0.17997510126181099 0 0.40402992335265742 0.18295193175906091 0 0.40178454947010472 0.1688100387854462 0 0.4113280318459675 0.18796372784287679 0 0.38935120208080087 0.18734156415524739 0 0.39769522389517081 0.18613352877741379 0 0.3936647719149563 0.17997510126181099 0 0.39769522389517081 0.18613352877741379 0 0.3936647719149563 0.17997510126181099 0 0.39874070762402308 0.17719757549675871 0 0.3936647719149563 0.17997510126181099 0 0.39444527572727123 0.17454960687581639 0 0.39874070762402308 0.17719757549675871 0 0.39015071041641458 0.1752968202883449 0 0.3936647719149563 0.17997510126181099 0 0.39444527572727123 0.17454960687581639 0 0.39015071041641458 0.1752968202883449 0 0.39444527572727123 0.17454960687581639 0 0.39173266295372422 0.1703821586821625 0 0.39444527572727123 0.17454960687581639 0 0.39874070762402308 0.17719757549675871 0 0.39793752572723801 0.16989637865000479 0 0.39874070762402308 0.17719757549675871 0 0.40402992335265742 0.18295193175906091 0 0.40178454947010472 0.1688100387854462 0 0.39874070762402308 0.17719757549675871 0 0.39793752572723801 0.16989637865000479 0 0.40178454947010472 0.1688100387854462 0 0.39769522389517081 0.18613352877741379 0 0.39874070762402308 0.17719757549675871 0 0.40402992335265742 0.18295193175906091 0 0.39580058914059452 0.1490980931887998 0 0.39687031602956763 0.16326568453002829 0 0.40178454947010472 0.1688100387854462 0 0.39580058914059452 0.1490980931887998 0 0.40178454947010472 0.1688100387854462 0 0.41018078742555969 0.15504633733473569 0 0.39687031602956763 0.16326568453002829 0 0.39068709145648911 0.16287801248815861 0 0.39068709145648911 0.16287801248815861 0 0.39793752572723801 0.16989637865000479 0 0.39068709145648911 0.16287801248815861 0 0.39173266295372422 0.1703821586821625 0 0.39793752572723801 0.16989637865000479 0 0.39444527572727123 0.17454960687581639 0 0.39173266295372422 0.1703821586821625 0 0.39793752572723801 0.16989637865000479 0 0.39687031602956763 0.16326568453002829 0 0.39068709145648911 0.16287801248815861 0 0.39793752572723801 0.16989637865000479 0 0.39687031602956763 0.16326568453002829 0 0.40178454947010472 0.1688100387854462 0 0.39687031602956763 0.16326568453002829 0 0.39793752572723801 0.16989637865000479 0 0.40178454947010472 0.1688100387854462 0 0.42156831075211598 0.1680848541833582 0 0.42464396279062439 0.14627678386406909 0 0.41018078742555969 0.15504633733473569 0 0.40178454947010472 0.1688100387854462 0 0.42156831075211598 0.1680848541833582 0 0.41018078742555969 0.15504633733473569 0 0.40178454947010472 0.1688100387854462 0 0.4113280318459675 0.18796372784287679 0 0.42150443610250471 0.1910584807224564 0 0.40178454947010472 0.1688100387854462 0 0.42150443610250471 0.1910584807224564 0 0.40178454947010472 0.1688100387854462 0 0.42156831075211598 0.1680848541833582 0 0.42150443610250471 0.1910584807224564 0 0.42156831075211598 0.1680848541833582 0 0.43118451961009657 0.17908750652768421 0 0.42150443610250471 0.1910584807224564 0 0.43118451961009657 0.17908750652768421 0 0.42150443610250471 0.1910584807224564 0 0.44066350929549042 0.1899546779532231 0 0.42156831075211598 0.1680848541833582 0 0.43118451961009657 0.17908750652768421 0 0.44223327263954998 0.1675638295240294 0 0.42156831075211598 0.1680848541833582 0 0.42464396279062439 0.14627678386406909 0 0.44223327263954998 0.1675638295240294 0 0.42464396279062439 0.14627678386406909 0 0.44223327263954998 0.1675638295240294 0 0.42464396279062439 0.14627678386406909 0 0.44100510488797162 0.1518324801367677 0 0.42464396279062439 0.14627678386406909 0 0.43171131441089522 0.13754306829591861 0 0.44100510488797162 0.1518324801367677 0 0.43731578770263868 0.15311191614552969 0 0.42464396279062439 0.14627678386406909 0 0.44100510488797162 0.1518324801367677 0 0.43731578770263868 0.15311191614552969 0 0.42464396279062439 0.14627678386406909 0 0.44223327263954998 0.1675638295240294 0 0.43171131441089522 0.13754306829591861 0 0.41885098875887777 0.13391820237067861 0 0.42338535559027479 0.1205090768914225 0 0.43171131441089522 0.13754306829591861 0 0.44201491538503751 0.1221884416046867 0 0.42338535559027479 0.1205090768914225 0 0.42464396279062439 0.14627678386406909 0 0.43171131441089522 0.13754306829591861 0 0.41885098875887777 0.13391820237067861 0 0.41885098875887777 0.13391820237067861 0 0.40981053908925419 0.14123984962813549 0 0.40536034682354632 0.12481683740862159 0 0.41885098875887777 0.13391820237067861 0 0.42338535559027479 0.1205090768914225 0 0.40536034682354632 0.12481683740862159 0 0.42464396279062439 0.14627678386406909 0 0.41885098875887777 0.13391820237067861 0 0.40981053908925419 0.14123984962813549 0 0.42464396279062439 0.14627678386406909 0 0.40981053908925419 0.14123984962813549 0 0.42464396279062439 0.14627678386406909 0 0.40981053908925419 0.14123984962813549 0 0.41018078742555969 0.15504633733473569 0 0.39103074677198191 0.2378645478919707 0 0.40699913865084292 0.2200073724427305 0 0.40933178642478668 0.24530746794650141 0 0.39392409312874033 0.26548119861246328 0 0.39103074677198191 0.2378645478919707 0 0.40933178642478668 0.24530746794650141 0 0.39103074677198191 0.2378645478919707 0 0.37588607332036628 0.2490878796733729 0 0.37504625414522869 0.2303727958758012 0 0.39103074677198191 0.2378645478919707 0 0.37504625414522869 0.2303727958758012 0 0.38582046467374198 0.21767509700925741 0 0.36464593244806109 0.2145418940701225 0 0.37504625414522869 0.2303727958758012 0 0.38582046467374198 0.21767509700925741 0 0.39103074677198191 0.2378645478919707 0 0.38582046467374198 0.21767509700925741 0 0.40699913865084292 0.2200073724427305 0 0.39535308900850558 0.20493870697966851 0 0.38582046467374198 0.21767509700925741 0 0.40699913865084292 0.2200073724427305 0 0.39535308900850558 0.20493870697966851 0 0.40736650267529367 0.20534760411496161 0 0.40699913865084292 0.2200073724427305 0 0.36464593244806109 0.2145418940701225 0 0.38582046467374198 0.21767509700925741 0 0.38262777372413942 0.20056577775977211 0 0.39535308900850558 0.20493870697966851 0 0.38582046467374198 0.21767509700925741 0 0.38262777372413942 0.20056577775977211 0 0.36867711819290189 0.19558193609178909 0 0.38262777372413942 0.20056577775977211 0 0.37959621891343998 0.18888004806970329 0 0.38935120208080087 0.18734156415524739 0 0.38262777372413942 0.20056577775977211 0 0.37959621891343998 0.18888004806970329 0 0.38935120208080087 0.18734156415524739 0 0.38262777372413942 0.20056577775977211 0 0.39495039075152383 0.19500119794261639 0 0.38935120208080087 0.18734156415524739 0 0.39769522389517081 0.18613352877741379 0 0.39495039075152383 0.19500119794261639 0 0.39535308900850558 0.20493870697966851 0 0.38262777372413942 0.20056577775977211 0 0.39495039075152383 0.19500119794261639 0 0.39535308900850558 0.20493870697966851 0 0.40543434764706382 0.19433380204898831 0 0.40736650267529367 0.20534760411496161 0 0.39535308900850558 0.20493870697966851 0 0.39495039075152383 0.19500119794261639 0 0.40543434764706382 0.19433380204898831 0 0.39769522389517081 0.18613352877741379 0 0.39495039075152383 0.19500119794261639 0 0.40543434764706382 0.19433380204898831 0 0.39769522389517081 0.18613352877741379 0 0.40402992335265742 0.18295193175906091 0 0.40543434764706382 0.19433380204898831 0 0.41405593538476537 0.1978098369375659 0 0.42150443610250471 0.1910584807224564 0 0.41932031768340311 0.20743549227764799 0 0.40543434764706382 0.19433380204898831 0 0.4113280318459675 0.18796372784287679 0 0.41405593538476537 0.1978098369375659 0 0.40402992335265742 0.18295193175906091 0 0.40543434764706382 0.19433380204898831 0 0.4113280318459675 0.18796372784287679 0 0.40543434764706382 0.19433380204898831 0 0.41405593538476537 0.1978098369375659 0 0.40736650267529367 0.20534760411496161 0 0.4113280318459675 0.18796372784287679 0 0.41405593538476537 0.1978098369375659 0 0.41800374937960327 0.1912601641577685 0 0.4113280318459675 0.18796372784287679 0 0.41800374937960327 0.1912601641577685 0 0.42150443610250471 0.1910584807224564 0 0.41405593538476537 0.1978098369375659 0 0.41800374937960327 0.1912601641577685 0 0.42150443610250471 0.1910584807224564 0 0.41800374937960327 0.1912601641577685 0 0.42150443610250471 0.1910584807224564 0 0.42150443610250471 0.1910584807224564 0 0.43964605568812892 0.21152628449425559 0 0.44066350929549042 0.1899546779532231 0 0.42150443610250471 0.1910584807224564 0 0.44066350929549042 0.1899546779532231 0 0.42150443610250471 0.1910584807224564 0 0.43964605568812892 0.21152628449425559 0 0.42692227912344938 0.2185749218571387 0 0.41932031768340311 0.20743549227764799 0 0.43964605568812892 0.21152628449425559 0 0.42150443610250471 0.1910584807224564 0 0.41932031768340311 0.20743549227764799 0 0.43964605568812892 0.21152628449425559 0 0.42692227912344938 0.2185749218571387 0 0.41932031768340311 0.20743549227764799 0 0.40699913865084292 0.2200073724427305 0 0.41932031768340311 0.20743549227764799 0 0.40736650267529367 0.20534760411496161 0 0.40699913865084292 0.2200073724427305 0 0.41405593538476537 0.1978098369375659 0 0.41932031768340311 0.20743549227764799 0 0.40736650267529367 0.20534760411496161 0 0.40699913865084292 0.2200073724427305 0 0.42791060214005622 0.23524578657545639 0 0.40933178642478668 0.24530746794650141 0 0.42692227912344938 0.2185749218571387 0 0.40699913865084292 0.2200073724427305 0 0.42791060214005622 0.23524578657545639 0 0.42692227912344938 0.2185749218571387 0 0.42791060214005622 0.23524578657545639 0 0.44687549402799981 0.2240274878755969 0 0.42507863072368701 0.2531856777568211 0 0.42791060214005622 0.23524578657545639 0 0.43876594592942619 0.2491002947533556 0 0.42791060214005622 0.23524578657545639 0 0.43876594592942619 0.2491002947533556 0 0.44210509291822658 0.23713285843962781 0 0.42507863072368701 0.2531856777568211 0 0.42791060214005622 0.23524578657545639 0 0.40933178642478668 0.24530746794650141 0 0.4657425708042397 0.25282124097232528 0 0.45444189403291402 0.2411770147019261 0 0.46902648610557401 0.23978031661179641 0 0.45444189403291402 0.2411770147019261 0 0.46153812927118693 0.22769678494989409 0 0.46902648610557401 0.23978031661179641 0 0.44893917376128722 0.25670587451621701 0 0.45444189403291402 0.2411770147019261 0 0.43876594592942619 0.2491002947533556 0 0.45444189403291402 0.2411770147019261 0 0.43876594592942619 0.2491002947533556 0 0.44210509291822658 0.23713285843962781 0 0.42791060214005622 0.23524578657545639 0 0.44210509291822658 0.23713285843962781 0 0.44687549402799981 0.2240274878755969 0 0.45444189403291402 0.2411770147019261 0 0.44210509291822658 0.23713285843962781 0 0.44687549402799981 0.2240274878755969 0 0.45444189403291402 0.2411770147019261 0 0.44687549402799981 0.2240274878755969 0 0.46153812927118693 0.22769678494989409 0 0.44687549402799981 0.2240274878755969 0 0.46153812927118693 0.22769678494989409 0 0.45434831412809351 0.2169717754240589 0 0.46153812927118693 0.22769678494989409 0 0.46788422009904918 0.21602458295004651 0 0.45434831412809351 0.2169717754240589 0 0.46788422009904918 0.21602458295004651 0 0.45579767155410239 0.20558373685050119 0 0.47298928242684912 0.20478556194466599 0 0.46788422009904918 0.21602458295004651 0 0.45579767155410239 0.20558373685050119 0 0.45434831412809351 0.2169717754240589 0 0.45579767155410239 0.20558373685050119 0 0.45434831412809351 0.2169717754240589 0 0.43964605568812892 0.21152628449425559 0 0.45579767155410239 0.20558373685050119 0 0.43964605568812892 0.21152628449425559 0 0.44944268158891898 0.19797959918788341 0 0.42692227912344938 0.2185749218571387 0 0.44687549402799981 0.2240274878755969 0 0.43964605568812892 0.21152628449425559 0 0.44687549402799981 0.2240274878755969 0 0.45434831412809351 0.2169717754240589 0 0.43964605568812892 0.21152628449425559 0 0.43964605568812892 0.21152628449425559 0 0.44944268158891898 0.19797959918788341 0 0.44066350929549042 0.1899546779532231 0 0.44066350929549042 0.1899546779532231 0 0.45982258248847607 0.18885087518398949 0 0.44944268158891898 0.19797959918788341 0 0.44066350929549042 0.1899546779532231 0 0.45982258248847607 0.18885087518398949 0 0.45579767155410239 0.20558373685050119 0 0.44944268158891898 0.19797959918788341 0 0.45982258248847607 0.18885087518398949 0 0.45982258248847607 0.18885087518398949 0 0.47298928242684912 0.20478556194466599 0 0.45579767155410239 0.20558373685050119 0 0.45982258248847607 0.18885087518398949 0 0.47298928242684912 0.20478556194466599 0 0.45982258248847607 0.18885087518398949 0 0.46246267395613577 0.18869877282268771 0 0.47298928242684912 0.20478556194466599 0 0.45982258248847607 0.18885087518398949 0 0.46246267395613577 0.18869877282268771 0 0.48123133697806858 0.18761746257298201 0 0.49061566848903448 0.19913054633610969 0 0.48123133697806791 0.21172494034894249 0 0.46246267395613577 0.18869877282268771 0 0.48123133697806791 0.21172494034894249 0 0.47298928242684912 0.20478556194466599 0 0.46246267395613577 0.18869877282268771 0 0.48123133697806791 0.21172494034894249 0 0.46246267395613577 0.18869877282268771 0 0.48123133697806858 0.18761746257298201 0 0.48123133697806791 0.21172494034894249 0 0.46246267395613577 0.18869877282268771 0 0.48123133697806858 0.18761746257298201 0 0.49061566848903448 0.19913054633610969 0 0.5 0.21064363009923689 0 0.50000000000000144 0.18653615232327739 0 0.48123133697806858 0.18761746257298201 0 0.49061566848903448 0.19913054633610969 0 0.50000000000000144 0.18653615232327739 0 0.49061566848903448 0.19913054633610969 0 0.5 0.21064363009923689 0 0.48123133697806791 0.21172494034894249 0 0.46788422009904918 0.21602458295004651 0 0.48123133697806791 0.21172494034894249 0 0.47298928242684912 0.20478556194466599 0 0.46153812927118693 0.22769678494989409 0 0.47761079907368659 0.22975513346519441 0 0.46902648610557401 0.23978031661179641 0 0.46153812927118693 0.22769678494989409 0 0.46788422009904918 0.21602458295004651 0 0.47761079907368659 0.22975513346519441 0 0.46788422009904918 0.21602458295004651 0 0.48123133697806791 0.21172494034894249 0 0.47761079907368659 0.22975513346519441 0 0.48123133697806791 0.21172494034894249 0 0.50000000000000078 0.23475110787519651 0 0.48123133697806791 0.21172494034894249 0 0.47761079907368659 0.22975513346519441 0 0.50000000000000078 0.23475110787519651 0 0.5 0.21064363009923689 0 0.48123133697806791 0.21172494034894249 0 0.50000000000000078 0.23475110787519651 0 0.47761079907368659 0.22975513346519441 0 0.50000000000000078 0.23475110787519651 0 0.48319944748130261 0.24680576274814439 0 0.48930401013157893 0.26400543771054868 0 0.50000000000000078 0.23475110787519651 0 0.48319944748130261 0.24680576274814439 0 0.47761079907368659 0.22975513346519441 0 0.48319944748130261 0.24680576274814439 0 0.46902648610557401 0.23978031661179641 0 0.4657425708042397 0.25282124097232528 0 0.48319944748130261 0.24680576274814439 0 0.46902648610557401 0.23978031661179641 0 0.46067006992531578 0.14501277255513739 0 0.44100510488797162 0.1518324801367677 0 0.45842061247378069 0.15774620364127601 0 0.46067006992531578 0.14501277255513739 0 0.45842061247378069 0.15774620364127601 0 0.47181417780450058 0.15130991192119209 0 0.46067006992531578 0.14501277255513739 0 0.44779797982522251 0.13591138282507809 0 0.46358849451689271 0.12298015153287919 0 0.46067006992531578 0.14501277255513739 0 0.48033503496266028 0.13819306497350831 0 0.46358849451689271 0.12298015153287919 0 0.44779797982522251 0.13591138282507809 0 0.46358849451689271 0.12298015153287919 0 0.44201491538503751 0.1221884416046867 0 0.43171131441089522 0.13754306829591861 0 0.44779797982522251 0.13591138282507809 0 0.44201491538503751 0.1221884416046867 0 0.46067006992531578 0.14501277255513739 0 0.44100510488797162 0.1518324801367677 0 0.43171131441089522 0.13754306829591861 0 0.44779797982522251 0.13591138282507809 0 0.44100510488797162 0.1518324801367677 0 0.44100510488797162 0.1518324801367677 0 0.45842061247378069 0.15774620364127601 0 0.46067006992531578 0.14501277255513739 0 0.44779797982522251 0.13591138282507809 0 0.44100510488797162 0.1518324801367677 0 0.43731578770263868 0.15311191614552969 0 0.44100510488797162 0.1518324801367677 0 0.43731578770263868 0.15311191614552969 0 0.44100510488797162 0.1518324801367677 0 0.44223327263954998 0.1675638295240294 0 0.44100510488797162 0.1518324801367677 0 0.44223327263954998 0.1675638295240294 0 0.45064745071206469 0.16407050785850311 0 0.44100510488797162 0.1518324801367677 0 0.45064745071206469 0.16407050785850311 0 0.45842061247378069 0.15774620364127601 0 0.44223327263954998 0.1675638295240294 0 0.45064745071206469 0.16407050785850311 0 0.45252365300287162 0.17650517324400131 0 0.44066350929549042 0.1899546779532231 0 0.45982258248847607 0.18885087518398949 0 0.44223327263954998 0.1675638295240294 0 0.45982258248847607 0.18885087518398949 0 0.44223327263954998 0.1675638295240294 0 0.45982258248847607 0.18885087518398949 0 0.44223327263954998 0.1675638295240294 0 0.45252365300287162 0.17650517324400131 0 0.43118451961009657 0.17908750652768421 0 0.44066350929549042 0.1899546779532231 0 0.44223327263954998 0.1675638295240294 0 0.45252365300287162 0.17650517324400131 0 0.46852950543390098 0.17564223008125701 0 0.45888445054831062 0.16819836462120771 0 0.46246267395613577 0.18869877282268771 0 0.45252365300287162 0.17650517324400131 0 0.46852950543390098 0.17564223008125701 0 0.46246267395613577 0.18869877282268771 0 0.45252365300287162 0.17650517324400131 0 0.45982258248847607 0.18885087518398949 0 0.46246267395613577 0.18869877282268771 0 0.45252365300287162 0.17650517324400131 0 0.45842061247378069 0.15774620364127601 0 0.4758361200595902 0.1636599271457834 0 0.47181417780450058 0.15130991192119209 0 0.45842061247378069 0.15774620364127601 0 0.4758361200595902 0.1636599271457834 0 0.45842061247378069 0.15774620364127601 0 0.45888445054831062 0.16819836462120771 0 0.4758361200595902 0.1636599271457834 0 0.46852950543390098 0.17564223008125701 0 0.45888445054831062 0.16819836462120771 0 0.4758361200595902 0.1636599271457834 0 0.45064745071206469 0.16407050785850311 0 0.45842061247378069 0.15774620364127601 0 0.45888445054831062 0.16819836462120771 0 0.45064745071206469 0.16407050785850311 0 0.45252365300287162 0.17650517324400131 0 0.45888445054831062 0.16819836462120771 0 0.4758361200595902 0.1636599271457834 0 0.48630368258704137 0.17140311931871249 0 0.48517032610197292 0.15232670889348399 0 0.46852950543390098 0.17564223008125701 0 0.4758361200595902 0.1636599271457834 0 0.48630368258704137 0.17140311931871249 0 0.46246267395613577 0.18869877282268771 0 0.48123133697806858 0.18761746257298201 0 0.46852950543390098 0.17564223008125701 0 0.48123133697806858 0.18761746257298201 0 0.46852950543390098 0.17564223008125701 0 0.48630368258704137 0.17140311931871249 0 0.48123133697806858 0.18761746257298201 0 0.50000000000000144 0.18653615232327739 0 0.48123133697806858 0.18761746257298201 0 0.50000000000000144 0.18653615232327739 0 0.48630368258704137 0.17140311931871249 0 0.50000000000000144 0.18653615232327739 0 0.48630368258704137 0.17140311931871249 0 0.5 0.15895475485757751 0 0.48630368258704137 0.17140311931871249 0 0.5 0.15895475485757751 0 0.48517032610197292 0.15232670889348399 0 0.48517032610197292 0.15232670889348399 0 0.48033503496266028 0.13819306497350831 0 0.50000000000000444 0.13137335739187769 0 0.5 0.15895475485757751 0 0.48517032610197292 0.15232670889348399 0 0.50000000000000444 0.13137335739187769 0 0.46067006992531578 0.14501277255513739 0 0.47181417780450058 0.15130991192119209 0 0.48033503496266028 0.13819306497350831 0 0.46067006992531578 0.14501277255513739 0 0.48033503496266028 0.13819306497350831 0 0.4758361200595902 0.1636599271457834 0 0.48517032610197292 0.15232670889348399 0 0.47181417780450058 0.15130991192119209 0 0.48517032610197292 0.15232670889348399 0 0.47181417780450058 0.15130991192119209 0 0.48033503496266028 0.13819306497350831 0 0.48033503496266028 0.13819306497350831 0 0.48287207193790682 0.119833017198512 0 0.46358849451689271 0.12298015153287919 0 0.48033503496266028 0.13819306497350831 0 0.50000000000000444 0.13137335739187769 0 0.48287207193790682 0.119833017198512 0 0.48033503496266028 0.13819306497350831 0 0.50000000000000444 0.13137335739187769 0 0.50000000000000444 0.13137335739187769 0 0.5 0.112750504140729 0 0.48287207193790682 0.119833017198512 0 0.5 0.112750504140729 0 0.47708970494047592 0.096547162644013557 0 0.48287207193790682 0.119833017198512 0 0.5 0.112750504140729 0 0.49999999999999811 0.094127650889580305 0 0.47708970494047592 0.096547162644013557 0 0.49999999999999811 0.094127650889580305 0 0.47708970494047592 0.096547162644013557 0 0.47708970494047592 0.096547162644013557 0 0.48287207193790682 0.119833017198512 0 0.46358849451689271 0.12298015153287919 0 0.49999999999999811 0.094127650889580305 0 0.5 0.065085683867034727 0 0.49030416231355511 0.073256317384286063 0 0.49030416231355511 0.073256317384286063 0 0.47714578073418512 0.066537383845565096 0 0.49228297291204992 0.059454014438704107 0 0.5 0.065085683867034727 0 0.49030416231355511 0.073256317384286063 0 0.49228297291204992 0.059454014438704107 0 0.49999999999999811 0.094127650889580305 0 0.47708970494047592 0.096547162644013557 0 0.48209205792154058 0.081076853880546043 0 0.49999999999999811 0.094127650889580305 0 0.49030416231355511 0.073256317384286063 0 0.48209205792154058 0.081076853880546043 0 0.47708970494047592 0.096547162644013557 0 0.48209205792154058 0.081076853880546043 0 0.46573084566111861 0.080721753047445138 0 0.48209205792154058 0.081076853880546043 0 0.47714578073418512 0.066537383845565096 0 0.46573084566111861 0.080721753047445138 0 0.49030416231355511 0.073256317384286063 0 0.48209205792154058 0.081076853880546043 0 0.47714578073418512 0.066537383845565096 0 0.45650324214529259 0.065280330615496637 0 0.46573084566111861 0.080721753047445138 0 0.4463318017969411 0.077534016390637867 0 0.47714578073418512 0.066537383845565096 0 0.45650324214529259 0.065280330615496637 0 0.46573084566111861 0.080721753047445138 0 0.46573084566111861 0.080721753047445138 0 0.4463318017969411 0.077534016390637867 0 0.45417940988095362 0.098966674398447016 0 0.47708970494047592 0.096547162644013557 0 0.46573084566111861 0.080721753047445138 0 0.45417940988095362 0.098966674398447016 0 0.4463318017969411 0.077534016390637867 0 0.45417940988095362 0.098966674398447016 0 0.43319821241535611 0.085947639564665793 0 0.4463318017969411 0.077534016390637867 0 0.44127530461137909 0.064432497562673663 0 0.4323056194460711 0.072068218276874901 0 0.45650324214529259 0.065280330615496637 0 0.4463318017969411 0.077534016390637867 0 0.44127530461137909 0.064432497562673663 0 0.46358849451689271 0.12298015153287919 0 0.45417940988095362 0.098966674398447016 0 0.44201491538503751 0.1221884416046867 0 0.47708970494047592 0.096547162644013557 0 0.46358849451689271 0.12298015153287919 0 0.45417940988095362 0.098966674398447016 0 0.47708970494047592 0.096547162644013557 0 0.45417940988095362 0.098966674398447016 0 0.45417940988095362 0.098966674398447016 0 0.43126911482143138 0.1013861861528805 0 0.43319821241535611 0.085947639564665793 0 0.45417940988095362 0.098966674398447016 0 0.43126911482143138 0.1013861861528805 0 0.45417940988095362 0.098966674398447016 0 0.44201491538503751 0.1221884416046867 0 0.43126911482143138 0.1013861861528805 0 0.44201491538503751 0.1221884416046867 0 0.42338535559027479 0.1205090768914225 0 0.43126911482143138 0.1013861861528805 0 0.42338535559027479 0.1205090768914225 0 0.40835881976190908 0.10380569790731391 0 0.40536034682354632 0.12481683740862159 0 0.40835881976190908 0.10380569790731391 0 0.43126911482143138 0.1013861861528805 0 0.42338535559027479 0.1205090768914225 0 0.40835881976190908 0.10380569790731391 0 0.43126911482143138 0.1013861861528805 0 0.40835881976190908 0.10380569790731391 0 0.43126911482143138 0.1013861861528805 0 0.41935522763475591 0.089699073352522835 0 0.4463318017969411 0.077534016390637867 0 0.43319821241535611 0.085947639564665793 0 0.4323056194460711 0.072068218276874901 0 0.43319821241535611 0.085947639564665793 0 0.41924297708616731 0.074654461475880396 0 0.41935522763475591 0.089699073352522835 0 0.43126911482143138 0.1013861861528805 0 0.43319821241535611 0.085947639564665793 0 0.41935522763475591 0.089699073352522835 0 0.4323056194460711 0.072068218276874901 0 0.41924297708616731 0.074654461475880396 0 0.42690609811089331 0.059013607202760512 0 0.44127530461137909 0.064432497562673663 0 0.4323056194460711 0.072068218276874901 0 0.42690609811089331 0.059013607202760512 0 0.43319821241535611 0.085947639564665793 0 0.4323056194460711 0.072068218276874901 0 0.41924297708616731 0.074654461475880396 0 0.41924297708616731 0.074654461475880396 0 0.41572401702962131 0.06154942829698281 0 0.42690609811089331 0.059013607202760512 0 0.41924297708616731 0.074654461475880396 0 0.40863285456409321 0.067745049984629005 0 0.41572401702962131 0.06154942829698281 0 0.41924297708616731 0.074654461475880396 0 0.40863285456409321 0.067745049984629005 0 0.40581890464532883 0.082285452545517224 0 0.40835881976190908 0.10380569790731391 0 0.41935522763475591 0.089699073352522835 0 0.40581890464532883 0.082285452545517224 0 0.41924297708616731 0.074654461475880396 0 0.41935522763475591 0.089699073352522835 0 0.40581890464532883 0.082285452545517224 0 0.40581890464532883 0.082285452545517224 0 0.39175039171038772 0.087168104040655559 0 0.39624558431573131 0.06624045880030964 0 0.40835881976190908 0.10380569790731391 0 0.40581890464532883 0.082285452545517224 0 0.39175039171038772 0.087168104040655559 0 0.39175039171038772 0.087168104040655559 0 0.39624558431573131 0.06624045880030964 0 0.38418619936747078 0.072555057714184676 0 0.40863285456409321 0.067745049984629005 0 0.40581890464532883 0.082285452545517224 0 0.39624558431573131 0.06624045880030964 0 0.40863285456409321 0.067745049984629005 0 0.39624558431573131 0.06624045880030964 0 0.40829937009812589 0.05445646228617778 0 0.37194242117794668 0.076772614526931793 0 0.38418619936747078 0.072555057714184676 0 0.38237628961462611 0.059732338949836518 0 0.36864505415383159 0.080457991471440893 0 0.38237628961462611 0.059732338949836518 0 0.39624558431573131 0.06624045880030964 0 0.38418619936747078 0.072555057714184676 0 0.38237628961462611 0.059732338949836518 0 0.37194242117794668 0.076772614526931793 0 0.38418619936747078 0.072555057714184676 0 0.38194353902199202 0.084344220923998292 0 0.39175039171038772 0.087168104040655559 0 0.38194353902199202 0.084344220923998292 0 0.37989514383216261 0.1008811074142211 0 0.37194242117794668 0.076772614526931793 0 0.37989514383216261 0.1008811074142211 0 0.37194242117794668 0.076772614526931793 0 0.38194353902199202 0.084344220923998292 0 0.37989514383216261 0.1008811074142211 0 0.39175039171038772 0.087168104040655559 0 0.38418619936747078 0.072555057714184676 0 0.38194353902199202 0.084344220923998292 0 0.39175039171038772 0.087168104040655559 0 0.37989514383216261 0.1008811074142211 0 0.39428450139263399 0.1099935163928351 0 0.37989514383216261 0.1008811074142211 0 0.38784786648637848 0.12498960030151041 0 0.37989514383216261 0.1008811074142211 0 0.38784786648637848 0.12498960030151041 0 0.39428450139263399 0.1099935163928351 0 0.37989514383216261 0.1008811074142211 0 0.38784786648637848 0.12498960030151041 0 0.37533236417423199 0.11575217945856781 0 0.36234477620530581 0.12431315491142481 0 0.38784786648637848 0.12498960030151041 0 0.37533236417423199 0.11575217945856781 0 0.38784786648637848 0.12498960030151041 0 0.39428450139263399 0.1099935163928351 0 0.40536034682354632 0.12481683740862159 0 0.40835881976190908 0.10380569790731391 0 0.39428450139263399 0.1099935163928351 0 0.40536034682354632 0.12481683740862159 0 0.40835881976190908 0.10380569790731391 0 0.39175039171038772 0.087168104040655559 0 0.39428450139263399 0.1099935163928351 0 0.4022109480673669 0.029794301680725051 0 0.39903054770448521 0.019764345079569041 0 0.38956197386376129 0.02112761593547402 0 0.4022109480673669 0.029794301680725051 0 0.38956197386376129 0.02112761593547402 0 0.39250591407207142 0.036175579460824843 0 0.4022109480673669 0.029794301680725051 0 0.39903054770448521 0.019764345079569041 0 0.40715192280340562 0.01462234732060084 0 0.3939873043738738 0.005606014803845533 0 0.40715192280340562 0.01462234732060084 0 0.41629264407573002 -0.006850845090226044 0 0.39903054770448521 0.019764345079569041 0 0.3939873043738738 0.005606014803845533 0 0.40715192280340562 0.01462234732060084 0 0.39903054770448521 0.019764345079569041 0 0.3939873043738738 0.005606014803845533 0 0.38956197386376129 0.02112761593547402 0 0.3939873043738738 0.005606014803845533 0 0.38284321145746519 0.01274873380563272 0 0.38956197386376129 0.02112761593547402 0 0.37357914744350779 0.002440479778912224 0 0.37424442014871812 0.021820824704299101 0 0.38284321145746519 0.01274873380563272 0 0.37357914744350779 0.002440479778912224 0 0.3939873043738738 0.005606014803845533 0 0.38284321145746519 0.01274873380563272 0 0.37424442014871812 0.021820824704299101 0 0.39250591407207142 0.036175579460824843 0 0.36321924137845568 0.02934286747329215 0 0.37424442014871812 0.021820824704299101 0 0.39250591407207142 0.036175579460824843 0 0.37424442014871812 0.021820824704299101 0 0.38956197386376129 0.02112761593547402 0 0.39250591407207142 0.036175579460824843 0 0.37424442014871812 0.021820824704299101 0 0.38284321145746519 0.01274873380563272 0 0.38956197386376129 0.02112761593547402 0 0.36321924137845568 0.02934286747329215 0 0.37923500638336632 0.043068186250585699 0 0.39250591407207142 0.036175579460824843 0 0.36321924137845568 0.02934286747329215 0 0.39250591407207142 0.036175579460824843 0 0.37923500638336632 0.043068186250585699 0 0.39610752507542107 0.039006686428232497 0 0.39250591407207142 0.036175579460824843 0 0.37923500638336632 0.043068186250585699 0 0.38237628961462611 0.059732338949836518 0 0.39610752507542107 0.039006686428232497 0 0.38237628961462611 0.059732338949836518 0 0.39610752507542107 0.039006686428232497 0 0.38237628961462611 0.059732338949836518 0 0.39498436831919048 0.053995491217328308 0 0.39610752507542107 0.039006686428232497 0 0.39624558431573131 0.06624045880030964 0 0.38237628961462611 0.059732338949836518 0 0.39498436831919048 0.053995491217328308 0 0.39624558431573131 0.06624045880030964 0 0.39498436831919048 0.053995491217328308 0 0.40127216254757908 0.052142880950221668 0 0.39498436831919048 0.053995491217328308 0 0.40127216254757908 0.052142880950221668 0 0.39610752507542107 0.039006686428232497 0 0.40127216254757908 0.052142880950221668 0 0.40829937009812589 0.05445646228617778 0 0.40647643562697111 0.047157343142538291 0 0.39624558431573131 0.06624045880030964 0 0.40127216254757908 0.052142880950221668 0 0.40829937009812589 0.05445646228617778 0 0.39624558431573131 0.06624045880030964 0 0.40829937009812589 0.05445646228617778 0 0.4022109480673669 0.029794301680725051 0 0.39724992059935432 0.037282377443883637 0 0.39250591407207142 0.036175579460824843 0 0.39724992059935432 0.037282377443883637 0 0.39250591407207142 0.036175579460824843 0 0.39610752507542107 0.039006686428232497 0 0.39724992059935432 0.037282377443883637 0 0.39250591407207142 0.036175579460824843 0 0.39610752507542107 0.039006686428232497 0 0.39724992059935432 0.037282377443883637 0 0.39610752507542107 0.039006686428232497 0 0.39250591407207142 0.036175579460824843 0 0.39610752507542107 0.039006686428232497 0 0.40647643562697111 0.047157343142538291 0 0.40127216254757908 0.052142880950221668 0 0.39610752507542107 0.039006686428232497 0 0.40647643562697111 0.047157343142538291 0 0.39610752507542107 0.039006686428232497 0 0.39724992059935432 0.037282377443883637 0 0.40647643562697111 0.047157343142538291 0 0.4022109480673669 0.029794301680725051 0 0.39724992059935432 0.037282377443883637 0 0.41056521822753728 0.033900572446116307 0 0.4022109480673669 0.029794301680725051 0 0.39724992059935432 0.037282377443883637 0 0.39724992059935432 0.037282377443883637 0 0.42035315588052052 0.042672465772045823 0 0.39724992059935432 0.037282377443883637 0 0.41056521822753728 0.033900572446116307 0 0.42035315588052052 0.042672465772045823 0 0.39724992059935432 0.037282377443883637 0 0.42035315588052052 0.042672465772045823 0 0.40647643562697111 0.047157343142538291 0 0.41056521822753728 0.033900572446116307 0 0.42035315588052052 0.042672465772045823 0 0.41918056088687422 0.025106301550984179 0 0.42035315588052052 0.042672465772045823 0 0.41807260402200452 0.053616349792940499 0 0.42690609811089331 0.059013607202760512 0 0.40863285456409321 0.067745049984629005 0 0.40829937009812589 0.05445646228617778 0 0.41572401702962131 0.06154942829698281 0 0.40829937009812589 0.05445646228617778 0 0.41807260402200452 0.053616349792940499 0 0.41572401702962131 0.06154942829698281 0 0.42035315588052052 0.042672465772045823 0 0.40829937009812589 0.05445646228617778 0 0.40647643562697111 0.047157343142538291 0 0.42035315588052052 0.042672465772045823 0 0.40829937009812589 0.05445646228617778 0 0.42035315588052052 0.042672465772045823 0 0.40829937009812589 0.05445646228617778 0 0.41807260402200452 0.053616349792940499 0 0.41807260402200452 0.053616349792940499 0 0.41572401702962131 0.06154942829698281 0 0.42690609811089331 0.059013607202760512 0 0.42035315588052052 0.042672465772045823 0 0.42690609811089331 0.059013607202760512 0 0.44432976155769699 0.048266315327598383 0 0.42035315588052052 0.042672465772045823 0 0.43671568676264189 0.026676163003921921 0 0.42035315588052052 0.042672465772045823 0 0.43671568676264189 0.026676163003921921 0 0.44432976155769699 0.048266315327598383 0 0.42035315588052052 0.042672465772045823 0 0.44432976155769699 0.048266315327598383 0 0.42035315588052052 0.042672465772045823 0 0.43671568676264189 0.026676163003921921 0 0.41918056088687422 0.025106301550984179 0 0.43671568676264189 0.026676163003921921 0 0.41918056088687422 0.025106301550984179 0 0.43085411213296282 0.0071934808399317304 0 0.4022109480673669 0.029794301680725051 0 0.41918056088687422 0.025106301550984179 0 0.40715192280340562 0.01462234732060084 0 0.41918056088687422 0.025106301550984179 0 0.40715192280340562 0.01462234732060084 0 0.43085411213296282 0.0071934808399317304 0 0.4022109480673669 0.029794301680725051 0 0.41056521822753728 0.033900572446116307 0 0.41918056088687422 0.025106301550984179 0 0.40715192280340562 0.01462234732060084 0 0.43085411213296282 0.0071934808399317304 0 0.41629264407573002 -0.006850845090226044 0 0.43085411213296282 0.0071934808399317304 0 0.45307821764476319 0.010679860235798 0 0.45275060893296981 -0.0060266252809792519 0 0.43671568676264189 0.026676163003921921 0 0.43085411213296282 0.0071934808399317304 0 0.45307821764476319 0.010679860235798 0 0.43671568676264189 0.026676163003921921 0 0.45307821764476319 0.010679860235798 0 0.45536773125663488 0.033055304065500078 0 0.43671568676264189 0.026676163003921921 0 0.45307821764476319 0.010679860235798 0 0.45307821764476319 0.010679860235798 0 0.45536773125663488 0.033055304065500078 0 0.4743220131113518 0.027463297392627269 0 0.45307821764476319 0.010679860235798 0 0.47441986059974051 0.002164373494884166 0 0.4743220131113518 0.027463297392627269 0 0.45307821764476319 0.010679860235798 0 0.47441986059974051 0.002164373494884166 0 0.45275060893296981 -0.0060266252809792519 0 0.45650324214529259 0.065280330615496637 0 0.44127530461137909 0.064432497562673663 0 0.44432976155769699 0.048266315327598383 0 0.44127530461137909 0.064432497562673663 0 0.42690609811089331 0.059013607202760512 0 0.44432976155769699 0.048266315327598383 0 0.43671568676264189 0.026676163003921921 0 0.44432976155769699 0.048266315327598383 0 0.45536773125663488 0.033055304065500078 0 0.45536773125663488 0.033055304065500078 0 0.4683063672348734 0.053860164883151249 0 0.4743220131113518 0.027463297392627269 0 0.44432976155769699 0.048266315327598383 0 0.45536773125663488 0.033055304065500078 0 0.4683063672348734 0.053860164883151249 0 0.44432976155769699 0.048266315327598383 0 0.4683063672348734 0.053860164883151249 0 0.45650324214529259 0.065280330615496637 0 0.44432976155769699 0.048266315327598383 0 0.4683063672348734 0.053860164883151249 0 0.47714578073418512 0.066537383845565096 0 0.45650324214529259 0.065280330615496637 0 0.4683063672348734 0.053860164883151249 0 0.47714578073418512 0.066537383845565096 0 0.4683063672348734 0.053860164883151249 0 0.49228297291204992 0.059454014438704107 0 0.4683063672348734 0.053860164883151249 0 0.48335627184046892 0.043534316590418197 0 0.49228297291204992 0.059454014438704107 0 0.4683063672348734 0.053860164883151249 0 0.49228297291204992 0.059454014438704107 0 0.4683063672348734 0.053860164883151249 0 0.48335627184046892 0.043534316590418197 0 0.4743220131113518 0.027463297392627269 0 0.48335627184046892 0.043534316590418197 0 0.5 0.03604371684448926 0 0.4743220131113518 0.027463297392627269 0 0.48335627184046892 0.043534316590418197 0 0.5 0.03604371684448926 0 0.49228297291204992 0.059454014438704107 0 0.5 0.065085683867034727 0 0.5 0.03604371684448926 0 0.49228297291204992 0.059454014438704107 0 0.47441986059974051 0.002164373494884166 0 0.4743220131113518 0.027463297392627269 0 0.5 0.0070017498219436813 0 0.5 0.03604371684448926 0 0.4743220131113518 0.027463297392627269 0 0.5 0.0070017498219436813 0 0.47441986059974051 0.002164373494884166 0 0.5 0.0070017498219436813 0 0.48435038112254591 -0.01295811459108822 0 0.5 0.0070017498219436813 0 0.48435038112254591 -0.01295811459108822 0 0.5 -0.022040217200601949 0 0.47441986059974051 0.002164373494884166 0 0.48435038112254591 -0.01295811459108822 0 0.46567746476080879 -0.018036067265790781 0 0.48165458025218022 -0.033880411805876212 0 0.46055892944421639 -0.034826981934293802 0 0.46567746476080879 -0.018036067265790781 0 0.48435038112254591 -0.01295811459108822 0 0.48165458025218022 -0.033880411805876212 0 0.46567746476080879 -0.018036067265790781 0 0.48435038112254591 -0.01295811459108822 0 0.5 -0.022040217200601949 0 0.48165458025218022 -0.033880411805876212 0 0.5 -0.051082184223147482 0 0.48331950433178789 -0.05028970193443566 0 0.48165458025218022 -0.033880411805876212 0 0.5 -0.022040217200601949 0 0.5 -0.051082184223147482 0 0.48165458025218022 -0.033880411805876212 0 0.5 -0.051082184223147482 0 0.48331950433178789 -0.05028970193443566 0 0.48351099524096458 -0.065188187078006596 0 0.46811244183400691 -0.051008024630712363 0 0.48351099524096458 -0.065188187078006596 0 0.46325174163611299 -0.065085723760132191 0 0.48331950433178789 -0.05028970193443566 0 0.46811244183400691 -0.051008024630712363 0 0.48351099524096458 -0.065188187078006596 0 0.48331950433178789 -0.05028970193443566 0 0.48165458025218022 -0.033880411805876212 0 0.46811244183400691 -0.051008024630712363 0 0.48165458025218022 -0.033880411805876212 0 0.46055892944421639 -0.034826981934293802 0 0.46811244183400691 -0.051008024630712363 0 0.46055892944421639 -0.034826981934293802 0 0.46811244183400691 -0.051008024630712363 0 0.44580381826440463 -0.044156532015693237 0 0.46811244183400691 -0.051008024630712363 0 0.44580381826440463 -0.044156532015693237 0 0.46325174163611299 -0.065085723760132191 0 0.44580381826440463 -0.044156532015693237 0 0.46325174163611299 -0.065085723760132191 0 0.46811244183400691 -0.051008024630712363 0 0.46325174163611299 -0.065085723760132191 0 0.44420654965085082 -0.062216100931960373 0 0.44580381826440463 -0.044156532015693237 0 0.42712667170951002 -0.058909162300086547 0 0.44420654965085082 -0.062216100931960373 0 0.44580381826440463 -0.044156532015693237 0 0.46325174163611299 -0.065085723760132191 0 0.46055892944421639 -0.034826981934293802 0 0.44580381826440463 -0.044156532015693237 0 0.43960160651246799 -0.018737423931294579 0 0.43960160651246799 -0.018737423931294579 0 0.45275060893296981 -0.0060266252809792519 0 0.46567746476080879 -0.018036067265790781 0 0.43085411213296282 0.0071934808399317304 0 0.43960160651246799 -0.018737423931294579 0 0.45275060893296981 -0.0060266252809792519 0 0.47441986059974051 0.002164373494884166 0 0.45275060893296981 -0.0060266252809792519 0 0.46567746476080879 -0.018036067265790781 0 0.46055892944421639 -0.034826981934293802 0 0.43960160651246799 -0.018737423931294579 0 0.46567746476080879 -0.018036067265790781 0 0.47818452339587708 -0.1165119508780514 0 0.50000000000000278 -0.1091661182682386 0 0.5 -0.13347981615570359 0 0.50000000000000278 -0.1091661182682386 0 0.48162587081805858 -0.087125921014184843 0 0.47818452339587708 -0.1165119508780514 0 0.50000000000000278 -0.1091661182682386 0 0.47745756082527618 -0.1021495788090297 0 0.50000000000000278 -0.1091661182682386 0 0.47745756082527618 -0.1021495788090297 0 0.48162587081805858 -0.087125921014184843 0 0.47818452339587708 -0.1165119508780514 0 0.47745756082527618 -0.1021495788090297 0 0.45929027747438272 -0.10448110762161331 0 0.47745756082527618 -0.1021495788090297 0 0.48162587081805858 -0.087125921014184843 0 0.46818713243806243 -0.093462796263060144 0 0.48162587081805858 -0.087125921014184843 0 0.46325174163611299 -0.065085723760132191 0 0.46656747462136422 -0.083363997574371698 0 0.48162587081805858 -0.087125921014184843 0 0.46656747462136422 -0.083363997574371698 0 0.46818713243806243 -0.093462796263060144 0 0.50000000000000278 -0.1091661182682386 0 0.48162587081805858 -0.087125921014184843 0 0.5 -0.080124151245693054 0 0.48162587081805858 -0.087125921014184843 0 0.5 -0.080124151245693054 0 0.48351099524096458 -0.065188187078006596 0 0.5 -0.051082184223147482 0 0.5 -0.080124151245693054 0 0.48351099524096458 -0.065188187078006596 0 0.48162587081805858 -0.087125921014184843 0 0.48351099524096458 -0.065188187078006596 0 0.46325174163611299 -0.065085723760132191 0 0.48162587081805858 -0.087125921014184843 0 0.46325174163611299 -0.065085723760132191 0 0.46325174163611299 -0.065085723760132191 0 0.44779547222269012 -0.07571174360441861 0 0.4542230721705241 -0.091234814858292518 0 0.44420654965085082 -0.062216100931960373 0 0.46325174163611299 -0.065085723760132191 0 0.44779547222269012 -0.07571174360441861 0 0.44420654965085082 -0.062216100931960373 0 0.44779547222269012 -0.07571174360441861 0 0.43605259790445722 -0.074801038719200894 0 0.44779547222269012 -0.07571174360441861 0 0.441034556727114 -0.086800976364950752 0 0.4542230721705241 -0.091234814858292518 0 0.44779547222269012 -0.07571174360441861 0 0.441034556727114 -0.086800976364950752 0 0.43605259790445722 -0.074801038719200894 0 0.441034556727114 -0.086800976364950752 0 0.4542230721705241 -0.091234814858292518 0 0.44037425786955031 -0.1001430447449046 0 0.46325174163611299 -0.065085723760132191 0 0.4542230721705241 -0.091234814858292518 0 0.46325174163611299 -0.065085723760132191 0 0.4542230721705241 -0.091234814858292518 0 0.46656747462136422 -0.083363997574371698 0 0.4542230721705241 -0.091234814858292518 0 0.46656747462136422 -0.083363997574371698 0 0.46818713243806243 -0.093462796263060144 0 0.47745756082527618 -0.1021495788090297 0 0.46818713243806243 -0.093462796263060144 0 0.45929027747438272 -0.10448110762161331 0 0.4542230721705241 -0.091234814858292518 0 0.46818713243806243 -0.093462796263060144 0 0.45929027747438272 -0.10448110762161331 0 0.4542230721705241 -0.091234814858292518 0 0.45929027747438272 -0.10448110762161331 0 0.44519440270493238 -0.1173839059564518 0 0.4542230721705241 -0.091234814858292518 0 0.44519440270493238 -0.1173839059564518 0 0.4542230721705241 -0.091234814858292518 0 0.44037425786955031 -0.1001430447449046 0 0.44519440270493238 -0.1173839059564518 0 0.45929027747438272 -0.10448110762161331 0 0.44519440270493238 -0.1173839059564518 0 0.44037425786955031 -0.1001430447449046 0 0.44519440270493238 -0.1173839059564518 0 0.43733469804818831 -0.11156713863760261 0 0.44519440270493238 -0.1173839059564518 0 0.43583674875745881 -0.11887614197332121 0 0.43733469804818831 -0.11156713863760261 0 0.44519440270493238 -0.1173839059564518 0 0.44103349219651622 -0.1294348541443999 0 0.44519440270493238 -0.1173839059564518 0 0.43473286131254663 -0.1269599813022704 0 0.44519440270493238 -0.1173839059564518 0 0.43652399803370612 -0.1266503843383173 0 0.44103349219651622 -0.1294348541443999 0 0.44519440270493238 -0.1173839059564518 0 0.43473286131254663 -0.1269599813022704 0 0.43652399803370612 -0.1266503843383173 0 0.44519440270493238 -0.1173839059564518 0 0.43583674875745881 -0.11887614197332121 0 0.43473286131254663 -0.1269599813022704 0 0.44519440270493238 -0.1173839059564518 0 0.4507048422038758 -0.1254569291466279 0 0.44103349219651622 -0.1294348541443999 0 0.44519440270493238 -0.1173839059564518 0 0.45845740270007618 -0.1179768520576317 0 0.4507048422038758 -0.1254569291466279 0 0.47818452339587708 -0.1165119508780514 0 0.45929027747438272 -0.10448110762161331 0 0.45845740270007618 -0.1179768520576317 0 0.45845740270007618 -0.1179768520576317 0 0.46233294642030121 -0.13029577410444981 0 0.4507048422038758 -0.1254569291466279 0 0.47818452339587708 -0.1165119508780514 0 0.45845740270007618 -0.1179768520576317 0 0.46233294642030121 -0.13029577410444981 0 0.45929027747438272 -0.10448110762161331 0 0.44519440270493238 -0.1173839059564518 0 0.45845740270007618 -0.1179768520576317 0 0.40724277249555002 -0.1192463337858536 0 0.41884687315735308 -0.1196411488000769 0 0.41208161927757919 -0.13087523561031761 0 0.40724277249555002 -0.1192463337858536 0 0.41698364908723728 -0.1130169343472482 0 0.41068457829189181 -0.1070723437572161 0 0.41698364908723728 -0.1130169343472482 0 0.4250766521847687 -0.1135111272305598 0 0.42274743771597889 -0.1059915359454271 0 0.41698364908723728 -0.1130169343472482 0 0.41884687315735308 -0.1196411488000769 0 0.4250766521847687 -0.1135111272305598 0 0.40724277249555002 -0.1192463337858536 0 0.41698364908723728 -0.1130169343472482 0 0.41884687315735308 -0.1196411488000769 0 0.41884687315735308 -0.1196411488000769 0 0.42661387223904329 -0.12098454377727109 0 0.41208161927757919 -0.13087523561031761 0 0.41884687315735308 -0.1196411488000769 0 0.42661387223904329 -0.12098454377727109 0 0.4250766521847687 -0.1135111272305598 0 0.42661387223904329 -0.12098454377727109 0 0.43583674875745881 -0.11887614197332121 0 0.43473286131254663 -0.1269599813022704 0 0.42661387223904329 -0.12098454377727109 0 0.43583674875745881 -0.11887614197332121 0 0.43287065052056112 -0.1145040342651165 0 0.43733469804818831 -0.11156713863760261 0 0.43287065052056112 -0.1145040342651165 0 0.43239743038843881 -0.106928566248219 0 0.43583674875745881 -0.11887614197332121 0 0.43733469804818831 -0.11156713863760261 0 0.43287065052056112 -0.1145040342651165 0 0.43287065052056112 -0.1145040342651165 0 0.4250766521847687 -0.1135111272305598 0 0.43239743038843881 -0.106928566248219 0 0.42661387223904329 -0.12098454377727109 0 0.43287065052056112 -0.1145040342651165 0 0.4250766521847687 -0.1135111272305598 0 0.4250766521847687 -0.1135111272305598 0 0.42274743771597889 -0.1059915359454271 0 0.43239743038843881 -0.106928566248219 0 0.42274743771597889 -0.1059915359454271 0 0.43239743038843881 -0.106928566248219 0 0.42854124961890733 -0.099856724000988273 0 0.44037425786955031 -0.1001430447449046 0 0.43239743038843881 -0.106928566248219 0 0.42854124961890733 -0.099856724000988273 0 0.44037425786955031 -0.1001430447449046 0 0.43733469804818831 -0.11156713863760261 0 0.43239743038843881 -0.106928566248219 0 0.44037425786955031 -0.1001430447449046 0 0.42854124961890733 -0.099856724000988273 0 0.42870758522811919 -0.089164076341860632 0 0.42274743771597889 -0.1059915359454271 0 0.42854124961890733 -0.099856724000988273 0 0.41847953689244971 -0.097056396724529995 0 0.42854124961890733 -0.099856724000988273 0 0.41847953689244971 -0.097056396724529995 0 0.42870758522811919 -0.089164076341860632 0 0.42274743771597889 -0.1059915359454271 0 0.41847953689244971 -0.097056396724529995 0 0.41068457829189181 -0.1070723437572161 0 0.41698364908723728 -0.1130169343472482 0 0.42274743771597889 -0.1059915359454271 0 0.41068457829189181 -0.1070723437572161 0 0.41847953689244971 -0.097056396724529995 0 0.41068457829189181 -0.1070723437572161 0 0.40440998182912408 -0.094196755676502056 0 0.40751187940595462 -0.08478461483936342 0 0.41476450049512009 -0.087087396641621656 0 0.40440998182912408 -0.094196755676502056 0 0.41847953689244971 -0.097056396724529995 0 0.41476450049512009 -0.087087396641621656 0 0.40440998182912408 -0.094196755676502056 0 0.40751187940595462 -0.08478461483936342 0 0.41476450049512009 -0.087087396641621656 0 0.40927176781453312 -0.077086569868640542 0 0.40751187940595462 -0.08478461483936342 0 0.40927176781453312 -0.077086569868640542 0 0.40237588567979138 -0.081472047511817525 0 0.41476450049512009 -0.087087396641621656 0 0.42870758522811919 -0.089164076341860632 0 0.42122478008006597 -0.0757594802833121 0 0.41476450049512009 -0.087087396641621656 0 0.42122478008006597 -0.0757594802833121 0 0.40927176781453312 -0.077086569868640542 0 0.41847953689244971 -0.097056396724529995 0 0.41476450049512009 -0.087087396641621656 0 0.42870758522811919 -0.089164076341860632 0 0.441034556727114 -0.086800976364950752 0 0.44037425786955031 -0.1001430447449046 0 0.42870758522811919 -0.089164076341860632 0 0.441034556727114 -0.086800976364950752 0 0.42870758522811919 -0.089164076341860632 0 0.43605259790445722 -0.074801038719200894 0 0.42870758522811919 -0.089164076341860632 0 0.43605259790445722 -0.074801038719200894 0 0.42122478008006597 -0.0757594802833121 0 0.43605259790445722 -0.074801038719200894 0 0.42122478008006597 -0.0757594802833121 0 0.42712667170951002 -0.058909162300086547 0 0.44420654965085082 -0.062216100931960373 0 0.43605259790445722 -0.074801038719200894 0 0.42712667170951002 -0.058909162300086547 0 0.42122478008006597 -0.0757594802833121 0 0.4114316245373863 -0.068167670275121897 0 0.42712667170951002 -0.058909162300086547 0 0.40927176781453312 -0.077086569868640542 0 0.4114316245373863 -0.068167670275121897 0 0.39842538017083612 -0.076484449263173909 0 0.42122478008006597 -0.0757594802833121 0 0.40927176781453312 -0.077086569868640542 0 0.4114316245373863 -0.068167670275121897 0 0.4114316245373863 -0.068167670275121897 0 0.39842538017083612 -0.076484449263173909 0 0.40640664480004829 -0.052123305293471443 0 0.39842538017083612 -0.076484449263173909 0 0.38906844471504909 -0.048791226331097663 0 0.4114316245373863 -0.068167670275121897 0 0.39842538017083612 -0.076484449263173909 0 0.39842538017083612 -0.076484449263173909 0 0.38333741963197843 -0.065496938221855289 0 0.38906844471504909 -0.048791226331097663 0 0.39842538017083612 -0.076484449263173909 0 0.38333741963197843 -0.065496938221855289 0 0.37036238702559748 -0.076146834841134659 0 0.39842538017083612 -0.076484449263173909 0 0.373127492796404 -0.092661058915291472 0 0.39842538017083612 -0.076484449263173909 0 0.37036238702559748 -0.076146834841134659 0 0.373127492796404 -0.092661058915291472 0 0.39842538017083612 -0.076484449263173909 0 0.3905434538793735 -0.094168622203984975 0 0.373127492796404 -0.092661058915291472 0 0.39842538017083612 -0.076484449263173909 0 0.40142869859064212 -0.08537321064543299 0 0.3905434538793735 -0.094168622203984975 0 0.39842538017083612 -0.076484449263173909 0 0.40142869859064212 -0.08537321064543299 0 0.40237588567979138 -0.081472047511817525 0 0.40927176781453312 -0.077086569868640542 0 0.39842538017083612 -0.076484449263173909 0 0.40237588567979138 -0.081472047511817525 0 0.39842538017083612 -0.076484449263173909 0 0.40142869859064212 -0.08537321064543299 0 0.40142869859064212 -0.08537321064543299 0 0.40237588567979138 -0.081472047511817525 0 0.40751187940595462 -0.08478461483936342 0 0.40142869859064212 -0.08537321064543299 0 0.40237588567979138 -0.081472047511817525 0 0.40751187940595462 -0.08478461483936342 0 0.40142869859064212 -0.08537321064543299 0 0.40440998182912408 -0.094196755676502056 0 0.40142869859064212 -0.08537321064543299 0 0.40440998182912408 -0.094196755676502056 0 0.40142869859064212 -0.08537321064543299 0 0.39542953791662688 -0.1100818502818986 0 0.40142869859064212 -0.08537321064543299 0 0.3905434538793735 -0.094168622203984975 0 0.39542953791662688 -0.1100818502818986 0 0.40142869859064212 -0.08537321064543299 0 0.40440998182912408 -0.094196755676502056 0 0.39542953791662688 -0.1100818502818986 0 0.41068457829189181 -0.1070723437572161 0 0.40440998182912408 -0.094196755676502056 0 0.39542953791662688 -0.1100818502818986 0 0.3905434538793735 -0.094168622203984975 0 0.38430615992235861 -0.10624254191412789 0 0.373127492796404 -0.092661058915291472 0 0.3905434538793735 -0.094168622203984975 0 0.38430615992235861 -0.10624254191412789 0 0.39542953791662688 -0.1100818502818986 0 0.38430615992235861 -0.10624254191412789 0 0.373127492796404 -0.092661058915291472 0 0.37262698081820339 -0.10985920037046069 0 0.38430615992235861 -0.10624254191412789 0 0.37980885755413418 -0.11928611433555709 0 0.39542953791662688 -0.1100818502818986 0 0.37980885755413418 -0.11928611433555709 0 0.39542953791662688 -0.1100818502818986 0 0.38943037724261159 -0.1347904899183642 0 0.38430615992235861 -0.10624254191412789 0 0.37980885755413418 -0.11928611433555709 0 0.37262698081820339 -0.10985920037046069 0 0.40724277249555002 -0.1192463337858536 0 0.39542953791662688 -0.1100818502818986 0 0.38943037724261159 -0.1347904899183642 0 0.39542953791662688 -0.1100818502818986 0 0.38943037724261159 -0.1347904899183642 0 0.40724277249555002 -0.1192463337858536 0 0.41068457829189181 -0.1070723437572161 0 0.39542953791662688 -0.1100818502818986 0 0.41629264407573002 -0.006850845090226044 0 0.42276864855888052 -0.033584784942844392 0 0.40125875037878711 -0.026146768788422061 0 0.43085411213296282 0.0071934808399317304 0 0.43960160651246799 -0.018737423931294579 0 0.41629264407573002 -0.006850845090226044 0 0.43960160651246799 -0.018737423931294579 0 0.41629264407573002 -0.006850845090226044 0 0.42276864855888052 -0.033584784942844392 0 0.44580381826440463 -0.044156532015693237 0 0.42276864855888052 -0.033584784942844392 0 0.42712667170951002 -0.058909162300086547 0 0.44580381826440463 -0.044156532015693237 0 0.43960160651246799 -0.018737423931294579 0 0.42276864855888052 -0.033584784942844392 0 0.4114316245373863 -0.068167670275121897 0 0.42712667170951002 -0.058909162300086547 0 0.40640664480004829 -0.052123305293471443 0 0.42276864855888052 -0.033584784942844392 0 0.42712667170951002 -0.058909162300086547 0 0.40640664480004829 -0.052123305293471443 0 0.42276864855888052 -0.033584784942844392 0 0.40640664480004829 -0.052123305293471443 0 0.40125875037878711 -0.026146768788422061 0 0.40640664480004829 -0.052123305293471443 0 0.38906844471504909 -0.048791226331097663 0 0.40125875037878711 -0.026146768788422061 0 0.39842538017083612 -0.076484449263173909 0 0.40640664480004829 -0.052123305293471443 0 0.38906844471504909 -0.048791226331097663 0 0.38906844471504909 -0.048791226331097663 0 0.36552082236990341 -0.042261935088275922 0 0.37096486530484057 -0.058236420929508259 0 0.38333741963197843 -0.065496938221855289 0 0.38906844471504909 -0.048791226331097663 0 0.37096486530484057 -0.058236420929508259 0 0.38906844471504909 -0.048791226331097663 0 0.37971150925926189 -0.0210980033990215 0 0.40125875037878711 -0.026146768788422061 0 0.38906844471504909 -0.048791226331097663 0 0.37971150925926189 -0.0210980033990215 0 0.36552082236990341 -0.042261935088275922 0 0.38906844471504909 -0.048791226331097663 0 0.37971150925926189 -0.0210980033990215 0 0.3939873043738738 0.005606014803845533 0 0.37971150925926189 -0.0210980033990215 0 0.40125875037878711 -0.026146768788422061 0 0.3939873043738738 0.005606014803845533 0 0.41629264407573002 -0.006850845090226044 0 0.40125875037878711 -0.026146768788422061 0 0.37357914744350779 0.002440479778912224 0 0.3939873043738738 0.005606014803845533 0 0.37971150925926189 -0.0210980033990215 0 0.37357914744350779 0.002440479778912224 0 0.35598292622536432 0.0074660699477739154 0 0.35747226134953669 -0.011539359516293059 0 0.37357914744350779 0.002440479778912224 0 0.37971150925926189 -0.0210980033990215 0 0.35747226134953669 -0.011539359516293059 0 0.37971150925926189 -0.0210980033990215 0 0.3567572465296398 -0.028300240308235611 0 0.35747226134953669 -0.011539359516293059 0 0.37971150925926189 -0.0210980033990215 0 0.3567572465296398 -0.028300240308235611 0 0.36552082236990341 -0.042261935088275922 0 0.3567572465296398 -0.028300240308235611 0 0.34108130633743572 -0.022855778308436141 0 0.34876980709143918 -0.036804132634757111 0 0.3567572465296398 -0.028300240308235611 0 0.35747226134953669 -0.011539359516293059 0 0.34108130633743572 -0.022855778308436141 0 0.35598292622536432 0.0074660699477739154 0 0.35747226134953669 -0.011539359516293059 0 0.33772143230201052 -0.0068886848087512803 0 0.35747226134953669 -0.011539359516293059 0 0.33772143230201052 -0.0068886848087512803 0 0.34108130633743572 -0.022855778308436141 0 0.33772143230201052 -0.0068886848087512803 0 0.34108130633743572 -0.022855778308436141 0 0.317215061455216 -0.016157064213598971 0 0.34108130633743572 -0.022855778308436141 0 0.317215061455216 -0.016157064213598971 0 0.33020564447161199 -0.035019528032180489 0 0.317215061455216 -0.016157064213598971 0 0.33020564447161199 -0.035019528032180489 0 0.317215061455216 -0.016157064213598971 0 0.31587151978819911 -0.020338956197947448 0 0.33020564447161199 -0.035019528032180489 0 0.31587151978819911 -0.020338956197947448 0 0.33020564447161199 -0.035019528032180489 0 0.317215061455216 -0.016157064213598971 0 0.31587151978819911 -0.020338956197947448 0 0.32325249182581611 0.0026349705202008129 0 0.317215061455216 -0.016157064213598971 0 0.32325249182581611 0.0026349705202008129 0 0.33772143230201052 -0.0068886848087512803 0 0.317215061455216 -0.016157064213598971 0 0.32325249182581611 0.0026349705202008129 0 0.317215061455216 -0.016157064213598971 0 0.30690038754225768 -0.0011800486910433781 0 0.32587161445787949 -0.051186402763021513 0 0.31829608624605688 -0.065472752473192938 0 0.30886460616181383 -0.042148593106558697 0 0.32587161445787949 -0.051186402763021513 0 0.33198766712898281 -0.064044197254424853 0 0.31829608624605688 -0.065472752473192938 0 0.31587151978819911 -0.020338956197947448 0 0.33020564447161199 -0.035019528032180489 0 0.30886460616181383 -0.042148593106558697 0 0.32587161445787949 -0.051186402763021513 0 0.33020564447161199 -0.035019528032180489 0 0.30886460616181383 -0.042148593106558697 0 0.34108130633743572 -0.022855778308436141 0 0.33020564447161199 -0.035019528032180489 0 0.34876980709143918 -0.036804132634757111 0 0.32587161445787949 -0.051186402763021513 0 0.33020564447161199 -0.035019528032180489 0 0.34000406828093183 -0.049246942948750677 0 0.33020564447161199 -0.035019528032180489 0 0.3502840157486049 -0.055583181436657553 0 0.33020564447161199 -0.035019528032180489 0 0.34000406828093183 -0.049246942948750677 0 0.33020564447161199 -0.035019528032180489 0 0.34000406828093183 -0.049246942948750677 0 0.3502840157486049 -0.055583181436657553 0 0.33020564447161199 -0.035019528032180489 0 0.3502840157486049 -0.055583181436657553 0 0.34876980709143918 -0.036804132634757111 0 0.34000406828093183 -0.049246942948750677 0 0.33198766712898281 -0.064044197254424853 0 0.34180884154053498 -0.065879049105621951 0 0.32587161445787949 -0.051186402763021513 0 0.34000406828093183 -0.049246942948750677 0 0.33198766712898281 -0.064044197254424853 0 0.34000406828093183 -0.049246942948750677 0 0.34980249209025183 -0.063474357865320699 0 0.34000406828093183 -0.049246942948750677 0 0.34980249209025183 -0.063474357865320699 0 0.34180884154053498 -0.065879049105621951 0 0.34000406828093183 -0.049246942948750677 0 0.3502840157486049 -0.055583181436657553 0 0.34980249209025183 -0.063474357865320699 0 0.3502840157486049 -0.055583181436657553 0 0.34980249209025183 -0.063474357865320699 0 0.35472253155892502 -0.068395270968063401 0 0.3502840157486049 -0.055583181436657553 0 0.34876980709143918 -0.036804132634757111 0 0.36552082236990341 -0.042261935088275922 0 0.3567572465296398 -0.028300240308235611 0 0.34876980709143918 -0.036804132634757111 0 0.36552082236990341 -0.042261935088275922 0 0.3502840157486049 -0.055583181436657553 0 0.36552082236990341 -0.042261935088275922 0 0.37096486530484057 -0.058236420929508259 0 0.3502840157486049 -0.055583181436657553 0 0.37096486530484057 -0.058236420929508259 0 0.37036238702559748 -0.076146834841134659 0 0.38333741963197843 -0.065496938221855289 0 0.37096486530484057 -0.058236420929508259 0 0.37036238702559748 -0.076146834841134659 0 0.3502840157486049 -0.055583181436657553 0 0.37036238702559748 -0.076146834841134659 0 0.37036238702559748 -0.076146834841134659 0 0.35472253155892502 -0.068395270968063401 0 0.35439705838588692 -0.077054866778644621 0 0.37036238702559748 -0.076146834841134659 0 0.36026598055858428 -0.086219317086442732 0 0.35439705838588692 -0.077054866778644621 0 0.37036238702559748 -0.076146834841134659 0 0.373127492796404 -0.092661058915291472 0 0.36026598055858428 -0.086219317086442732 0 0.373127492796404 -0.092661058915291472 0 0.36026598055858428 -0.086219317086442732 0 0.35442896873054819 -0.093899165736773108 0 0.36026598055858428 -0.086219317086442732 0 0.34819406691839527 -0.085912356067407769 0 0.35439705838588692 -0.077054866778644621 0 0.36026598055858428 -0.086219317086442732 0 0.34819406691839527 -0.085912356067407769 0 0.35442896873054819 -0.093899165736773108 0 0.34819406691839527 -0.085912356067407769 0 0.35442896873054819 -0.093899165736773108 0 0.34250823495700278 -0.096843945418323016 0 0.34819406691839527 -0.085912356067407769 0 0.35439705838588692 -0.077054866778644621 0 0.34213718893203959 -0.07422010281979162 0 0.3502840157486049 -0.055583181436657553 0 0.37036238702559748 -0.076146834841134659 0 0.35472253155892502 -0.068395270968063401 0 0.34876670454428399 -0.06971711391855949 0 0.35439705838588692 -0.077054866778644621 0 0.34213718893203959 -0.07422010281979162 0 0.34980249209025183 -0.063474357865320699 0 0.34876670454428399 -0.06971711391855949 0 0.34180884154053498 -0.065879049105621951 0 0.34876670454428399 -0.06971711391855949 0 0.34180884154053498 -0.065879049105621951 0 0.34213718893203959 -0.07422010281979162 0 0.34980249209025183 -0.063474357865320699 0 0.34876670454428399 -0.06971711391855949 0 0.35472253155892502 -0.068395270968063401 0 0.34876670454428399 -0.06971711391855949 0 0.35472253155892502 -0.068395270968063401 0 0.35439705838588692 -0.077054866778644621 0 0.36703358201424818 -0.1205643964158449 0 0.35968204517414459 -0.1107584800748472 0 0.35606369033391522 -0.1259709067163762 0 0.37980885755413418 -0.11928611433555709 0 0.36703358201424818 -0.1205643964158449 0 0.37262698081820339 -0.10985920037046069 0 0.36703358201424818 -0.1205643964158449 0 0.37262698081820339 -0.10985920037046069 0 0.35968204517414459 -0.1107584800748472 0 0.373127492796404 -0.092661058915291472 0 0.3478296054219725 -0.1088376685674099 0 0.373127492796404 -0.092661058915291472 0 0.37262698081820339 -0.10985920037046069 0 0.35968204517414459 -0.1107584800748472 0 0.373127492796404 -0.092661058915291472 0 0.35968204517414459 -0.1107584800748472 0 0.3478296054219725 -0.1088376685674099 0 0.373127492796404 -0.092661058915291472 0 0.35442896873054819 -0.093899165736773108 0 0.3478296054219725 -0.1088376685674099 0 0.35442896873054819 -0.093899165736773108 0 0.3478296054219725 -0.1088376685674099 0 0.34250823495700278 -0.096843945418323016 0 0.3478296054219725 -0.1088376685674099 0 0.34004518790650529 -0.12527848050574 0 0.35606369033391522 -0.1259709067163762 0 0.35968204517414459 -0.1107584800748472 0 0.3478296054219725 -0.1088376685674099 0 0.35606369033391522 -0.1259709067163762 0 0.35968204517414459 -0.1107584800748472 0 0.35606369033391522 -0.1259709067163762 0 0.3478296054219725 -0.1088376685674099 0 0.3336003219875231 -0.1076211020920432 0 0.32253171804754088 -0.12501427821952829 0 0.3478296054219725 -0.1088376685674099 0 0.32253171804754088 -0.12501427821952829 0 0.34004518790650529 -0.12527848050574 0 0.3478296054219725 -0.1088376685674099 0 0.32253171804754088 -0.12501427821952829 0 0.3336003219875231 -0.1076211020920432 0 0.3322859580981179 -0.098725703467523684 0 0.32284609341298121 -0.10868391478743129 0 0.3478296054219725 -0.1088376685674099 0 0.3336003219875231 -0.1076211020920432 0 0.34250823495700278 -0.096843945418323016 0 0.3336003219875231 -0.1076211020920432 0 0.34250823495700278 -0.096843945418323016 0 0.3322859580981179 -0.098725703467523684 0 0.34250823495700278 -0.096843945418323016 0 0.3322859580981179 -0.098725703467523684 0 0.33540967344911948 -0.088036983583798772 0 0.32220919005921328 -0.094454801116449272 0 0.31258915767766499 -0.1029799685902579 0 0.31246538712165289 -0.087003597160487944 0 0.3322859580981179 -0.098725703467523684 0 0.32220919005921328 -0.094454801116449272 0 0.32284609341298121 -0.10868391478743129 0 0.32220919005921328 -0.094454801116449272 0 0.31258915767766499 -0.1029799685902579 0 0.32284609341298121 -0.10868391478743129 0 0.31258915767766499 -0.1029799685902579 0 0.32284609341298121 -0.10868391478743129 0 0.30701266551867318 -0.11795202584412939 0 0.3336003219875231 -0.1076211020920432 0 0.32284609341298121 -0.10868391478743129 0 0.32253171804754088 -0.12501427821952829 0 0.32284609341298121 -0.10868391478743129 0 0.30701266551867318 -0.11795202584412939 0 0.32253171804754088 -0.12501427821952829 0 0.33198766712898281 -0.064044197254424853 0 0.34213718893203959 -0.07422010281979162 0 0.32642601186692399 -0.078569743361430744 0 0.33198766712898281 -0.064044197254424853 0 0.34180884154053498 -0.065879049105621951 0 0.34213718893203959 -0.07422010281979162 0 0.34213718893203959 -0.07422010281979162 0 0.33540967344911948 -0.088036983583798772 0 0.32642601186692399 -0.078569743361430744 0 0.34819406691839527 -0.085912356067407769 0 0.34213718893203959 -0.07422010281979162 0 0.33540967344911948 -0.088036983583798772 0 0.34819406691839527 -0.085912356067407769 0 0.34250823495700278 -0.096843945418323016 0 0.33540967344911948 -0.088036983583798772 0 0.3322859580981179 -0.098725703467523684 0 0.32220919005921328 -0.094454801116449272 0 0.33540967344911948 -0.088036983583798772 0 0.32220919005921328 -0.094454801116449272 0 0.33540967344911948 -0.088036983583798772 0 0.32642601186692399 -0.078569743361430744 0 0.32220919005921328 -0.094454801116449272 0 0.32642601186692399 -0.078569743361430744 0 0.31246538712165289 -0.087003597160487944 0 0.32642601186692399 -0.078569743361430744 0 0.31246538712165289 -0.087003597160487944 0 0.32642601186692399 -0.078569743361430744 0 0.31829608624605688 -0.065472752473192938 0 0.31246538712165289 -0.087003597160487944 0 0.33198766712898281 -0.064044197254424853 0 0.32642601186692399 -0.078569743361430744 0 0.31829608624605688 -0.065472752473192938 0 0.31829608624605688 -0.065472752473192938 0 0.30185769253542699 -0.063958230015169509 0 0.31246538712165289 -0.087003597160487944 0 0.30185769253542699 -0.063958230015169509 0 0.29485077890903838 -0.08576786692377969 0 0.31246538712165289 -0.087003597160487944 0 0.29485077890903838 -0.08576786692377969 0 0.29850476237638052 -0.095437450959542897 0 0.30185769253542699 -0.063958230015169509 0 0.31246538712165289 -0.087003597160487944 0 0.29485077890903838 -0.08576786692377969 0 0.31246538712165289 -0.087003597160487944 0 0.29850476237638052 -0.095437450959542897 0 0.29485077890903838 -0.08576786692377969 0 0.29011601486440819 -0.10050523777883651 0 0.27233191485367331 -0.086662364145387083 0 0.29485077890903838 -0.08576786692377969 0 0.29850476237638052 -0.095437450959542897 0 0.29485077890903838 -0.08576786692377969 0 0.29011601486440819 -0.10050523777883651 0 0.30185769253542699 -0.063958230015169509 0 0.29485077890903838 -0.08576786692377969 0 0.28549509337792828 -0.061009794462930381 0 0.29485077890903838 -0.08576786692377969 0 0.27233191485367331 -0.086662364145387083 0 0.28549509337792828 -0.061009794462930381 0 0.29485077890903838 -0.08576786692377969 0 0.28549509337792828 -0.061009794462930381 0 0.30701266551867318 -0.11795202584412939 0 0.29478762612759141 -0.11288625738249181 0 0.29867666688697703 -0.1272849549211697 0 0.30701266551867318 -0.11795202584412939 0 0.29850476237638052 -0.095437450959542897 0 0.29478762612759141 -0.11288625738249181 0 0.31258915767766499 -0.1029799685902579 0 0.30701266551867318 -0.11795202584412939 0 0.29850476237638052 -0.095437450959542897 0 0.30701266551867318 -0.11795202584412939 0 0.29850476237638052 -0.095437450959542897 0 0.31258915767766499 -0.1029799685902579 0 0.31246538712165289 -0.087003597160487944 0 0.29850476237638052 -0.095437450959542897 0 0.29850476237638052 -0.095437450959542897 0 0.29011601486440819 -0.10050523777883651 0 0.29478762612759141 -0.11288625738249181 0 0.29850476237638052 -0.095437450959542897 0 0.29011601486440819 -0.10050523777883651 0 0.29485077890903838 -0.08576786692377969 0 0.29850476237638052 -0.095437450959542897 0 0.29011601486440819 -0.10050523777883651 0 0.29011601486440819 -0.10050523777883651 0 0.27631136395687561 -0.10884486509677729 0 0.29011601486440819 -0.10050523777883651 0 0.28377904751550082 -0.12022960778689511 0 0.29011601486440819 -0.10050523777883651 0 0.28377904751550082 -0.12022960778689511 0 0.27631136395687561 -0.10884486509677729 0 0.29011601486440819 -0.10050523777883651 0 0.29478762612759141 -0.11288625738249181 0 0.28377904751550082 -0.12022960778689511 0 0.29478762612759141 -0.11288625738249181 0 0.28377904751550082 -0.12022960778689511 0 0.29867666688697703 -0.1272849549211697 0 0.28377904751550082 -0.12022960778689511 0 0.27500980117207829 -0.12155323577333579 0 0.27631136395687561 -0.10884486509677729 0 0.27631136395687561 -0.10884486509677729 0 0.26250671304934198 -0.1171844924147165 0 0.27500980117207829 -0.12155323577333579 0 0.27631136395687561 -0.10884486509677729 0 0.26250671304934198 -0.1171844924147165 0 0.29011601486440819 -0.10050523777883651 0 0.27631136395687561 -0.10884486509677729 0 0.27233191485367331 -0.086662364145387083 0 0.27631136395687561 -0.10884486509677729 0 0.26480060580106352 -0.1019600400236301 0 0.27233191485367331 -0.086662364145387083 0 0.27631136395687561 -0.10884486509677729 0 0.26480060580106352 -0.1019600400236301 0 0.26250671304934198 -0.1171844924147165 0 0.26480060580106352 -0.1019600400236301 0 0.27233191485367331 -0.086662364145387083 0 0.248052431344363 -0.095148438437639593 0 0.26480060580106352 -0.1019600400236301 0 0.26250671304934198 -0.1171844924147165 0 0.248052431344363 -0.095148438437639593 0 0.26250671304934198 -0.1171844924147165 0 0.248052431344363 -0.095148438437639593 0 0.26250671304934198 -0.1171844924147165 0 0.248052431344363 -0.095148438437639593 0 0.24260121657943401 -0.11258968035378961 0 0.26250671304934198 -0.1171844924147165 0 0.2441250445765018 -0.1282891748563233 0 0.27233191485367331 -0.086662364145387083 0 0.25578894406637898 -0.071814983055159112 0 0.28549509337792828 -0.061009794462930381 0 0.27233191485367331 -0.086662364145387083 0 0.25578894406637898 -0.071814983055159112 0 0.248052431344363 -0.095148438437639593 0 0.25578894406637898 -0.071814983055159112 0 0.26356106344924501 -0.050736506704392427 0 0.24466000719816181 -0.052572806154117767 0 0.27613940784681967 -0.036251722002080641 0 0.28549509337792828 -0.061009794462930381 0 0.26356106344924501 -0.050736506704392427 0 0.27613940784681967 -0.036251722002080641 0 0.28549509337792828 -0.061009794462930381 0 0.25578894406637898 -0.071814983055159112 0 0.26356106344924501 -0.050736506704392427 0 0.28549509337792828 -0.061009794462930381 0 0.26356106344924501 -0.050736506704392427 0 0.25572186475693609 -0.032033227847674262 0 0.24466000719816181 -0.052572806154117767 0 0.26356106344924501 -0.050736506704392427 0 0.27613940784681967 -0.036251722002080641 0 0.25572186475693609 -0.032033227847674262 0 0.25572186475693609 -0.032033227847674262 0 0.24466000719816181 -0.052572806154117767 0 0.25572186475693609 -0.032033227847674262 0 0.25159771702699008 -0.014371615300676641 0 0.26678372231571063 -0.011493649541230871 0 0.25572186475693609 -0.032033227847674262 0 0.26678372231571063 -0.011493649541230871 0 0.26489192350979318 -0.0064873577240775106 0 0.2403210271001277 -0.0038011986657945939 0 0.25900523844679291 0.0090906536209348996 0 0.26489192350979318 -0.0064873577240775106 0 0.2403210271001277 -0.0038011986657945939 0 0.25159771702699008 -0.014371615300676641 0 0.26489192350979318 -0.0064873577240775106 0 0.2403210271001277 -0.0038011986657945939 0 0.25159771702699008 -0.014371615300676641 0 0.26489192350979318 -0.0064873577240775106 0 0.26678372231571063 -0.011493649541230871 0 0.2692248172919926 -0.0069610417805164738 0 0.27741899960964289 -0.015799745368864509 0 0.28512431700806451 -0.0086992195202469716 0 0.2692248172919926 -0.0069610417805164738 0 0.27791710391185381 -0.0010379811687957271 0 0.28512431700806451 -0.0086992195202469716 0 0.2692248172919926 -0.0069610417805164738 0 0.28512431700806451 -0.0086992195202469716 0 0.26701986470523431 0.0028523954276382379 0 0.26489192350979318 -0.0064873577240775106 0 0.2692248172919926 -0.0069610417805164738 0 0.26489192350979318 -0.0064873577240775106 0 0.2692248172919926 -0.0069610417805164738 0 0.2692248172919926 -0.0069610417805164738 0 0.26678372231571063 -0.011493649541230871 0 0.27741899960964289 -0.015799745368864509 0 0.26489192350979318 -0.0064873577240775106 0 0.26678372231571063 -0.011493649541230871 0 0.26489192350979318 -0.0064873577240775106 0 0.2692248172919926 -0.0069610417805164738 0 0.26678372231571063 -0.011493649541230871 0 0.2692248172919926 -0.0069610417805164738 0 0.26678372231571063 -0.011493649541230871 0 0.27613940784681967 -0.036251722002080641 0 0.26678372231571063 -0.011493649541230871 0 0.27613940784681967 -0.036251722002080641 0 0.26678372231571063 -0.011493649541230871 0 0.27741899960964289 -0.015799745368864509 0 0.27613940784681967 -0.036251722002080641 0 0.25572186475693609 -0.032033227847674262 0 0.26678372231571063 -0.011493649541230871 0 0.27613940784681967 -0.036251722002080641 0 0.27741899960964289 -0.015799745368864509 0 0.29413594975842328 -0.02512550933568073 0 0.27741899960964289 -0.015799745368864509 0 0.29413594975842328 -0.02512550933568073 0 0.28512431700806451 -0.0086992195202469716 0 0.28514691493175248 0.01112824383243886 0 0.28512431700806451 -0.0086992195202469716 0 0.30050921735997521 -0.004605356182754896 0 0.29413594975842328 -0.02512550933568073 0 0.28512431700806451 -0.0086992195202469716 0 0.30050921735997521 -0.004605356182754896 0 0.317215061455216 -0.016157064213598971 0 0.31587151978819911 -0.020338956197947448 0 0.30050921735997521 -0.004605356182754896 0 0.31587151978819911 -0.020338956197947448 0 0.30050921735997521 -0.004605356182754896 0 0.317215061455216 -0.016157064213598971 0 0.30050921735997521 -0.004605356182754896 0 0.30690038754225768 -0.0011800486910433781 0 0.317215061455216 -0.016157064213598971 0 0.30690038754225768 -0.0011800486910433781 0 0.31587151978819911 -0.020338956197947448 0 0.29413594975842328 -0.02512550933568073 0 0.30886460616181383 -0.042148593106558697 0 0.31587151978819911 -0.020338956197947448 0 0.29413594975842328 -0.02512550933568073 0 0.30050921735997521 -0.004605356182754896 0 0.31587151978819911 -0.020338956197947448 0 0.30886460616181383 -0.042148593106558697 0 0.29413594975842328 -0.02512550933568073 0 0.30886460616181383 -0.042148593106558697 0 0.29329854993608251 -0.045698769784483992 0 0.31829608624605688 -0.065472752473192938 0 0.30185769253542699 -0.063958230015169509 0 0.30886460616181383 -0.042148593106558697 0 0.30185769253542699 -0.063958230015169509 0 0.30886460616181383 -0.042148593106558697 0 0.30185769253542699 -0.063958230015169509 0 0.30886460616181383 -0.042148593106558697 0 0.29329854993608251 -0.045698769784483992 0 0.27613940784681967 -0.036251722002080641 0 0.28549509337792828 -0.061009794462930381 0 0.29329854993608251 -0.045698769784483992 0 0.30185769253542699 -0.063958230015169509 0 0.28549509337792828 -0.061009794462930381 0 0.29329854993608251 -0.045698769784483992 0 0.27613940784681967 -0.036251722002080641 0 0.29413594975842328 -0.02512550933568073 0 0.29329854993608251 -0.045698769784483992 0 0.28257577117233168 -0.20518994938083851 0 0.30379191605182437 -0.20471284840499179 0 0.29252942038038049 -0.2260032745248223 0 0.28257577117233168 -0.20518994938083851 0 0.29252942038038049 -0.2260032745248223 0 0.27440370665207992 -0.22158759206732809 0 0.28257577117233168 -0.20518994938083851 0 0.29805932829815662 -0.18954203104115269 0 0.30379191605182437 -0.20471284840499179 0 0.28257577117233168 -0.20518994938083851 0 0.29805932829815662 -0.18954203104115269 0 0.28309810934824442 -0.18139531770741171 0 0.29805932829815662 -0.18954203104115269 0 0.30379191605182437 -0.20471284840499179 0 0.31670590871501719 -0.18767809548444081 0 0.30379191605182437 -0.20471284840499179 0 0.31109634377457301 -0.22154997806035029 0 0.29252942038038049 -0.2260032745248223 0 0.31109634377457301 -0.22154997806035029 0 0.30987088180634448 -0.24125362874219619 0 0.29252942038038049 -0.2260032745248223 0 0.30987088180634448 -0.24125362874219619 0 0.29250997527574701 -0.24677647679701359 0 0.29252942038038049 -0.2260032745248223 0 0.29250997527574701 -0.24677647679701359 0 0.29252942038038049 -0.2260032745248223 0 0.27462122614518292 -0.24127539045551061 0 0.29252942038038049 -0.2260032745248223 0 0.27440370665207992 -0.22158759206732809 0 0.27462122614518292 -0.24127539045551061 0 0.27440370665207992 -0.22158759206732809 0 0.27462122614518292 -0.24127539045551061 0 0.25406429941061343 -0.23112732810889039 0 0.29250997527574701 -0.24677647679701359 0 0.27462122614518292 -0.24127539045551061 0 0.27534065318434953 -0.25880162201512719 0 0.25406429941061343 -0.23112732810889039 0 0.25726365536858148 -0.25362034743760148 0 0.24146341680214309 -0.24448521489457861 0 0.27462122614518292 -0.24127539045551061 0 0.25406429941061343 -0.23112732810889039 0 0.25726365536858148 -0.25362034743760148 0 0.27440370665207992 -0.22158759206732809 0 0.25406429941061343 -0.23112732810889039 0 0.25948399805722178 -0.21095426616987389 0 0.25406429941061343 -0.23112732810889039 0 0.25948399805722178 -0.21095426616987389 0 0.23924146656863479 -0.21600942233651971 0 0.25948399805722178 -0.21095426616987389 0 0.25294493867930001 -0.1971512634910503 0 0.23924146656863479 -0.21600942233651971 0 0.28257577117233168 -0.20518994938083851 0 0.27440370665207992 -0.22158759206732809 0 0.25948399805722178 -0.21095426616987389 0 0.28257577117233168 -0.20518994938083851 0 0.26980921912182793 -0.19283345323968809 0 0.28309810934824442 -0.18139531770741171 0 0.28257577117233168 -0.20518994938083851 0 0.25948399805722178 -0.21095426616987389 0 0.26980921912182793 -0.19283345323968809 0 0.26980921912182793 -0.19283345323968809 0 0.25294493867930001 -0.1971512634910503 0 0.26076150014885863 -0.1842019471946538 0 0.25948399805722178 -0.21095426616987389 0 0.26980921912182793 -0.19283345323968809 0 0.25294493867930001 -0.1971512634910503 0 0.25294493867930001 -0.1971512634910503 0 0.25115080808597218 -0.18349252771031549 0 0.26076150014885863 -0.1842019471946538 0 0.25115080808597218 -0.18349252771031549 0 0.26076150014885863 -0.1842019471946538 0 0.25889962869698091 -0.1746028342129915 0 0.26076150014885863 -0.1842019471946538 0 0.25889962869698091 -0.1746028342129915 0 0.27017957837672091 -0.17747692395416009 0 0.25115080808597218 -0.18349252771031549 0 0.25889962869698091 -0.1746028342129915 0 0.24727016264961249 -0.1692414738038848 0 0.25889962869698091 -0.1746028342129915 0 0.26616743516329899 -0.16248611748055669 0 0.24727016264961249 -0.1692414738038848 0 0.26140577643439422 -0.14332992145424359 0 0.24727016264961249 -0.1692414738038848 0 0.26616743516329899 -0.16248611748055669 0 0.26140577643439422 -0.14332992145424359 0 0.24727016264961249 -0.1692414738038848 0 0.25889962869698091 -0.1746028342129915 0 0.26616743516329899 -0.16248611748055669 0 0.27017957837672091 -0.17747692395416009 0 0.26616743516329899 -0.16248611748055669 0 0.27825348655266058 -0.16907893574793359 0 0.27017957837672091 -0.17747692395416009 0 0.26616743516329899 -0.16248611748055669 0 0.27746834422487981 -0.157383776805052 0 0.26883056353995632 -0.15253713768717189 0 0.26616743516329899 -0.16248611748055669 0 0.27746834422487981 -0.157383776805052 0 0.27825348655266058 -0.16907893574793359 0 0.27825348655266058 -0.16907893574793359 0 0.27017957837672091 -0.17747692395416009 0 0.28309810934824442 -0.18139531770741171 0 0.26980921912182793 -0.19283345323968809 0 0.27017957837672091 -0.17747692395416009 0 0.28309810934824442 -0.18139531770741171 0 0.26980921912182793 -0.19283345323968809 0 0.26076150014885863 -0.1842019471946538 0 0.27017957837672091 -0.17747692395416009 0 0.25959792799319448 -0.13115630782849941 0 0.26140577643439422 -0.14332992145424359 0 0.2441250445765018 -0.1282891748563233 0 0.26250671304934198 -0.1171844924147165 0 0.25959792799319448 -0.13115630782849941 0 0.2441250445765018 -0.1282891748563233 0 0.26616743516329899 -0.16248611748055669 0 0.26140577643439422 -0.14332992145424359 0 0.26883056353995632 -0.15253713768717189 0 0.26140577643439422 -0.14332992145424359 0 0.2760714190023883 -0.1442202816071636 0 0.27744208016659549 -0.13995397779495439 0 0.27746834422487981 -0.157383776805052 0 0.26883056353995632 -0.15253713768717189 0 0.27327340453904758 -0.14909472247049649 0 0.27746834422487981 -0.157383776805052 0 0.27327340453904758 -0.14909472247049649 0 0.27944720334199591 -0.1510298305388795 0 0.27746834422487981 -0.157383776805052 0 0.27944720334199591 -0.1510298305388795 0 0.28543485155381138 -0.1532631785773593 0 0.27944720334199591 -0.1510298305388795 0 0.27867318395593788 -0.14678707333018209 0 0.28267306369304718 -0.14834113794059131 0 0.27327340453904758 -0.14909472247049649 0 0.27944720334199591 -0.1510298305388795 0 0.27867318395593788 -0.14678707333018209 0 0.27327340453904758 -0.14909472247049649 0 0.27867318395593788 -0.14678707333018209 0 0.2760714190023883 -0.1442202816071636 0 0.27867318395593788 -0.14678707333018209 0 0.28203705400801471 -0.14409361128278431 0 0.28267306369304718 -0.14834113794059131 0 0.27867318395593788 -0.14678707333018209 0 0.27862243637812423 -0.14384960257769991 0 0.2760714190023883 -0.1442202816071636 0 0.27867318395593788 -0.14678707333018209 0 0.27862243637812423 -0.14384960257769991 0 0.28203705400801471 -0.14409361128278431 0 0.27862243637812423 -0.14384960257769991 0 0.27744208016659549 -0.13995397779495439 0 0.28203705400801471 -0.14409361128278431 0 0.27862243637812423 -0.14384960257769991 0 0.2760714190023883 -0.1442202816071636 0 0.27744208016659549 -0.13995397779495439 0 0.2760714190023883 -0.1442202816071636 0 0.27744208016659549 -0.13995397779495439 0 0.26140577643439422 -0.14332992145424359 0 0.27327340453904758 -0.14909472247049649 0 0.2760714190023883 -0.1442202816071636 0 0.26140577643439422 -0.14332992145424359 0 0.26883056353995632 -0.15253713768717189 0 0.27327340453904758 -0.14909472247049649 0 0.26250671304934198 -0.1171844924147165 0 0.25959792799319448 -0.13115630782849941 0 0.27744208016659549 -0.13995397779495439 0 0.27500980117207829 -0.12155323577333579 0 0.26250671304934198 -0.1171844924147165 0 0.27744208016659549 -0.13995397779495439 0 0.28377904751550082 -0.12022960778689511 0 0.27500980117207829 -0.12155323577333579 0 0.27744208016659549 -0.13995397779495439 0 0.26250671304934198 -0.1171844924147165 0 0.27744208016659549 -0.13995397779495439 0 0.28377904751550082 -0.12022960778689511 0 0.27744208016659549 -0.13995397779495439 0 0.25959792799319448 -0.13115630782849941 0 0.26140577643439422 -0.14332992145424359 0 0.27744208016659549 -0.13995397779495439 0 0.28377904751550082 -0.12022960778689511 0 0.27744208016659549 -0.13995397779495439 0 0.28932323864627207 -0.13288207724771259 0 0.28377904751550082 -0.12022960778689511 0 0.28932323864627207 -0.13288207724771259 0 0.29867666688697703 -0.1272849549211697 0 0.28932323864627207 -0.13288207724771259 0 0.29298701750044082 -0.14249666764126889 0 0.28471550868115297 -0.14112277714418339 0 0.27744208016659549 -0.13995397779495439 0 0.28932323864627207 -0.13288207724771259 0 0.28471550868115297 -0.14112277714418339 0 0.28932323864627207 -0.13288207724771259 0 0.29298701750044082 -0.14249666764126889 0 0.30163685485285813 -0.1392931605370735 0 0.28932323864627207 -0.13288207724771259 0 0.30163685485285813 -0.1392931605370735 0 0.29867666688697703 -0.1272849549211697 0 0.29298701750044082 -0.14249666764126889 0 0.28777302560547591 -0.14653199597375141 0 0.29658698791447552 -0.15065635986343121 0 0.29298701750044082 -0.14249666764126889 0 0.28471550868115297 -0.14112277714418339 0 0.28777302560547591 -0.14653199597375141 0 0.28471550868115297 -0.14112277714418339 0 0.28203705400801471 -0.14409361128278431 0 0.28777302560547591 -0.14653199597375141 0 0.27744208016659549 -0.13995397779495439 0 0.28471550868115297 -0.14112277714418339 0 0.28203705400801471 -0.14409361128278431 0 0.28203705400801471 -0.14409361128278431 0 0.28267306369304718 -0.14834113794059131 0 0.28777302560547591 -0.14653199597375141 0 0.28267306369304718 -0.14834113794059131 0 0.28777302560547591 -0.14653199597375141 0 0.28543485155381138 -0.1532631785773593 0 0.27944720334199591 -0.1510298305388795 0 0.28267306369304718 -0.14834113794059131 0 0.28543485155381138 -0.1532631785773593 0 0.28543485155381138 -0.1532631785773593 0 0.29658698791447552 -0.15065635986343121 0 0.29083384063311041 -0.16291767632429169 0 0.28777302560547591 -0.14653199597375141 0 0.28543485155381138 -0.1532631785773593 0 0.29658698791447552 -0.15065635986343121 0 0.29658698791447552 -0.15065635986343121 0 0.30903803874224028 -0.154944676915485 0 0.29083384063311041 -0.16291767632429169 0 0.30903803874224028 -0.154944676915485 0 0.30163685485285813 -0.1392931605370735 0 0.31552056866096628 -0.14046660072871581 0 0.29658698791447552 -0.15065635986343121 0 0.30903803874224028 -0.154944676915485 0 0.30163685485285813 -0.1392931605370735 0 0.29298701750044082 -0.14249666764126889 0 0.29658698791447552 -0.15065635986343121 0 0.30163685485285813 -0.1392931605370735 0 0.30163685485285813 -0.1392931605370735 0 0.29867666688697703 -0.1272849549211697 0 0.31552056866096628 -0.14046660072871581 0 0.30701266551867318 -0.11795202584412939 0 0.31552056866096628 -0.14046660072871581 0 0.30701266551867318 -0.11795202584412939 0 0.29867666688697703 -0.1272849549211697 0 0.31552056866096628 -0.14046660072871581 0 0.29805932829815662 -0.18954203104115269 0 0.28309810934824442 -0.18139531770741171 0 0.30374566956112747 -0.172867968401477 0 0.28309810934824442 -0.18139531770741171 0 0.29083384063311041 -0.16291767632429169 0 0.30374566956112747 -0.172867968401477 0 0.27825348655266058 -0.16907893574793359 0 0.28309810934824442 -0.18139531770741171 0 0.29083384063311041 -0.16291767632429169 0 0.27746834422487981 -0.157383776805052 0 0.27825348655266058 -0.16907893574793359 0 0.29083384063311041 -0.16291767632429169 0 0.27746834422487981 -0.157383776805052 0 0.28543485155381138 -0.1532631785773593 0 0.29083384063311041 -0.16291767632429169 0 0.30903803874224028 -0.154944676915485 0 0.30374566956112747 -0.172867968401477 0 0.3240284718032595 -0.16298117561330211 0 0.30903803874224028 -0.154944676915485 0 0.29083384063311041 -0.16291767632429169 0 0.30374566956112747 -0.172867968401477 0 0.29805932829815662 -0.18954203104115269 0 0.30374566956112747 -0.172867968401477 0 0.31670590871501719 -0.18767809548444081 0 0.30374566956112747 -0.172867968401477 0 0.3240284718032595 -0.16298117561330211 0 0.31670590871501719 -0.18767809548444081 0 0.3240284718032595 -0.16298117561330211 0 0.33253637494555272 -0.18549575049788841 0 0.31670590871501719 -0.18767809548444081 0 0.3240284718032595 -0.16298117561330211 0 0.33799671017450289 -0.15427059616939481 0 0.34627497421775172 -0.16712500364912669 0 0.3240284718032595 -0.16298117561330211 0 0.33253637494555272 -0.18549575049788841 0 0.34627497421775172 -0.16712500364912669 0 0.34627497421775172 -0.16712500364912669 0 0.34011486294275067 -0.1930235804920396 0 0.33253637494555272 -0.18549575049788841 0 0.34627497421775172 -0.16712500364912669 0 0.34011486294275067 -0.1930235804920396 0 0.3240284718032595 -0.16298117561330211 0 0.33253637494555272 -0.18549575049788841 0 0.31552056866096628 -0.14046660072871581 0 0.32253171804754088 -0.12501427821952829 0 0.33350864076215958 -0.14068733778211151 0 0.30701266551867318 -0.11795202584412939 0 0.31552056866096628 -0.14046660072871581 0 0.32253171804754088 -0.12501427821952829 0 0.3240284718032595 -0.16298117561330211 0 0.31552056866096628 -0.14046660072871581 0 0.33350864076215958 -0.14068733778211151 0 0.3240284718032595 -0.16298117561330211 0 0.31552056866096628 -0.14046660072871581 0 0.30903803874224028 -0.154944676915485 0 0.3240284718032595 -0.16298117561330211 0 0.31552056866096628 -0.14046660072871581 0 0.3240284718032595 -0.16298117561330211 0 0.33799671017450289 -0.15427059616939481 0 0.33350864076215958 -0.14068733778211151 0 0.33799671017450289 -0.15427059616939481 0 0.33350864076215958 -0.14068733778211151 0 0.35233452294063261 -0.141202487244703 0 0.33350864076215958 -0.14068733778211151 0 0.34402529308911528 -0.13391297654823131 0 0.35233452294063261 -0.141202487244703 0 0.32253171804754088 -0.12501427821952829 0 0.33350864076215958 -0.14068733778211151 0 0.34004518790650529 -0.12527848050574 0 0.33350864076215958 -0.14068733778211151 0 0.34004518790650529 -0.12527848050574 0 0.34402529308911528 -0.13391297654823131 0 0.34004518790650529 -0.12527848050574 0 0.35606369033391522 -0.1259709067163762 0 0.34402529308911528 -0.13391297654823131 0 0.35606369033391522 -0.1259709067163762 0 0.34402529308911528 -0.13391297654823131 0 0.35233452294063261 -0.141202487244703 0 0.35606369033391522 -0.1259709067163762 0 0.35233452294063261 -0.141202487244703 0 0.33799671017450289 -0.15427059616939481 0 0.35233452294063261 -0.141202487244703 0 0.34627497421775172 -0.16712500364912669 0 0.35233452294063261 -0.141202487244703 0 0.34627497421775172 -0.16712500364912669 0 0.35233452294063261 -0.141202487244703 0 0.34627497421775172 -0.16712500364912669 0 0.36205375531824391 -0.1583193433668508 0 0.35233452294063261 -0.141202487244703 0 0.37378191529930621 -0.14944718128022591 0 0.37093785636814908 -0.13798691163813531 0 0.35233452294063261 -0.141202487244703 0 0.37378191529930621 -0.14944718128022591 0 0.36205375531824391 -0.1583193433668508 0 0.37378191529930621 -0.14944718128022591 0 0.36205375531824391 -0.1583193433668508 0 0.37308854109455708 -0.16093157526259191 0 0.35606369033391522 -0.1259709067163762 0 0.35233452294063261 -0.141202487244703 0 0.37093785636814908 -0.13798691163813531 0 0.35233452294063261 -0.141202487244703 0 0.37093785636814908 -0.13798691163813531 0 0.37980885755413418 -0.11928611433555709 0 0.36703358201424818 -0.1205643964158449 0 0.37093785636814908 -0.13798691163813531 0 0.36703358201424818 -0.1205643964158449 0 0.35606369033391522 -0.1259709067163762 0 0.37093785636814908 -0.13798691163813531 0 0.35440938842994413 -0.18403818521213361 0 0.34627497421775172 -0.16712500364912669 0 0.34011486294275067 -0.1930235804920396 0 0.35440938842994413 -0.18403818521213361 0 0.34627497421775172 -0.16712500364912669 0 0.36427806099096738 -0.1715772602872144 0 0.34627497421775172 -0.16712500364912669 0 0.36427806099096738 -0.1715772602872144 0 0.36205375531824391 -0.1583193433668508 0 0.36427806099096738 -0.1715772602872144 0 0.37308854109455708 -0.16093157526259191 0 0.38040919016197472 -0.17194589761299089 0 0.36427806099096738 -0.1715772602872144 0 0.36205375531824391 -0.1583193433668508 0 0.37308854109455708 -0.16093157526259191 0 0.36427806099096738 -0.1715772602872144 0 0.37230187155944527 -0.18410680502223259 0 0.38040919016197472 -0.17194589761299089 0 0.35440938842994413 -0.18403818521213361 0 0.36427806099096738 -0.1715772602872144 0 0.37230187155944527 -0.18410680502223259 0 0.37230187155944527 -0.18410680502223259 0 0.36943541324010287 -0.20186706000128449 0 0.35149154164174501 -0.20315574626222041 0 0.37230187155944527 -0.18410680502223259 0 0.36943541324010287 -0.20186706000128449 0 0.38044042972011022 -0.19453179374419641 0 0.37230187155944527 -0.18410680502223259 0 0.35149154164174501 -0.20315574626222041 0 0.35440938842994413 -0.18403818521213361 0 0.37230187155944527 -0.18410680502223259 0 0.35149154164174501 -0.20315574626222041 0 0.36366819524513028 -0.21031437113148671 0 0.35862104841248232 -0.2228308520016947 0 0.37925693361890289 -0.2120285714887051 0 0.36943541324010287 -0.20186706000128449 0 0.36366819524513028 -0.21031437113148671 0 0.35149154164174501 -0.20315574626222041 0 0.36943541324010287 -0.20186706000128449 0 0.36366819524513028 -0.21031437113148671 0 0.37925693361890289 -0.2120285714887051 0 0.35149154164174501 -0.20315574626222041 0 0.33068121172404469 -0.22220468750220829 0 0.35862104841248232 -0.2228308520016947 0 0.36366819524513028 -0.21031437113148671 0 0.35149154164174501 -0.20315574626222041 0 0.35862104841248232 -0.2228308520016947 0 0.35440938842994413 -0.18403818521213361 0 0.35149154164174501 -0.20315574626222041 0 0.34011486294275067 -0.1930235804920396 0 0.35149154164174501 -0.20315574626222041 0 0.34011486294275067 -0.1930235804920396 0 0.3308500388182079 -0.19477209315265531 0 0.35149154164174501 -0.20315574626222041 0 0.3308500388182079 -0.19477209315265531 0 0.32373992820587338 -0.20544181336631709 0 0.33253637494555272 -0.18549575049788841 0 0.34011486294275067 -0.1930235804920396 0 0.3308500388182079 -0.19477209315265531 0 0.35149154164174501 -0.20315574626222041 0 0.32373992820587338 -0.20544181336631709 0 0.33068121172404469 -0.22220468750220829 0 0.35149154164174501 -0.20315574626222041 0 0.33068121172404469 -0.22220468750220829 0 0.30379191605182437 -0.20471284840499179 0 0.31109634377457301 -0.22154997806035029 0 0.32373992820587338 -0.20544181336631709 0 0.31109634377457301 -0.22154997806035029 0 0.32373992820587338 -0.20544181336631709 0 0.33068121172404469 -0.22220468750220829 0 0.3308500388182079 -0.19477209315265531 0 0.32373992820587338 -0.20544181336631709 0 0.31670590871501719 -0.18767809548444081 0 0.33253637494555272 -0.18549575049788841 0 0.3308500388182079 -0.19477209315265531 0 0.31670590871501719 -0.18767809548444081 0 0.30379191605182437 -0.20471284840499179 0 0.32373992820587338 -0.20544181336631709 0 0.31670590871501719 -0.18767809548444081 0 0.30987088180634448 -0.24125362874219619 0 0.33627474799740559 -0.24529035195854479 0 0.32740146312166057 -0.2615598439342075 0 0.30987088180634448 -0.24125362874219619 0 0.33068121172404469 -0.22220468750220829 0 0.33627474799740559 -0.24529035195854479 0 0.31109634377457301 -0.22154997806035029 0 0.30987088180634448 -0.24125362874219619 0 0.33068121172404469 -0.22220468750220829 0 0.30987088180634448 -0.24125362874219619 0 0.33068121172404469 -0.22220468750220829 0 0.33068121172404469 -0.22220468750220829 0 0.33627474799740559 -0.24529035195854479 0 0.34620802689974478 -0.2341148902952345 0 0.33627474799740559 -0.24529035195854479 0 0.3592550994650468 -0.24613366971849041 0 0.34620802689974478 -0.2341148902952345 0 0.33068121172404469 -0.22220468750220829 0 0.34620802689974478 -0.2341148902952345 0 0.35862104841248232 -0.2228308520016947 0 0.3592550994650468 -0.24613366971849041 0 0.34620802689974478 -0.2341148902952345 0 0.35862104841248232 -0.2228308520016947 0 0.35862104841248232 -0.2228308520016947 0 0.37496953662933208 -0.22868277770556319 0 0.37925693361890289 -0.2120285714887051 0 0.3592550994650468 -0.24613366971849041 0 0.35862104841248232 -0.2228308520016947 0 0.37496953662933208 -0.22868277770556319 0 0.3592550994650468 -0.24613366971849041 0 0.37496953662933208 -0.22868277770556319 0 0.37997975350283419 -0.24239130628825581 0 0.3592550994650468 -0.24613366971849041 0 0.37997975350283419 -0.24239130628825581 0 0.37962897743813367 -0.25651992395937562 0 0.37997975350283419 -0.24239130628825581 0 0.39078422201957003 -0.24969070593678949 0 0.39374115574330237 -0.23275594279604889 0 0.37496953662933208 -0.22868277770556319 0 0.37997975350283419 -0.24239130628825581 0 0.39374115574330237 -0.23275594279604889 0 0.37997975350283419 -0.24239130628825581 0 0.39078422201957003 -0.24969070593678949 0 0.37962897743813367 -0.25651992395937562 0 0.39078422201957003 -0.24969070593678949 0 0.40271577749504128 -0.24808950568319249 0 0.39374115574330237 -0.23275594279604889 0 0.40271577749504128 -0.24808950568319249 0 0.39374115574330237 -0.23275594279604889 0 0.41071323046394659 -0.2405815597806012 0 0.39374115574330237 -0.23275594279604889 0 0.40098237452119001 -0.21274615241137729 0 0.41052741769560203 -0.22783696307390669 0 0.39374115574330237 -0.23275594279604889 0 0.41071323046394659 -0.2405815597806012 0 0.41052741769560203 -0.22783696307390669 0 0.39374115574330237 -0.23275594279604889 0 0.37925693361890289 -0.2120285714887051 0 0.40098237452119001 -0.21274615241137729 0 0.37496953662933208 -0.22868277770556319 0 0.39374115574330237 -0.23275594279604889 0 0.37925693361890289 -0.2120285714887051 0 0.36943541324010287 -0.20186706000128449 0 0.37925693361890289 -0.2120285714887051 0 0.38044042972011022 -0.19453179374419641 0 0.37925693361890289 -0.2120285714887051 0 0.38044042972011022 -0.19453179374419641 0 0.39584695818252569 -0.1933624959239181 0 0.38044042972011022 -0.19453179374419641 0 0.39584695818252569 -0.1933624959239181 0 0.3883302688968957 -0.18261969374673129 0 0.39584695818252569 -0.1933624959239181 0 0.40098237452119001 -0.21274615241137729 0 0.4098684358706004 -0.20142281071300391 0 0.39584695818252569 -0.1933624959239181 0 0.4098684358706004 -0.20142281071300391 0 0.41232050953237392 -0.17982343258281169 0 0.37925693361890289 -0.2120285714887051 0 0.39584695818252569 -0.1933624959239181 0 0.40098237452119001 -0.21274615241137729 0 0.41622029565463942 -0.21609362125780859 0 0.4098684358706004 -0.20142281071300391 0 0.4264315356173396 -0.20432849808395781 0 0.40098237452119001 -0.21274615241137729 0 0.41622029565463942 -0.21609362125780859 0 0.4098684358706004 -0.20142281071300391 0 0.4098684358706004 -0.20142281071300391 0 0.4264315356173396 -0.20432849808395781 0 0.41232050953237392 -0.17982343258281169 0 0.4264315356173396 -0.20432849808395781 0 0.41232050953237392 -0.17982343258281169 0 0.4264315356173396 -0.20432849808395781 0 0.43189275347364769 -0.18601108132065861 0 0.4422427041991972 -0.19293897445371649 0 0.4264315356173396 -0.20432849808395781 0 0.41232050953237392 -0.17982343258281169 0 0.43189275347364769 -0.18601108132065861 0 0.4264315356173396 -0.20432849808395781 0 0.44054256170230521 -0.22883356358510401 0 0.4264315356173396 -0.20432849808395781 0 0.42740075470870198 -0.2217522577010006 0 0.44054256170230521 -0.22883356358510401 0 0.41622029565463942 -0.21609362125780859 0 0.4264315356173396 -0.20432849808395781 0 0.42740075470870198 -0.2217522577010006 0 0.41622029565463942 -0.21609362125780859 0 0.42740075470870198 -0.2217522577010006 0 0.42211125551440248 -0.22847504556360529 0 0.42740075470870198 -0.2217522577010006 0 0.42211125551440248 -0.22847504556360529 0 0.43135414754850671 -0.23039238084196881 0 0.42211125551440248 -0.22847504556360529 0 0.42953670257014748 -0.23642300718324211 0 0.42008770906388448 -0.23759219001855961 0 0.42211125551440248 -0.22847504556360529 0 0.43135414754850671 -0.23039238084196881 0 0.42953670257014748 -0.23642300718324211 0 0.43135414754850671 -0.23039238084196881 0 0.43570292594701721 -0.2354153486954452 0 0.44054256170230521 -0.22883356358510401 0 0.42740075470870198 -0.2217522577010006 0 0.43135414754850671 -0.23039238084196881 0 0.44054256170230521 -0.22883356358510401 0 0.43135414754850671 -0.23039238084196881 0 0.43570292594701721 -0.2354153486954452 0 0.42953670257014748 -0.23642300718324211 0 0.43570292594701721 -0.2354153486954452 0 0.43468079386219632 -0.24191883787933049 0 0.44107348969050558 -0.240693309601615 0 0.43468079386219632 -0.24191883787933049 0 0.4271596561998503 -0.244205651647634 0 0.42953670257014748 -0.23642300718324211 0 0.43570292594701721 -0.2354153486954452 0 0.43468079386219632 -0.24191883787933049 0 0.42953670257014748 -0.23642300718324211 0 0.43292967301130941 -0.2488540036824014 0 0.43917511256413022 -0.2466480151322302 0 0.43871762778532231 -0.25212208882244802 0 0.43468079386219632 -0.24191883787933049 0 0.43292967301130941 -0.2488540036824014 0 0.43917511256413022 -0.2466480151322302 0 0.43468079386219632 -0.24191883787933049 0 0.43292967301130941 -0.2488540036824014 0 0.4271596561998503 -0.244205651647634 0 0.4271596561998503 -0.244205651647634 0 0.4190014546393992 -0.24696823138092139 0 0.42541254610488072 -0.25270056741268049 0 0.43292967301130941 -0.2488540036824014 0 0.4271596561998503 -0.244205651647634 0 0.42541254610488072 -0.25270056741268049 0 0.4271596561998503 -0.244205651647634 0 0.42008770906388448 -0.23759219001855961 0 0.4190014546393992 -0.24696823138092139 0 0.4271596561998503 -0.244205651647634 0 0.42953670257014748 -0.23642300718324211 0 0.42008770906388448 -0.23759219001855961 0 0.42008770906388448 -0.23759219001855961 0 0.4190014546393992 -0.24696823138092139 0 0.41071323046394659 -0.2405815597806012 0 0.4190014546393992 -0.24696823138092139 0 0.41071323046394659 -0.2405815597806012 0 0.41170531542548788 -0.25126417515390992 0 0.40271577749504128 -0.24808950568319249 0 0.41071323046394659 -0.2405815597806012 0 0.41170531542548788 -0.25126417515390992 0 0.42008770906388448 -0.23759219001855961 0 0.41071323046394659 -0.2405815597806012 0 0.41052741769560203 -0.22783696307390669 0 0.40098237452119001 -0.21274615241137729 0 0.41622029565463942 -0.21609362125780859 0 0.41052741769560203 -0.22783696307390669 0 0.41622029565463942 -0.21609362125780859 0 0.42211125551440248 -0.22847504556360529 0 0.41052741769560203 -0.22783696307390669 0 0.42211125551440248 -0.22847504556360529 0 0.42008770906388448 -0.23759219001855961 0 0.41052741769560203 -0.22783696307390669 0 0.38943037724261159 -0.1347904899183642 0 0.39869330261889507 -0.14602014112377221 0 0.41208161927757919 -0.13087523561031761 0 0.40724277249555002 -0.1192463337858536 0 0.38943037724261159 -0.1347904899183642 0 0.41208161927757919 -0.13087523561031761 0 0.38943037724261159 -0.1347904899183642 0 0.41208161927757919 -0.13087523561031761 0 0.37980885755413418 -0.11928611433555709 0 0.37093785636814908 -0.13798691163813531 0 0.38943037724261159 -0.1347904899183642 0 0.37093785636814908 -0.13798691163813531 0 0.38943037724261159 -0.1347904899183642 0 0.37378191529930621 -0.14944718128022591 0 0.38943037724261159 -0.1347904899183642 0 0.38491978370229318 -0.15336819376567751 0 0.38943037724261159 -0.1347904899183642 0 0.38491978370229318 -0.15336819376567751 0 0.37378191529930621 -0.14944718128022591 0 0.37093785636814908 -0.13798691163813531 0 0.38943037724261159 -0.1347904899183642 0 0.37378191529930621 -0.14944718128022591 0 0.37308854109455708 -0.16093157526259191 0 0.38491978370229318 -0.15336819376567751 0 0.39869330261889507 -0.14602014112377221 0 0.39311220147714548 -0.16505786378224471 0 0.41392253139484558 -0.14600892254225711 0 0.38491978370229318 -0.15336819376567751 0 0.39869330261889507 -0.14602014112377221 0 0.39311220147714548 -0.16505786378224471 0 0.38943037724261159 -0.1347904899183642 0 0.38491978370229318 -0.15336819376567751 0 0.39869330261889507 -0.14602014112377221 0 0.39311220147714548 -0.16505786378224471 0 0.41392253139484558 -0.14600892254225711 0 0.39311220147714548 -0.16505786378224471 0 0.41068030945659773 -0.16570921719709561 0 0.41392253139484558 -0.14600892254225711 0 0.39311220147714548 -0.16505786378224471 0 0.39994988354525202 -0.1760395102610646 0 0.41068030945659773 -0.16570921719709561 0 0.38491978370229318 -0.15336819376567751 0 0.39311220147714548 -0.16505786378224471 0 0.38040919016197472 -0.17194589761299089 0 0.37308854109455708 -0.16093157526259191 0 0.38491978370229318 -0.15336819376567751 0 0.38040919016197472 -0.17194589761299089 0 0.38491978370229318 -0.15336819376567751 0 0.38040919016197472 -0.17194589761299089 0 0.37230187155944527 -0.18410680502223259 0 0.39311220147714548 -0.16505786378224471 0 0.3883302688968957 -0.18261969374673129 0 0.37230187155944527 -0.18410680502223259 0 0.39311220147714548 -0.16505786378224471 0 0.38040919016197472 -0.17194589761299089 0 0.37230187155944527 -0.18410680502223259 0 0.38044042972011022 -0.19453179374419641 0 0.3883302688968957 -0.18261969374673129 0 0.37230187155944527 -0.18410680502223259 0 0.39311220147714548 -0.16505786378224471 0 0.39584695818252569 -0.1933624959239181 0 0.39994988354525202 -0.1760395102610646 0 0.41232050953237392 -0.17982343258281169 0 0.39584695818252569 -0.1933624959239181 0 0.3883302688968957 -0.18261969374673129 0 0.39994988354525202 -0.1760395102610646 0 0.39311220147714548 -0.16505786378224471 0 0.3883302688968957 -0.18261969374673129 0 0.39994988354525202 -0.1760395102610646 0 0.39994988354525202 -0.1760395102610646 0 0.41232050953237392 -0.17982343258281169 0 0.41068030945659773 -0.16570921719709561 0 0.41232050953237392 -0.17982343258281169 0 0.42257653670861861 -0.1716129151356913 0 0.41068030945659773 -0.16570921719709561 0 0.43189275347364769 -0.18601108132065861 0 0.42257653670861861 -0.1716129151356913 0 0.43412364138782639 -0.16920851808495629 0 0.43189275347364769 -0.18601108132065861 0 0.43412364138782639 -0.16920851808495629 0 0.44001273516831668 -0.1783764172762527 0 0.41232050953237392 -0.17982343258281169 0 0.43189275347364769 -0.18601108132065861 0 0.42257653670861861 -0.1716129151356913 0 0.43412364138782639 -0.16920851808495629 0 0.42386546969264721 -0.157312326492934 0 0.43988674428557012 -0.15629540566381109 0 0.42257653670861861 -0.1716129151356913 0 0.43412364138782639 -0.16920851808495629 0 0.42386546969264721 -0.157312326492934 0 0.42386546969264721 -0.157312326492934 0 0.41068030945659773 -0.16570921719709561 0 0.41392253139484558 -0.14600892254225711 0 0.42257653670861861 -0.1716129151356913 0 0.42386546969264721 -0.157312326492934 0 0.41068030945659773 -0.16570921719709561 0 0.39869330261889507 -0.14602014112377221 0 0.41392253139484558 -0.14600892254225711 0 0.41208161927757919 -0.13087523561031761 0 0.42386546969264721 -0.157312326492934 0 0.41392253139484558 -0.14600892254225711 0 0.43230421280140441 -0.1433416226119455 0 0.42386546969264721 -0.157312326492934 0 0.43230421280140441 -0.1433416226119455 0 0.43988674428557012 -0.15629540566381109 0 0.42661387223904329 -0.12098454377727109 0 0.43473286131254663 -0.1269599813022704 0 0.41208161927757919 -0.13087523561031761 0 0.41392253139484558 -0.14600892254225711 0 0.43230421280140441 -0.1433416226119455 0 0.43473286131254663 -0.1269599813022704 0 0.43230421280140441 -0.1433416226119455 0 0.43473286131254663 -0.1269599813022704 0 0.43648454183824659 -0.13175811878196239 0 0.41392253139484558 -0.14600892254225711 0 0.43473286131254663 -0.1269599813022704 0 0.43473286131254663 -0.1269599813022704 0 0.41208161927757919 -0.13087523561031761 0 0.43473286131254663 -0.1269599813022704 0 0.43652399803370612 -0.1266503843383173 0 0.43473286131254663 -0.1269599813022704 0 0.43652399803370612 -0.1266503843383173 0 0.43686479974981568 -0.1288436488615915 0 0.43473286131254663 -0.1269599813022704 0 0.43686479974981568 -0.1288436488615915 0 0.43648454183824659 -0.13175811878196239 0 0.41392253139484558 -0.14600892254225711 0 0.43473286131254663 -0.1269599813022704 0 0.41208161927757919 -0.13087523561031761 0 0.46233294642030121 -0.13029577410444981 0 0.4507048422038758 -0.1254569291466279 0 0.44969735458306581 -0.1318629992909984 0 0.46233294642030121 -0.13029577410444981 0 0.44969735458306581 -0.1318629992909984 0 0.44471813751157008 -0.14226443976851619 0 0.4507048422038758 -0.1254569291466279 0 0.44969735458306581 -0.1318629992909984 0 0.44103349219651622 -0.1294348541443999 0 0.43686479974981568 -0.1288436488615915 0 0.43648454183824659 -0.13175811878196239 0 0.44103349219651622 -0.1294348541443999 0 0.43652399803370612 -0.1266503843383173 0 0.43686479974981568 -0.1288436488615915 0 0.44103349219651622 -0.1294348541443999 0 0.44969735458306581 -0.1318629992909984 0 0.44103349219651622 -0.1294348541443999 0 0.44471813751157008 -0.14226443976851619 0 0.43648454183824659 -0.13175811878196239 0 0.44103349219651622 -0.1294348541443999 0 0.44471813751157008 -0.14226443976851619 0 0.43230421280140441 -0.1433416226119455 0 0.43648454183824659 -0.13175811878196239 0 0.44471813751157008 -0.14226443976851619 0 0.44471813751157008 -0.14226443976851619 0 0.45766723532789633 -0.15879666333412101 0 0.43988674428557012 -0.15629540566381109 0 0.43230421280140441 -0.1433416226119455 0 0.44471813751157008 -0.14226443976851619 0 0.43988674428557012 -0.15629540566381109 0 0.46233294642030121 -0.13029577410444981 0 0.45766723532789633 -0.15879666333412101 0 0.46233294642030121 -0.13029577410444981 0 0.45766723532789633 -0.15879666333412101 0 0.47903454186700689 -0.14491860817462909 0 0.46233294642030121 -0.13029577410444981 0 0.44471813751157008 -0.14226443976851619 0 0.45766723532789633 -0.15879666333412101 0 0.45766723532789633 -0.15879666333412101 0 0.43988674428557012 -0.15629540566381109 0 0.4458378175146181 -0.17411517349359901 0 0.43412364138782639 -0.16920851808495629 0 0.43988674428557012 -0.15629540566381109 0 0.4458378175146181 -0.17411517349359901 0 0.45766723532789633 -0.15879666333412101 0 0.4458378175146181 -0.17411517349359901 0 0.45300152423549178 -0.1872975525637923 0 0.43412364138782639 -0.16920851808495629 0 0.4458378175146181 -0.17411517349359901 0 0.44001273516831668 -0.1783764172762527 0 0.4458378175146181 -0.17411517349359901 0 0.44001273516831668 -0.1783764172762527 0 0.44489139372352893 -0.18154716366216431 0 0.43189275347364769 -0.18601108132065861 0 0.44001273516831668 -0.1783764172762527 0 0.4419738252115778 -0.1858134044909181 0 0.44001273516831668 -0.1783764172762527 0 0.44489139372352893 -0.18154716366216431 0 0.4419738252115778 -0.1858134044909181 0 0.4458378175146181 -0.17411517349359901 0 0.45051520093052061 -0.18628588467377419 0 0.45300152423549178 -0.1872975525637923 0 0.4458378175146181 -0.17411517349359901 0 0.44489139372352893 -0.18154716366216431 0 0.45051520093052061 -0.18628588467377419 0 0.44489139372352893 -0.18154716366216431 0 0.4419738252115778 -0.1858134044909181 0 0.45051520093052061 -0.18628588467377419 0 0.45051520093052061 -0.18628588467377419 0 0.45300152423549178 -0.1872975525637923 0 0.45766723532789633 -0.15879666333412101 0 0.45300152423549178 -0.1872975525637923 0 0.47602254605796679 -0.17263393053228049 0 0.45300152423549178 -0.1872975525637923 0 0.47602254605796679 -0.17263393053228049 0 0.47650076211774711 -0.19685923119094451 0 0.45766723532789633 -0.15879666333412101 0 0.45300152423549178 -0.1872975525637923 0 0.47602254605796679 -0.17263393053228049 0 0.5 -0.18210721193063359 0 0.47650076211774711 -0.19685923119094451 0 0.47602254605796679 -0.17263393053228049 0 0.5 -0.18210721193063359 0 0.5 -0.15779351404316869 0 0.47602254605796679 -0.17263393053228049 0 0.5 -0.15779351404316869 0 0.47903454186700689 -0.14491860817462909 0 0.45766723532789633 -0.15879666333412101 0 0.47602254605796679 -0.17263393053228049 0 0.47903454186700689 -0.14491860817462909 0 0.5 -0.15779351404316869 0 0.47903454186700689 -0.14491860817462909 0 0.5 -0.13347981615570359 0 0.47818452339587708 -0.1165119508780514 0 0.47903454186700689 -0.14491860817462909 0 0.5 -0.13347981615570359 0 0.47818452339587708 -0.1165119508780514 0 0.46233294642030121 -0.13029577410444981 0 0.47903454186700689 -0.14491860817462909 0 0.46031275976808328 -0.23316788994673901 0 0.45494703228505612 -0.22365309056703511 0 0.45215825402727128 -0.23076677405108431 0 0.46031275976808328 -0.23316788994673901 0 0.45530172715096351 -0.23784707953664069 0 0.45215825402727128 -0.23076677405108431 0 0.46031275976808328 -0.23316788994673901 0 0.45494703228505612 -0.22365309056703511 0 0.46412837801973811 -0.21929252942849389 0 0.46031275976808328 -0.23316788994673901 0 0.46412837801973811 -0.21929252942849389 0 0.47030631581894022 -0.23354799250188951 0 0.46031275976808328 -0.23316788994673901 0 0.46848515047489081 -0.24338241864882551 0 0.46066141885548939 -0.24148158248895141 0 0.46031275976808328 -0.23316788994673901 0 0.46848515047489081 -0.24338241864882551 0 0.47030631581894022 -0.23354799250188951 0 0.46848515047489081 -0.24338241864882551 0 0.47379426967759908 -0.2551161382871 0 0.45921282319897938 -0.25088534477896152 0 0.46848515047489081 -0.24338241864882551 0 0.46066141885548939 -0.24148158248895141 0 0.45921282319897938 -0.25088534477896152 0 0.46066141885548939 -0.24148158248895141 0 0.45530172715096351 -0.23784707953664069 0 0.45921282319897938 -0.25088534477896152 0 0.46031275976808328 -0.23316788994673901 0 0.46066141885548939 -0.24148158248895141 0 0.45530172715096351 -0.23784707953664069 0 0.44552755473851618 -0.24512414212957201 0 0.44054256170230521 -0.22883356358510401 0 0.45465358778727077 -0.25333862908624999 0 0.44416337990499422 -0.23293380641746719 0 0.45921282319897938 -0.25088534477896152 0 0.45465358778727077 -0.25333862908624999 0 0.45530172715096351 -0.23784707953664069 0 0.44416337990499422 -0.23293380641746719 0 0.45921282319897938 -0.25088534477896152 0 0.44054256170230521 -0.22883356358510401 0 0.44416337990499422 -0.23293380641746719 0 0.45465358778727077 -0.25333862908624999 0 0.44054256170230521 -0.22883356358510401 0 0.45465358778727077 -0.25333862908624999 0 0.44416337990499422 -0.23293380641746719 0 0.45921282319897938 -0.25088534477896152 0 0.44552755473851618 -0.24512414212957201 0 0.44107348969050558 -0.240693309601615 0 0.44054256170230521 -0.22883356358510401 0 0.44552755473851618 -0.24512414212957201 0 0.44412948591815982 -0.25166394159908168 0 0.44816248816364901 -0.25238097519102243 0 0.44247641072782801 -0.24603235211562469 0 0.43917511256413022 -0.2466480151322302 0 0.44412948591815982 -0.25166394159908168 0 0.44552755473851618 -0.24512414212957201 0 0.44247641072782801 -0.24603235211562469 0 0.44412948591815982 -0.25166394159908168 0 0.44552755473851618 -0.24512414212957201 0 0.44247641072782801 -0.24603235211562469 0 0.44107348969050558 -0.240693309601615 0 0.43468079386219632 -0.24191883787933049 0 0.43917511256413022 -0.2466480151322302 0 0.44107348969050558 -0.240693309601615 0 0.44247641072782801 -0.24603235211562469 0 0.43917511256413022 -0.2466480151322302 0 0.44107348969050558 -0.240693309601615 0 0.43570292594701721 -0.2354153486954452 0 0.44107348969050558 -0.240693309601615 0 0.44054256170230521 -0.22883356358510401 0 0.4264315356173396 -0.20432849808395781 0 0.44054256170230521 -0.22883356358510401 0 0.44673315619821857 -0.2255884067429007 0 0.44054256170230521 -0.22883356358510401 0 0.44416337990499422 -0.23293380641746719 0 0.44673315619821857 -0.2255884067429007 0 0.44416337990499422 -0.23293380641746719 0 0.45215825402727128 -0.23076677405108431 0 0.44673315619821857 -0.2255884067429007 0 0.45530172715096351 -0.23784707953664069 0 0.44416337990499422 -0.23293380641746719 0 0.45215825402727128 -0.23076677405108431 0 0.45494703228505612 -0.22365309056703511 0 0.45215825402727128 -0.23076677405108431 0 0.44673315619821857 -0.2255884067429007 0 0.4264315356173396 -0.20432849808395781 0 0.44673315619821857 -0.2255884067429007 0 0.44986734021685498 -0.20644297965334649 0 0.44673315619821857 -0.2255884067429007 0 0.44986734021685498 -0.20644297965334649 0 0.45494703228505612 -0.22365309056703511 0 0.44673315619821857 -0.2255884067429007 0 0.44986734021685498 -0.20644297965334649 0 0.45300152423549178 -0.1872975525637923 0 0.44986734021685498 -0.20644297965334649 0 0.4422427041991972 -0.19293897445371649 0 0.45300152423549178 -0.1872975525637923 0 0.44986734021685498 -0.20644297965334649 0 0.4264315356173396 -0.20432849808395781 0 0.44986734021685498 -0.20644297965334649 0 0.4422427041991972 -0.19293897445371649 0 0.43189275347364769 -0.18601108132065861 0 0.4419738252115778 -0.1858134044909181 0 0.4422427041991972 -0.19293897445371649 0 0.4419738252115778 -0.1858134044909181 0 0.45051520093052061 -0.18628588467377419 0 0.4422427041991972 -0.19293897445371649 0 0.45051520093052061 -0.18628588467377419 0 0.45300152423549178 -0.1872975525637923 0 0.4422427041991972 -0.19293897445371649 0 0.45300152423549178 -0.1872975525637923 0 0.47650076211774711 -0.19685923119094451 0 0.45300152423549178 -0.1872975525637923 0 0.44986734021685498 -0.20644297965334649 0 0.46374770476768601 -0.204378797979305 0 0.45300152423549178 -0.1872975525637923 0 0.46374770476768601 -0.204378797979305 0 0.47650076211774711 -0.19685923119094451 0 0.45494703228505612 -0.22365309056703511 0 0.46412837801973811 -0.21929252942849389 0 0.44986734021685498 -0.20644297965334649 0 0.46412837801973811 -0.21929252942849389 0 0.44986734021685498 -0.20644297965334649 0 0.46374770476768601 -0.204378797979305 0 0.46412837801973811 -0.21929252942849389 0 0.46374770476768601 -0.204378797979305 0 0.47707366821483449 -0.2120031562722216 0 0.46374770476768601 -0.204378797979305 0 0.47707366821483449 -0.2120031562722216 0 0.47650076211774711 -0.19685923119094451 0 0.47650076211774711 -0.19685923119094451 0 0.50000000000000155 -0.2064209098180986 0 0.5 -0.18210721193063359 0 0.47650076211774711 -0.19685923119094451 0 0.50000000000000155 -0.2064209098180986 0 0.50000000000000155 -0.2064209098180986 0 0.48970053883092229 -0.21844058073303951 0 0.5 -0.23051517486053599 0 0.47707366821483449 -0.2120031562722216 0 0.47650076211774711 -0.19685923119094451 0 0.50000000000000155 -0.2064209098180986 0 0.47707366821483449 -0.2120031562722216 0 0.50000000000000155 -0.2064209098180986 0 0.48970053883092229 -0.21844058073303951 0 0.48970053883092229 -0.21844058073303951 0 0.5 -0.23051517486053599 0 0.47892356359843868 -0.22663529354614381 0 0.5 -0.23051517486053599 0 0.47892356359843868 -0.22663529354614381 0 0.48037632353124621 -0.24431513348718631 0 0.47707366821483449 -0.2120031562722216 0 0.48970053883092229 -0.21844058073303951 0 0.47892356359843868 -0.22663529354614381 0 0.46412837801973811 -0.21929252942849389 0 0.47707366821483449 -0.2120031562722216 0 0.47892356359843868 -0.22663529354614381 0 0.46412837801973811 -0.21929252942849389 0 0.47892356359843868 -0.22663529354614381 0 0.47030631581894022 -0.23354799250188951 0 0.47892356359843868 -0.22663529354614381 0 0.47030631581894022 -0.23354799250188951 0 0.48037632353124621 -0.24431513348718631 0 0.46848515047489081 -0.24338241864882551 0 0.48037632353124621 -0.24431513348718631 0 0.47379426967759908 -0.2551161382871 0 0.46848515047489081 -0.24338241864882551 0 0.47030631581894022 -0.23354799250188951 0 0.48037632353124621 -0.24431513348718631 0 0.5 -0.23051517486053599 0 0.48037632353124621 -0.24431513348718631 0 0.5 -0.25460943990297341 0 0.48037632353124621 -0.24431513348718631 0 0.5 -0.25460943990297341 0 0.48801367558502928 -0.26571606475136661 0 0.50000000000000022 -0.27870370494541058 0 0.48801367558502928 -0.26571606475136661 0 0.48931170978694949 -0.28678842150195 0 0.5 -0.25460943990297341 0 0.50000000000000022 -0.27870370494541058 0 0.48801367558502928 -0.26571606475136661 0 0.47426226649296438 -0.26883688314045567 0 0.47311276962135179 -0.28508457281551508 0 0.48931170978694949 -0.28678842150195 0 0.48801367558502928 -0.26571606475136661 0 0.47426226649296438 -0.26883688314045567 0 0.48931170978694949 -0.28678842150195 0 0.47426226649296438 -0.26883688314045567 0 0.48931170978694949 -0.28678842150195 0 0.47426226649296438 -0.26883688314045567 0 0.47379426967759908 -0.2551161382871 0 0.45921282319897938 -0.25088534477896152 0 0.48037632353124621 -0.24431513348718631 0 0.48801367558502928 -0.26571606475136661 0 0.47379426967759908 -0.2551161382871 0 0.48801367558502928 -0.26571606475136661 0 0.47426226649296438 -0.26883688314045567 0 0.47379426967759908 -0.2551161382871 0 0.47426226649296438 -0.26883688314045567 0 0.45921282319897938 -0.25088534477896152 0 0.45867357026917482 -0.26750260605831883 0 0.45921282319897938 -0.25088534477896152 0 0.45465358778727077 -0.25333862908624999 0 0.45867357026917482 -0.26750260605831883 0 0.47426226649296438 -0.26883688314045567 0 0.45921282319897938 -0.25088534477896152 0 0.45465358778727077 -0.25333862908624999 0 0.45867357026917482 -0.26750260605831883 0 0.44833932421064931 -0.25939718794918609 0 0.47426226649296438 -0.26883688314045567 0 0.45867357026917482 -0.26750260605831883 0 0.47311276962135179 -0.28508457281551508 0 0.45867357026917482 -0.26750260605831883 0 0.45341190072698129 -0.28456089864454431 0 0.47311276962135179 -0.28508457281551508 0 0.45867357026917482 -0.26750260605831883 0 0.44699314029513348 -0.27052543302498011 0 0.44833932421064931 -0.25939718794918609 0 0.45867357026917482 -0.26750260605831883 0 0.44699314029513348 -0.27052543302498011 0 0.45341190072698129 -0.28456089864454431 0 0.44699314029513348 -0.27052543302498011 0 0.43919222284155002 -0.27830080619971909 0 0.45341190072698129 -0.28456089864454431 0 0.44699314029513348 -0.27052543302498011 0 0.4385944452063526 -0.26988256164274432 0 0.44171549930134968 -0.26335377754900008 0 0.44699314029513348 -0.27052543302498011 0 0.43919222284155002 -0.27830080619971909 0 0.4385944452063526 -0.26988256164274432 0 0.4385944452063526 -0.26988256164274432 0 0.44171549930134968 -0.26335377754900008 0 0.43505770238402619 -0.26461992241763038 0 0.44171549930134968 -0.26335377754900008 0 0.43505770238402619 -0.26461992241763038 0 0.43648606404966428 -0.25753784968455939 0 0.44171549930134968 -0.26335377754900008 0 0.4419947323052219 -0.25760620957214742 0 0.44833932421064931 -0.25939718794918609 0 0.44171549930134968 -0.26335377754900008 0 0.4419947323052219 -0.25760620957214742 0 0.43648606404966428 -0.25753784968455939 0 0.43871762778532231 -0.25212208882244802 0 0.4419947323052219 -0.25760620957214742 0 0.43648606404966428 -0.25753784968455939 0 0.43917511256413022 -0.2466480151322302 0 0.43871762778532231 -0.25212208882244802 0 0.44412948591815982 -0.25166394159908168 0 0.43871762778532231 -0.25212208882244802 0 0.44412948591815982 -0.25166394159908168 0 0.4419947323052219 -0.25760620957214742 0 0.44412948591815982 -0.25166394159908168 0 0.4419947323052219 -0.25760620957214742 0 0.44833932421064931 -0.25939718794918609 0 0.44552755473851618 -0.24512414212957201 0 0.45465358778727077 -0.25333862908624999 0 0.44816248816364901 -0.25238097519102243 0 0.44412948591815982 -0.25166394159908168 0 0.44816248816364901 -0.25238097519102243 0 0.44833932421064931 -0.25939718794918609 0 0.45465358778727077 -0.25333862908624999 0 0.44816248816364901 -0.25238097519102243 0 0.44833932421064931 -0.25939718794918609 0 0.44699314029513348 -0.27052543302498011 0 0.44171549930134968 -0.26335377754900008 0 0.44833932421064931 -0.25939718794918609 0 0.44647667656812801 -0.29965112561783208 0 0.45137615954030103 -0.31548320476916308 0 0.43444005925229529 -0.31032905382020182 0 0.44647667656812801 -0.29965112561783208 0 0.43234265414258233 -0.29853995875229639 0 0.43444005925229529 -0.31032905382020182 0 0.44647667656812801 -0.29965112561783208 0 0.43824437449043008 -0.28966145028223478 0 0.43234265414258233 -0.29853995875229639 0 0.43919222284155002 -0.27830080619971909 0 0.43824437449043008 -0.28966145028223478 0 0.45341190072698129 -0.28456089864454431 0 0.44647667656812801 -0.29965112561783208 0 0.43824437449043008 -0.28966145028223478 0 0.45341190072698129 -0.28456089864454431 0 0.45341190072698129 -0.28456089864454431 0 0.47034393466362562 -0.30113581313555698 0 0.47311276962135179 -0.28508457281551508 0 0.44647667656812801 -0.29965112561783208 0 0.45341190072698129 -0.28456089864454431 0 0.47034393466362562 -0.30113581313555698 0 0.44647667656812801 -0.29965112561783208 0 0.47034393466362562 -0.30113581313555698 0 0.45137615954030103 -0.31548320476916308 0 0.47034393466362562 -0.30113581313555698 0 0.45137615954030103 -0.31548320476916308 0 0.47034393466362562 -0.30113581313555698 0 0.48609801829406513 -0.30033747069297151 0 0.48569838996659448 -0.31355153071673758 0 0.47034393466362562 -0.30113581313555698 0 0.48931170978694949 -0.28678842150195 0 0.47034393466362562 -0.30113581313555698 0 0.48931170978694949 -0.28678842150195 0 0.48609801829406513 -0.30033747069297151 0 0.47034393466362562 -0.30113581313555698 0 0.47311276962135179 -0.28508457281551508 0 0.48931170978694949 -0.28678842150195 0 0.50000000000000022 -0.27870370494541058 0 0.48931170978694949 -0.28678842150195 0 0.50000000000000078 -0.29953781349142472 0 0.48931170978694949 -0.28678842150195 0 0.48609801829406513 -0.30033747069297151 0 0.50000000000000078 -0.29953781349142472 0 0.48931170978694949 -0.28678842150195 0 0.50000000000000078 -0.29953781349142472 0 0.50000000000000022 -0.27870370494541058 0 0.48931170978694949 -0.28678842150195 0 0.48609801829406513 -0.30033747069297151 0 0.50000000000000078 -0.29953781349142472 0 0.48569838996659448 -0.31355153071673758 0 0.50000000000000078 -0.29953781349142472 0 0.48569838996659448 -0.31355153071673758 0 0.5 -0.32898483254094879 0 0.48569838996659448 -0.31355153071673758 0 0.5 -0.32898483254094879 0 0.4688689480981888 -0.32767699473222389 0 0.5 -0.32898483254094879 0 0.4688689480981888 -0.32767699473222389 0 0.47786930722932619 -0.34789692042963721 0 0.47034393466362562 -0.30113581313555698 0 0.48569838996659448 -0.31355153071673758 0 0.4688689480981888 -0.32767699473222389 0 0.5 -0.35843185159047292 0 0.47350757658922271 -0.36952329647287657 0 0.48620898030354948 -0.37918006028240092 0 0.5 -0.32898483254094879 0 0.5 -0.35843185159047292 0 0.47786930722932619 -0.34789692042963721 0 0.47786930722932619 -0.34789692042963721 0 0.47350757658922271 -0.36952329647287657 0 0.4655023448943818 -0.35719392053603988 0 0.5 -0.35843185159047292 0 0.47786930722932619 -0.34789692042963721 0 0.47350757658922271 -0.36952329647287657 0 0.45861777817450511 -0.36868509019449441 0 0.46271268513135372 -0.37747780338012438 0 0.45189505467726382 -0.37680202485208381 0 0.45861777817450511 -0.36868509019449441 0 0.44976491938063418 -0.36654981963533051 0 0.45189505467726382 -0.37680202485208381 0 0.47350757658922271 -0.36952329647287657 0 0.45861777817450511 -0.36868509019449441 0 0.46271268513135372 -0.37747780338012438 0 0.47350757658922271 -0.36952329647287657 0 0.45861777817450511 -0.36868509019449441 0 0.4655023448943818 -0.35719392053603988 0 0.45861777817450511 -0.36868509019449441 0 0.45601593140111862 -0.35990106862703092 0 0.44976491938063418 -0.36654981963533051 0 0.45861777817450511 -0.36868509019449441 0 0.45601593140111862 -0.35990106862703092 0 0.4655023448943818 -0.35719392053603988 0 0.47786930722932619 -0.34789692042963721 0 0.4655023448943818 -0.35719392053603988 0 0.45483150576365328 -0.34688844598146529 0 0.45601593140111862 -0.35990106862703092 0 0.4655023448943818 -0.35719392053603988 0 0.45483150576365328 -0.34688844598146529 0 0.45483150576365328 -0.34688844598146529 0 0.44020278747438729 -0.34510251360014332 0 0.44674619010751909 -0.35809924702175239 0 0.44020278747438729 -0.34510251360014332 0 0.43833245073232718 -0.35667994920926999 0 0.44674619010751909 -0.35809924702175239 0 0.45601593140111862 -0.35990106862703092 0 0.45483150576365328 -0.34688844598146529 0 0.44674619010751909 -0.35809924702175239 0 0.44674619010751909 -0.35809924702175239 0 0.44976491938063418 -0.36654981963533051 0 0.4432564460600979 -0.36443112509465042 0 0.45601593140111862 -0.35990106862703092 0 0.44674619010751909 -0.35809924702175239 0 0.44976491938063418 -0.36654981963533051 0 0.43833245073232718 -0.35667994920926999 0 0.44674619010751909 -0.35809924702175239 0 0.4432564460600979 -0.36443112509465042 0 0.43833245073232718 -0.35667994920926999 0 0.4432564460600979 -0.36443112509465042 0 0.43792231759094602 -0.36891862507496959 0 0.44976491938063418 -0.36654981963533051 0 0.4432564460600979 -0.36443112509465042 0 0.44173316381622191 -0.37123334486501253 0 0.4432564460600979 -0.36443112509465042 0 0.43792231759094602 -0.36891862507496959 0 0.44173316381622191 -0.37123334486501253 0 0.44976491938063418 -0.36654981963533051 0 0.44173316381622191 -0.37123334486501253 0 0.45189505467726382 -0.37680202485208381 0 0.4688689480981888 -0.32767699473222389 0 0.44744827938524201 -0.33285238680196422 0 0.45137615954030103 -0.31548320476916308 0 0.47034393466362562 -0.30113581313555698 0 0.4688689480981888 -0.32767699473222389 0 0.45137615954030103 -0.31548320476916308 0 0.4688689480981888 -0.32767699473222389 0 0.45483150576365328 -0.34688844598146529 0 0.44744827938524201 -0.33285238680196422 0 0.4688689480981888 -0.32767699473222389 0 0.47786930722932619 -0.34789692042963721 0 0.45483150576365328 -0.34688844598146529 0 0.45483150576365328 -0.34688844598146529 0 0.44020278747438729 -0.34510251360014332 0 0.44744827938524201 -0.33285238680196422 0 0.44020278747438729 -0.34510251360014332 0 0.44744827938524201 -0.33285238680196422 0 0.43240838441697632 -0.3298305964027694 0 0.45137615954030103 -0.31548320476916308 0 0.43240838441697632 -0.3298305964027694 0 0.43444005925229529 -0.31032905382020182 0 0.44744827938524201 -0.33285238680196422 0 0.45137615954030103 -0.31548320476916308 0 0.43240838441697632 -0.3298305964027694 0 0.45137615954030103 -0.31548320476916308 0 0.43240838441697632 -0.3298305964027694 0 0.42213808355103849 -0.31598854483820238 0 0.43240838441697632 -0.3298305964027694 0 0.43444005925229529 -0.31032905382020182 0 0.42213808355103849 -0.31598854483820238 0 0.43240838441697632 -0.3298305964027694 0 0.42063894984562838 -0.32794228428963068 0 0.43240838441697632 -0.3298305964027694 0 0.42063894984562838 -0.32794228428963068 0 0.42353451242868528 -0.3468482352548341 0 0.44020278747438729 -0.34510251360014332 0 0.43240838441697632 -0.3298305964027694 0 0.42353451242868528 -0.3468482352548341 0 0.4091467072664246 -0.32477784543469868 0 0.42353451242868528 -0.3468482352548341 0 0.4091467072664246 -0.32477784543469868 0 0.42063894984562838 -0.32794228428963068 0 0.42353451242868528 -0.3468482352548341 0 0.41089111725139721 -0.34269856142925859 0 0.4091467072664246 -0.32477784543469868 0 0.42353451242868528 -0.3468482352548341 0 0.41089111725139721 -0.34269856142925859 0 0.4091467072664246 -0.32477784543469868 0 0.40425152475925441 -0.33267251048098129 0 0.4091467072664246 -0.32477784543469868 0 0.41500843607520332 -0.31765864762852652 0 0.40782856937156858 -0.30992265774813338 0 0.42213808355103849 -0.31598854483820238 0 0.41500843607520332 -0.31765864762852652 0 0.41528987034135628 -0.30966190583196729 0 0.4091467072664246 -0.32477784543469868 0 0.41500843607520332 -0.31765864762852652 0 0.42063894984562838 -0.32794228428963068 0 0.42213808355103849 -0.31598854483820238 0 0.41500843607520332 -0.31765864762852652 0 0.42063894984562838 -0.32794228428963068 0 0.43792231759094602 -0.36891862507496959 0 0.42718561209050382 -0.36319872422350041 0 0.42353451242868528 -0.3468482352548341 0 0.43792231759094602 -0.36891862507496959 0 0.44173316381622191 -0.37123334486501253 0 0.43018656974337233 -0.3834847830435818 0 0.43792231759094602 -0.36891862507496959 0 0.42661372489006832 -0.37330916830292271 0 0.42718561209050382 -0.36319872422350041 0 0.42661372489006832 -0.37330916830292271 0 0.42718561209050382 -0.36319872422350041 0 0.42067189345231581 -0.36371886826127509 0 0.43792231759094602 -0.36891862507496959 0 0.42353451242868528 -0.3468482352548341 0 0.42718561209050382 -0.36319872422350041 0 0.42353451242868528 -0.3468482352548341 0 0.42067189345231581 -0.36371886826127509 0 0.43833245073232718 -0.35667994920926999 0 0.43792231759094602 -0.36891862507496959 0 0.42353451242868528 -0.3468482352548341 0 0.44020278747438729 -0.34510251360014332 0 0.43833245073232718 -0.35667994920926999 0 0.42353451242868528 -0.3468482352548341 0 0.42353451242868528 -0.3468482352548341 0 0.41118608239640281 -0.35773278074769221 0 0.42067189345231581 -0.36371886826127509 0 0.41089111725139721 -0.34269856142925859 0 0.42353451242868528 -0.3468482352548341 0 0.41118608239640281 -0.35773278074769221 0 0.41089111725139721 -0.34269856142925859 0 0.41118608239640281 -0.35773278074769221 0 0.40345194384414051 -0.35159281539693271 0 0.42661372489006832 -0.37330916830292271 0 0.42067189345231581 -0.36371886826127509 0 0.40978735765452701 -0.3715350174533486 0 0.41118608239640281 -0.35773278074769221 0 0.42067189345231581 -0.36371886826127509 0 0.40978735765452701 -0.3715350174533486 0 0.39634156242657448 -0.36307978873527152 0 0.40109715774397792 -0.38275058451944882 0 0.38240798480570892 -0.37852010314408679 0 0.40978735765452701 -0.3715350174533486 0 0.39634156242657448 -0.36307978873527152 0 0.40109715774397792 -0.38275058451944882 0 0.41118608239640281 -0.35773278074769221 0 0.40978735765452701 -0.3715350174533486 0 0.39634156242657448 -0.36307978873527152 0 0.39634156242657448 -0.36307978873527152 0 0.40345194384414051 -0.35159281539693271 0 0.39209624447111568 -0.34275609473116092 0 0.41118608239640281 -0.35773278074769221 0 0.39634156242657448 -0.36307978873527152 0 0.40345194384414051 -0.35159281539693271 0 0.40345194384414051 -0.35159281539693271 0 0.40267270758147689 -0.34242999550958342 0 0.39209624447111568 -0.34275609473116092 0 0.41089111725139721 -0.34269856142925859 0 0.40345194384414051 -0.35159281539693271 0 0.40267270758147689 -0.34242999550958342 0 0.39634156242657448 -0.36307978873527152 0 0.37618485313497191 -0.35303141813195599 0 0.39209624447111568 -0.34275609473116092 0 0.39634156242657448 -0.36307978873527152 0 0.37618485313497191 -0.35303141813195599 0 0.38240798480570892 -0.37852010314408679 0 0.37618485313497191 -0.35303141813195599 0 0.38240798480570892 -0.37852010314408679 0 0.40425152475925441 -0.33267251048098129 0 0.39300241843570249 -0.3110378002903586 0 0.4091467072664246 -0.32477784543469868 0 0.39300241843570249 -0.3110378002903586 0 0.39475890210416392 -0.30270745561456308 0 0.4091467072664246 -0.32477784543469868 0 0.39475890210416392 -0.30270745561456308 0 0.4091467072664246 -0.32477784543469868 0 0.40425152475925441 -0.33267251048098129 0 0.39300241843570249 -0.3110378002903586 0 0.40425152475925441 -0.33267251048098129 0 0.38822804294015112 -0.3261114208869455 0 0.39300241843570249 -0.3110378002903586 0 0.40425152475925441 -0.33267251048098129 0 0.39209624447111568 -0.34275609473116092 0 0.38822804294015112 -0.3261114208869455 0 0.40425152475925441 -0.33267251048098129 0 0.40267270758147689 -0.34242999550958342 0 0.39209624447111568 -0.34275609473116092 0 0.41089111725139721 -0.34269856142925859 0 0.40425152475925441 -0.33267251048098129 0 0.40267270758147689 -0.34242999550958342 0 0.37618485313497191 -0.35303141813195599 0 0.39209624447111568 -0.34275609473116092 0 0.36996172146423478 -0.32754273311982529 0 0.39209624447111568 -0.34275609473116092 0 0.38822804294015112 -0.3261114208869455 0 0.36996172146423478 -0.32754273311982529 0 0.38822804294015112 -0.3261114208869455 0 0.38164260336710232 -0.31615744579396521 0 0.36996172146423478 -0.32754273311982529 0 0.38822804294015112 -0.3261114208869455 0 0.38164260336710232 -0.31615744579396521 0 0.39300241843570249 -0.3110378002903586 0 0.38177106400017391 -0.30862132669022929 0 0.38029466251644028 -0.29986647237510811 0 0.37214457168145071 -0.30742358830148531 0 0.39300241843570249 -0.3110378002903586 0 0.38175331211215058 -0.28940309009973592 0 0.38164260336710232 -0.31615744579396521 0 0.38177106400017391 -0.30862132669022929 0 0.37214457168145071 -0.30742358830148531 0 0.39300241843570249 -0.3110378002903586 0 0.39475890210416392 -0.30270745561456308 0 0.38175331211215058 -0.28940309009973592 0 0.38029466251644028 -0.29986647237510811 0 0.39300241843570249 -0.3110378002903586 0 0.38175331211215058 -0.28940309009973592 0 0.38164260336710232 -0.31615744579396521 0 0.38177106400017391 -0.30862132669022929 0 0.39300241843570249 -0.3110378002903586 0 0.38177106400017391 -0.30862132669022929 0 0.38029466251644028 -0.29986647237510811 0 0.39300241843570249 -0.3110378002903586 0 0.4091467072664246 -0.32477784543469868 0 0.39475890210416392 -0.30270745561456308 0 0.40782856937156858 -0.30992265774813338 0 0.39475890210416392 -0.30270745561456308 0 0.40429755200803852 -0.3015310211561289 0 0.40149673409666831 -0.29605944040816118 0 0.40429755200803852 -0.3015310211561289 0 0.40149673409666831 -0.29605944040816118 0 0.40808526015628949 -0.29523915444325732 0 0.39475890210416392 -0.30270745561456308 0 0.40429755200803852 -0.3015310211561289 0 0.40782856937156858 -0.30992265774813338 0 0.39475890210416392 -0.30270745561456308 0 0.39730188346755718 -0.29161135963752222 0 0.39142402894447709 -0.286435042888317 0 0.40304007274729231 -0.28920821118933449 0 0.39763996789025002 -0.28367275964584732 0 0.40506285170047662 -0.28083922749534462 0 0.40304007274729231 -0.28920821118933449 0 0.39730188346755718 -0.29161135963752222 0 0.39763996789025002 -0.28367275964584732 0 0.40304007274729231 -0.28920821118933449 0 0.40149673409666831 -0.29605944040816118 0 0.40808526015628949 -0.29523915444325732 0 0.40304007274729231 -0.28920821118933449 0 0.40149673409666831 -0.29605944040816118 0 0.39730188346755718 -0.29161135963752222 0 0.39475890210416392 -0.30270745561456308 0 0.40149673409666831 -0.29605944040816118 0 0.39730188346755718 -0.29161135963752222 0 0.39763996789025002 -0.28367275964584732 0 0.39142402894447709 -0.286435042888317 0 0.39195529533629442 -0.27806131115557092 0 0.39730188346755718 -0.29161135963752222 0 0.39763996789025002 -0.28367275964584732 0 0.39142402894447709 -0.286435042888317 0 0.39475890210416392 -0.30270745561456308 0 0.38037109694190308 -0.28063706579442749 0 0.39475890210416392 -0.30270745561456308 0 0.38175331211215058 -0.28940309009973592 0 0.38037109694190308 -0.28063706579442749 0 0.39142402894447709 -0.286435042888317 0 0.38037109694190308 -0.28063706579442749 0 0.38713910380081668 -0.27916368249890622 0 0.39475890210416392 -0.30270745561456308 0 0.39142402894447709 -0.286435042888317 0 0.38037109694190308 -0.28063706579442749 0 0.38029466251644028 -0.29986647237510811 0 0.38175331211215058 -0.28940309009973592 0 0.37093408616543422 -0.29499190654120538 0 0.38175331211215058 -0.28940309009973592 0 0.37050420578859872 -0.26776837990911312 0 0.38175331211215058 -0.28940309009973592 0 0.38037109694190308 -0.28063706579442749 0 0.37050420578859872 -0.26776837990911312 0 0.38037109694190308 -0.28063706579442749 0 0.38480599398059251 -0.27152131015730951 0 0.37050420578859872 -0.26776837990911312 0 0.38480599398059251 -0.27152131015730951 0 0.39244458987216091 -0.26161417174629581 0 0.39261010037049587 -0.27136451795379868 0 0.38037109694190308 -0.28063706579442749 0 0.38480599398059251 -0.27152131015730951 0 0.38713910380081668 -0.27916368249890622 0 0.38480599398059251 -0.27152131015730951 0 0.38713910380081668 -0.27916368249890622 0 0.39195529533629442 -0.27806131115557092 0 0.39142402894447709 -0.286435042888317 0 0.38713910380081668 -0.27916368249890622 0 0.39195529533629442 -0.27806131115557092 0 0.38480599398059251 -0.27152131015730951 0 0.39195529533629442 -0.27806131115557092 0 0.39261010037049587 -0.27136451795379868 0 0.38480599398059251 -0.27152131015730951 0 0.37962897743813367 -0.25651992395937562 0 0.37050420578859872 -0.26776837990911312 0 0.38480599398059251 -0.27152131015730951 0 0.37962897743813367 -0.25651992395937562 0 0.39244458987216091 -0.26161417174629581 0 0.39078422201957003 -0.24969070593678949 0 0.37962897743813367 -0.25651992395937562 0 0.39244458987216091 -0.26161417174629581 0 0.39078422201957003 -0.24969070593678949 0 0.39244458987216091 -0.26161417174629581 0 0.40410575785193181 -0.25828851936103481 0 0.39244458987216091 -0.26161417174629581 0 0.40410575785193181 -0.25828851936103481 0 0.39822211595326279 -0.26692182407365989 0 0.40410575785193181 -0.25828851936103481 0 0.39822211595326279 -0.26692182407365989 0 0.40492140044583741 -0.26790783212078467 0 0.40410575785193181 -0.25828851936103481 0 0.40492140044583741 -0.26790783212078467 0 0.40945290732670331 -0.26396052327947239 0 0.39078422201957003 -0.24969070593678949 0 0.40271577749504128 -0.24808950568319249 0 0.40410575785193181 -0.25828851936103481 0 0.40271577749504128 -0.24808950568319249 0 0.40410575785193181 -0.25828851936103481 0 0.41170531542548788 -0.25126417515390992 0 0.39763996789025002 -0.28367275964584732 0 0.39195529533629442 -0.27806131115557092 0 0.39894115351181969 -0.27424944313259708 0 0.39195529533629442 -0.27806131115557092 0 0.39261010037049587 -0.27136451795379868 0 0.39894115351181969 -0.27424944313259708 0 0.39244458987216091 -0.26161417174629581 0 0.39261010037049587 -0.27136451795379868 0 0.39822211595326279 -0.26692182407365989 0 0.39261010037049587 -0.27136451795379868 0 0.39822211595326279 -0.26692182407365989 0 0.39894115351181969 -0.27424944313259708 0 0.39822211595326279 -0.26692182407365989 0 0.40492140044583741 -0.26790783212078467 0 0.39894115351181969 -0.27424944313259708 0 0.40492140044583741 -0.26790783212078467 0 0.39894115351181969 -0.27424944313259708 0 0.40712920685057652 -0.27420612675110112 0 0.39763996789025002 -0.28367275964584732 0 0.39894115351181969 -0.27424944313259708 0 0.40506285170047662 -0.28083922749534462 0 0.39894115351181969 -0.27424944313259708 0 0.40506285170047662 -0.28083922749534462 0 0.40712920685057652 -0.27420612675110112 0 0.40506285170047662 -0.28083922749534462 0 0.41284697370079432 -0.2782971556212297 0 0.40712920685057652 -0.27420612675110112 0 0.41284697370079432 -0.2782971556212297 0 0.40712920685057652 -0.27420612675110112 0 0.41387365489395472 -0.26973697538554919 0 0.40492140044583741 -0.26790783212078467 0 0.41387365489395472 -0.26973697538554919 0 0.40945290732670331 -0.26396052327947239 0 0.40492140044583741 -0.26790783212078467 0 0.40712920685057652 -0.27420612675110112 0 0.41387365489395472 -0.26973697538554919 0 0.41387365489395472 -0.26973697538554919 0 0.42135307316749521 -0.27487684751024949 0 0.42100146315739412 -0.26552033609670711 0 0.41284697370079432 -0.2782971556212297 0 0.41387365489395472 -0.26973697538554919 0 0.42135307316749521 -0.27487684751024949 0 0.41284697370079432 -0.2782971556212297 0 0.42135307316749521 -0.27487684751024949 0 0.41975251852593748 -0.28445801958006911 0 0.40410575785193181 -0.25828851936103481 0 0.41170531542548788 -0.25126417515390992 0 0.41491081611508918 -0.25990876625052101 0 0.40410575785193181 -0.25828851936103481 0 0.40945290732670331 -0.26396052327947239 0 0.41491081611508918 -0.25990876625052101 0 0.41387365489395472 -0.26973697538554919 0 0.40945290732670331 -0.26396052327947239 0 0.41491081611508918 -0.25990876625052101 0 0.41387365489395472 -0.26973697538554919 0 0.42100146315739412 -0.26552033609670711 0 0.41491081611508918 -0.25990876625052101 0 0.42100146315739412 -0.26552033609670711 0 0.42163465399116667 -0.25872199059074641 0 0.41491081611508918 -0.25990876625052101 0 0.41170531542548788 -0.25126417515390992 0 0.41491081611508918 -0.25990876625052101 0 0.41853295725520467 -0.25391274615775578 0 0.42163465399116667 -0.25872199059074641 0 0.41491081611508918 -0.25990876625052101 0 0.41853295725520467 -0.25391274615775578 0 0.42163465399116667 -0.25872199059074641 0 0.41853295725520467 -0.25391274615775578 0 0.42541254610488072 -0.25270056741268049 0 0.4190014546393992 -0.24696823138092139 0 0.41853295725520467 -0.25391274615775578 0 0.42541254610488072 -0.25270056741268049 0 0.4190014546393992 -0.24696823138092139 0 0.41170531542548788 -0.25126417515390992 0 0.41853295725520467 -0.25391274615775578 0 0.42163465399116667 -0.25872199059074641 0 0.42541254610488072 -0.25270056741268049 0 0.42845093672784768 -0.26136295507116752 0 0.42541254610488072 -0.25270056741268049 0 0.42845093672784768 -0.26136295507116752 0 0.43126889086453951 -0.25455984543500237 0 0.42100146315739412 -0.26552033609670711 0 0.42163465399116667 -0.25872199059074641 0 0.42845093672784768 -0.26136295507116752 0 0.42845093672784768 -0.26136295507116752 0 0.43505770238402619 -0.26461992241763038 0 0.43648606404966428 -0.25753784968455939 0 0.42845093672784768 -0.26136295507116752 0 0.43505770238402619 -0.26461992241763038 0 0.43027170394141367 -0.27054512142908671 0 0.42845093672784768 -0.26136295507116752 0 0.43126889086453951 -0.25455984543500237 0 0.43648606404966428 -0.25753784968455939 0 0.43871762778532231 -0.25212208882244802 0 0.43126889086453951 -0.25455984543500237 0 0.43648606404966428 -0.25753784968455939 0 0.43292967301130941 -0.2488540036824014 0 0.43871762778532231 -0.25212208882244802 0 0.43126889086453951 -0.25455984543500237 0 0.43292967301130941 -0.2488540036824014 0 0.42541254610488072 -0.25270056741268049 0 0.43126889086453951 -0.25455984543500237 0 0.42135307316749521 -0.27487684751024949 0 0.42956799811030638 -0.28148515248710693 0 0.41975251852593748 -0.28445801958006911 0 0.42135307316749521 -0.27487684751024949 0 0.43027170394141367 -0.27054512142908671 0 0.42956799811030638 -0.28148515248710693 0 0.42135307316749521 -0.27487684751024949 0 0.42100146315739412 -0.26552033609670711 0 0.43027170394141367 -0.27054512142908671 0 0.42100146315739412 -0.26552033609670711 0 0.42845093672784768 -0.26136295507116752 0 0.43027170394141367 -0.27054512142908671 0 0.43919222284155002 -0.27830080619971909 0 0.4385944452063526 -0.26988256164274432 0 0.43027170394141367 -0.27054512142908671 0 0.4385944452063526 -0.26988256164274432 0 0.43505770238402619 -0.26461992241763038 0 0.43027170394141367 -0.27054512142908671 0 0.43919222284155002 -0.27830080619971909 0 0.43027170394141367 -0.27054512142908671 0 0.42956799811030638 -0.28148515248710693 0 0.43824437449043008 -0.28966145028223478 0 0.42956799811030638 -0.28148515248710693 0 0.42651213435721103 -0.29151489344350012 0 0.43919222284155002 -0.27830080619971909 0 0.43824437449043008 -0.28966145028223478 0 0.42956799811030638 -0.28148515248710693 0 0.42956799811030638 -0.28148515248710693 0 0.42651213435721103 -0.29151489344350012 0 0.41975251852593748 -0.28445801958006911 0 0.42651213435721103 -0.29151489344350012 0 0.42265725367426682 -0.30260234616053761 0 0.41710028749217543 -0.29373719746223742 0 0.43824437449043008 -0.28966145028223478 0 0.42651213435721103 -0.29151489344350012 0 0.43234265414258233 -0.29853995875229639 0 0.43234265414258233 -0.29853995875229639 0 0.43444005925229529 -0.31032905382020182 0 0.42265725367426682 -0.30260234616053761 0 0.42213808355103849 -0.31598854483820238 0 0.43444005925229529 -0.31032905382020182 0 0.42265725367426682 -0.30260234616053761 0 0.42651213435721103 -0.29151489344350012 0 0.43234265414258233 -0.29853995875229639 0 0.42265725367426682 -0.30260234616053761 0 0.42265725367426682 -0.30260234616053761 0 0.41237795257390419 -0.3022181237121867 0 0.41710028749217543 -0.29373719746223742 0 0.42213808355103849 -0.31598854483820238 0 0.42265725367426682 -0.30260234616053761 0 0.41528987034135628 -0.30966190583196729 0 0.42265725367426682 -0.30260234616053761 0 0.41528987034135628 -0.30966190583196729 0 0.41237795257390419 -0.3022181237121867 0 0.41500843607520332 -0.31765864762852652 0 0.41528987034135628 -0.30966190583196729 0 0.40782856937156858 -0.30992265774813338 0 0.41528987034135628 -0.30966190583196729 0 0.40782856937156858 -0.30992265774813338 0 0.41237795257390419 -0.3022181237121867 0 0.40429755200803852 -0.3015310211561289 0 0.41237795257390419 -0.3022181237121867 0 0.40808526015628949 -0.29523915444325732 0 0.41237795257390419 -0.3022181237121867 0 0.40808526015628949 -0.29523915444325732 0 0.41710028749217543 -0.29373719746223742 0 0.40429755200803852 -0.3015310211561289 0 0.40782856937156858 -0.30992265774813338 0 0.41237795257390419 -0.3022181237121867 0 0.40808526015628949 -0.29523915444325732 0 0.41113464432764291 -0.28683687095609128 0 0.41710028749217543 -0.29373719746223742 0 0.40304007274729231 -0.28920821118933449 0 0.40808526015628949 -0.29523915444325732 0 0.41113464432764291 -0.28683687095609128 0 0.40304007274729231 -0.28920821118933449 0 0.40506285170047662 -0.28083922749534462 0 0.41113464432764291 -0.28683687095609128 0 0.40506285170047662 -0.28083922749534462 0 0.41284697370079432 -0.2782971556212297 0 0.41113464432764291 -0.28683687095609128 0 0.41284697370079432 -0.2782971556212297 0 0.41113464432764291 -0.28683687095609128 0 0.41975251852593748 -0.28445801958006911 0 0.41113464432764291 -0.28683687095609128 0 0.41975251852593748 -0.28445801958006911 0 0.41710028749217543 -0.29373719746223742 0 0.42651213435721103 -0.29151489344350012 0 0.41975251852593748 -0.28445801958006911 0 0.41710028749217543 -0.29373719746223742 0 0.44904225237101492 -0.50000000000000033 0 0.45004401508161579 -0.4787570704506926 0 0.43421240961939139 -0.49999999999999972 0 0.44904225237101492 -0.50000000000000033 0 0.45004401508161579 -0.4787570704506926 0 0.45004401508161579 -0.4787570704506926 0 0.43065669488015018 -0.48070599894378141 0 0.43421240961939139 -0.49999999999999972 0 0.45004401508161579 -0.4787570704506926 0 0.43566071353235342 -0.46355264343579089 0 0.43065669488015018 -0.48070599894378141 0 0.45004401508161579 -0.4787570704506926 0 0.47115653038696198 -0.47458122981084161 0 0.46628057992027361 -0.46016057875321997 0 0.44904225237101492 -0.50000000000000033 0 0.45004401508161579 -0.4787570704506926 0 0.47115653038696198 -0.47458122981084161 0 0.5 -0.5 0 0.47115653038696198 -0.47458122981084161 0 0.5 -0.45186915055015731 0 0.44904225237101492 -0.50000000000000033 0 0.5 -0.5 0 0.47115653038696198 -0.47458122981084161 0 0.47115653038696198 -0.47458122981084161 0 0.48077102025797452 -0.45549611643706822 0 0.46628057992027361 -0.46016057875321997 0 0.47115653038696198 -0.47458122981084161 0 0.48077102025797452 -0.45549611643706822 0 0.47115653038696198 -0.47458122981084161 0 0.48077102025797452 -0.45549611643706822 0 0.5 -0.45186915055015731 0 0.48077102025797452 -0.45549611643706822 0 0.47047881694724669 -0.44903457528364688 0 0.46628057992027361 -0.46016057875321997 0 0.48077102025797452 -0.45549611643706822 0 0.49038551012898701 -0.43641100306329461 0 0.48077102025797452 -0.45549611643706822 0 0.5 -0.45186915055015731 0 0.49038551012898701 -0.43641100306329461 0 0.48077102025797452 -0.45549611643706822 0 0.47754833864438551 -0.44218946840133899 0 0.49038551012898701 -0.43641100306329461 0 0.48077102025797452 -0.45549611643706822 0 0.47754833864438551 -0.44218946840133899 0 0.47047881694724669 -0.44903457528364688 0 0.47754833864438551 -0.44218946840133899 0 0.47047881694724669 -0.44903457528364688 0 0.46852552080992549 -0.44048839695443598 0 0.45926862510367472 -0.44683831587217138 0 0.45104577779221661 -0.45751414090138481 0 0.45204754050281742 -0.43627121135207708 0 0.46852552080992549 -0.44048839695443598 0 0.45926862510367472 -0.44683831587217138 0 0.46246741514551631 -0.43660855176593799 0 0.45926862510367472 -0.44683831587217138 0 0.45204754050281742 -0.43627121135207708 0 0.46246741514551631 -0.43660855176593799 0 0.47047881694724669 -0.44903457528364688 0 0.46852552080992549 -0.44048839695443598 0 0.45926862510367472 -0.44683831587217138 0 0.47047881694724669 -0.44903457528364688 0 0.45926862510367472 -0.44683831587217138 0 0.46628057992027361 -0.46016057875321997 0 0.45004401508161579 -0.4787570704506926 0 0.46628057992027361 -0.46016057875321997 0 0.45104577779221661 -0.45751414090138481 0 0.45926862510367472 -0.44683831587217138 0 0.46628057992027361 -0.46016057875321997 0 0.45104577779221661 -0.45751414090138481 0 0.45004401508161579 -0.4787570704506926 0 0.45104577779221661 -0.45751414090138481 0 0.43566071353235342 -0.46355264343579089 0 0.45004401508161579 -0.4787570704506926 0 0.45104577779221661 -0.45751414090138481 0 0.45104577779221661 -0.45751414090138481 0 0.43823690162582152 -0.442656551615 0 0.43566071353235342 -0.46355264343579089 0 0.45104577779221661 -0.45751414090138481 0 0.45204754050281742 -0.43627121135207708 0 0.45104577779221661 -0.45751414090138481 0 0.43823690162582152 -0.442656551615 0 0.45204754050281742 -0.43627121135207708 0 0.45430136434918972 -0.42968477721519488 0 0.43040870373640522 -0.42960949699457918 0 0.4445886017928069 -0.41946726592624312 0 0.45430136434918972 -0.42968477721519488 0 0.43040870373640522 -0.42960949699457918 0 0.43823690162582152 -0.442656551615 0 0.45204754050281742 -0.43627121135207708 0 0.43040870373640522 -0.42960949699457918 0 0.45204754050281742 -0.43627121135207708 0 0.45430136434918972 -0.42968477721519488 0 0.43040870373640522 -0.42960949699457918 0 0.4445886017928069 -0.41946726592624312 0 0.45626400488001012 -0.41852232274223139 0 0.45430136434918972 -0.42968477721519488 0 0.4445886017928069 -0.41946726592624312 0 0.45030067759957459 -0.40920304056939583 0 0.43607093377631329 -0.40042142092979582 0 0.4445886017928069 -0.41946726592624312 0 0.45030067759957459 -0.40920304056939583 0 0.45626400488001012 -0.41852232274223139 0 0.45030067759957459 -0.40920304056939583 0 0.45626400488001012 -0.41852232274223139 0 0.46461227738567717 -0.40399461877989912 0 0.45626400488001012 -0.41852232274223139 0 0.46727733630446061 -0.4192115361233813 0 0.46461227738567717 -0.40399461877989912 0 0.45430136434918972 -0.42968477721519488 0 0.47819402496197411 -0.42976005743581058 0 0.46727733630446061 -0.4192115361233813 0 0.45430136434918972 -0.42968477721519488 0 0.47819402496197411 -0.42976005743581058 0 0.45430136434918972 -0.42968477721519488 0 0.46246741514551631 -0.43660855176593799 0 0.47819402496197411 -0.42976005743581058 0 0.45626400488001012 -0.41852232274223139 0 0.46727733630446061 -0.4192115361233813 0 0.45430136434918972 -0.42968477721519488 0 0.45204754050281742 -0.43627121135207708 0 0.45430136434918972 -0.42968477721519488 0 0.46246741514551631 -0.43660855176593799 0 0.5 -0.45186915055015731 0 0.49038551012898701 -0.43641100306329461 0 0.49999999999999978 -0.41732588968952122 0 0.47754833864438551 -0.44218946840133899 0 0.46852552080992549 -0.44048839695443598 0 0.47819402496197411 -0.42976005743581058 0 0.46852552080992549 -0.44048839695443598 0 0.46246741514551631 -0.43660855176593799 0 0.47819402496197411 -0.42976005743581058 0 0.47754833864438551 -0.44218946840133899 0 0.47819402496197411 -0.42976005743581058 0 0.49038551012898701 -0.43641100306329461 0 0.47819402496197411 -0.42976005743581058 0 0.49038551012898701 -0.43641100306329461 0 0.49999999999999978 -0.41732588968952122 0 0.49038551012898701 -0.43641100306329461 0 0.49999999999999978 -0.41732588968952122 0 0.49999999999999978 -0.41732588968952122 0 0.47803026485536992 -0.41388491951904732 0 0.48349128744616809 -0.3981477611786608 0 0.47819402496197411 -0.42976005743581058 0 0.49999999999999978 -0.41732588968952122 0 0.47803026485536992 -0.41388491951904732 0 0.46727733630446061 -0.4192115361233813 0 0.47819402496197411 -0.42976005743581058 0 0.47803026485536992 -0.41388491951904732 0 0.46727733630446061 -0.4192115361233813 0 0.47803026485536992 -0.41388491951904732 0 0.46461227738567717 -0.40399461877989912 0 0.47803026485536992 -0.41388491951904732 0 0.48349128744616809 -0.3981477611786608 0 0.46461227738567717 -0.40399461877989912 0 0.48349128744616809 -0.3981477611786608 0 0.47209620213241288 -0.38662220816109938 0 0.46461227738567717 -0.40399461877989912 0 0.49999999999999978 -0.41732588968952122 0 0.48349128744616809 -0.3981477611786608 0 0.5 -0.38787887063999699 0 0.48349128744616809 -0.3981477611786608 0 0.48620898030354948 -0.37918006028240092 0 0.5 -0.38787887063999699 0 0.5 -0.35843185159047292 0 0.48620898030354948 -0.37918006028240092 0 0.5 -0.38787887063999699 0 0.47350757658922271 -0.36952329647287657 0 0.47209620213241288 -0.38662220816109938 0 0.46271268513135372 -0.37747780338012438 0 0.48349128744616809 -0.3981477611786608 0 0.48620898030354948 -0.37918006028240092 0 0.47209620213241288 -0.38662220816109938 0 0.47350757658922271 -0.36952329647287657 0 0.48620898030354948 -0.37918006028240092 0 0.47209620213241288 -0.38662220816109938 0 0.46271268513135372 -0.37747780338012438 0 0.45744681408336407 -0.38575639722006821 0 0.45189505467726382 -0.37680202485208381 0 0.47209620213241288 -0.38662220816109938 0 0.46271268513135372 -0.37747780338012438 0 0.45744681408336407 -0.38575639722006821 0 0.47209620213241288 -0.38662220816109938 0 0.45744681408336407 -0.38575639722006821 0 0.46461227738567717 -0.40399461877989912 0 0.45744681408336407 -0.38575639722006821 0 0.46461227738567717 -0.40399461877989912 0 0.45184219469928433 -0.39789486874989249 0 0.45030067759957459 -0.40920304056939583 0 0.46461227738567717 -0.40399461877989912 0 0.45184219469928433 -0.39789486874989249 0 0.45030067759957459 -0.40920304056939583 0 0.45184219469928433 -0.39789486874989249 0 0.43607093377631329 -0.40042142092979582 0 0.45184219469928433 -0.39789486874989249 0 0.44708058619903079 -0.38729405048447457 0 0.43607093377631329 -0.40042142092979582 0 0.44173316381622191 -0.37123334486501253 0 0.45189505467726382 -0.37680202485208381 0 0.44708058619903079 -0.38729405048447457 0 0.44173316381622191 -0.37123334486501253 0 0.44708058619903079 -0.38729405048447457 0 0.43607093377631329 -0.40042142092979582 0 0.44173316381622191 -0.37123334486501253 0 0.43607093377631329 -0.40042142092979582 0 0.45744681408336407 -0.38575639722006821 0 0.45189505467726382 -0.37680202485208381 0 0.44708058619903079 -0.38729405048447457 0 0.45744681408336407 -0.38575639722006821 0 0.45184219469928433 -0.39789486874989249 0 0.44708058619903079 -0.38729405048447457 0 0.44173316381622191 -0.37123334486501253 0 0.43018656974337233 -0.3834847830435818 0 0.43607093377631329 -0.40042142092979582 0 0.42661372489006832 -0.37330916830292271 0 0.43018656974337233 -0.3834847830435818 0 0.41571052833623512 -0.38186572013688852 0 0.43792231759094602 -0.36891862507496959 0 0.42661372489006832 -0.37330916830292271 0 0.43018656974337233 -0.3834847830435818 0 0.43607093377631329 -0.40042142092979582 0 0.41370439676437609 -0.3974940894908795 0 0.41981869584763148 -0.41440516100429259 0 0.43018656974337233 -0.3834847830435818 0 0.43607093377631329 -0.40042142092979582 0 0.41370439676437609 -0.3974940894908795 0 0.43018656974337233 -0.3834847830435818 0 0.41370439676437609 -0.3974940894908795 0 0.41571052833623512 -0.38186572013688852 0 0.41370439676437609 -0.3974940894908795 0 0.41571052833623512 -0.38186572013688852 0 0.40109715774397792 -0.38275058451944882 0 0.42661372489006832 -0.37330916830292271 0 0.40978735765452701 -0.3715350174533486 0 0.41571052833623512 -0.38186572013688852 0 0.40978735765452701 -0.3715350174533486 0 0.41571052833623512 -0.38186572013688852 0 0.40109715774397792 -0.38275058451944882 0 0.40109715774397792 -0.38275058451944882 0 0.38240798480570892 -0.37852010314408679 0 0.38863111647644599 -0.40400878815621749 0 0.38240798480570892 -0.37852010314408679 0 0.38863111647644599 -0.40400878815621749 0 0.38863111647644599 -0.40400878815621749 0 0.37176003243497441 -0.40998872043702711 0 0.36795612070160122 -0.3943037227883871 0 0.38240798480570892 -0.37852010314408679 0 0.38863111647644599 -0.40400878815621749 0 0.36795612070160122 -0.3943037227883871 0 0.41370439676437609 -0.3974940894908795 0 0.38863111647644599 -0.40400878815621749 0 0.4062779690192711 -0.41494731252474337 0 0.41370439676437609 -0.3974940894908795 0 0.40109715774397792 -0.38275058451944882 0 0.38863111647644599 -0.40400878815621749 0 0.38863111647644599 -0.40400878815621749 0 0.39485424814717818 -0.42949747316834941 0 0.4062779690192711 -0.41494731252474337 0 0.38863111647644599 -0.40400878815621749 0 0.39485424814717818 -0.42949747316834941 0 0.38863111647644599 -0.40400878815621749 0 0.38208767645140901 -0.41911042656524472 0 0.37176003243497441 -0.40998872043702711 0 0.38863111647644599 -0.40400878815621749 0 0.38208767645140901 -0.41911042656524472 0 0.39485424814717818 -0.42949747316834941 0 0.39485424814717818 -0.42949747316834941 0 0.36925590453949608 -0.42941681873704168 0 0.37665443888321409 -0.43729346785436302 0 0.3856757983069049 -0.43577025519560952 0 0.36925590453949608 -0.42941681873704168 0 0.3856757983069049 -0.43577025519560952 0 0.39485424814717818 -0.42949747316834941 0 0.36925590453949608 -0.42941681873704168 0 0.38208767645140901 -0.41911042656524472 0 0.39485424814717818 -0.42949747316834941 0 0.36925590453949608 -0.42941681873704168 0 0.39485424814717818 -0.42949747316834941 0 0.41263147594179173 -0.42955348508146501 0 0.3970599418841867 -0.43853154730823468 0 0.39485424814717818 -0.42949747316834941 0 0.41263147594179173 -0.42955348508146501 0 0.39485424814717818 -0.42949747316834941 0 0.3970599418841867 -0.43853154730823468 0 0.3856757983069049 -0.43577025519560952 0 0.39485424814717818 -0.42949747316834941 0 0.3970599418841867 -0.43853154730823468 0 0.39485424814717818 -0.42949747316834941 0 0.41263147594179173 -0.42955348508146501 0 0.4062779690192711 -0.41494731252474337 0 0.41263147594179173 -0.42955348508146501 0 0.43040870373640522 -0.42960949699457918 0 0.41263147594179173 -0.42955348508146501 0 0.43040870373640522 -0.42960949699457918 0 0.4105733347589578 -0.4439764995731092 0 0.41263147594179173 -0.42955348508146501 0 0.4105733347589578 -0.4439764995731092 0 0.3970599418841867 -0.43853154730823468 0 0.41263147594179173 -0.42955348508146501 0 0.41981869584763148 -0.41440516100429259 0 0.43040870373640522 -0.42960949699457918 0 0.41370439676437609 -0.3974940894908795 0 0.4062779690192711 -0.41494731252474337 0 0.41981869584763148 -0.41440516100429259 0 0.41263147594179173 -0.42955348508146501 0 0.4062779690192711 -0.41494731252474337 0 0.41981869584763148 -0.41440516100429259 0 0.43607093377631329 -0.40042142092979582 0 0.41981869584763148 -0.41440516100429259 0 0.43040870373640522 -0.42960949699457918 0 0.4445886017928069 -0.41946726592624312 0 0.43607093377631329 -0.40042142092979582 0 0.43040870373640522 -0.42960949699457918 0 0.43607093377631329 -0.40042142092979582 0 0.43040870373640522 -0.42960949699457918 0 0.43040870373640522 -0.42960949699457918 0 0.42609808641601882 -0.45183018130920338 0 0.43823690162582152 -0.442656551615 0 0.43040870373640522 -0.42960949699457918 0 0.42609808641601882 -0.45183018130920338 0 0.43040870373640522 -0.42960949699457918 0 0.42609808641601882 -0.45183018130920338 0 0.4105733347589578 -0.4439764995731092 0 0.43823690162582152 -0.442656551615 0 0.42609808641601882 -0.45183018130920338 0 0.43566071353235342 -0.46355264343579089 0 0.42609808641601882 -0.45183018130920338 0 0.43566071353235342 -0.46355264343579089 0 0.41788280539829797 -0.46985191739468413 0 0.42609808641601882 -0.45183018130920338 0 0.40695414576950523 -0.45771744581404522 0 0.41788280539829797 -0.46985191739468413 0 0.42609808641601882 -0.45183018130920338 0 0.40695414576950523 -0.45771744581404522 0 0.4105733347589578 -0.4439764995731092 0 0.4105733347589578 -0.4439764995731092 0 0.39721761528731692 -0.45119552741579683 0 0.3970599418841867 -0.43853154730823468 0 0.40695414576950523 -0.45771744581404522 0 0.4105733347589578 -0.4439764995731092 0 0.39721761528731692 -0.45119552741579683 0 0.39721761528731692 -0.45119552741579683 0 0.3970599418841867 -0.43853154730823468 0 0.3848034700195111 -0.44451211479328562 0 0.3856757983069049 -0.43577025519560952 0 0.3970599418841867 -0.43853154730823468 0 0.3848034700195111 -0.44451211479328562 0 0.37665443888321409 -0.43729346785436302 0 0.3856757983069049 -0.43577025519560952 0 0.3848034700195111 -0.44451211479328562 0 0.3848034700195111 -0.44451211479328562 0 0.39015981315766812 -0.47191920641734841 0 0.36813351492680652 -0.4578788096260229 0 0.39015981315766812 -0.47191920641734841 0 0.36813351492680652 -0.4578788096260229 0 0.39721761528731692 -0.45119552741579683 0 0.3848034700195111 -0.44451211479328562 0 0.39015981315766812 -0.47191920641734841 0 0.40695414576950523 -0.45771744581404522 0 0.39721761528731692 -0.45119552741579683 0 0.39015981315766812 -0.47191920641734841 0 0.40695414576950523 -0.45771744581404522 0 0.39015981315766812 -0.47191920641734841 0 0.41788280539829797 -0.46985191739468413 0 0.39015981315766812 -0.47191920641734841 0 0.39617150827203812 -0.48844435240108153 0 0.41218611138852979 -0.48595960320867387 0 0.39015981315766812 -0.47191920641734841 0 0.41218611138852979 -0.48595960320867387 0 0.39015981315766812 -0.47191920641734841 0 0.37999710445162738 -0.5 0 0.36111942344273912 -0.48004186837267743 0 0.39015981315766812 -0.47191920641734841 0 0.37999710445162738 -0.5 0 0.39617150827203812 -0.48844435240108153 0 0.37999710445162738 -0.5 0 0.39617150827203812 -0.48844435240108153 0 0.40710475703550941 -0.5 0 0.39617150827203812 -0.48844435240108153 0 0.40710475703550941 -0.5 0 0.41218611138852979 -0.48595960320867387 0 0.40710475703550941 -0.5 0 0.41218611138852979 -0.48595960320867387 0 0.43421240961939139 -0.49999999999999972 0 0.41218611138852979 -0.48595960320867387 0 0.41788280539829797 -0.46985191739468413 0 0.43065669488015018 -0.48070599894378141 0 0.39015981315766812 -0.47191920641734841 0 0.41218611138852979 -0.48595960320867387 0 0.41788280539829797 -0.46985191739468413 0 0.43566071353235342 -0.46355264343579089 0 0.41788280539829797 -0.46985191739468413 0 0.43065669488015018 -0.48070599894378141 0 0.41218611138852979 -0.48595960320867387 0 0.43421240961939139 -0.49999999999999972 0 0.41218611138852979 -0.48595960320867387 0 0.43065669488015018 -0.48070599894378141 0 0.43421240961939139 -0.49999999999999972 0 0.32562102085959999 -0.49962517918909338 0 0.3188650930646052 -0.49384015059516778 0 0.30906313459206908 -0.49999999999999822 0 0.3188650930646052 -0.49384015059516778 0 0.31537357137569311 -0.47573542319158041 0 0.30906313459206908 -0.49999999999999822 0 0.32562102085959999 -0.49962517918909338 0 0.3188650930646052 -0.49384015059516778 0 0.31537357137569311 -0.47573542319158041 0 0.32562102085959999 -0.49962517918909338 0 0.31537357137569311 -0.47573542319158041 0 0.32562102085959999 -0.49962517918909338 0 0.32705189356582531 -0.47758756671950892 0 0.31537357137569311 -0.47573542319158041 0 0.32705189356582531 -0.47758756671950892 0 0.31537357137569311 -0.47573542319158041 0 0.32731070687432662 -0.45987691031431599 0 0.32705189356582531 -0.47758756671950892 0 0.33990227515368221 -0.47511275418304622 0 0.32731070687432662 -0.45987691031431599 0 0.32562102085959999 -0.49962517918909338 0 0.32705189356582531 -0.47758756671950892 0 0.33990227515368221 -0.47511275418304622 0 0.32562102085959999 -0.49962517918909338 0 0.33990227515368221 -0.47511275418304622 0 0.32562102085959999 -0.49962517918909338 0 0.33990227515368221 -0.47511275418304622 0 0.33937333261091801 -0.49122101923177458 0 0.32562102085959999 -0.49962517918909338 0 0.33937333261091801 -0.49122101923177458 0 0.35288945186774517 -0.5 0 0.33937333261091801 -0.49122101923177458 0 0.35288945186774517 -0.5 0 0.36111942344273912 -0.48004186837267743 0 0.37999710445162738 -0.5 0 0.35288945186774517 -0.5 0 0.36111942344273912 -0.48004186837267743 0 0.39015981315766812 -0.47191920641734841 0 0.36111942344273912 -0.48004186837267743 0 0.36813351492680652 -0.4578788096260229 0 0.33990227515368221 -0.47511275418304622 0 0.33937333261091801 -0.49122101923177458 0 0.36111942344273912 -0.48004186837267743 0 0.33990227515368221 -0.47511275418304622 0 0.36111942344273912 -0.48004186837267743 0 0.35583468574274812 -0.46590844033968648 0 0.33990227515368221 -0.47511275418304622 0 0.35418352944776488 -0.45060032917699938 0 0.33990227515368221 -0.47511275418304622 0 0.35418352944776488 -0.45060032917699938 0 0.340093026771697 -0.45737760876331679 0 0.33990227515368221 -0.47511275418304622 0 0.35583468574274812 -0.46590844033968648 0 0.35418352944776488 -0.45060032917699938 0 0.36111942344273912 -0.48004186837267743 0 0.35583468574274812 -0.46590844033968648 0 0.36813351492680652 -0.4578788096260229 0 0.35583468574274812 -0.46590844033968648 0 0.36813351492680652 -0.4578788096260229 0 0.35418352944776488 -0.45060032917699938 0 0.3848034700195111 -0.44451211479328562 0 0.36813351492680652 -0.4578788096260229 0 0.36188953281526259 -0.44421627808609571 0 0.3848034700195111 -0.44451211479328562 0 0.36188953281526259 -0.44421627808609571 0 0.37665443888321409 -0.43729346785436302 0 0.3848034700195111 -0.44451211479328562 0 0.36188953281526259 -0.44421627808609571 0 0.36813351492680652 -0.4578788096260229 0 0.36188953281526259 -0.44421627808609571 0 0.35418352944776488 -0.45060032917699938 0 0.36188953281526259 -0.44421627808609571 0 0.33897559561101431 -0.44392044137890579 0 0.34365756093181399 -0.42933616430573279 0 0.36188953281526259 -0.44421627808609571 0 0.33897559561101431 -0.44392044137890579 0 0.36188953281526259 -0.44421627808609571 0 0.35418352944776488 -0.45060032917699938 0 0.33897559561101431 -0.44392044137890579 0 0.35418352944776488 -0.45060032917699938 0 0.33897559561101431 -0.44392044137890579 0 0.340093026771697 -0.45737760876331679 0 0.33990227515368221 -0.47511275418304622 0 0.340093026771697 -0.45737760876331679 0 0.32731070687432662 -0.45987691031431599 0 0.33897559561101431 -0.44392044137890579 0 0.340093026771697 -0.45737760876331679 0 0.32731070687432662 -0.45987691031431599 0 0.31537357137569311 -0.47573542319158041 0 0.32731070687432662 -0.45987691031431599 0 0.31637589709399738 -0.45542627657340667 0 0.33897559561101431 -0.44392044137890579 0 0.31606165840676581 -0.44362460467171588 0 0.31637589709399738 -0.45542627657340667 0 0.31606165840676581 -0.44362460467171588 0 0.30512612189178517 -0.45184566719406782 0 0.33897559561101431 -0.44392044137890579 0 0.32731070687432662 -0.45987691031431599 0 0.31606165840676581 -0.44362460467171588 0 0.33897559561101431 -0.44392044137890579 0 0.31606165840676581 -0.44362460467171588 0 0.32817533568345891 -0.437405088827024 0 0.32731070687432662 -0.45987691031431599 0 0.31637589709399738 -0.45542627657340667 0 0.31606165840676581 -0.44362460467171588 0 0.31606165840676581 -0.44362460467171588 0 0.31805921732413212 -0.42925550987442379 0 0.32817533568345891 -0.437405088827024 0 0.31606165840676581 -0.44362460467171588 0 0.31805921732413212 -0.42925550987442379 0 0.30493236766246812 -0.436345934488445 0 0.31985940292529941 -0.41295447671329732 0 0.31075796009052831 -0.39572085063997808 0 0.30888278388740348 -0.41521004381282178 0 0.31805921732413212 -0.42925550987442379 0 0.31985940292529941 -0.41295447671329732 0 0.33113555781690102 -0.41904522338276579 0 0.31805921732413212 -0.42925550987442379 0 0.31985940292529941 -0.41295447671329732 0 0.30888278388740348 -0.41521004381282178 0 0.31985940292529941 -0.41295447671329732 0 0.33113555781690102 -0.41904522338276579 0 0.33046149550753229 -0.40554075585649679 0 0.33113555781690102 -0.41904522338276579 0 0.34241547994114269 -0.41362446478144221 0 0.34365756093181399 -0.42933616430573279 0 0.33113555781690102 -0.41904522338276579 0 0.34241547994114269 -0.41362446478144221 0 0.33046149550753229 -0.40554075585649679 0 0.31805921732413212 -0.42925550987442379 0 0.34365756093181399 -0.42933616430573279 0 0.32817533568345891 -0.437405088827024 0 0.31805921732413212 -0.42925550987442379 0 0.33113555781690102 -0.41904522338276579 0 0.34365756093181399 -0.42933616430573279 0 0.31805921732413212 -0.42925550987442379 0 0.34365756093181399 -0.42933616430573279 0 0.33897559561101431 -0.44392044137890579 0 0.34365756093181399 -0.42933616430573279 0 0.32817533568345891 -0.437405088827024 0 0.34365756093181399 -0.42933616430573279 0 0.36925590453949608 -0.42941681873704168 0 0.35674230937501078 -0.41217086121041902 0 0.34365756093181399 -0.42933616430573279 0 0.36925590453949608 -0.42941681873704168 0 0.36188953281526259 -0.44421627808609571 0 0.34365756093181399 -0.42933616430573279 0 0.36925590453949608 -0.42941681873704168 0 0.37665443888321409 -0.43729346785436302 0 0.36188953281526259 -0.44421627808609571 0 0.36925590453949608 -0.42941681873704168 0 0.38208767645140901 -0.41911042656524472 0 0.36925590453949608 -0.42941681873704168 0 0.37176003243497441 -0.40998872043702711 0 0.36925590453949608 -0.42941681873704168 0 0.37176003243497441 -0.40998872043702711 0 0.35674230937501078 -0.41217086121041902 0 0.34241547994114269 -0.41362446478144221 0 0.35674230937501078 -0.41217086121041902 0 0.34647936393220441 -0.39402114553103817 0 0.34241547994114269 -0.41362446478144221 0 0.34365756093181399 -0.42933616430573279 0 0.35674230937501078 -0.41217086121041902 0 0.35674230937501078 -0.41217086121041902 0 0.34647936393220441 -0.39402114553103817 0 0.36795612070160122 -0.3943037227883871 0 0.37176003243497441 -0.40998872043702711 0 0.35674230937501078 -0.41217086121041902 0 0.36795612070160122 -0.3943037227883871 0 0.38240798480570892 -0.37852010314408679 0 0.36795612070160122 -0.3943037227883871 0 0.3567457423339877 -0.37092962175819427 0 0.34647936393220441 -0.39402114553103817 0 0.33846966771265258 -0.37695460337982112 0 0.3567457423339877 -0.37092962175819427 0 0.34647936393220441 -0.39402114553103817 0 0.36795612070160122 -0.3943037227883871 0 0.3567457423339877 -0.37092962175819427 0 0.34647936393220441 -0.39402114553103817 0 0.33846966771265258 -0.37695460337982112 0 0.3263508617172054 -0.38750488125084709 0 0.34241547994114269 -0.41362446478144221 0 0.34647936393220441 -0.39402114553103817 0 0.33046149550753229 -0.40554075585649679 0 0.34647936393220441 -0.39402114553103817 0 0.33046149550753229 -0.40554075585649679 0 0.3263508617172054 -0.38750488125084709 0 0.33046149550753229 -0.40554075585649679 0 0.3263508617172054 -0.38750488125084709 0 0.31075796009052831 -0.39572085063997808 0 0.31985940292529941 -0.41295447671329732 0 0.33046149550753229 -0.40554075585649679 0 0.31075796009052831 -0.39572085063997808 0 0.3263508617172054 -0.38750488125084709 0 0.3096773386499212 -0.3813243078888065 0 0.31075796009052831 -0.39572085063997808 0 0.33846966771265258 -0.37695460337982112 0 0.3263508617172054 -0.38750488125084709 0 0.31915821050206972 -0.37043664262910392 0 0.3263508617172054 -0.38750488125084709 0 0.3096773386499212 -0.3813243078888065 0 0.31915821050206972 -0.37043664262910392 0 0.3096773386499212 -0.3813243078888065 0 0.29526372343335222 -0.38214642848390951 0 0.29938815419514908 -0.36235191135060729 0 0.3096773386499212 -0.3813243078888065 0 0.31075796009052831 -0.39572085063997808 0 0.29526372343335222 -0.38214642848390951 0 0.31075796009052831 -0.39572085063997808 0 0.29178274806564442 -0.41520067436951369 0 0.31075796009052831 -0.39572085063997808 0 0.29113929267155558 -0.40194094561721161 0 0.29526372343335222 -0.38214642848390951 0 0.31075796009052831 -0.39572085063997808 0 0.29113929267155558 -0.40194094561721161 0 0.29178274806564442 -0.41520067436951369 0 0.29113929267155558 -0.40194094561721161 0 0.29526372343335222 -0.38214642848390951 0 0.29096903481361719 -0.39843243044280019 0 0.28318981538834798 -0.39262896962206201 0 0.29526372343335222 -0.38214642848390951 0 0.29096903481361719 -0.39843243044280019 0 0.29113929267155558 -0.40194094561721161 0 0.29526372343335222 -0.38214642848390951 0 0.29096903481361719 -0.39843243044280019 0 0.29113929267155558 -0.40194094561721161 0 0.28502919674291388 -0.40062006331372729 0 0.27798512017272892 -0.40082089003652099 0 0.28264635626051132 -0.40952105626625152 0 0.29113929267155558 -0.40194094561721161 0 0.28502919674291388 -0.40062006331372729 0 0.28264635626051132 -0.40952105626625152 0 0.29096903481361719 -0.39843243044280019 0 0.29113929267155558 -0.40194094561721161 0 0.28502919674291388 -0.40062006331372729 0 0.28502919674291388 -0.40062006331372729 0 0.28318981538834798 -0.39262896962206201 0 0.27798512017272892 -0.40082089003652099 0 0.29096903481361719 -0.39843243044280019 0 0.28502919674291388 -0.40062006331372729 0 0.28318981538834798 -0.39262896962206201 0 0.28318981538834798 -0.39262896962206201 0 0.29526372343335222 -0.38214642848390951 0 0.27569670368188232 -0.38326726020642471 0 0.29526372343335222 -0.38214642848390951 0 0.27569670368188232 -0.38326726020642471 0 0.2822483272805178 -0.36575990941074382 0 0.28318981538834798 -0.39262896962206201 0 0.27569670368188232 -0.38326726020642471 0 0.27140133813572248 -0.39438652514112071 0 0.27569670368188232 -0.38326726020642471 0 0.26161541147981399 -0.38825456187999341 0 0.27140133813572248 -0.39438652514112071 0 0.27569670368188232 -0.38326726020642471 0 0.26161541147981399 -0.38825456187999341 0 0.26273855981799532 -0.37402085189451678 0 0.26161541147981399 -0.38825456187999341 0 0.26273855981799532 -0.37402085189451678 0 0.2462658744323834 -0.38197959250061342 0 0.26161541147981399 -0.38825456187999341 0 0.25113336278303172 -0.39639034007073559 0 0.2462658744323834 -0.38197959250061342 0 0.25113336278303172 -0.39639034007073559 0 0.25834465052961392 -0.41196496969487773 0 0.2415255849161019 -0.40609463635975013 0 0.25113336278303172 -0.39639034007073559 0 0.26281084462470111 -0.3998352336856334 0 0.25834465052961392 -0.41196496969487773 0 0.26161541147981399 -0.38825456187999341 0 0.25113336278303172 -0.39639034007073559 0 0.26281084462470111 -0.3998352336856334 0 0.26161541147981399 -0.38825456187999341 0 0.26281084462470111 -0.3998352336856334 0 0.27140133813572248 -0.39438652514112071 0 0.26281084462470111 -0.3998352336856334 0 0.27081663500811198 -0.40520008615658132 0 0.25834465052961392 -0.41196496969487773 0 0.27081663500811198 -0.40520008615658132 0 0.27140133813572248 -0.39438652514112071 0 0.27798512017272892 -0.40082089003652099 0 0.26281084462470111 -0.3998352336856334 0 0.27081663500811198 -0.40520008615658132 0 0.27140133813572248 -0.39438652514112071 0 0.28318981538834798 -0.39262896962206201 0 0.27140133813572248 -0.39438652514112071 0 0.27798512017272892 -0.40082089003652099 0 0.27081663500811198 -0.40520008615658132 0 0.27798512017272892 -0.40082089003652099 0 0.28264635626051132 -0.40952105626625152 0 0.27081663500811198 -0.40520008615658132 0 0.27206571492222681 -0.41502427433416672 0 0.28264635626051132 -0.40952105626625152 0 0.27844475086434628 -0.42008249968918893 0 0.27206571492222681 -0.41502427433416672 0 0.28264635626051132 -0.40952105626625152 0 0.26660164492473198 -0.42150218520744809 0 0.27206571492222681 -0.41502427433416672 0 0.25834465052961392 -0.41196496969487773 0 0.27844475086434628 -0.42008249968918893 0 0.26660164492473198 -0.42150218520744809 0 0.27206571492222681 -0.41502427433416672 0 0.27081663500811198 -0.40520008615658132 0 0.27206571492222681 -0.41502427433416672 0 0.25834465052961392 -0.41196496969487773 0 0.25834465052961392 -0.41196496969487773 0 0.25675938249820729 -0.42906236834179229 0 0.24471655788437549 -0.41836465708289111 0 0.26660164492473198 -0.42150218520744809 0 0.25834465052961392 -0.41196496969487773 0 0.25675938249820729 -0.42906236834179229 0 0.25675938249820729 -0.42906236834179229 0 0.26225826081895931 -0.43553163761717179 0 0.24937758952868769 -0.43582476186075059 0 0.25675938249820729 -0.42906236834179229 0 0.26225826081895931 -0.43553163761717179 0 0.26930167735914629 -0.4333880303452663 0 0.25675938249820729 -0.42906236834179229 0 0.27821428364315981 -0.42912996774889278 0 0.26930167735914629 -0.4333880303452663 0 0.27111210296809168 -0.43642101817110968 0 0.27821428364315981 -0.42912996774889278 0 0.25675938249820729 -0.42906236834179229 0 0.26930167735914629 -0.4333880303452663 0 0.27821428364315981 -0.42912996774889278 0 0.26660164492473198 -0.42150218520744809 0 0.25675938249820729 -0.42906236834179229 0 0.27821428364315981 -0.42912996774889278 0 0.26225826081895931 -0.43553163761717179 0 0.26930167735914629 -0.4333880303452663 0 0.27111210296809168 -0.43642101817110968 0 0.26930167735914629 -0.4333880303452663 0 0.27111210296809168 -0.43642101817110968 0 0.27844475086434628 -0.42008249968918893 0 0.26660164492473198 -0.42150218520744809 0 0.27821428364315981 -0.42912996774889278 0 0.27111210296809168 -0.43642101817110968 0 0.27821428364315981 -0.42912996774889278 0 0.27851784514164207 -0.43605140350369348 0 0.27111210296809168 -0.43642101817110968 0 0.27821428364315981 -0.42912996774889278 0 0.27821428364315981 -0.42912996774889278 0 0.27851784514164207 -0.43605140350369348 0 0.28546936300596981 -0.42915282681778749 0 0.28546936300596981 -0.42915282681778749 0 0.28269717206150108 -0.44245749461713091 0 0.27851784514164207 -0.43605140350369348 0 0.28546936300596981 -0.42915282681778749 0 0.28269717206150108 -0.44245749461713091 0 0.28844378249660962 -0.43602848621063972 0 0.28546936300596981 -0.42915282681778749 0 0.28269717206150108 -0.44245749461713091 0 0.28844378249660962 -0.43602848621063972 0 0.29246087371645019 -0.42917485544311462 0 0.28546936300596981 -0.42915282681778749 0 0.28844378249660962 -0.43602848621063972 0 0.29246087371645019 -0.42917485544311462 0 0.29314772120251731 -0.44332876796452603 0 0.29246087371645019 -0.42917485544311462 0 0.29314772120251731 -0.44332876796452603 0 0.29246087371645019 -0.42917485544311462 0 0.30493236766246812 -0.436345934488445 0 0.29314772120251731 -0.44332876796452603 0 0.29246087371645019 -0.42917485544311462 0 0.29178274806564442 -0.41520067436951369 0 0.29246087371645019 -0.42917485544311462 0 0.29178274806564442 -0.41520067436951369 0 0.30279640574840933 -0.42221027087496837 0 0.27821428364315981 -0.42912996774889278 0 0.28546936300596981 -0.42915282681778749 0 0.28744958810085658 -0.4196490669458563 0 0.28546936300596981 -0.42915282681778749 0 0.28744958810085658 -0.4196490669458563 0 0.29246087371645019 -0.42917485544311462 0 0.28546936300596981 -0.42915282681778749 0 0.28744958810085658 -0.4196490669458563 0 0.27821428364315981 -0.42912996774889278 0 0.28744958810085658 -0.4196490669458563 0 0.27844475086434628 -0.42008249968918893 0 0.27821428364315981 -0.42912996774889278 0 0.28744958810085658 -0.4196490669458563 0 0.29246087371645019 -0.42917485544311462 0 0.28546936300596981 -0.42915282681778749 0 0.27821428364315981 -0.42912996774889278 0 0.28546936300596981 -0.42915282681778749 0 0.29113929267155558 -0.40194094561721161 0 0.28744958810085658 -0.4196490669458563 0 0.28264635626051132 -0.40952105626625152 0 0.27844475086434628 -0.42008249968918893 0 0.28744958810085658 -0.4196490669458563 0 0.28264635626051132 -0.40952105626625152 0 0.29113929267155558 -0.40194094561721161 0 0.28744958810085658 -0.4196490669458563 0 0.29113929267155558 -0.40194094561721161 0 0.28744958810085658 -0.4196490669458563 0 0.29178274806564442 -0.41520067436951369 0 0.29113929267155558 -0.40194094561721161 0 0.29178274806564442 -0.41520067436951369 0 0.29246087371645019 -0.42917485544311462 0 0.28744958810085658 -0.4196490669458563 0 0.29178274806564442 -0.41520067436951369 0 0.28744958810085658 -0.4196490669458563 0 0.29178274806564442 -0.41520067436951369 0 0.29178274806564442 -0.41520067436951369 0 0.30888278388740348 -0.41521004381282178 0 0.30279640574840933 -0.42221027087496837 0 0.31075796009052831 -0.39572085063997808 0 0.29178274806564442 -0.41520067436951369 0 0.30888278388740348 -0.41521004381282178 0 0.31805921732413212 -0.42925550987442379 0 0.29246087371645019 -0.42917485544311462 0 0.31805921732413212 -0.42925550987442379 0 0.29246087371645019 -0.42917485544311462 0 0.30279640574840933 -0.42221027087496837 0 0.31805921732413212 -0.42925550987442379 0 0.29246087371645019 -0.42917485544311462 0 0.30493236766246812 -0.436345934488445 0 0.31805921732413212 -0.42925550987442379 0 0.30888278388740348 -0.41521004381282178 0 0.30279640574840933 -0.42221027087496837 0 0.31606165840676581 -0.44362460467171588 0 0.30512612189178517 -0.45184566719406782 0 0.29314772120251731 -0.44332876796452603 0 0.31606165840676581 -0.44362460467171588 0 0.30493236766246812 -0.436345934488445 0 0.29314772120251731 -0.44332876796452603 0 0.30512612189178517 -0.45184566719406782 0 0.29394025903575932 -0.45966064860657702 0 0.29314772120251731 -0.44332876796452603 0 0.31606165840676581 -0.44362460467171588 0 0.29314772120251731 -0.44332876796452603 0 0.31537357137569311 -0.47573542319158041 0 0.31637589709399738 -0.45542627657340667 0 0.30512612189178517 -0.45184566719406782 0 0.31537357137569311 -0.47573542319158041 0 0.30512612189178517 -0.45184566719406782 0 0.31537357137569311 -0.47573542319158041 0 0.30512612189178517 -0.45184566719406782 0 0.29394025903575932 -0.45966064860657702 0 0.29394025903575932 -0.45966064860657702 0 0.28491455044924457 -0.45954411970608688 0 0.29473279686900039 -0.47599252924862812 0 0.29394025903575932 -0.45966064860657702 0 0.29473279686900039 -0.47599252924862812 0 0.28491455044924457 -0.45954411970608688 0 0.29473279686900039 -0.47599252924862812 0 0.29394025903575932 -0.45966064860657702 0 0.28491455044924457 -0.45954411970608688 0 0.29314772120251731 -0.44332876796452603 0 0.29314772120251731 -0.44332876796452603 0 0.28269717206150108 -0.44245749461713091 0 0.27509630402948781 -0.44309571016354632 0 0.29314772120251731 -0.44332876796452603 0 0.27509630402948781 -0.44309571016354632 0 0.28491455044924457 -0.45954411970608688 0 0.29314772120251731 -0.44332876796452603 0 0.27509630402948781 -0.44309571016354632 0 0.29394025903575932 -0.45966064860657702 0 0.29314772120251731 -0.44332876796452603 0 0.28844378249660962 -0.43602848621063972 0 0.29314772120251731 -0.44332876796452603 0 0.28269717206150108 -0.44245749461713091 0 0.27851784514164207 -0.43605140350369348 0 0.28269717206150108 -0.44245749461713091 0 0.27509630402948781 -0.44309571016354632 0 0.28491455044924457 -0.45954411970608688 0 0.27509630402948781 -0.44309571016354632 0 0.27111210296809168 -0.43642101817110968 0 0.27851784514164207 -0.43605140350369348 0 0.27509630402948781 -0.44309571016354632 0 0.27509630402948781 -0.44309571016354632 0 0.2647405517406643 -0.44296200936694391 0 0.26894138168338477 -0.45835658674643581 0 0.27509630402948781 -0.44309571016354632 0 0.2647405517406643 -0.44296200936694391 0 0.27111210296809168 -0.43642101817110968 0 0.27509630402948781 -0.44309571016354632 0 0.2647405517406643 -0.44296200936694391 0 0.26225826081895931 -0.43553163761717179 0 0.27111210296809168 -0.43642101817110968 0 0.2647405517406643 -0.44296200936694391 0 0.27111210296809168 -0.43642101817110968 0 0.27509630402948781 -0.44309571016354632 0 0.27111210296809168 -0.43642101817110968 0 0.2647405517406643 -0.44296200936694391 0 0.2647405517406643 -0.44296200936694391 0 0.23528251899697711 -0.44258168330907049 0 0.26225826081895931 -0.43553163761717179 0 0.2647405517406643 -0.44296200936694391 0 0.24937758952868769 -0.43582476186075059 0 0.2647405517406643 -0.44296200936694391 0 0.24642569303344669 -0.46176391886762419 0 0.2647405517406643 -0.44296200936694391 0 0.26894138168338477 -0.45835658674643581 0 0.24642569303344669 -0.46176391886762419 0 0.26894138168338477 -0.45835658674643581 0 0.25460761733926612 -0.48077428153223201 0 0.24642569303344669 -0.46176391886762419 0 0.28491455044924457 -0.45954411970608688 0 0.26894138168338477 -0.45835658674643581 0 0.27481125637505999 -0.47672941046381351 0 0.28491455044924457 -0.45954411970608688 0 0.27509630402948781 -0.44309571016354632 0 0.26894138168338477 -0.45835658674643581 0 0.26894138168338477 -0.45835658674643581 0 0.27481125637505999 -0.47672941046381351 0 0.25460761733926612 -0.48077428153223201 0 0.25460761733926612 -0.48077428153223201 0 0.26992155257213829 -0.5 0 0.24394529676999099 -0.5 0 0.27481125637505999 -0.47672941046381351 0 0.25460761733926612 -0.48077428153223201 0 0.26992155257213829 -0.5 0 0.27481125637505999 -0.47672941046381351 0 0.26992155257213829 -0.5 0 0.28423504578222791 -0.48826781330302371 0 0.2958978083742857 -0.500000000000002 0 0.29473279686900039 -0.47599252924862812 0 0.28423504578222791 -0.48826781330302371 0 0.2958978083742857 -0.500000000000002 0 0.29473279686900039 -0.47599252924862812 0 0.26992155257213829 -0.5 0 0.28423504578222791 -0.48826781330302371 0 0.2958978083742857 -0.500000000000002 0 0.27481125637505999 -0.47672941046381351 0 0.28423504578222791 -0.48826781330302371 0 0.29473279686900039 -0.47599252924862812 0 0.28491455044924457 -0.45954411970608688 0 0.27481125637505999 -0.47672941046381351 0 0.29473279686900039 -0.47599252924862812 0 0.31537357137569311 -0.47573542319158041 0 0.29473279686900039 -0.47599252924862812 0 0.30906313459206908 -0.49999999999999822 0 0.31537357137569311 -0.47573542319158041 0 0.29394025903575932 -0.45966064860657702 0 0.29473279686900039 -0.47599252924862812 0 0.2958978083742857 -0.500000000000002 0 0.29473279686900039 -0.47599252924862812 0 0.30906313459206908 -0.49999999999999822 0 0.29473279686900039 -0.47599252924862812 0 0.30906313459206908 -0.49999999999999822 0 0.32957540708980337 -0.28233484169300721 0 0.33350720058453531 -0.3067582988720306 0 0.34777854009225467 -0.29092059718385621 0 0.33350720058453531 -0.3067582988720306 0 0.31940688812320073 -0.32114172553523779 0 0.31236919290445669 -0.30090688950199113 0 0.32957540708980337 -0.28233484169300721 0 0.33350720058453531 -0.3067582988720306 0 0.31236919290445669 -0.30090688950199113 0 0.32957540708980337 -0.28233484169300721 0 0.31236919290445669 -0.30090688950199113 0 0.31219288969015102 -0.27103532748113379 0 0.32957540708980337 -0.28233484169300721 0 0.32740146312166057 -0.2615598439342075 0 0.31219288969015102 -0.27103532748113379 0 0.30987088180634448 -0.24125362874219619 0 0.32740146312166057 -0.2615598439342075 0 0.31219288969015102 -0.27103532748113379 0 0.33627474799740559 -0.24529035195854479 0 0.32740146312166057 -0.2615598439342075 0 0.34280143854843398 -0.26651154424247869 0 0.32957540708980337 -0.28233484169300721 0 0.32740146312166057 -0.2615598439342075 0 0.34280143854843398 -0.26651154424247869 0 0.32957540708980337 -0.28233484169300721 0 0.34280143854843398 -0.26651154424247869 0 0.34777854009225467 -0.29092059718385621 0 0.34280143854843398 -0.26651154424247869 0 0.35666834061529479 -0.27123260863895199 0 0.34777854009225467 -0.29092059718385621 0 0.3592550994650468 -0.24613366971849041 0 0.34280143854843398 -0.26651154424247869 0 0.35666834061529479 -0.27123260863895199 0 0.33627474799740559 -0.24529035195854479 0 0.3592550994650468 -0.24613366971849041 0 0.34280143854843398 -0.26651154424247869 0 0.3592550994650468 -0.24613366971849041 0 0.37962897743813367 -0.25651992395937562 0 0.37050420578859872 -0.26776837990911312 0 0.3592550994650468 -0.24613366971849041 0 0.35666834061529479 -0.27123260863895199 0 0.37050420578859872 -0.26776837990911312 0 0.3592550994650468 -0.24613366971849041 0 0.37050420578859872 -0.26776837990911312 0 0.35666834061529479 -0.27123260863895199 0 0.37050420578859872 -0.26776837990911312 0 0.36300241918213971 -0.28482885214082171 0 0.37050420578859872 -0.26776837990911312 0 0.37154850581208082 -0.284248057172719 0 0.36300241918213971 -0.28482885214082171 0 0.38175331211215058 -0.28940309009973592 0 0.37050420578859872 -0.26776837990911312 0 0.37154850581208082 -0.284248057172719 0 0.37154850581208082 -0.284248057172719 0 0.37093408616543422 -0.29499190654120538 0 0.36300241918213971 -0.28482885214082171 0 0.38175331211215058 -0.28940309009973592 0 0.37154850581208082 -0.284248057172719 0 0.37093408616543422 -0.29499190654120538 0 0.37093408616543422 -0.29499190654120538 0 0.36300241918213971 -0.28482885214082171 0 0.36107539554114298 -0.29693991331551067 0 0.35666834061529479 -0.27123260863895199 0 0.36300241918213971 -0.28482885214082171 0 0.34777854009225467 -0.29092059718385621 0 0.36300241918213971 -0.28482885214082171 0 0.34777854009225467 -0.29092059718385621 0 0.36107539554114298 -0.29693991331551067 0 0.33350720058453531 -0.3067582988720306 0 0.35617419542099171 -0.30797258542327188 0 0.3434221482530771 -0.31898036386437462 0 0.33350720058453531 -0.3067582988720306 0 0.34777854009225467 -0.29092059718385621 0 0.35617419542099171 -0.30797258542327188 0 0.34777854009225467 -0.29092059718385621 0 0.35617419542099171 -0.30797258542327188 0 0.36107539554114298 -0.29693991331551067 0 0.35617419542099171 -0.30797258542327188 0 0.36107539554114298 -0.29693991331551067 0 0.37214457168145071 -0.30742358830148531 0 0.38029466251644028 -0.29986647237510811 0 0.37093408616543422 -0.29499190654120538 0 0.37214457168145071 -0.30742358830148531 0 0.37093408616543422 -0.29499190654120538 0 0.36107539554114298 -0.29693991331551067 0 0.37214457168145071 -0.30742358830148531 0 0.35617419542099171 -0.30797258542327188 0 0.37214457168145071 -0.30742358830148531 0 0.36996172146423478 -0.32754273311982529 0 0.35617419542099171 -0.30797258542327188 0 0.36996172146423478 -0.32754273311982529 0 0.35306648032504262 -0.33228776260873261 0 0.38164260336710232 -0.31615744579396521 0 0.37214457168145071 -0.30742358830148531 0 0.36996172146423478 -0.32754273311982529 0 0.36996172146423478 -0.32754273311982529 0 0.35306648032504262 -0.33228776260873261 0 0.35731430246447682 -0.34983201697113597 0 0.37618485313497191 -0.35303141813195599 0 0.36996172146423478 -0.32754273311982529 0 0.35731430246447682 -0.34983201697113597 0 0.37618485313497191 -0.35303141813195599 0 0.36996172146423478 -0.32754273311982529 0 0.35306648032504262 -0.33228776260873261 0 0.35731430246447682 -0.34983201697113597 0 0.34168414680625769 -0.34452156241349458 0 0.35617419542099171 -0.30797258542327188 0 0.35306648032504262 -0.33228776260873261 0 0.3434221482530771 -0.31898036386437462 0 0.37618485313497191 -0.35303141813195599 0 0.38240798480570892 -0.37852010314408679 0 0.3567457423339877 -0.37092962175819427 0 0.37618485313497191 -0.35303141813195599 0 0.35731430246447682 -0.34983201697113597 0 0.3567457423339877 -0.37092962175819427 0 0.35731430246447682 -0.34983201697113597 0 0.33741189226114721 -0.35981876257024509 0 0.34168414680625769 -0.34452156241349458 0 0.35731430246447682 -0.34983201697113597 0 0.3567457423339877 -0.37092962175819427 0 0.33741189226114721 -0.35981876257024509 0 0.33846966771265258 -0.37695460337982112 0 0.3567457423339877 -0.37092962175819427 0 0.33741189226114721 -0.35981876257024509 0 0.33846966771265258 -0.37695460337982112 0 0.33741189226114721 -0.35981876257024509 0 0.31915821050206972 -0.37043664262910392 0 0.33741189226114721 -0.35981876257024509 0 0.34168414680625769 -0.34452156241349458 0 0.32813074893442251 -0.34418371868588848 0 0.33741189226114721 -0.35981876257024509 0 0.32813074893442251 -0.34418371868588848 0 0.32201112636252999 -0.3528096981888329 0 0.32201112636252999 -0.3528096981888329 0 0.31915821050206972 -0.37043664262910392 0 0.30987318817222509 -0.34571298684785262 0 0.32813074893442251 -0.34418371868588848 0 0.32201112636252999 -0.3528096981888329 0 0.31771908807833588 -0.34170101098267841 0 0.32201112636252999 -0.3528096981888329 0 0.31771908807833588 -0.34170101098267841 0 0.30987318817222509 -0.34571298684785262 0 0.33741189226114721 -0.35981876257024509 0 0.32201112636252999 -0.3528096981888329 0 0.31915821050206972 -0.37043664262910392 0 0.35306648032504262 -0.33228776260873261 0 0.3434221482530771 -0.31898036386437462 0 0.33232496317177118 -0.32984298873849771 0 0.33350720058453531 -0.3067582988720306 0 0.3434221482530771 -0.31898036386437462 0 0.33232496317177118 -0.32984298873849771 0 0.33350720058453531 -0.3067582988720306 0 0.33232496317177118 -0.32984298873849771 0 0.31940688812320073 -0.32114172553523779 0 0.35306648032504262 -0.33228776260873261 0 0.34168414680625769 -0.34452156241349458 0 0.33232496317177118 -0.32984298873849771 0 0.34168414680625769 -0.34452156241349458 0 0.32813074893442251 -0.34418371868588848 0 0.33232496317177118 -0.32984298873849771 0 0.32813074893442251 -0.34418371868588848 0 0.33232496317177118 -0.32984298873849771 0 0.32267668596175481 -0.33341785867055518 0 0.33232496317177118 -0.32984298873849771 0 0.32267668596175481 -0.33341785867055518 0 0.31940688812320073 -0.32114172553523779 0 0.32813074893442251 -0.34418371868588848 0 0.32267668596175481 -0.33341785867055518 0 0.31771908807833588 -0.34170101098267841 0 0.32267668596175481 -0.33341785867055518 0 0.31771908807833588 -0.34170101098267841 0 0.31294298630122958 -0.33429540854302747 0 0.31771908807833588 -0.34170101098267841 0 0.31168118685013108 -0.34100175600761939 0 0.30987318817222509 -0.34571298684785262 0 0.31771908807833588 -0.34170101098267841 0 0.31294298630122958 -0.33429540854302747 0 0.31168118685013108 -0.34100175600761939 0 0.32267668596175481 -0.33341785867055518 0 0.31294298630122958 -0.33429540854302747 0 0.31940688812320073 -0.32114172553523779 0 0.31294298630122958 -0.33429540854302747 0 0.31940688812320073 -0.32114172553523779 0 0.30601167809918312 -0.32095610648709572 0 0.31940688812320073 -0.32114172553523779 0 0.30601167809918312 -0.32095610648709572 0 0.31236919290445669 -0.30090688950199113 0 0.30601167809918312 -0.32095610648709572 0 0.29267099061500118 -0.31767693215293968 0 0.29602111265001879 -0.30165816726207401 0 0.30601167809918312 -0.32095610648709572 0 0.30423517195087751 -0.34071154513897461 0 0.29267099061500118 -0.31767693215293968 0 0.31294298630122958 -0.33429540854302747 0 0.30601167809918312 -0.32095610648709572 0 0.30570887717953288 -0.34364700841230278 0 0.30423517195087751 -0.34071154513897461 0 0.29267099061500118 -0.31767693215293968 0 0.30601167809918312 -0.32095610648709572 0 0.30570887717953288 -0.34364700841230278 0 0.30423517195087751 -0.34071154513897461 0 0.31294298630122958 -0.33429540854302747 0 0.31168118685013108 -0.34100175600761939 0 0.30570887717953288 -0.34364700841230278 0 0.31168118685013108 -0.34100175600761939 0 0.30570887717953288 -0.34364700841230278 0 0.30987318817222509 -0.34571298684785262 0 0.30570887717953288 -0.34364700841230278 0 0.30423517195087751 -0.34071154513897461 0 0.30570887717953288 -0.34364700841230278 0 0.30351258495694688 -0.34255739421730541 0 0.30423517195087751 -0.34071154513897461 0 0.30570887717953288 -0.34364700841230278 0 0.30351258495694688 -0.34255739421730541 0 0.30351258495694688 -0.34255739421730541 0 0.30423517195087751 -0.34071154513897461 0 0.30423517195087751 -0.34071154513897461 0 0.29267099061500118 -0.31767693215293968 0 0.27697346549350221 -0.32939093076003212 0 0.30351258495694688 -0.34255739421730541 0 0.27697346549350221 -0.32939093076003212 0 0.30351258495694688 -0.34255739421730541 0 0.30423517195087751 -0.34071154513897461 0 0.27697346549350221 -0.32939093076003212 0 0.30351258495694688 -0.34255739421730541 0 0.28388279232808111 -0.34879423229863538 0 0.27697346549350221 -0.32939093076003212 0 0.3096773386499212 -0.3813243078888065 0 0.31915821050206972 -0.37043664262910392 0 0.29938815419514908 -0.36235191135060729 0 0.29526372343335222 -0.38214642848390951 0 0.29938815419514908 -0.36235191135060729 0 0.30570887717953288 -0.34364700841230278 0 0.30351258495694688 -0.34255739421730541 0 0.29938815419514908 -0.36235191135060729 0 0.31915821050206972 -0.37043664262910392 0 0.30570887717953288 -0.34364700841230278 0 0.30987318817222509 -0.34571298684785262 0 0.30351258495694688 -0.34255739421730541 0 0.29938815419514908 -0.36235191135060729 0 0.29225796469017368 -0.35486586181932289 0 0.31915821050206972 -0.37043664262910392 0 0.30570887717953288 -0.34364700841230278 0 0.29938815419514908 -0.36235191135060729 0 0.31915821050206972 -0.37043664262910392 0 0.30570887717953288 -0.34364700841230278 0 0.30351258495694688 -0.34255739421730541 0 0.29938815419514908 -0.36235191135060729 0 0.30570887717953288 -0.34364700841230278 0 0.30987318817222509 -0.34571298684785262 0 0.29225796469017368 -0.35486586181932289 0 0.28388279232808111 -0.34879423229863538 0 0.2822483272805178 -0.36575990941074382 0 0.30351258495694688 -0.34255739421730541 0 0.29225796469017368 -0.35486586181932289 0 0.28388279232808111 -0.34879423229863538 0 0.29526372343335222 -0.38214642848390951 0 0.29938815419514908 -0.36235191135060729 0 0.2822483272805178 -0.36575990941074382 0 0.29938815419514908 -0.36235191135060729 0 0.29225796469017368 -0.35486586181932289 0 0.2822483272805178 -0.36575990941074382 0 0.27569670368188232 -0.38326726020642471 0 0.2822483272805178 -0.36575990941074382 0 0.26273855981799532 -0.37402085189451678 0 0.2822483272805178 -0.36575990941074382 0 0.26391134377156378 -0.35745418407105078 0 0.26273855981799532 -0.37402085189451678 0 0.28388279232808111 -0.34879423229863538 0 0.2690396956517056 -0.34420120372419399 0 0.26391134377156378 -0.35745418407105078 0 0.28388279232808111 -0.34879423229863538 0 0.2822483272805178 -0.36575990941074382 0 0.26391134377156378 -0.35745418407105078 0 0.26391134377156378 -0.35745418407105078 0 0.25139118101367519 -0.34116546776705792 0 0.24725496166677341 -0.36469484034826838 0 0.2690396956517056 -0.34420120372419399 0 0.26391134377156378 -0.35745418407105078 0 0.25139118101367519 -0.34116546776705792 0 0.26391134377156378 -0.35745418407105078 0 0.26273855981799532 -0.37402085189451678 0 0.24725496166677341 -0.36469484034826838 0 0.26273855981799532 -0.37402085189451678 0 0.24725496166677341 -0.36469484034826838 0 0.2462658744323834 -0.38197959250061342 0 0.27697346549350221 -0.32939093076003212 0 0.2504343460300561 -0.31622446730276171 0 0.27399568940133018 -0.31084845435951231 0 0.29267099061500118 -0.31767693215293968 0 0.27697346549350221 -0.32939093076003212 0 0.27399568940133018 -0.31084845435951231 0 0.2690396956517056 -0.34420120372419399 0 0.27697346549350221 -0.32939093076003212 0 0.25139118101367519 -0.34116546776705792 0 0.28388279232808111 -0.34879423229863538 0 0.2690396956517056 -0.34420120372419399 0 0.27697346549350221 -0.32939093076003212 0 0.27697346549350221 -0.32939093076003212 0 0.25139118101367519 -0.34116546776705792 0 0.2504343460300561 -0.31622446730276171 0 0.27697346549350221 -0.32939093076003212 0 0.2504343460300561 -0.31622446730276171 0 0.2504343460300561 -0.31622446730276171 0 0.25790403393649142 -0.29221016043342007 0 0.26868825863076801 -0.29933442507853231 0 0.2504343460300561 -0.31622446730276171 0 0.27399568940133018 -0.31084845435951231 0 0.26868825863076801 -0.29933442507853231 0 0.25790403393649142 -0.29221016043342007 0 0.26247779924518422 -0.27455948017448001 0 0.23862998452346509 -0.28454510211497241 0 0.25790403393649142 -0.29221016043342007 0 0.27122533838754692 -0.28910882128364879 0 0.26247779924518422 -0.27455948017448001 0 0.27122533838754692 -0.28910882128364879 0 0.28742349607482037 -0.28773318483823551 0 0.26247779924518422 -0.27455948017448001 0 0.27122533838754692 -0.28910882128364879 0 0.27963310405047059 -0.29170685589357598 0 0.28742349607482037 -0.28773318483823551 0 0.25790403393649142 -0.29221016043342007 0 0.27122533838754692 -0.28910882128364879 0 0.26868825863076801 -0.29933442507853231 0 0.27122533838754692 -0.28910882128364879 0 0.27963310405047059 -0.29170685589357598 0 0.26868825863076801 -0.29933442507853231 0 0.27963310405047059 -0.29170685589357598 0 0.27399568940133018 -0.31084845435951231 0 0.26868825863076801 -0.29933442507853231 0 0.29267099061500118 -0.31767693215293968 0 0.27963310405047059 -0.29170685589357598 0 0.29267099061500118 -0.31767693215293968 0 0.27963310405047059 -0.29170685589357598 0 0.27399568940133018 -0.31084845435951231 0 0.29267099061500118 -0.31767693215293968 0 0.27963310405047059 -0.29170685589357598 0 0.29602111265001879 -0.30165816726207401 0 0.27963310405047059 -0.29170685589357598 0 0.29602111265001879 -0.30165816726207401 0 0.28742349607482037 -0.28773318483823551 0 0.28742349607482037 -0.28773318483823551 0 0.31236919290445669 -0.30090688950199113 0 0.29602111265001879 -0.30165816726207401 0 0.28742349607482037 -0.28773318483823551 0 0.31236919290445669 -0.30090688950199113 0 0.28742349607482037 -0.28773318483823551 0 0.31236919290445669 -0.30090688950199113 0 0.2973859747586714 -0.27579116796592118 0 0.31236919290445669 -0.30090688950199113 0 0.31219288969015102 -0.27103532748113379 0 0.2973859747586714 -0.27579116796592118 0 0.30601167809918312 -0.32095610648709572 0 0.29602111265001879 -0.30165816726207401 0 0.31236919290445669 -0.30090688950199113 0 0.30987088180634448 -0.24125362874219619 0 0.29250997527574701 -0.24677647679701359 0 0.31219288969015102 -0.27103532748113379 0 0.29250997527574701 -0.24677647679701359 0 0.31219288969015102 -0.27103532748113379 0 0.2896735531526361 -0.26412531454105981 0 0.31219288969015102 -0.27103532748113379 0 0.2973859747586714 -0.27579116796592118 0 0.2896735531526361 -0.26412531454105981 0 0.2973859747586714 -0.27579116796592118 0 0.28192096152604101 -0.27231994505035018 0 0.2896735531526361 -0.26412531454105981 0 0.28742349607482037 -0.28773318483823551 0 0.2973859747586714 -0.27579116796592118 0 0.28192096152604101 -0.27231994505035018 0 0.29250997527574701 -0.24677647679701359 0 0.2896735531526361 -0.26412531454105981 0 0.27534065318434953 -0.25880162201512719 0 0.28192096152604101 -0.27231994505035018 0 0.2896735531526361 -0.26412531454105981 0 0.27534065318434953 -0.25880162201512719 0 0.27462122614518292 -0.24127539045551061 0 0.27534065318434953 -0.25880162201512719 0 0.25726365536858148 -0.25362034743760148 0 0.28742349607482037 -0.28773318483823551 0 0.26247779924518422 -0.27455948017448001 0 0.28192096152604101 -0.27231994505035018 0 0.27534065318434953 -0.25880162201512719 0 0.26247779924518422 -0.27455948017448001 0 0.28742349607482037 -0.28773318483823551 0 0.28192096152604101 -0.27231994505035018 0 0.26247779924518422 -0.27455948017448001 0 0.26247779924518422 -0.27455948017448001 0 0.23753210241554801 -0.26138577551072451 0 0.26247779924518422 -0.27455948017448001 0 0.25726365536858148 -0.25362034743760148 0 0.23753210241554801 -0.26138577551072451 0 0.27534065318434953 -0.25880162201512719 0 0.26247779924518422 -0.27455948017448001 0 0.25726365536858148 -0.25362034743760148 0 0.23753210241554801 -0.26138577551072451 0 0.24146341680214309 -0.24448521489457861 0 0.2264227451730553 -0.24971222362376699 0 0.25726365536858148 -0.25362034743760148 0 0.23753210241554801 -0.26138577551072451 0 0.24146341680214309 -0.24448521489457861 0 0.26247779924518422 -0.27455948017448001 0 0.23753210241554801 -0.26138577551072451 0 0.23862998452346509 -0.28454510211497241 0 0.23753210241554801 -0.26138577551072451 0 0.2162589501465873 -0.27468266641732147 0 0.23862998452346509 -0.28454510211497241 0 0.23753210241554801 -0.26138577551072451 0 0.2162589501465873 -0.27468266641732147 0 0.2264227451730553 -0.24971222362376699 0 0.21040399342164171 -0.25176681621351038 0 0.2162589501465873 -0.27468266641732147 0 0.2264227451730553 -0.24971222362376699 0 0.21040399342164171 -0.25176681621351038 0 0.2162589501465873 -0.27468266641732147 0 0.1934777637386868 -0.26196852324515157 0 0.2162589501465873 -0.27468266641732147 0 0.1966688692062398 -0.27921476679881868 0 0.1934777637386868 -0.26196852324515157 0 0.1966688692062398 -0.27921476679881868 0 0.1934777637386868 -0.26196852324515157 0 0.177394147168592 -0.28445233252858981 0 0.21040399342164171 -0.25176681621351038 0 0.1934777637386868 -0.26196852324515157 0 0.19936230214102421 -0.2479946931896729 0 0.1934777637386868 -0.26196852324515157 0 0.18957958600208469 -0.24548130840959781 0 0.18140855909891221 -0.24875385404173869 0 0.1934777637386868 -0.26196852324515157 0 0.18957958600208469 -0.24548130840959781 0 0.19936230214102421 -0.2479946931896729 0 0.19954461577109309 -0.29575554500421197 0 0.1961972522999722 -0.32216937387389732 0 0.17947015261898311 -0.31043279954087621 0 0.1966688692062398 -0.27921476679881868 0 0.19954461577109309 -0.29575554500421197 0 0.177394147168592 -0.28445233252858981 0 0.2162589501465873 -0.27468266641732147 0 0.19954461577109309 -0.29575554500421197 0 0.22389522656661021 -0.30305800384549131 0 0.2162589501465873 -0.27468266641732147 0 0.1966688692062398 -0.27921476679881868 0 0.19954461577109309 -0.29575554500421197 0 0.19954461577109309 -0.29575554500421197 0 0.22389522656661021 -0.30305800384549131 0 0.1961972522999722 -0.32216937387389732 0 0.2504343460300561 -0.31622446730276171 0 0.25790403393649142 -0.29221016043342007 0 0.23862998452346509 -0.28454510211497241 0 0.2504343460300561 -0.31622446730276171 0 0.22389522656661021 -0.30305800384549131 0 0.23862998452346509 -0.28454510211497241 0 0.2162589501465873 -0.27468266641732147 0 0.22389522656661021 -0.30305800384549131 0 0.23862998452346509 -0.28454510211497241 0 0.2504343460300561 -0.31622446730276171 0 0.22389522656661021 -0.30305800384549131 0 0.22389522656661021 -0.30305800384549131 0 0.23204811719291779 -0.33532479601063409 0 0.2125404456115573 -0.3333426100015644 0 0.2504343460300561 -0.31622446730276171 0 0.22389522656661021 -0.30305800384549131 0 0.23204811719291779 -0.33532479601063409 0 0.25139118101367519 -0.34116546776705792 0 0.2504343460300561 -0.31622446730276171 0 0.23204811719291779 -0.33532479601063409 0 0.25139118101367519 -0.34116546776705792 0 0.23204811719291779 -0.33532479601063409 0 0.23339586826354061 -0.3539524211851004 0 0.23204811719291779 -0.33532479601063409 0 0.2148142246021956 -0.35440494078226209 0 0.2125404456115573 -0.3333426100015644 0 0.24725496166677341 -0.36469484034826838 0 0.23339586826354061 -0.3539524211851004 0 0.22607167799098421 -0.37270743793131111 0 0.24725496166677341 -0.36469484034826838 0 0.22607167799098421 -0.37270743793131111 0 0.2462658744323834 -0.38197959250061342 0 0.25139118101367519 -0.34116546776705792 0 0.24725496166677341 -0.36469484034826838 0 0.23339586826354061 -0.3539524211851004 0 0.23204811719291779 -0.33532479601063409 0 0.23339586826354061 -0.3539524211851004 0 0.2148142246021956 -0.35440494078226209 0 0.23339586826354061 -0.3539524211851004 0 0.22607167799098421 -0.37270743793131111 0 0.2148142246021956 -0.35440494078226209 0 0.22607167799098421 -0.37270743793131111 0 0.2148142246021956 -0.35440494078226209 0 0.20089624558916569 -0.37097766955135358 0 0.2148142246021956 -0.35440494078226209 0 0.196995760569282 -0.35087166092684791 0 0.2125404456115573 -0.3333426100015644 0 0.2148142246021956 -0.35440494078226209 0 0.196995760569282 -0.35087166092684791 0 0.20089624558916569 -0.37097766955135358 0 0.196995760569282 -0.35087166092684791 0 0.20089624558916569 -0.37097766955135358 0 0.1768321188753432 -0.36690628541415632 0 0.22389522656661021 -0.30305800384549131 0 0.2125404456115573 -0.3333426100015644 0 0.1961972522999722 -0.32216937387389732 0 0.196995760569282 -0.35087166092684791 0 0.2125404456115573 -0.3333426100015644 0 0.1961972522999722 -0.32216937387389732 0 0.196995760569282 -0.35087166092684791 0 0.1961972522999722 -0.32216937387389732 0 0.1815461580693743 -0.3364132665531625 0 0.1815461580693743 -0.3364132665531625 0 0.1643579081553766 -0.3243843153562348 0 0.17947015261898311 -0.31043279954087621 0 0.1815461580693743 -0.3364132665531625 0 0.17947015261898311 -0.31043279954087621 0 0.1961972522999722 -0.32216937387389732 0 0.1815461580693743 -0.3364132665531625 0 0.17947015261898311 -0.31043279954087621 0 0.1815461580693743 -0.3364132665531625 0 0.16209568629271459 -0.34050931120228572 0 0.17381591925058279 -0.35045305017024581 0 0.16209568629271459 -0.34050931120228572 0 0.1643579081553766 -0.3243843153562348 0 0.1490492594086629 -0.33054926329457512 0 0.1815461580693743 -0.3364132665531625 0 0.16209568629271459 -0.34050931120228572 0 0.1643579081553766 -0.3243843153562348 0 0.1643579081553766 -0.3243843153562348 0 0.14785798951182749 -0.31747381703923983 0 0.15879613053988581 -0.31078255386998788 0 0.1643579081553766 -0.3243843153562348 0 0.17947015261898311 -0.31043279954087621 0 0.15879613053988581 -0.31078255386998788 0 0.196995760569282 -0.35087166092684791 0 0.1815461580693743 -0.3364132665531625 0 0.17381591925058279 -0.35045305017024581 0 0.196995760569282 -0.35087166092684791 0 0.1768321188753432 -0.36690628541415632 0 0.196995760569282 -0.35087166092684791 0 0.1768321188753432 -0.36690628541415632 0 0.17381591925058279 -0.35045305017024581 0 0.16209568629271459 -0.34050931120228572 0 0.17381591925058279 -0.35045305017024581 0 0.15160987244619981 -0.35756472675477641 0 0.1768321188753432 -0.36690628541415632 0 0.17381591925058279 -0.35045305017024581 0 0.15160987244619981 -0.35756472675477641 0 0.1768321188753432 -0.36690628541415632 0 0.15160987244619981 -0.35756472675477641 0 0.15666847718140431 -0.38294090990146468 0 0.1768321188753432 -0.36690628541415632 0 0.15666847718140431 -0.38294090990146468 0 0.15160987244619981 -0.35756472675477641 0 0.13564640110034021 -0.35912784543918008 0 0.13554014667972011 -0.37371994475541209 0 0.15160987244619981 -0.35756472675477641 0 0.13554014667972011 -0.37371994475541209 0 0.15666847718140431 -0.38294090990146468 0 0.16209568629271459 -0.34050931120228572 0 0.15160987244619981 -0.35756472675477641 0 0.1475882597035684 -0.34306743954738478 0 0.15160987244619981 -0.35756472675477641 0 0.1343114121946197 -0.3455365503022883 0 0.1475882597035684 -0.34306743954738478 0 0.15160987244619981 -0.35756472675477641 0 0.1343114121946197 -0.3455365503022883 0 0.13564640110034021 -0.35912784543918008 0 0.1343114121946197 -0.3455365503022883 0 0.1218367566819203 -0.34066885685305681 0 0.1211241730808211 -0.35969015994424403 0 0.1343114121946197 -0.3455365503022883 0 0.13564640110034021 -0.35912784543918008 0 0.1211241730808211 -0.35969015994424403 0 0.13564640110034021 -0.35912784543918008 0 0.13554014667972011 -0.37371994475541209 0 0.1211241730808211 -0.35969015994424403 0 0.1643579081553766 -0.3243843153562348 0 0.14785798951182749 -0.31747381703923983 0 0.1490492594086629 -0.33054926329457512 0 0.14785798951182749 -0.31747381703923983 0 0.1490492594086629 -0.33054926329457512 0 0.13601489266483169 -0.3229904494785929 0 0.16209568629271459 -0.34050931120228572 0 0.1490492594086629 -0.33054926329457512 0 0.1475882597035684 -0.34306743954738478 0 0.1490492594086629 -0.33054926329457512 0 0.1475882597035684 -0.34306743954738478 0 0.1353950678134421 -0.33468762657073647 0 0.1490492594086629 -0.33054926329457512 0 0.1353950678134421 -0.33468762657073647 0 0.13601489266483169 -0.3229904494785929 0 0.1343114121946197 -0.3455365503022883 0 0.1475882597035684 -0.34306743954738478 0 0.1353950678134421 -0.33468762657073647 0 0.1343114121946197 -0.3455365503022883 0 0.1353950678134421 -0.33468762657073647 0 0.1218367566819203 -0.34066885685305681 0 0.1353950678134421 -0.33468762657073647 0 0.12646864396445259 -0.32771949481933838 0 0.13601489266483169 -0.3229904494785929 0 0.1353950678134421 -0.33468762657073647 0 0.12646864396445259 -0.32771949481933838 0 0.1218367566819203 -0.34066885685305681 0 0.12646864396445259 -0.32771949481933838 0 0.13601489266483169 -0.3229904494785929 0 0.1236403595102975 -0.31726182602291142 0 0.14785798951182749 -0.31747381703923983 0 0.13601489266483169 -0.3229904494785929 0 0.13602289492267541 -0.31130305695836602 0 0.13601489266483169 -0.3229904494785929 0 0.13602289492267541 -0.31130305695836602 0 0.1236403595102975 -0.31726182602291142 0 0.127428615210958 -0.30550107704066293 0 0.13602289492267541 -0.31130305695836602 0 0.1236403595102975 -0.31726182602291142 0 0.127428615210958 -0.30550107704066293 0 0.13551093200295419 -0.30168473438614679 0 0.1256525224322369 -0.29448257816376899 0 0.127428615210958 -0.30550107704066293 0 0.13551093200295419 -0.30168473438614679 0 0.13602289492267541 -0.31130305695836602 0 0.13551093200295419 -0.30168473438614679 0 0.13602289492267541 -0.31130305695836602 0 0.14563569558381231 -0.30495269920752849 0 0.14563569558381231 -0.30495269920752849 0 0.1436119925904093 -0.29293491915627751 0 0.1604468518829657 -0.29816604611383052 0 0.14785798951182749 -0.31747381703923983 0 0.13602289492267541 -0.31130305695836602 0 0.14563569558381231 -0.30495269920752849 0 0.13551093200295419 -0.30168473438614679 0 0.14563569558381231 -0.30495269920752849 0 0.1436119925904093 -0.29293491915627751 0 0.14563569558381231 -0.30495269920752849 0 0.15879613053988581 -0.31078255386998788 0 0.1604468518829657 -0.29816604611383052 0 0.14785798951182749 -0.31747381703923983 0 0.14563569558381231 -0.30495269920752849 0 0.15879613053988581 -0.31078255386998788 0 0.1436119925904093 -0.29293491915627751 0 0.1604468518829657 -0.29816604611383052 0 0.15777299279611159 -0.28544097237972332 0 0.1436119925904093 -0.29293491915627751 0 0.15114809845108379 -0.28013278059363872 0 0.15777299279611159 -0.28544097237972332 0 0.1436119925904093 -0.29293491915627751 0 0.1436168584679525 -0.2836209543501686 0 0.1357133019824012 -0.28986653681351437 0 0.1436119925904093 -0.29293491915627751 0 0.1436168584679525 -0.2836209543501686 0 0.15114809845108379 -0.28013278059363872 0 0.1436168584679525 -0.2836209543501686 0 0.12997183443900701 -0.2884276955838429 0 0.14612074404546729 -0.27464986070998659 0 0.1436168584679525 -0.2836209543501686 0 0.1357133019824012 -0.28986653681351437 0 0.12997183443900701 -0.2884276955838429 0 0.1436119925904093 -0.29293491915627751 0 0.1256525224322369 -0.29448257816376899 0 0.12997183443900701 -0.2884276955838429 0 0.14612074404546729 -0.27464986070998659 0 0.1436119925904093 -0.29293491915627751 0 0.1357133019824012 -0.28986653681351437 0 0.1256525224322369 -0.29448257816376899 0 0.13551093200295419 -0.30168473438614679 0 0.1436119925904093 -0.29293491915627751 0 0.1256525224322369 -0.29448257816376899 0 0.1357133019824012 -0.28986653681351437 0 0.1256525224322369 -0.29448257816376899 0 0.12997183443900701 -0.2884276955838429 0 0.1256525224322369 -0.29448257816376899 0 0.12997183443900701 -0.2884276955838429 0 0.1225628758501054 -0.2947488287446996 0 0.1256525224322369 -0.29448257816376899 0 0.12997183443900701 -0.2884276955838429 0 0.12997183443900701 -0.2884276955838429 0 0.1233634239504731 -0.2874855776093414 0 0.1225628758501054 -0.2947488287446996 0 0.12997183443900701 -0.2884276955838429 0 0.1225628758501054 -0.2947488287446996 0 0.12997183443900701 -0.2884276955838429 0 0.1275993617664036 -0.28112518425861122 0 0.1233634239504731 -0.2874855776093414 0 0.12997183443900701 -0.2884276955838429 0 0.1275993617664036 -0.28112518425861122 0 0.13485463758425459 -0.27391652201106309 0 0.1275993617664036 -0.28112518425861122 0 0.1280966355330338 -0.27434446718476552 0 0.12144198577599689 -0.28043819023602667 0 0.12997183443900701 -0.2884276955838429 0 0.14612074404546729 -0.27464986070998659 0 0.1420233446603141 -0.27153369043062148 0 0.12997183443900701 -0.2884276955838429 0 0.13485463758425459 -0.27391652201106309 0 0.1420233446603141 -0.27153369043062148 0 0.12997183443900701 -0.2884276955838429 0 0.1420233446603141 -0.27153369043062148 0 0.1275993617664036 -0.28112518425861122 0 0.1280966355330338 -0.27434446718476552 0 0.13485463758425459 -0.27391652201106309 0 0.1280966355330338 -0.27434446718476552 0 0.13485463758425459 -0.27391652201106309 0 0.13350735252106491 -0.26509119559065258 0 0.1280966355330338 -0.27434446718476552 0 0.13350735252106491 -0.26509119559065258 0 0.123327112510175 -0.26381005316279871 0 0.13811143923488059 -0.26777882680588339 0 0.13485463758425459 -0.27391652201106309 0 0.13350735252106491 -0.26509119559065258 0 0.13811143923488059 -0.26777882680588339 0 0.13485463758425459 -0.27391652201106309 0 0.1420233446603141 -0.27153369043062148 0 0.13350735252106491 -0.26509119559065258 0 0.1338120645475761 -0.25178135897747889 0 0.123327112510175 -0.26381005316279871 0 0.13350735252106491 -0.26509119559065258 0 0.1338120645475761 -0.25178135897747889 0 0.1420604221738889 -0.26057389919119672 0 0.13811143923488059 -0.26777882680588339 0 0.13350735252106491 -0.26509119559065258 0 0.1420604221738889 -0.26057389919119672 0 0.15407485488162029 -0.25463968527739939 0 0.1420233446603141 -0.27153369043062148 0 0.1338120645475761 -0.25178135897747889 0 0.15081333679343489 -0.24957271686280691 0 0.1504037114514421 -0.26476637401943331 0 0.15407485488162029 -0.25463968527739939 0 0.1420233446603141 -0.27153369043062148 0 0.1420604221738889 -0.26057389919119672 0 0.15407485488162029 -0.25463968527739939 0 0.1420233446603141 -0.27153369043062148 0 0.1338120645475761 -0.25178135897747889 0 0.14898820642875321 -0.25263106074458241 0 0.15081333679343489 -0.24957271686280691 0 0.1420604221738889 -0.26057389919119672 0 0.14898820642875321 -0.25263106074458241 0 0.15407485488162029 -0.25463968527739939 0 0.1338120645475761 -0.25178135897747889 0 0.14898820642875321 -0.25263106074458241 0 0.1338120645475761 -0.25178135897747889 0 0.1420604221738889 -0.26057389919119672 0 0.14898820642875321 -0.25263106074458241 0 0.1504037114514421 -0.26476637401943331 0 0.15407485488162029 -0.25463968527739939 0 0.15854298516514259 -0.2623064548534918 0 0.1504037114514421 -0.26476637401943331 0 0.15545765769127859 -0.26765705275147811 0 0.15854298516514259 -0.2623064548534918 0 0.14898820642875321 -0.25263106074458241 0 0.15407485488162029 -0.25463968527739939 0 0.16416434830993021 -0.25348076251168611 0 0.14898820642875321 -0.25263106074458241 0 0.16416434830993021 -0.25348076251168611 0 0.15081333679343489 -0.24957271686280691 0 0.1436168584679525 -0.2836209543501686 0 0.14612074404546729 -0.27464986070998659 0 0.15114809845108379 -0.28013278059363872 0 0.13811143923488059 -0.26777882680588339 0 0.1420604221738889 -0.26057389919119672 0 0.1420233446603141 -0.27153369043062148 0 0.1504037114514421 -0.26476637401943331 0 0.1420233446603141 -0.27153369043062148 0 0.14774651714261711 -0.27061417123897102 0 0.14612074404546729 -0.27464986070998659 0 0.1420233446603141 -0.27153369043062148 0 0.14774651714261711 -0.27061417123897102 0 0.15545765769127859 -0.26765705275147811 0 0.1524382684132447 -0.27150675979584271 0 0.16044566573528521 -0.27204862233714472 0 0.14612074404546729 -0.27464986070998659 0 0.14774651714261711 -0.27061417123897102 0 0.1524382684132447 -0.27150675979584271 0 0.1504037114514421 -0.26476637401943331 0 0.14774651714261711 -0.27061417123897102 0 0.1524382684132447 -0.27150675979584271 0 0.1504037114514421 -0.26476637401943331 0 0.15545765769127859 -0.26765705275147811 0 0.1524382684132447 -0.27150675979584271 0 0.1524382684132447 -0.27150675979584271 0 0.15114809845108379 -0.28013278059363872 0 0.16044566573528521 -0.27204862233714472 0 0.14612074404546729 -0.27464986070998659 0 0.1524382684132447 -0.27150675979584271 0 0.15114809845108379 -0.28013278059363872 0 0.16044566573528521 -0.27204862233714472 0 0.16717305761943019 -0.26615200754944318 0 0.177394147168592 -0.28445233252858981 0 0.16044566573528521 -0.27204862233714472 0 0.177394147168592 -0.28445233252858981 0 0.15777299279611159 -0.28544097237972332 0 0.15114809845108379 -0.28013278059363872 0 0.16044566573528521 -0.27204862233714472 0 0.15777299279611159 -0.28544097237972332 0 0.15545765769127859 -0.26765705275147811 0 0.16044566573528521 -0.27204862233714472 0 0.15854298516514259 -0.2623064548534918 0 0.16044566573528521 -0.27204862233714472 0 0.16717305761943019 -0.26615200754944318 0 0.15854298516514259 -0.2623064548534918 0 0.15407485488162029 -0.25463968527739939 0 0.15854298516514259 -0.2623064548534918 0 0.16416434830993021 -0.25348076251168611 0 0.14898820642875321 -0.25263106074458241 0 0.16416434830993021 -0.25348076251168611 0 0.16416434830993021 -0.25348076251168611 0 0.15746623258843939 -0.24717962177743169 0 0.15081333679343489 -0.24957271686280691 0 0.16717305761943019 -0.26615200754944318 0 0.15854298516514259 -0.2623064548534918 0 0.16416434830993021 -0.25348076251168611 0 0.16717305761943019 -0.26615200754944318 0 0.16416434830993021 -0.25348076251168611 0 0.17531814171820079 -0.25847186551630352 0 0.1934777637386868 -0.26196852324515157 0 0.17531814171820079 -0.25847186551630352 0 0.18140855909891221 -0.24875385404173869 0 0.16717305761943019 -0.26615200754944318 0 0.17531814171820079 -0.25847186551630352 0 0.177394147168592 -0.28445233252858981 0 0.1934777637386868 -0.26196852324515157 0 0.17531814171820079 -0.25847186551630352 0 0.177394147168592 -0.28445233252858981 0 0.17531814171820079 -0.25847186551630352 0 0.177394147168592 -0.28445233252858981 0 0.177394147168592 -0.28445233252858981 0 0.17947015261898311 -0.31043279954087621 0 0.1604468518829657 -0.29816604611383052 0 0.19954461577109309 -0.29575554500421197 0 0.177394147168592 -0.28445233252858981 0 0.17947015261898311 -0.31043279954087621 0 0.177394147168592 -0.28445233252858981 0 0.17947015261898311 -0.31043279954087621 0 0.17947015261898311 -0.31043279954087621 0 0.15879613053988581 -0.31078255386998788 0 0.1604468518829657 -0.29816604611383052 0 0.177394147168592 -0.28445233252858981 0 0.1604468518829657 -0.29816604611383052 0 0.15777299279611159 -0.28544097237972332 0 0.19199278516569629 -0.5 0 0.1900164382224285 -0.48271496941050879 0 0.20545646434069309 -0.4787017342280358 0 0.1900164382224285 -0.48271496941050879 0 0.20545646434069309 -0.4787017342280358 0 0.18613842771148381 -0.46787851807202258 0 0.20545646434069309 -0.4787017342280358 0 0.2281108343262262 -0.48056582836830158 0 0.21973600360042431 -0.45949417383294189 0 0.20545646434069309 -0.4787017342280358 0 0.21796904096784361 -0.5 0 0.2281108343262262 -0.48056582836830158 0 0.19199278516569629 -0.5 0 0.20545646434069309 -0.4787017342280358 0 0.21796904096784361 -0.5 0 0.21796904096784361 -0.5 0 0.24394529676999099 -0.5 0 0.2281108343262262 -0.48056582836830158 0 0.25460761733926612 -0.48077428153223201 0 0.24394529676999099 -0.5 0 0.2281108343262262 -0.48056582836830158 0 0.2281108343262262 -0.48056582836830158 0 0.24642569303344669 -0.46176391886762419 0 0.25460761733926612 -0.48077428153223201 0 0.2281108343262262 -0.48056582836830158 0 0.24642569303344669 -0.46176391886762419 0 0.2281108343262262 -0.48056582836830158 0 0.21973600360042431 -0.45949417383294189 0 0.2323887624892686 -0.4611014010944845 0 0.21973600360042431 -0.45949417383294189 0 0.2323887624892686 -0.4611014010944845 0 0.23528251899697711 -0.44258168330907049 0 0.2281108343262262 -0.48056582836830158 0 0.2323887624892686 -0.4611014010944845 0 0.24642569303344669 -0.46176391886762419 0 0.2323887624892686 -0.4611014010944845 0 0.24642569303344669 -0.46176391886762419 0 0.23528251899697711 -0.44258168330907049 0 0.2647405517406643 -0.44296200936694391 0 0.23528251899697711 -0.44258168330907049 0 0.24937758952868769 -0.43582476186075059 0 0.2647405517406643 -0.44296200936694391 0 0.24642569303344669 -0.46176391886762419 0 0.23528251899697711 -0.44258168330907049 0 0.21973600360042431 -0.45949417383294189 0 0.23528251899697711 -0.44258168330907049 0 0.20582448625328989 -0.44220135725120002 0 0.23528251899697711 -0.44258168330907049 0 0.20582448625328989 -0.44220135725120002 0 0.23528251899697711 -0.44258168330907049 0 0.20582448625328989 -0.44220135725120002 0 0.22256526670295609 -0.43567624475563838 0 0.20545646434069309 -0.4787017342280358 0 0.21973600360042431 -0.45949417383294189 0 0.202602484605724 -0.45942999972385479 0 0.21973600360042431 -0.45949417383294189 0 0.20582448625328989 -0.44220135725120002 0 0.202602484605724 -0.45942999972385479 0 0.202602484605724 -0.45942999972385479 0 0.19228485390892139 -0.44832807257495588 0 0.18613842771148381 -0.46787851807202258 0 0.20545646434069309 -0.4787017342280358 0 0.202602484605724 -0.45942999972385479 0 0.18613842771148381 -0.46787851807202258 0 0.20582448625328989 -0.44220135725120002 0 0.202602484605724 -0.45942999972385479 0 0.19228485390892139 -0.44832807257495588 0 0.20582448625328989 -0.44220135725120002 0 0.19228485390892139 -0.44832807257495588 0 0.1986877949313606 -0.42882383702638299 0 0.19228485390892139 -0.44832807257495588 0 0.1986877949313606 -0.42882383702638299 0 0.183200271073473 -0.43641073338783498 0 0.1986877949313606 -0.42882383702638299 0 0.1816281482625339 -0.41415137017959991 0 0.183200271073473 -0.43641073338783498 0 0.20582455939560251 -0.41258395769508027 0 0.1950935246886642 -0.40110820421824778 0 0.1816281482625339 -0.41415137017959991 0 0.1986877949313606 -0.42882383702638299 0 0.20582455939560251 -0.41258395769508027 0 0.1816281482625339 -0.41415137017959991 0 0.20582455939560251 -0.41258395769508027 0 0.21384958020830239 -0.42892716952759119 0 0.2218345854540221 -0.41854111548045619 0 0.20582455939560251 -0.41258395769508027 0 0.2218345854540221 -0.41854111548045619 0 0.2220903860499629 -0.40641314768071007 0 0.1986877949313606 -0.42882383702638299 0 0.20582455939560251 -0.41258395769508027 0 0.21384958020830239 -0.42892716952759119 0 0.20582448625328989 -0.44220135725120002 0 0.21384958020830239 -0.42892716952759119 0 0.22256526670295609 -0.43567624475563838 0 0.20582448625328989 -0.44220135725120002 0 0.1986877949313606 -0.42882383702638299 0 0.21384958020830239 -0.42892716952759119 0 0.21384958020830239 -0.42892716952759119 0 0.22256526670295609 -0.43567624475563838 0 0.23530448135325491 -0.42899476893469179 0 0.21384958020830239 -0.42892716952759119 0 0.23530448135325491 -0.42899476893469179 0 0.21384958020830239 -0.42892716952759119 0 0.23530448135325491 -0.42899476893469179 0 0.2218345854540221 -0.41854111548045619 0 0.23528251899697711 -0.44258168330907049 0 0.22256526670295609 -0.43567624475563838 0 0.23530448135325491 -0.42899476893469179 0 0.25675938249820729 -0.42906236834179229 0 0.23530448135325491 -0.42899476893469179 0 0.23528251899697711 -0.44258168330907049 0 0.23530448135325491 -0.42899476893469179 0 0.24937758952868769 -0.43582476186075059 0 0.25675938249820729 -0.42906236834179229 0 0.23530448135325491 -0.42899476893469179 0 0.24471655788437549 -0.41836465708289111 0 0.25675938249820729 -0.42906236834179229 0 0.23530448135325491 -0.42899476893469179 0 0.24937758952868769 -0.43582476186075059 0 0.25834465052961392 -0.41196496969487773 0 0.24471655788437549 -0.41836465708289111 0 0.2415255849161019 -0.40609463635975013 0 0.23530448135325491 -0.42899476893469179 0 0.24471655788437549 -0.41836465708289111 0 0.23210392026298771 -0.41578653356420769 0 0.24471655788437549 -0.41836465708289111 0 0.23210392026298771 -0.41578653356420769 0 0.2415255849161019 -0.40609463635975013 0 0.23210392026298771 -0.41578653356420769 0 0.2220903860499629 -0.40641314768071007 0 0.2415255849161019 -0.40609463635975013 0 0.23530448135325491 -0.42899476893469179 0 0.23210392026298771 -0.41578653356420769 0 0.2218345854540221 -0.41854111548045619 0 0.23210392026298771 -0.41578653356420769 0 0.2218345854540221 -0.41854111548045619 0 0.2220903860499629 -0.40641314768071007 0 0.2220903860499629 -0.40641314768071007 0 0.2325848323457651 -0.39226733923237422 0 0.2415255849161019 -0.40609463635975013 0 0.2220903860499629 -0.40641314768071007 0 0.2325848323457651 -0.39226733923237422 0 0.20793944219493879 -0.39039719718598698 0 0.25113336278303172 -0.39639034007073559 0 0.2325848323457651 -0.39226733923237422 0 0.2415255849161019 -0.40609463635975013 0 0.25113336278303172 -0.39639034007073559 0 0.2325848323457651 -0.39226733923237422 0 0.2462658744323834 -0.38197959250061342 0 0.22607167799098421 -0.37270743793131111 0 0.2325848323457651 -0.39226733923237422 0 0.2462658744323834 -0.38197959250061342 0 0.22607167799098421 -0.37270743793131111 0 0.2325848323457651 -0.39226733923237422 0 0.20793944219493879 -0.39039719718598698 0 0.22607167799098421 -0.37270743793131111 0 0.20089624558916569 -0.37097766955135358 0 0.20793944219493879 -0.39039719718598698 0 0.20582455939560251 -0.41258395769508027 0 0.2220903860499629 -0.40641314768071007 0 0.20793944219493879 -0.39039719718598698 0 0.20793944219493879 -0.39039719718598698 0 0.1950935246886642 -0.40110820421824778 0 0.18397260247544159 -0.38969422049886882 0 0.20582455939560251 -0.41258395769508027 0 0.20793944219493879 -0.39039719718598698 0 0.1950935246886642 -0.40110820421824778 0 0.20089624558916569 -0.37097766955135358 0 0.20793944219493879 -0.39039719718598698 0 0.18397260247544159 -0.38969422049886882 0 0.20089624558916569 -0.37097766955135358 0 0.1768321188753432 -0.36690628541415632 0 0.18397260247544159 -0.38969422049886882 0 0.1768321188753432 -0.36690628541415632 0 0.18397260247544159 -0.38969422049886882 0 0.15666847718140431 -0.38294090990146468 0 0.1950935246886642 -0.40110820421824778 0 0.18397260247544159 -0.38969422049886882 0 0.1816281482625339 -0.41415137017959991 0 0.18397260247544159 -0.38969422049886882 0 0.16282522567504601 -0.40076461101477862 0 0.1816281482625339 -0.41415137017959991 0 0.18397260247544159 -0.38969422049886882 0 0.16282522567504601 -0.40076461101477862 0 0.15666847718140431 -0.38294090990146468 0 0.13554014667972011 -0.37371994475541209 0 0.15666847718140431 -0.38294090990146468 0 0.13650483548746539 -0.39897553438877298 0 0.13554014667972011 -0.37371994475541209 0 0.13650483548746539 -0.39897553438877298 0 0.11257503074115451 -0.38498649823446041 0 0.16282522567504601 -0.40076461101477862 0 0.13650483548746539 -0.39897553438877298 0 0.15535206496838491 -0.41806102010518609 0 0.16282522567504601 -0.40076461101477862 0 0.15666847718140431 -0.38294090990146468 0 0.13650483548746539 -0.39897553438877298 0 0.15666847718140431 -0.38294090990146468 0 0.13650483548746539 -0.39897553438877298 0 0.13650483548746539 -0.39897553438877298 0 0.15535206496838491 -0.41806102010518609 0 0.13513029091253781 -0.42041342615249999 0 0.13650483548746539 -0.39897553438877298 0 0.1163411937935266 -0.41501015887608139 0 0.13650483548746539 -0.39897553438877298 0 0.13513029091253781 -0.42041342615249999 0 0.1163411937935266 -0.41501015887608139 0 0.13513029091253781 -0.42041342615249999 0 0.15032059054535499 -0.43467939270726969 0 0.13254635452133279 -0.44085243440563188 0 0.13513029091253781 -0.42041342615249999 0 0.13254635452133279 -0.44085243440563188 0 0.1143868512917591 -0.43285467588419202 0 0.15535206496838491 -0.41806102010518609 0 0.13513029091253781 -0.42041342615249999 0 0.15032059054535499 -0.43467939270726969 0 0.15535206496838491 -0.41806102010518609 0 0.15032059054535499 -0.43467939270726969 0 0.16908223299646141 -0.42841704329178959 0 0.15032059054535499 -0.43467939270726969 0 0.16908223299646141 -0.42841704329178959 0 0.16335318746445779 -0.4445252196366028 0 0.16282522567504601 -0.40076461101477862 0 0.15535206496838491 -0.41806102010518609 0 0.1816281482625339 -0.41415137017959991 0 0.15535206496838491 -0.41806102010518609 0 0.16908223299646141 -0.42841704329178959 0 0.1816281482625339 -0.41415137017959991 0 0.16908223299646141 -0.42841704329178959 0 0.183200271073473 -0.43641073338783498 0 0.16335318746445779 -0.4445252196366028 0 0.16908223299646141 -0.42841704329178959 0 0.1816281482625339 -0.41415137017959991 0 0.183200271073473 -0.43641073338783498 0 0.183200271073473 -0.43641073338783498 0 0.1772803827575771 -0.45352317498248768 0 0.16335318746445779 -0.4445252196366028 0 0.19228485390892139 -0.44832807257495588 0 0.183200271073473 -0.43641073338783498 0 0.1772803827575771 -0.45352317498248768 0 0.19228485390892139 -0.44832807257495588 0 0.1772803827575771 -0.45352317498248768 0 0.18613842771148381 -0.46787851807202258 0 0.1772803827575771 -0.45352317498248768 0 0.18613842771148381 -0.46787851807202258 0 0.16548752239589951 -0.46480458862744461 0 0.16548752239589951 -0.46480458862744461 0 0.16335318746445779 -0.4445252196366028 0 0.1464594124089553 -0.4558072126519076 0 0.1772803827575771 -0.45352317498248768 0 0.16548752239589951 -0.46480458862744461 0 0.16335318746445779 -0.4445252196366028 0 0.15032059054535499 -0.43467939270726969 0 0.16335318746445779 -0.4445252196366028 0 0.1464594124089553 -0.4558072126519076 0 0.15032059054535499 -0.43467939270726969 0 0.13254635452133279 -0.44085243440563188 0 0.1464594124089553 -0.4558072126519076 0 0.13254635452133279 -0.44085243440563188 0 0.1274715551183096 -0.46736641087901343 0 0.1464594124089553 -0.4558072126519076 0 0.16548752239589951 -0.46480458862744461 0 0.1464594124089553 -0.4558072126519076 0 0.1467440422409298 -0.48368320543950499 0 0.1274715551183096 -0.46736641087901343 0 0.1467440422409298 -0.48368320543950499 0 0.12445287299781339 -0.48580957524003149 0 0.1274715551183096 -0.46736641087901343 0 0.1464594124089553 -0.4558072126519076 0 0.1467440422409298 -0.48368320543950499 0 0.1274715551183096 -0.46736641087901343 0 0.1467440422409298 -0.48368320543950499 0 0.1467440422409298 -0.48368320543950499 0 0.13861342094189541 -0.5 0 0.12445287299781339 -0.48580957524003149 0 0.1467440422409298 -0.48368320543950499 0 0.13861342094189541 -0.5 0 0.16601652936354891 -0.49999999999999789 0 0.1467440422409298 -0.48368320543950499 0 0.16601652936354891 -0.49999999999999789 0 0.1742528725293658 -0.48296598532830509 0 0.1467440422409298 -0.48368320543950499 0 0.16601652936354891 -0.49999999999999789 0 0.16548752239589951 -0.46480458862744461 0 0.1467440422409298 -0.48368320543950499 0 0.1742528725293658 -0.48296598532830509 0 0.18613842771148381 -0.46787851807202258 0 0.16548752239589951 -0.46480458862744461 0 0.1742528725293658 -0.48296598532830509 0 0.1900164382224285 -0.48271496941050879 0 0.18613842771148381 -0.46787851807202258 0 0.1742528725293658 -0.48296598532830509 0 0.19199278516569629 -0.5 0 0.16601652936354891 -0.49999999999999789 0 0.1742528725293658 -0.48296598532830509 0 0.19199278516569629 -0.5 0 0.1900164382224285 -0.48271496941050879 0 0.1742528725293658 -0.48296598532830509 0 0.067672963152933252 -0.5 0 0.070479040632291823 -0.48264211959480191 0 0.053020152767299072 -0.48801933676575959 0 0.067672963152933252 -0.5 0 0.070479040632291823 -0.48264211959480191 0 0.080327064833409109 -0.49320164294834518 0 0.064630060102032719 -0.47456076603106118 0 0.075246676549625066 -0.47305272083988897 0 0.070479040632291823 -0.48264211959480191 0 0.064630060102032719 -0.47456076603106118 0 0.075246676549625066 -0.47305272083988897 0 0.061795930812101732 -0.46820781613902701 0 0.075246676549625066 -0.47305272083988897 0 0.092517011764567517 -0.47378197497117353 0 0.089959488850471461 -0.49094383163907668 0 0.075246676549625066 -0.47305272083988897 0 0.070479040632291823 -0.48264211959480191 0 0.089959488850471461 -0.49094383163907668 0 0.075246676549625066 -0.47305272083988897 0 0.092517011764567517 -0.47378197497117353 0 0.083633368414380696 -0.46621164320728742 0 0.075246676549625066 -0.47305272083988897 0 0.089959488850471461 -0.49094383163907668 0 0.067672963152933252 -0.5 0 0.080327064833409109 -0.49320164294834518 0 0.097406857924120502 -0.499999999999999 0 0.080327064833409109 -0.49320164294834518 0 0.089959488850471461 -0.49094383163907668 0 0.097406857924120502 -0.499999999999999 0 0.070479040632291823 -0.48264211959480191 0 0.080327064833409109 -0.49320164294834518 0 0.089959488850471461 -0.49094383163907668 0 0.070479040632291823 -0.48264211959480191 0 0.089959488850471461 -0.49094383163907668 0 0.089959488850471461 -0.49094383163907668 0 0.097406857924120502 -0.499999999999999 0 0.089959488850471461 -0.49094383163907668 0 0.097406857924120502 -0.499999999999999 0 0.1112103125202419 -0.50000000000000022 0 0.089959488850471461 -0.49094383163907668 0 0.1052052932537345 -0.48462989700511527 0 0.1112103125202419 -0.50000000000000022 0 0.089959488850471461 -0.49094383163907668 0 0.1112103125202419 -0.50000000000000022 0 0.1052052932537345 -0.48462989700511527 0 0.1112103125202419 -0.50000000000000022 0 0.12445287299781339 -0.48580957524003149 0 0.13861342094189541 -0.5 0 0.1112103125202419 -0.50000000000000022 0 0.12445287299781339 -0.48580957524003149 0 0.1052052932537345 -0.48462989700511527 0 0.12445287299781339 -0.48580957524003149 0 0.10908141417361709 -0.46883823252096812 0 0.1274715551183096 -0.46736641087901343 0 0.12445287299781339 -0.48580957524003149 0 0.10908141417361709 -0.46883823252096812 0 0.092517011764567517 -0.47378197497117353 0 0.089959488850471461 -0.49094383163907668 0 0.1052052932537345 -0.48462989700511527 0 0.092517011764567517 -0.47378197497117353 0 0.1052052932537345 -0.48462989700511527 0 0.10908141417361709 -0.46883823252096812 0 0.092517011764567517 -0.47378197497117353 0 0.10908141417361709 -0.46883823252096812 0 0.090724871429903375 -0.45809280890615561 0 0.10908141417361709 -0.46883823252096812 0 0.1081990679956894 -0.4510496163185217 0 0.090724871429903375 -0.45809280890615561 0 0.1274715551183096 -0.46736641087901343 0 0.10908141417361709 -0.46883823252096812 0 0.1081990679956894 -0.4510496163185217 0 0.1274715551183096 -0.46736641087901343 0 0.1081990679956894 -0.4510496163185217 0 0.13254635452133279 -0.44085243440563188 0 0.1274715551183096 -0.46736641087901343 0 0.1081990679956894 -0.4510496163185217 0 0.13254635452133279 -0.44085243440563188 0 0.1081990679956894 -0.4510496163185217 0 0.1143868512917591 -0.43285467588419202 0 0.1081990679956894 -0.4510496163185217 0 0.09424645164530171 -0.44210268425789312 0 0.090724871429903375 -0.45809280890615561 0 0.1081990679956894 -0.4510496163185217 0 0.09424645164530171 -0.44210268425789312 0 0.1143868512917591 -0.43285467588419202 0 0.09424645164530171 -0.44210268425789312 0 0.078924008128618786 -0.44927425917818692 0 0.090724871429903375 -0.45809280890615561 0 0.09424645164530171 -0.44210268425789312 0 0.078924008128618786 -0.44927425917818692 0 0.079815715379254276 -0.43713965414436617 0 0.092517011764567517 -0.47378197497117353 0 0.090724871429903375 -0.45809280890615561 0 0.083633368414380696 -0.46621164320728742 0 0.075246676549625066 -0.47305272083988897 0 0.083633368414380696 -0.46621164320728742 0 0.07604491391342684 -0.45991906811193117 0 0.090724871429903375 -0.45809280890615561 0 0.083633368414380696 -0.46621164320728742 0 0.07604491391342684 -0.45991906811193117 0 0.078924008128618786 -0.44927425917818692 0 0.090724871429903375 -0.45809280890615561 0 0.07604491391342684 -0.45991906811193117 0 0.075246676549625066 -0.47305272083988897 0 0.07604491391342684 -0.45991906811193117 0 0.060533864248779268 -0.45516161004070088 0 0.075246676549625066 -0.47305272083988897 0 0.060533864248779268 -0.45516161004070088 0 0.061795930812101732 -0.46820781613902701 0 0.078924008128618786 -0.44927425917818692 0 0.07604491391342684 -0.45991906811193117 0 0.066742638013750744 -0.45361708446569943 0 0.075246676549625066 -0.47305272083988897 0 0.060533864248779268 -0.45516161004070088 0 0.07604491391342684 -0.45991906811193117 0 0.066742638013750744 -0.45361708446569943 0 0.060533864248779268 -0.45516161004070088 0 0.066742638013750744 -0.45361708446569943 0 0.060533864248779268 -0.45516161004070088 0 0.066742638013750744 -0.45361708446569943 0 0.070851891070507364 -0.4429924727175758 0 0.060604784186928162 -0.44219524034701829 0 0.066742638013750744 -0.45361708446569943 0 0.060604784186928162 -0.44219524034701829 0 0.060533864248779268 -0.45516161004070088 0 0.070851891070507364 -0.4429924727175758 0 0.068700271916894928 -0.43290455926873739 0 0.060604784186928162 -0.44219524034701829 0 0.078924008128618786 -0.44927425917818692 0 0.070851891070507364 -0.4429924727175758 0 0.079815715379254276 -0.43713965414436617 0 0.070851891070507364 -0.4429924727175758 0 0.068700271916894928 -0.43290455926873739 0 0.079815715379254276 -0.43713965414436617 0 0.078924008128618786 -0.44927425917818692 0 0.066742638013750744 -0.45361708446569943 0 0.070851891070507364 -0.4429924727175758 0 0.068700271916894928 -0.43290455926873739 0 0.078113452497016317 -0.41994308157894578 0 0.079815715379254276 -0.43713965414436617 0 0.068700271916894928 -0.43290455926873739 0 0.078113452497016317 -0.41994308157894578 0 0.058719347470543831 -0.42372109043242612 0 0.068700271916894928 -0.43290455926873739 0 0.058719347470543831 -0.42372109043242612 0 0.060604784186928162 -0.44219524034701829 0 0.078113452497016317 -0.41994308157894578 0 0.070468827029821934 -0.40290810194725279 0 0.058719347470543831 -0.42372109043242612 0 0.078113452497016317 -0.41994308157894578 0 0.093810327587010828 -0.40408349715757252 0 0.070468827029821934 -0.40290810194725279 0 0.078113452497016317 -0.41994308157894578 0 0.096321857990668808 -0.42533267408736197 0 0.093810327587010828 -0.40408349715757252 0 0.078113452497016317 -0.41994308157894578 0 0.079815715379254276 -0.43713965414436617 0 0.096321857990668808 -0.42533267408736197 0 0.09424645164530171 -0.44210268425789312 0 0.079815715379254276 -0.43713965414436617 0 0.096321857990668808 -0.42533267408736197 0 0.09424645164530171 -0.44210268425789312 0 0.096321857990668808 -0.42533267408736197 0 0.1143868512917591 -0.43285467588419202 0 0.096321857990668808 -0.42533267408736197 0 0.1143868512917591 -0.43285467588419202 0 0.1163411937935266 -0.41501015887608139 0 0.13513029091253781 -0.42041342615249999 0 0.1143868512917591 -0.43285467588419202 0 0.1163411937935266 -0.41501015887608139 0 0.096321857990668808 -0.42533267408736197 0 0.1163411937935266 -0.41501015887608139 0 0.093810327587010828 -0.40408349715757252 0 0.1163411937935266 -0.41501015887608139 0 0.093810327587010828 -0.40408349715757252 0 0.11257503074115451 -0.38498649823446041 0 0.13650483548746539 -0.39897553438877298 0 0.1163411937935266 -0.41501015887608139 0 0.11257503074115451 -0.38498649823446041 0 0.11257503074115451 -0.38498649823446041 0 0.085185771917526548 -0.37977283474271561 0 0.10079201747098269 -0.36412242239479142 0 0.093810327587010828 -0.40408349715757252 0 0.11257503074115451 -0.38498649823446041 0 0.085185771917526548 -0.37977283474271561 0 0.093810327587010828 -0.40408349715757252 0 0.085185771917526548 -0.37977283474271561 0 0.070468827029821934 -0.40290810194725279 0 0.085185771917526548 -0.37977283474271561 0 0.070468827029821934 -0.40290810194725279 0 0.057841008155207027 -0.38245658693310142 0 0.070468827029821934 -0.40290810194725279 0 0.057841008155207027 -0.38245658693310142 0 0.049143054551627013 -0.40747152083875582 0 0.057841008155207027 -0.38245658693310142 0 0.043656632087297011 -0.39232656597616861 0 0.049143054551627013 -0.40747152083875582 0 0.043656632087297011 -0.39232656597616861 0 0.028999000949789959 -0.40147898970888801 0 0.049143054551627013 -0.40747152083875582 0 0.043656632087297011 -0.39232656597616861 0 0.028999000949789959 -0.40147898970888801 0 0.032111139506758431 -0.37191992684122582 0 0.057841008155207027 -0.38245658693310142 0 0.043656632087297011 -0.39232656597616861 0 0.032111139506758431 -0.37191992684122582 0 0.011472045166716269 -0.38952867199447438 0 0.032111139506758431 -0.37191992684122582 0 0.011472045166716269 -0.38952867199447438 0 0.028999000949789959 -0.40147898970888801 0 0.032111139506758431 -0.37191992684122582 0 0.011472045166716269 -0.38952867199447438 0 0.032111139506758431 -0.37191992684122582 0 0.0095024714850780283 -0.37458082262515818 0 -0.0042332821090469977 -0.36931681778231101 0 -0.0014384839491562609 -0.38294108750953337 0 0.0095024714850780283 -0.37458082262515818 0 -0.0014384839491562609 -0.38294108750953337 0 0.011472045166716269 -0.38952867199447438 0 0.0095024714850780283 -0.37458082262515818 0 -0.0091670491733258502 -0.407137417147723 0 0.011472045166716269 -0.38952867199447438 0 0.005108664055598287 -0.40528738143041459 0 0.011472045166716269 -0.38952867199447438 0 0.005108664055598287 -0.40528738143041459 0 0.01434864661312045 -0.40656634948070969 0 -0.0091670491733258502 -0.407137417147723 0 0.011472045166716269 -0.38952867199447438 0 0.011472045166716269 -0.38952867199447438 0 0.028999000949789959 -0.40147898970888801 0 0.01434864661312045 -0.40656634948070969 0 0.028999000949789959 -0.40147898970888801 0 0.01434864661312045 -0.40656634948070969 0 0.016816745003192791 -0.42357542462247538 0 0.028999000949789959 -0.40147898970888801 0 0.016816745003192791 -0.42357542462247538 0 0.038035624732997701 -0.42318917072202022 0 0.01434864661312045 -0.40656634948070969 0 0.0037810136158822729 -0.41791708709875131 0 0.016816745003192791 -0.42357542462247538 0 0.005108664055598287 -0.40528738143041459 0 0.01434864661312045 -0.40656634948070969 0 0.0037810136158822729 -0.41791708709875131 0 0.00079488181500260609 -0.42987501851034571 0 0.016816745003192791 -0.42357542462247538 0 0.0068165806591294316 -0.44348526320397952 0 0.0037810136158822729 -0.41791708709875131 0 0.00079488181500260609 -0.42987501851034571 0 0.016816745003192791 -0.42357542462247538 0 0.016816745003192791 -0.42357542462247538 0 0.038035624732997701 -0.42318917072202022 0 0.02666676983233552 -0.44312735458325581 0 0.016816745003192791 -0.42357542462247538 0 0.02666676983233552 -0.44312735458325581 0 0.0068165806591294316 -0.44348526320397952 0 0.038035624732997701 -0.42318917072202022 0 0.047868830590497097 -0.43976064414632088 0 0.02666676983233552 -0.44312735458325581 0 0.028999000949789959 -0.40147898970888801 0 0.038035624732997701 -0.42318917072202022 0 0.049143054551627013 -0.40747152083875582 0 0.070468827029821934 -0.40290810194725279 0 0.049143054551627013 -0.40747152083875582 0 0.058719347470543831 -0.42372109043242612 0 0.038035624732997701 -0.42318917072202022 0 0.049143054551627013 -0.40747152083875582 0 0.058719347470543831 -0.42372109043242612 0 0.058719347470543831 -0.42372109043242612 0 0.047868830590497097 -0.43976064414632088 0 0.060604784186928162 -0.44219524034701829 0 0.038035624732997701 -0.42318917072202022 0 0.058719347470543831 -0.42372109043242612 0 0.047868830590497097 -0.43976064414632088 0 0.047868830590497097 -0.43976064414632088 0 0.060533864248779268 -0.45516161004070088 0 0.03684497090434212 -0.46105457747661138 0 0.047868830590497097 -0.43976064414632088 0 0.060533864248779268 -0.45516161004070088 0 0.047868830590497097 -0.43976064414632088 0 0.060604784186928162 -0.44219524034701829 0 0.060533864248779268 -0.45516161004070088 0 0.060533864248779268 -0.45516161004070088 0 0.03684497090434212 -0.46105457747661138 0 0.060533864248779268 -0.45516161004070088 0 0.052543339594833843 -0.46469110280171649 0 0.03684497090434212 -0.46105457747661138 0 0.060533864248779268 -0.45516161004070088 0 0.061795930812101732 -0.46820781613902701 0 0.052543339594833843 -0.46469110280171649 0 0.052543339594833843 -0.46469110280171649 0 0.03684497090434212 -0.46105457747661138 0 0.050998592414112261 -0.47434040755052698 0 0.047868830590497097 -0.43976064414632088 0 0.03684497090434212 -0.46105457747661138 0 0.02666676983233552 -0.44312735458325581 0 0.02666676983233552 -0.44312735458325581 0 0.0068165806591294316 -0.44348526320397952 0 0.013156077559905371 -0.46694754491252372 0 -0.0057475739345891896 -0.4549207533069245 0 0.0068165806591294316 -0.44348526320397952 0 0.013156077559905371 -0.46694754491252372 0 0.03684497090434212 -0.46105457747661138 0 0.02666676983233552 -0.44312735458325581 0 0.013156077559905371 -0.46694754491252372 0 0.03684497090434212 -0.46105457747661138 0 0.013156077559905371 -0.46694754491252372 0 0.03684497090434212 -0.46105457747661138 0 0.013156077559905371 -0.46694754491252372 0 0.032323810821201983 -0.4810656019103603 0 0.013156077559905371 -0.46694754491252372 0 0.0082051736105589468 -0.5 0 0.032323810821201983 -0.4810656019103603 0 -0.01053281578453142 -0.47284051234843588 0 0.013156077559905371 -0.46694754491252372 0 0.0082051736105589468 -0.5 0 -0.01053281578453142 -0.47284051234843588 0 0.013156077559905371 -0.46694754491252372 0 0.0082051736105589468 -0.5 0 0.037939068381746099 -0.5 0 0.032323810821201983 -0.4810656019103603 0 0.037939068381746099 -0.5 0 0.032323810821201983 -0.4810656019103603 0 0.053020152767299072 -0.48801933676575959 0 0.032323810821201983 -0.4810656019103603 0 0.050998592414112261 -0.47434040755052698 0 0.053020152767299072 -0.48801933676575959 0 0.03684497090434212 -0.46105457747661138 0 0.032323810821201983 -0.4810656019103603 0 0.050998592414112261 -0.47434040755052698 0 0.070479040632291823 -0.48264211959480191 0 0.050998592414112261 -0.47434040755052698 0 0.064630060102032719 -0.47456076603106118 0 0.070479040632291823 -0.48264211959480191 0 0.050998592414112261 -0.47434040755052698 0 0.070479040632291823 -0.48264211959480191 0 0.050998592414112261 -0.47434040755052698 0 0.053020152767299072 -0.48801933676575959 0 0.064630060102032719 -0.47456076603106118 0 0.061795930812101732 -0.46820781613902701 0 0.050998592414112261 -0.47434040755052698 0 0.061795930812101732 -0.46820781613902701 0 0.052543339594833843 -0.46469110280171649 0 0.050998592414112261 -0.47434040755052698 0 0.067672963152933252 -0.5 0 0.037939068381746099 -0.5 0 0.053020152767299072 -0.48801933676575959 0 0.087473163936891085 -0.29777268792509082 0 0.081564451789839787 -0.2785545792295161 0 0.1018918429625556 -0.28221661660282987 0 0.087473163936891085 -0.29777268792509082 0 0.081564451789839787 -0.2785545792295161 0 0.087473163936891085 -0.29777268792509082 0 0.067853695646582016 -0.28620356249784679 0 0.081564451789839787 -0.2785545792295161 0 0.087473163936891085 -0.29777268792509082 0 0.071339674350402019 -0.30608447369461589 0 0.075597518235181557 -0.31257595346091949 0 0.087473163936891085 -0.29777268792509082 0 0.098187962191818287 -0.30489187491565878 0 0.094028422526884897 -0.31909369138147992 0 0.087473163936891085 -0.29777268792509082 0 0.094028422526884897 -0.31909369138147992 0 0.075597518235181557 -0.31257595346091949 0 0.087473163936891085 -0.29777268792509082 0 0.094028422526884897 -0.31909369138147992 0 0.087473163936891085 -0.29777268792509082 0 0.071339674350402019 -0.30608447369461589 0 0.060560524715249003 -0.30009188710746898 0 0.087473163936891085 -0.29777268792509082 0 0.060560524715249003 -0.30009188710746898 0 0.071339674350402019 -0.30608447369461589 0 0.075597518235181557 -0.31257595346091949 0 0.061727490514286158 -0.31389736628498438 0 0.071339674350402019 -0.30608447369461589 0 0.061727490514286158 -0.31389736628498438 0 0.060560524715249003 -0.30009188710746898 0 0.067853695646582016 -0.28620356249784679 0 0.059116804960237683 -0.29062940211096661 0 0.060560524715249003 -0.30009188710746898 0 0.087473163936891085 -0.29777268792509082 0 0.067853695646582016 -0.28620356249784679 0 0.060560524715249003 -0.30009188710746898 0 0.066214989649419603 -0.27316028682740479 0 0.075655739642787975 -0.2593364705339416 0 0.081564451789839787 -0.2785545792295161 0 0.067853695646582016 -0.28620356249784679 0 0.066214989649419603 -0.27316028682740479 0 0.081564451789839787 -0.2785545792295161 0 0.066214989649419603 -0.27316028682740479 0 0.075655739642787975 -0.2593364705339416 0 0.05341834128670471 -0.26222533989734959 0 0.075655739642787975 -0.2593364705339416 0 0.05341834128670471 -0.26222533989734959 0 0.071841433176306951 -0.24693042426755701 0 0.075655739642787975 -0.2593364705339416 0 0.05341834128670471 -0.26222533989734959 0 0.075655739642787975 -0.2593364705339416 0 0.071841433176306951 -0.24693042426755701 0 0.075655739642787975 -0.2593364705339416 0 0.097033033634931737 -0.25655933767435479 0 0.087503871482331325 -0.24918859503345439 0 0.075655739642787975 -0.2593364705339416 0 0.087704679779763817 -0.26614109232216421 0 0.097033033634931737 -0.25655933767435479 0 0.075655739642787975 -0.2593364705339416 0 0.071841433176306951 -0.24693042426755701 0 0.087503871482331325 -0.24918859503345439 0 0.075655739642787975 -0.2593364705339416 0 0.097033033634931737 -0.25655933767435479 0 0.075655739642787975 -0.2593364705339416 0 0.081564451789839787 -0.2785545792295161 0 0.081564451789839787 -0.2785545792295161 0 0.096565494051495782 -0.27011398185084429 0 0.1018918429625556 -0.28221661660282987 0 0.075655739642787975 -0.2593364705339416 0 0.081564451789839787 -0.2785545792295161 0 0.087704679779763817 -0.26614109232216421 0 0.081564451789839787 -0.2785545792295161 0 0.087704679779763817 -0.26614109232216421 0 0.096565494051495782 -0.27011398185084429 0 0.11343381581407461 -0.27807896693227868 0 0.1097056353048949 -0.26812745810770261 0 0.1018918429625556 -0.28221661660282987 0 0.096565494051495782 -0.27011398185084429 0 0.1097056353048949 -0.26812745810770261 0 0.1018918429625556 -0.28221661660282987 0 0.097033033634931737 -0.25655933767435479 0 0.11542254909125391 -0.25417034832591701 0 0.09726841460880753 -0.24973530510077291 0 0.097033033634931737 -0.25655933767435479 0 0.11542254909125391 -0.25417034832591701 0 0.1097056353048949 -0.26812745810770261 0 0.097033033634931737 -0.25655933767435479 0 0.11542254909125391 -0.25417034832591701 0 0.1155402395781918 -0.2507583320391269 0 0.09726841460880753 -0.24973530510077291 0 0.097033033634931737 -0.25655933767435479 0 0.087503871482331325 -0.24918859503345439 0 0.09726841460880753 -0.24973530510077291 0 0.097033033634931737 -0.25655933767435479 0 0.09726841460880753 -0.24973530510077291 0 0.096565494051495782 -0.27011398185084429 0 0.097033033634931737 -0.25655933767435479 0 0.087704679779763817 -0.26614109232216421 0 0.096565494051495782 -0.27011398185084429 0 0.097033033634931737 -0.25655933767435479 0 0.096565494051495782 -0.27011398185084429 0 0.097033033634931737 -0.25655933767435479 0 0.1097056353048949 -0.26812745810770261 0 0.1338120645475761 -0.25178135897747889 0 0.1155402395781918 -0.2507583320391269 0 0.11542254909125391 -0.25417034832591701 0 0.1155402395781918 -0.2507583320391269 0 0.11542254909125391 -0.25417034832591701 0 0.09726841460880753 -0.24973530510077291 0 0.1338120645475761 -0.25178135897747889 0 0.1155402395781918 -0.2507583320391269 0 0.1338120645475761 -0.25178135897747889 0 0.11542254909125391 -0.25417034832591701 0 0.123327112510175 -0.26381005316279871 0 0.1338120645475761 -0.25178135897747889 0 0.11542254909125391 -0.25417034832591701 0 0.11542254909125391 -0.25417034832591701 0 0.123327112510175 -0.26381005316279871 0 0.1097056353048949 -0.26812745810770261 0 0.11343381581407461 -0.27807896693227868 0 0.1097056353048949 -0.26812745810770261 0 0.119201036987635 -0.27295982712471439 0 0.1280966355330338 -0.27434446718476552 0 0.123327112510175 -0.26381005316279871 0 0.119201036987635 -0.27295982712471439 0 0.123327112510175 -0.26381005316279871 0 0.1097056353048949 -0.26812745810770261 0 0.119201036987635 -0.27295982712471439 0 0.11343381581407461 -0.27807896693227868 0 0.119201036987635 -0.27295982712471439 0 0.12144198577599689 -0.28043819023602667 0 0.1280966355330338 -0.27434446718476552 0 0.119201036987635 -0.27295982712471439 0 0.12144198577599689 -0.28043819023602667 0 0.1225628758501054 -0.2947488287446996 0 0.10501801989349829 -0.29626075833489562 0 0.12144198577599689 -0.28043819023602667 0 0.1233634239504731 -0.2874855776093414 0 0.1139532624844367 -0.28782333961704598 0 0.1275993617664036 -0.28112518425861122 0 0.12144198577599689 -0.28043819023602667 0 0.1233634239504731 -0.2874855776093414 0 0.1225628758501054 -0.2947488287446996 0 0.1139532624844367 -0.28782333961704598 0 0.10501801989349829 -0.29626075833489562 0 0.1233634239504731 -0.2874855776093414 0 0.1225628758501054 -0.2947488287446996 0 0.1139532624844367 -0.28782333961704598 0 0.1256525224322369 -0.29448257816376899 0 0.1225628758501054 -0.2947488287446996 0 0.11343381581407461 -0.27807896693227868 0 0.12144198577599689 -0.28043819023602667 0 0.1139532624844367 -0.28782333961704598 0 0.11343381581407461 -0.27807896693227868 0 0.1139532624844367 -0.28782333961704598 0 0.1018918429625556 -0.28221661660282987 0 0.1139532624844367 -0.28782333961704598 0 0.1018918429625556 -0.28221661660282987 0 0.10501801989349829 -0.29626075833489562 0 0.087473163936891085 -0.29777268792509082 0 0.1018918429625556 -0.28221661660282987 0 0.10501801989349829 -0.29626075833489562 0 0.087473163936891085 -0.29777268792509082 0 0.10501801989349829 -0.29626075833489562 0 0.087473163936891085 -0.29777268792509082 0 0.10501801989349829 -0.29626075833489562 0 0.098187962191818287 -0.30489187491565878 0 0.098187962191818287 -0.30489187491565878 0 0.10829564918849539 -0.30692126006309001 0 0.094028422526884897 -0.31909369138147992 0 0.10501801989349829 -0.29626075833489562 0 0.098187962191818287 -0.30489187491565878 0 0.10829564918849539 -0.30692126006309001 0 0.10829564918849539 -0.30692126006309001 0 0.11665503897845669 -0.30709539838653632 0 0.10765755552467721 -0.31970821860930398 0 0.1225628758501054 -0.2947488287446996 0 0.10501801989349829 -0.29626075833489562 0 0.10829564918849539 -0.30692126006309001 0 0.1225628758501054 -0.2947488287446996 0 0.10829564918849539 -0.30692126006309001 0 0.1225628758501054 -0.2947488287446996 0 0.10829564918849539 -0.30692126006309001 0 0.11665503897845669 -0.30709539838653632 0 0.127428615210958 -0.30550107704066293 0 0.1256525224322369 -0.29448257816376899 0 0.11665503897845669 -0.30709539838653632 0 0.1256525224322369 -0.29448257816376899 0 0.11665503897845669 -0.30709539838653632 0 0.1256525224322369 -0.29448257816376899 0 0.1225628758501054 -0.2947488287446996 0 0.11665503897845669 -0.30709539838653632 0 0.127428615210958 -0.30550107704066293 0 0.11665503897845669 -0.30709539838653632 0 0.1236403595102975 -0.31726182602291142 0 0.1236403595102975 -0.31726182602291142 0 0.1156667707943719 -0.32879233033577338 0 0.10765755552467721 -0.31970821860930398 0 0.11665503897845669 -0.30709539838653632 0 0.1236403595102975 -0.31726182602291142 0 0.10765755552467721 -0.31970821860930398 0 0.11665503897845669 -0.30709539838653632 0 0.10765755552467721 -0.31970821860930398 0 0.1156667707943719 -0.32879233033577338 0 0.1048460875680276 -0.32950050860128433 0 0.10765755552467721 -0.31970821860930398 0 0.12646864396445259 -0.32771949481933838 0 0.1236403595102975 -0.31726182602291142 0 0.1156667707943719 -0.32879233033577338 0 0.12646864396445259 -0.32771949481933838 0 0.1218367566819203 -0.34066885685305681 0 0.1156667707943719 -0.32879233033577338 0 0.1218367566819203 -0.34066885685305681 0 0.1156667707943719 -0.32879233033577338 0 0.1082494064665878 -0.33928340961487857 0 0.1156667707943719 -0.32879233033577338 0 0.1048460875680276 -0.32950050860128433 0 0.1082494064665878 -0.33928340961487857 0 0.1048460875680276 -0.32950050860128433 0 0.1082494064665878 -0.33928340961487857 0 0.097004582427965266 -0.33631516769786107 0 0.1082494064665878 -0.33928340961487857 0 0.097004582427965266 -0.33631516769786107 0 0.093814972832634291 -0.34820918954221819 0 0.1048460875680276 -0.32950050860128433 0 0.097004582427965266 -0.33631516769786107 0 0.096073069581201237 -0.32574391368982941 0 0.096073069581201237 -0.32574391368982941 0 0.094028422526884897 -0.31909369138147992 0 0.10765755552467721 -0.31970821860930398 0 0.096073069581201237 -0.32574391368982941 0 0.094028422526884897 -0.31909369138147992 0 0.10829564918849539 -0.30692126006309001 0 0.094028422526884897 -0.31909369138147992 0 0.10829564918849539 -0.30692126006309001 0 0.094028422526884897 -0.31909369138147992 0 0.10765755552467721 -0.31970821860930398 0 0.1048460875680276 -0.32950050860128433 0 0.096073069581201237 -0.32574391368982941 0 0.10765755552467721 -0.31970821860930398 0 0.13554014667972011 -0.37371994475541209 0 0.11257503074115451 -0.38498649823446041 0 0.1211241730808211 -0.35969015994424403 0 0.11257503074115451 -0.38498649823446041 0 0.1211241730808211 -0.35969015994424403 0 0.10079201747098269 -0.36412242239479142 0 0.1211241730808211 -0.35969015994424403 0 0.1091752126596531 -0.3513855426967849 0 0.10079201747098269 -0.36412242239479142 0 0.1218367566819203 -0.34066885685305681 0 0.1211241730808211 -0.35969015994424403 0 0.1091752126596531 -0.3513855426967849 0 0.1218367566819203 -0.34066885685305681 0 0.1082494064665878 -0.33928340961487857 0 0.1091752126596531 -0.3513855426967849 0 0.1091752126596531 -0.3513855426967849 0 0.093814972832634291 -0.34820918954221819 0 0.10079201747098269 -0.36412242239479142 0 0.1082494064665878 -0.33928340961487857 0 0.1091752126596531 -0.3513855426967849 0 0.093814972832634291 -0.34820918954221819 0 0.085185771917526548 -0.37977283474271561 0 0.10079201747098269 -0.36412242239479142 0 0.076425374258651049 -0.36036916924143869 0 0.093814972832634291 -0.34820918954221819 0 0.076425374258651049 -0.36036916924143869 0 0.073389328186842753 -0.33670243653472848 0 0.093814972832634291 -0.34820918954221819 0 0.10079201747098269 -0.36412242239479142 0 0.076425374258651049 -0.36036916924143869 0 0.076425374258651049 -0.36036916924143869 0 0.073389328186842753 -0.33670243653472848 0 0.052750233846800589 -0.35431118168797721 0 0.073389328186842753 -0.33670243653472848 0 0.052750233846800589 -0.35431118168797721 0 0.085185771917526548 -0.37977283474271561 0 0.057841008155207027 -0.38245658693310142 0 0.076425374258651049 -0.36036916924143869 0 0.094028422526884897 -0.31909369138147992 0 0.073389328186842753 -0.33670243653472848 0 0.096073069581201237 -0.32574391368982941 0 0.094028422526884897 -0.31909369138147992 0 0.073389328186842753 -0.33670243653472848 0 0.094028422526884897 -0.31909369138147992 0 0.073389328186842753 -0.33670243653472848 0 0.072651274237206992 -0.32234881883649769 0 0.094028422526884897 -0.31909369138147992 0 0.072651274237206992 -0.32234881883649769 0 0.075597518235181557 -0.31257595346091949 0 0.097004582427965266 -0.33631516769786107 0 0.096073069581201237 -0.32574391368982941 0 0.073389328186842753 -0.33670243653472848 0 0.097004582427965266 -0.33631516769786107 0 0.093814972832634291 -0.34820918954221819 0 0.073389328186842753 -0.33670243653472848 0 0.073389328186842753 -0.33670243653472848 0 0.072651274237206992 -0.32234881883649769 0 0.058513611722839573 -0.32947464652037622 0 0.072651274237206992 -0.32234881883649769 0 0.061727490514286158 -0.31389736628498438 0 0.058513611722839573 -0.32947464652037622 0 0.072651274237206992 -0.32234881883649769 0 0.075597518235181557 -0.31257595346091949 0 0.061727490514286158 -0.31389736628498438 0 0.061727490514286158 -0.31389736628498438 0 0.048871722081095123 -0.31851038162196682 0 0.053524671366835877 -0.30640407556079952 0 0.048871722081095123 -0.31851038162196682 0 0.058513611722839573 -0.32947464652037622 0 0.042608717461976538 -0.3312298768594002 0 0.061727490514286158 -0.31389736628498438 0 0.048871722081095123 -0.31851038162196682 0 0.058513611722839573 -0.32947464652037622 0 0.073389328186842753 -0.33670243653472848 0 0.058513611722839573 -0.32947464652037622 0 0.052750233846800589 -0.35431118168797721 0 0.058513611722839573 -0.32947464652037622 0 0.042608717461976538 -0.3312298768594002 0 0.052750233846800589 -0.35431118168797721 0 0.042608717461976538 -0.3312298768594002 0 0.032201100374313327 -0.3403185580786573 0 0.052750233846800589 -0.35431118168797721 0 0.042608717461976538 -0.3312298768594002 0 0.032201100374313327 -0.3403185580786573 0 0.02803274898307424 -0.32856413603580631 0 0.042608717461976538 -0.3312298768594002 0 0.035004108339948901 -0.31633090919971779 0 0.02803274898307424 -0.32856413603580631 0 0.048871722081095123 -0.31851038162196682 0 0.035004108339948901 -0.31633090919971779 0 0.042659306472636778 -0.3047174731171407 0 0.048871722081095123 -0.31851038162196682 0 0.042608717461976538 -0.3312298768594002 0 0.035004108339948901 -0.31633090919971779 0 0.057841008155207027 -0.38245658693310142 0 0.052750233846800589 -0.35431118168797721 0 0.032111139506758431 -0.37191992684122582 0 0.057841008155207027 -0.38245658693310142 0 0.076425374258651049 -0.36036916924143869 0 0.052750233846800589 -0.35431118168797721 0 0.032201100374313327 -0.3403185580786573 0 0.052750233846800589 -0.35431118168797721 0 0.023184557849655049 -0.35200766470484768 0 0.052750233846800589 -0.35431118168797721 0 0.032111139506758431 -0.37191992684122582 0 0.052750233846800589 -0.35431118168797721 0 0.032111139506758431 -0.37191992684122582 0 0.023184557849655049 -0.35200766470484768 0 0.032111139506758431 -0.37191992684122582 0 0.023184557849655049 -0.35200766470484768 0 0.010345294108568969 -0.36081801354288939 0 0.032111139506758431 -0.37191992684122582 0 0.010345294108568969 -0.36081801354288939 0 0.0095024714850780283 -0.37458082262515818 0 -0.0019921573348008 -0.35014241775074068 0 0.023184557849655049 -0.35200766470484768 0 0.014429243730060239 -0.33547993110525531 0 -0.0019921573348008 -0.35014241775074068 0 0.023184557849655049 -0.35200766470484768 0 0.010345294108568969 -0.36081801354288939 0 -0.0019921573348008 -0.35014241775074068 0 -0.0042332821090469977 -0.36931681778231101 0 0.010345294108568969 -0.36081801354288939 0 -0.0042332821090469977 -0.36931681778231101 0 0.010345294108568969 -0.36081801354288939 0 0.0095024714850780283 -0.37458082262515818 0 0.035004108339948901 -0.31633090919971779 0 0.02803274898307424 -0.32856413603580631 0 0.015526697491276621 -0.31392901685578528 0 0.02803274898307424 -0.32856413603580631 0 0.014429243730060239 -0.33547993110525531 0 0.015526697491276621 -0.31392901685578528 0 0.032201100374313327 -0.3403185580786573 0 0.023184557849655049 -0.35200766470484768 0 0.014429243730060239 -0.33547993110525531 0 0.032201100374313327 -0.3403185580786573 0 0.02803274898307424 -0.32856413603580631 0 0.014429243730060239 -0.33547993110525531 0 -0.008605873932596356 -0.33624452634938418 0 -0.0019921573348008 -0.35014241775074068 0 0.014429243730060239 -0.33547993110525531 0 -0.008605873932596356 -0.33624452634938418 0 0.014429243730060239 -0.33547993110525531 0 0.0035141492887302548 -0.32519051246028208 0 0.014429243730060239 -0.33547993110525531 0 0.0035141492887302548 -0.32519051246028208 0 0.015526697491276621 -0.31392901685578528 0 -0.0093546214437348063 -0.3154421594820554 0 0.0035141492887302548 -0.32519051246028208 0 0.015526697491276621 -0.31392901685578528 0 -0.0093546214437348063 -0.3154421594820554 0 0.015526697491276621 -0.31392901685578528 0 0.0025702240157044749 -0.30194718224499639 0 0.015526697491276621 -0.31392901685578528 0 0.0025702240157044749 -0.30194718224499639 0 0.018894421690538499 -0.29417828297256371 0 0.0025702240157044749 -0.30194718224499639 0 0.001953977901653102 -0.28749824366549498 0 0.018894421690538499 -0.29417828297256371 0 0.001953977901653102 -0.28749824366549498 0 0.018894421690538499 -0.29417828297256371 0 0.015670532879786751 -0.2762907948651831 0 0.018894421690538499 -0.29417828297256371 0 0.030268242974381541 -0.30296892509516138 0 0.036539995597899583 -0.28735292316580879 0 0.018894421690538499 -0.29417828297256371 0 0.036539995597899583 -0.28735292316580879 0 0.015670532879786751 -0.2762907948651831 0 0.015526697491276621 -0.31392901685578528 0 0.018894421690538499 -0.29417828297256371 0 0.030268242974381541 -0.30296892509516138 0 0.035004108339948901 -0.31633090919971779 0 0.015526697491276621 -0.31392901685578528 0 0.030268242974381541 -0.30296892509516138 0 0.030268242974381541 -0.30296892509516138 0 0.042659306472636778 -0.3047174731171407 0 0.036539995597899583 -0.28735292316580879 0 0.035004108339948901 -0.31633090919971779 0 0.030268242974381541 -0.30296892509516138 0 0.042659306472636778 -0.3047174731171407 0 0.042659306472636778 -0.3047174731171407 0 0.036539995597899583 -0.28735292316580879 0 0.051747098475659753 -0.29673762405939008 0 0.051747098475659753 -0.29673762405939008 0 0.052582719881183543 -0.27948148197836992 0 0.051747098475659753 -0.29673762405939008 0 0.059116804960237683 -0.29062940211096661 0 0.052582719881183543 -0.27948148197836992 0 0.036539995597899583 -0.28735292316580879 0 0.051747098475659753 -0.29673762405939008 0 0.052582719881183543 -0.27948148197836992 0 0.067853695646582016 -0.28620356249784679 0 0.059116804960237683 -0.29062940211096661 0 0.052582719881183543 -0.27948148197836992 0 0.051747098475659753 -0.29673762405939008 0 0.059116804960237683 -0.29062940211096661 0 0.060560524715249003 -0.30009188710746898 0 0.051747098475659753 -0.29673762405939008 0 0.060560524715249003 -0.30009188710746898 0 0.053524671366835877 -0.30640407556079952 0 0.061727490514286158 -0.31389736628498438 0 0.060560524715249003 -0.30009188710746898 0 0.053524671366835877 -0.30640407556079952 0 0.048871722081095123 -0.31851038162196682 0 0.042659306472636778 -0.3047174731171407 0 0.053524671366835877 -0.30640407556079952 0 0.042659306472636778 -0.3047174731171407 0 0.051747098475659753 -0.29673762405939008 0 0.053524671366835877 -0.30640407556079952 0 0.05341834128670471 -0.26222533989734959 0 0.054455146400998369 -0.2408146193913096 0 0.05341834128670471 -0.26222533989734959 0 0.041504830166615332 -0.24909079072316551 0 0.054455146400998369 -0.2408146193913096 0 0.05341834128670471 -0.26222533989734959 0 0.052582719881183543 -0.27948148197836992 0 0.066214989649419603 -0.27316028682740479 0 0.05341834128670471 -0.26222533989734959 0 0.052582719881183543 -0.27948148197836992 0 0.067853695646582016 -0.28620356249784679 0 0.066214989649419603 -0.27316028682740479 0 0.052582719881183543 -0.27948148197836992 0 0.05341834128670471 -0.26222533989734959 0 0.052582719881183543 -0.27948148197836992 0 0.028317708997288939 -0.2654861731325095 0 0.036539995597899583 -0.28735292316580879 0 0.052582719881183543 -0.27948148197836992 0 0.028317708997288939 -0.2654861731325095 0 0.028317708997288939 -0.2654861731325095 0 0.026822654761378281 -0.24010580347910071 0 0.041504830166615332 -0.24909079072316551 0 0.05341834128670471 -0.26222533989734959 0 0.028317708997288939 -0.2654861731325095 0 0.041504830166615332 -0.24909079072316551 0 0.05341834128670471 -0.26222533989734959 0 0.028317708997288939 -0.2654861731325095 0 0.028317708997288939 -0.2654861731325095 0 0.01150473642008854 -0.25100487296640661 0 0.026822654761378281 -0.24010580347910071 0 0.028317708997288939 -0.2654861731325095 0 0.015670532879786751 -0.2762907948651831 0 0.0049597396345670026 -0.26452376434945218 0 0.036539995597899583 -0.28735292316580879 0 0.028317708997288939 -0.2654861731325095 0 0.015670532879786751 -0.2762907948651831 0 -0.002131649244152236 -0.27375645946249172 0 0.015670532879786751 -0.2762907948651831 0 0.0049597396345670026 -0.26452376434945218 0 -0.002131649244152236 -0.27375645946249172 0 0.001953977901653102 -0.28749824366549498 0 0.015670532879786751 -0.2762907948651831 0 -0.0050603712554523096 -0.25502580822232418 0 0.01150473642008854 -0.25100487296640661 0 0.0049597396345670026 -0.26452376434945218 0 0.028317708997288939 -0.2654861731325095 0 0.01150473642008854 -0.25100487296640661 0 0.0049597396345670026 -0.26452376434945218 0 -0.0050603712554523096 -0.25502580822232418 0 -0.0012779613340340411 -0.24176494305706761 0 0.01150473642008854 -0.25100487296640661 0 -0.0012779613340340411 -0.24176494305706761 0 0.01150473642008854 -0.25100487296640661 0 0.01227448810303049 -0.23689425083746071 0 -0.0012779613340340411 -0.24176494305706761 0 -0.0016127085748020571 -0.22712480654777251 0 0.01227448810303049 -0.23689425083746071 0 -0.0016127085748020571 -0.22712480654777251 0 0.01227448810303049 -0.23689425083746071 0 0.01698840492239578 -0.2228903554452914 0 -0.0016127085748020571 -0.22712480654777251 0 0.01698840492239578 -0.2228903554452914 0 0.0064561243882930407 -0.21561537692257879 0 0.01227448810303049 -0.23689425083746071 0 0.01698840492239578 -0.2228903554452914 0 0.026822654761378281 -0.24010580347910071 0 0.01698840492239578 -0.2228903554452914 0 0.026822654761378281 -0.24010580347910071 0 0.034262553780134708 -0.21981152268886431 0 0.01150473642008854 -0.25100487296640661 0 0.01227448810303049 -0.23689425083746071 0 0.026822654761378281 -0.24010580347910071 0 -0.0048422933519348798 -0.20657909219758999 0 0.01498437965793468 -0.2009023489100171 0 0.0039750345954989988 -0.18651425943902311 0 0.01498437965793468 -0.2009023489100171 0 0.019555974831457788 -0.18489329081675979 0 0.0039750345954989988 -0.18651425943902311 0 -0.0048422933519348798 -0.20657909219758999 0 0.01498437965793468 -0.2009023489100171 0 0.0064561243882930407 -0.21561537692257879 0 0.01498437965793468 -0.2009023489100171 0 0.0064561243882930407 -0.21561537692257879 0 0.022166629418003729 -0.2118345471400416 0 0.01698840492239578 -0.2228903554452914 0 0.0064561243882930407 -0.21561537692257879 0 0.022166629418003729 -0.2118345471400416 0 -0.0016127085748020571 -0.22712480654777251 0 -0.0048422933519348798 -0.20657909219758999 0 0.0064561243882930407 -0.21561537692257879 0 0.01698840492239578 -0.2228903554452914 0 0.022166629418003729 -0.2118345471400416 0 0.034262553780134708 -0.21981152268886431 0 0.01498437965793468 -0.2009023489100171 0 0.022166629418003729 -0.2118345471400416 0 0.031897636722889637 -0.2043381853445167 0 0.022166629418003729 -0.2118345471400416 0 0.031897636722889637 -0.2043381853445167 0 0.034262553780134708 -0.21981152268886431 0 0.01498437965793468 -0.2009023489100171 0 0.027972004457906641 -0.19290593557317351 0 0.019555974831457788 -0.18489329081675979 0 0.01498437965793468 -0.2009023489100171 0 0.027972004457906641 -0.19290593557317351 0 0.031897636722889637 -0.2043381853445167 0 0.056528756629579638 -0.1979931783792292 0 0.033889281643562412 -0.17857272488157999 0 0.027972004457906641 -0.19290593557317351 0 0.03953274943368866 -0.19582312791299369 0 0.033889281643562412 -0.17857272488157999 0 0.03953274943368866 -0.19582312791299369 0 0.044202360045936313 -0.20737869318372881 0 0.056528756629579638 -0.1979931783792292 0 0.03953274943368866 -0.19582312791299369 0 0.056528756629579638 -0.1979931783792292 0 0.033889281643562412 -0.17857272488157999 0 0.027972004457906641 -0.19290593557317351 0 0.03953274943368866 -0.19582312791299369 0 0.031897636722889637 -0.2043381853445167 0 0.03953274943368866 -0.19582312791299369 0 0.044202360045936313 -0.20737869318372881 0 0.031897636722889637 -0.2043381853445167 0 0.044202360045936313 -0.20737869318372881 0 0.034262553780134708 -0.21981152268886431 0 0.055491951515289413 -0.2194038988852694 0 0.044202360045936313 -0.20737869318372881 0 0.031897636722889637 -0.2043381853445167 0 0.034262553780134708 -0.21981152268886431 0 0.058246448850680657 -0.19946663842738771 0 0.055491951515289413 -0.2194038988852694 0 0.066041136181110544 -0.21386160323267189 0 0.056528756629579638 -0.1979931783792292 0 0.055491951515289413 -0.2194038988852694 0 0.058246448850680657 -0.19946663842738771 0 0.056528756629579638 -0.1979931783792292 0 0.055491951515289413 -0.2194038988852694 0 0.044202360045936313 -0.20737869318372881 0 0.056528756629579638 -0.1979931783792292 0 0.055491951515289413 -0.2194038988852694 0 0.056528756629579638 -0.1979931783792292 0 0.057329549479635908 -0.18145626931170691 0 0.056528756629579638 -0.1979931783792292 0 0.065123946871468164 -0.19127238357693871 0 0.057329549479635908 -0.18145626931170691 0 0.058246448850680657 -0.19946663842738771 0 0.056528756629579638 -0.1979931783792292 0 0.065123946871468164 -0.19127238357693871 0 0.058246448850680657 -0.19946663842738771 0 0.056528756629579638 -0.1979931783792292 0 0.041504830166615332 -0.24909079072316551 0 0.041828765002810943 -0.233037808058844 0 0.054455146400998369 -0.2408146193913096 0 0.026822654761378281 -0.24010580347910071 0 0.041504830166615332 -0.24909079072316551 0 0.041828765002810943 -0.233037808058844 0 0.041828765002810943 -0.233037808058844 0 0.034262553780134708 -0.21981152268886431 0 0.055491951515289413 -0.2194038988852694 0 0.026822654761378281 -0.24010580347910071 0 0.041828765002810943 -0.233037808058844 0 0.034262553780134708 -0.21981152268886431 0 0.055491951515289413 -0.2194038988852694 0 0.054455146400998369 -0.2408146193913096 0 0.070056056729074334 -0.23044917593339351 0 0.055491951515289413 -0.2194038988852694 0 0.054455146400998369 -0.2408146193913096 0 0.041828765002810943 -0.233037808058844 0 0.055491951515289413 -0.2194038988852694 0 0.054455146400998369 -0.2408146193913096 0 0.05341834128670471 -0.26222533989734959 0 0.054455146400998369 -0.2408146193913096 0 0.071841433176306951 -0.24693042426755701 0 0.071841433176306951 -0.24693042426755701 0 0.078351655706027534 -0.24017870186704479 0 0.070056056729074334 -0.23044917593339351 0 0.054455146400998369 -0.2408146193913096 0 0.071841433176306951 -0.24693042426755701 0 0.070056056729074334 -0.23044917593339351 0 0.078351655706027534 -0.24017870186704479 0 0.084005261436397555 -0.23414661223377431 0 0.070056056729074334 -0.23044917593339351 0 0.071841433176306951 -0.24693042426755701 0 0.078351655706027534 -0.24017870186704479 0 0.087503871482331325 -0.24918859503345439 0 0.084005261436397555 -0.23414661223377431 0 0.09726841460880753 -0.24973530510077291 0 0.098224276789357245 -0.22202348732504129 0 0.078351655706027534 -0.24017870186704479 0 0.087503871482331325 -0.24918859503345439 0 0.084005261436397555 -0.23414661223377431 0 0.087503871482331325 -0.24918859503345439 0 0.084005261436397555 -0.23414661223377431 0 0.09726841460880753 -0.24973530510077291 0 0.087503871482331325 -0.24918859503345439 0 0.09726841460880753 -0.24973530510077291 0 0.084005261436397555 -0.23414661223377431 0 0.077944909524616218 -0.21644665818138251 0 0.098224276789357245 -0.22202348732504129 0 0.084005261436397555 -0.23414661223377431 0 0.070056056729074334 -0.23044917593339351 0 0.077944909524616218 -0.21644665818138251 0 0.070056056729074334 -0.23044917593339351 0 0.066041136181110544 -0.21386160323267189 0 0.077944909524616218 -0.21644665818138251 0 0.055491951515289413 -0.2194038988852694 0 0.070056056729074334 -0.23044917593339351 0 0.066041136181110544 -0.21386160323267189 0 0.058246448850680657 -0.19946663842738771 0 0.066041136181110544 -0.21386160323267189 0 0.071428190199665467 -0.20133585635874521 0 0.066041136181110544 -0.21386160323267189 0 0.077944909524616218 -0.21644665818138251 0 0.071428190199665467 -0.20133585635874521 0 0.058246448850680657 -0.19946663842738771 0 0.065123946871468164 -0.19127238357693871 0 0.071428190199665467 -0.20133585635874521 0 0.065123946871468164 -0.19127238357693871 0 0.071428190199665467 -0.20133585635874521 0 0.077775677467109644 -0.1894438906232867 0 0.077775677467109644 -0.1894438906232867 0 0.085264727641627694 -0.2009309552866074 0 0.087035172899110766 -0.18202416968187909 0 0.085264727641627694 -0.2009309552866074 0 0.099180138969906934 -0.19431166954930951 0 0.087035172899110766 -0.18202416968187909 0 0.071428190199665467 -0.20133585635874521 0 0.077775677467109644 -0.1894438906232867 0 0.085264727641627694 -0.2009309552866074 0 0.077944909524616218 -0.21644665818138251 0 0.085264727641627694 -0.2009309552866074 0 0.098224276789357245 -0.22202348732504129 0 0.077944909524616218 -0.21644665818138251 0 0.071428190199665467 -0.20133585635874521 0 0.085264727641627694 -0.2009309552866074 0 0.085264727641627694 -0.2009309552866074 0 0.099180138969906934 -0.19431166954930951 0 0.098224276789357245 -0.22202348732504129 0 0.099180138969906934 -0.19431166954930951 0 0.11354412200005309 -0.20878294345574169 0 0.098224276789357245 -0.22202348732504129 0 0.099180138969906934 -0.19431166954930951 0 0.098224276789357245 -0.22202348732504129 0 0.099180138969906934 -0.19431166954930951 0 0.1232396379011078 -0.1927549034493776 0 0.1116878195257827 -0.17967737761147759 0 0.099180138969906934 -0.19431166954930951 0 0.1232396379011078 -0.1927549034493776 0 0.11354412200005309 -0.20878294345574169 0 0.1232396379011078 -0.1927549034493776 0 0.11354412200005309 -0.20878294345574169 0 0.1296813367821156 -0.2112782106774091 0 0.11354412200005309 -0.20878294345574169 0 0.11925867152865099 -0.22395178641925401 0 0.1296813367821156 -0.2112782106774091 0 0.11354412200005309 -0.20878294345574169 0 0.11925867152865099 -0.22395178641925401 0 0.098224276789357245 -0.22202348732504129 0 0.11925867152865099 -0.22395178641925401 0 0.1115141746540584 -0.23685798868452451 0 0.098224276789357245 -0.22202348732504129 0 0.11925867152865099 -0.22395178641925401 0 0.1115141746540584 -0.23685798868452451 0 0.12727927076528461 -0.2378210325384271 0 0.1155402395781918 -0.2507583320391269 0 0.1115141746540584 -0.23685798868452451 0 0.12727927076528461 -0.2378210325384271 0 0.09726841460880753 -0.24973530510077291 0 0.098224276789357245 -0.22202348732504129 0 0.1115141746540584 -0.23685798868452451 0 0.09726841460880753 -0.24973530510077291 0 0.098224276789357245 -0.22202348732504129 0 0.1155402395781918 -0.2507583320391269 0 0.1115141746540584 -0.23685798868452451 0 0.09726841460880753 -0.24973530510077291 0 0.1006234008225292 -0.15246943509712671 0 0.1001360011504572 -0.16659985177357781 0 0.083956960864695562 -0.1482839632705675 0 0.093837558922739497 -0.14264619108299431 0 0.1006234008225292 -0.15246943509712671 0 0.1028307954559992 -0.13579239345953559 0 0.1006234008225292 -0.15246943509712671 0 0.1028307954559992 -0.13579239345953559 0 0.1133439292462652 -0.14669813101470161 0 0.1006234008225292 -0.15246943509712671 0 0.1133439292462652 -0.14669813101470161 0 0.1122920085546638 -0.16227381202107721 0 0.093837558922739497 -0.14264619108299431 0 0.1028307954559992 -0.13579239345953559 0 0.086025777066828416 -0.13071312073542821 0 0.1028307954559992 -0.13579239345953559 0 0.086025777066828416 -0.13071312073542821 0 0.1003755091591467 -0.120365047089626 0 0.1028307954559992 -0.13579239345953559 0 0.1110772144577262 -0.12607447494648069 0 0.1003755091591467 -0.120365047089626 0 0.1028307954559992 -0.13579239345953559 0 0.1110772144577262 -0.12607447494648069 0 0.1195920268695274 -0.13435801890873961 0 0.1028307954559992 -0.13579239345953559 0 0.1195920268695274 -0.13435801890873961 0 0.1133439292462652 -0.14669813101470161 0 0.1110772144577262 -0.12607447494648069 0 0.1195920268695274 -0.13435801890873961 0 0.125059882544757 -0.1243050716586782 0 0.1195920268695274 -0.13435801890873961 0 0.1133439292462652 -0.14669813101470161 0 0.12550759679471971 -0.14428239988351421 0 0.1133439292462652 -0.14669813101470161 0 0.1238726331408222 -0.15597973401630799 0 0.1122920085546638 -0.16227381202107721 0 0.1133439292462652 -0.14669813101470161 0 0.1238726331408222 -0.15597973401630799 0 0.12550759679471971 -0.14428239988351421 0 0.1122920085546638 -0.16227381202107721 0 0.1240882674421261 -0.17221834261327171 0 0.1116878195257827 -0.17967737761147759 0 0.1238726331408222 -0.15597973401630799 0 0.1122920085546638 -0.16227381202107721 0 0.1240882674421261 -0.17221834261327171 0 0.1232396379011078 -0.1927549034493776 0 0.1240882674421261 -0.17221834261327171 0 0.1116878195257827 -0.17967737761147759 0 0.1232396379011078 -0.1927549034493776 0 0.1116878195257827 -0.17967737761147759 0 0.099180138969906934 -0.19431166954930951 0 0.1116878195257827 -0.17967737761147759 0 0.1001360011504572 -0.16659985177357781 0 0.099180138969906934 -0.19431166954930951 0 0.1001360011504572 -0.16659985177357781 0 0.099180138969906934 -0.19431166954930951 0 0.1001360011504572 -0.16659985177357781 0 0.087035172899110766 -0.18202416968187909 0 0.1116878195257827 -0.17967737761147759 0 0.1001360011504572 -0.16659985177357781 0 0.1122920085546638 -0.16227381202107721 0 0.1116878195257827 -0.17967737761147759 0 0.1001360011504572 -0.16659985177357781 0 0.1006234008225292 -0.15246943509712671 0 0.1122920085546638 -0.16227381202107721 0 0.1001360011504572 -0.16659985177357781 0 0.1006234008225292 -0.15246943509712671 0 0.1001360011504572 -0.16659985177357781 0 0.1001360011504572 -0.16659985177357781 0 0.083956960864695562 -0.1482839632705675 0 0.1001360011504572 -0.16659985177357781 0 0.079225084705666013 -0.1675683830972868 0 0.083956960864695562 -0.1482839632705675 0 0.077775677467109644 -0.1894438906232867 0 0.087035172899110766 -0.18202416968187909 0 0.070769962292113645 -0.17944740942254711 0 0.079225084705666013 -0.1675683830972868 0 0.087035172899110766 -0.18202416968187909 0 0.070769962292113645 -0.17944740942254711 0 0.1001360011504572 -0.16659985177357781 0 0.079225084705666013 -0.1675683830972868 0 0.087035172899110766 -0.18202416968187909 0 0.065123946871468164 -0.19127238357693871 0 0.077775677467109644 -0.1894438906232867 0 0.070769962292113645 -0.17944740942254711 0 0.065123946871468164 -0.19127238357693871 0 0.070769962292113645 -0.17944740942254711 0 0.057329549479635908 -0.18145626931170691 0 0.079225084705666013 -0.1675683830972868 0 0.069844290743162202 -0.15572535069481899 0 0.058130342329691373 -0.1649193602441846 0 0.079225084705666013 -0.1675683830972868 0 0.069844290743162202 -0.15572535069481899 0 0.083956960864695562 -0.1482839632705675 0 0.079225084705666013 -0.1675683830972868 0 0.070769962292113645 -0.17944740942254711 0 0.058130342329691373 -0.1649193602441846 0 0.069844290743162202 -0.15572535069481899 0 0.065690713085214791 -0.1421362209973312 0 0.083956960864695562 -0.1482839632705675 0 0.069844290743162202 -0.15572535069481899 0 0.065690713085214791 -0.1421362209973312 0 0.055338914955394031 -0.1557955185274518 0 0.093837558922739497 -0.14264619108299431 0 0.1006234008225292 -0.15246943509712671 0 0.083956960864695562 -0.1482839632705675 0 0.083956960864695562 -0.1482839632705675 0 0.086025777066828416 -0.13071312073542821 0 0.067777920578933518 -0.1299680747675574 0 0.093837558922739497 -0.14264619108299431 0 0.083956960864695562 -0.1482839632705675 0 0.086025777066828416 -0.13071312073542821 0 0.083956960864695562 -0.1482839632705675 0 0.067777920578933518 -0.1299680747675574 0 0.065690713085214791 -0.1421362209973312 0 0.083956960864695562 -0.1482839632705675 0 0.067777920578933518 -0.1299680747675574 0 0.086025777066828416 -0.13071312073542821 0 0.067777920578933518 -0.1299680747675574 0 0.076734835755005087 -0.11970758577673089 0 0.067777920578933518 -0.1299680747675574 0 0.053441304474890289 -0.13464385441717969 0 0.05399936433302991 -0.12122894057442581 0 0.053441304474890289 -0.13464385441717969 0 0.041268264505893618 -0.12924178955595211 0 0.05399936433302991 -0.12122894057442581 0 0.065690713085214791 -0.1421362209973312 0 0.067777920578933518 -0.1299680747675574 0 0.053441304474890289 -0.13464385441717969 0 0.065690713085214791 -0.1421362209973312 0 0.055338914955394031 -0.1557955185274518 0 0.0384702598713796 -0.15064424619063199 0 0.065690713085214791 -0.1421362209973312 0 0.0384702598713796 -0.15064424619063199 0 0.065690713085214791 -0.1421362209973312 0 0.053441304474890289 -0.13464385441717969 0 0.0384702598713796 -0.15064424619063199 0 0.053441304474890289 -0.13464385441717969 0 0.0384702598713796 -0.15064424619063199 0 0.041268264505893618 -0.12924178955595211 0 0.0384702598713796 -0.15064424619063199 0 0.041268264505893618 -0.12924178955595211 0 0.015842377588640461 -0.12995768139491151 0 0.057329549479635908 -0.18145626931170691 0 0.058130342329691373 -0.1649193602441846 0 0.056528756629579638 -0.1979931783792292 0 0.057329549479635908 -0.18145626931170691 0 0.033889281643562412 -0.17857272488157999 0 0.070769962292113645 -0.17944740942254711 0 0.057329549479635908 -0.18145626931170691 0 0.058130342329691373 -0.1649193602441846 0 0.057329549479635908 -0.18145626931170691 0 0.058130342329691373 -0.1649193602441846 0 0.04455896874752216 -0.16555241451029229 0 0.069844290743162202 -0.15572535069481899 0 0.055338914955394031 -0.1557955185274518 0 0.058130342329691373 -0.1649193602441846 0 0.055338914955394031 -0.1557955185274518 0 0.058130342329691373 -0.1649193602441846 0 0.04455896874752216 -0.16555241451029229 0 0.055338914955394031 -0.1557955185274518 0 0.0384702598713796 -0.15064424619063199 0 0.04455896874752216 -0.16555241451029229 0 0.0384702598713796 -0.15064424619063199 0 0.031574010555557599 -0.1635538019881777 0 0.04455896874752216 -0.16555241451029229 0 0.031574010555557599 -0.1635538019881777 0 0.04455896874752216 -0.16555241451029229 0 0.033889281643562412 -0.17857272488157999 0 0.057329549479635908 -0.18145626931170691 0 0.04455896874752216 -0.16555241451029229 0 0.033889281643562412 -0.17857272488157999 0 0.033889281643562412 -0.17857272488157999 0 0.019555974831457788 -0.18489329081675979 0 0.017860935761059481 -0.17540941327727391 0 0.033889281643562412 -0.17857272488157999 0 0.017860935761059481 -0.17540941327727391 0 0.018922444694438611 -0.16573396598117041 0 0.027972004457906641 -0.19290593557317351 0 0.033889281643562412 -0.17857272488157999 0 0.019555974831457788 -0.18489329081675979 0 0.033889281643562412 -0.17857272488157999 0 0.018922444694438611 -0.16573396598117041 0 0.0384702598713796 -0.15064424619063199 0 0.031574010555557599 -0.1635538019881777 0 0.011249806657544249 -0.1591522713839319 0 0.031574010555557599 -0.1635538019881777 0 0.018922444694438611 -0.16573396598117041 0 0.011249806657544249 -0.1591522713839319 0 0.031574010555557599 -0.1635538019881777 0 0.033889281643562412 -0.17857272488157999 0 0.018922444694438611 -0.16573396598117041 0 0.018922444694438611 -0.16573396598117041 0 0.011249806657544249 -0.1591522713839319 0 0.0051361497124387812 -0.16106315607433669 0 0.018922444694438611 -0.16573396598117041 0 0.0051361497124387812 -0.16106315607433669 0 0.018922444694438611 -0.16573396598117041 0 0.011249806657544249 -0.1591522713839319 0 0.011249806657544249 -0.1591522713839319 0 0.0051361497124387812 -0.16106315607433669 0 0.011249806657544249 -0.1591522713839319 0 0.0051361497124387812 -0.16106315607433669 0 0.00014451492137988051 -0.1496259991592768 0 -0.001198061652550745 -0.17280609881212911 0 0.0051361497124387812 -0.16106315607433669 0 0.0083362452288298274 -0.17396118646513589 0 0.018922444694438611 -0.16573396598117041 0 0.0051361497124387812 -0.16106315607433669 0 0.0083362452288298274 -0.17396118646513589 0 0.017860935761059481 -0.17540941327727391 0 0.018922444694438611 -0.16573396598117041 0 0.0083362452288298274 -0.17396118646513589 0 0.019555974831457788 -0.18489329081675979 0 0.017860935761059481 -0.17540941327727391 0 0.0083362452288298274 -0.17396118646513589 0 -0.001198061652550745 -0.17280609881212911 0 0.0083362452288298274 -0.17396118646513589 0 0.0039750345954989988 -0.18651425943902311 0 0.019555974831457788 -0.18489329081675979 0 0.0083362452288298274 -0.17396118646513589 0 0.0039750345954989988 -0.18651425943902311 0 0.041268264505893618 -0.12924178955595211 0 0.015842377588640461 -0.12995768139491151 0 0.0384702598713796 -0.15064424619063199 0 0.015842377588640461 -0.12995768139491151 0 0.011224689942066299 -0.1440107542725246 0 0.0384702598713796 -0.15064424619063199 0 0.011249806657544249 -0.1591522713839319 0 0.011224689942066299 -0.1440107542725246 0 0.0384702598713796 -0.15064424619063199 0 0.011249806657544249 -0.1591522713839319 0 -0.0095835093286126792 -0.13067357323387099 0 0.011224689942066299 -0.1440107542725246 0 0.00014451492137988051 -0.1496259991592768 0 0.011249806657544249 -0.1591522713839319 0 0.00014451492137988051 -0.1496259991592768 0 0.011249806657544249 -0.1591522713839319 0 0.011224689942066299 -0.1440107542725246 0 0.00014451492137988051 -0.1496259991592768 0 -0.0095835093286126792 -0.13067357323387099 0 0.015842377588640461 -0.12995768139491151 0 -0.0095835093286126792 -0.13067357323387099 0 0.015842377588640461 -0.12995768139491151 0 0.011224689942066299 -0.1440107542725246 0 -0.004447001458793981 -0.1103644265276268 0 -0.0095835093286126792 -0.13067357323387099 0 0.015842377588640461 -0.12995768139491151 0 -0.004447001458793981 -0.1103644265276268 0 0.015842377588640461 -0.12995768139491151 0 0.019064047731892519 -0.1027428983621612 0 0.015842377588640461 -0.12995768139491151 0 0.019064047731892519 -0.1027428983621612 0 0.037106240101941267 -0.1127949235512794 0 0.019064047731892519 -0.1027428983621612 0 0.037234516137291472 -0.08975442686183864 0 0.037106240101941267 -0.1127949235512794 0 -0.004447001458793981 -0.1103644265276268 0 0.019064047731892519 -0.1027428983621612 0 -0.0041979068999104599 -0.092692987180200151 0 -0.004447001458793981 -0.1103644265276268 0 0.019064047731892519 -0.1027428983621612 0 -0.0041979068999104599 -0.092692987180200151 0 0.003886405537072308 -0.074985287574065307 0 0.019828086476746741 -0.084468472620665633 0 -0.0041979068999104599 -0.092692987180200151 0 0.019064047731892519 -0.1027428983621612 0 0.019828086476746741 -0.084468472620665633 0 0.003886405537072308 -0.074985287574065307 0 0.028295076817156449 -0.069568801619081161 0 0.019828086476746741 -0.084468472620665633 0 0.003886405537072308 -0.074985287574065307 0 0.028295076817156449 -0.069568801619081161 0 0.01833358543460277 -0.05641701057889667 0 0.019064047731892519 -0.1027428983621612 0 0.019828086476746741 -0.084468472620665633 0 0.037234516137291472 -0.08975442686183864 0 0.028295076817156449 -0.069568801619081161 0 0.019828086476746741 -0.084468472620665633 0 0.037234516137291472 -0.08975442686183864 0 0.028295076817156449 -0.069568801619081161 0 0.037234516137291472 -0.08975442686183864 0 0.056852127489792813 -0.07490730178705754 0 0.028295076817156449 -0.069568801619081161 0 0.056852127489792813 -0.07490730178705754 0 0.043412112850471737 -0.054930671915401803 0 0.056852127489792813 -0.07490730178705754 0 0.043412112850471737 -0.054930671915401803 0 0.062505798999464707 -0.060826586793076412 0 0.056852127489792813 -0.07490730178705754 0 0.055228870314899682 -0.103843804558387 0 0.070281085843191191 -0.093817275438188408 0 0.037234516137291472 -0.08975442686183864 0 0.056852127489792813 -0.07490730178705754 0 0.055228870314899682 -0.103843804558387 0 0.055228870314899682 -0.103843804558387 0 0.05399936433302991 -0.12122894057442581 0 0.037106240101941267 -0.1127949235512794 0 0.055228870314899682 -0.103843804558387 0 0.05399936433302991 -0.12122894057442581 0 0.065906963652981487 -0.1182248878619804 0 0.041268264505893618 -0.12924178955595211 0 0.05399936433302991 -0.12122894057442581 0 0.037106240101941267 -0.1127949235512794 0 0.041268264505893618 -0.12924178955595211 0 0.015842377588640461 -0.12995768139491151 0 0.037106240101941267 -0.1127949235512794 0 0.037234516137291472 -0.08975442686183864 0 0.055228870314899682 -0.103843804558387 0 0.037106240101941267 -0.1127949235512794 0 0.030110906951190688 -0.01173386609504996 0 0.0045774522161646097 -0.0093144947699853528 0 0.019230231732056138 -0.023667566818530359 0 0.018044735406519189 -0.0027914786915071068 0 0.030110906951190688 -0.01173386609504996 0 0.0045774522161646097 -0.0093144947699853528 0 0.035622497167505339 0.0063925700628825917 0 0.018044735406519189 -0.0027914786915071068 0 0.030110906951190688 -0.01173386609504996 0 0.030110906951190688 -0.01173386609504996 0 0.0045774522161646097 -0.0093144947699853528 0 0.018044735406519189 -0.0027914786915071068 0 0.002394805847480138 -0.0071764921779012506 0 0.0045774522161646097 -0.0093144947699853528 0 0.0006213327713558641 -0.0089396406014967747 0 0.0045774522161646097 -0.0093144947699853528 0 0.0014199230119024339 -0.021574900853890581 0 0.002394805847480138 -0.0071764921779012506 0 0.0006213327713558641 -0.0089396406014967747 0 0.0045774522161646097 -0.0093144947699853528 0 0.0006213327713558641 -0.0089396406014967747 0 0.0045774522161646097 -0.0093144947699853528 0 -0.001488115343110989 -0.0087397640735148233 0 0.002394805847480138 -0.0071764921779012506 0 0.0006213327713558641 -0.0089396406014967747 0 0.002394805847480138 -0.0071764921779012506 0 0.0006213327713558641 -0.0089396406014967747 0 0.002394805847480138 -0.0071764921779012506 0 0.0045774522161646097 -0.0093144947699853528 0 0.0045774522161646097 -0.0093144947699853528 0 0.019230231732056138 -0.023667566818530359 0 0.0045774522161646097 -0.0093144947699853528 0 0.0014199230119024339 -0.021574900853890581 0 0.019230231732056138 -0.023667566818530359 0 0.0014199230119024339 -0.021574900853890581 0 0.0083973707027768379 -0.030855929703784798 0 0.019230231732056138 -0.023667566818530359 0 -0.003476286599935095 -0.036271506326322138 0 0.0014199230119024339 -0.021574900853890581 0 0.0083973707027768379 -0.030855929703784798 0 0.030110906951190688 -0.01173386609504996 0 0.019230231732056138 -0.023667566818530359 0 0.031518170358815163 -0.024102367719011381 0 0.019230231732056138 -0.023667566818530359 0 0.033883011247947889 -0.038020638867075192 0 0.031518170358815163 -0.024102367719011381 0 0.019230231732056138 -0.023667566818530359 0 0.033883011247947889 -0.038020638867075192 0 0.01494251690265052 -0.041372340822573933 0 0.01833358543460277 -0.05641701057889667 0 0.033883011247947889 -0.038020638867075192 0 0.019230231732056138 -0.023667566818530359 0 0.01494251690265052 -0.041372340822573933 0 0.033883011247947889 -0.038020638867075192 0 -0.003476286599935095 -0.036271506326322138 0 -0.00022463716734756899 -0.054496453091326037 0 0.01494251690265052 -0.041372340822573933 0 -0.003476286599935095 -0.036271506326322138 0 0.0083973707027768379 -0.030855929703784798 0 0.01494251690265052 -0.041372340822573933 0 0.0083973707027768379 -0.030855929703784798 0 0.019230231732056138 -0.023667566818530359 0 0.01494251690265052 -0.041372340822573933 0 -0.00022463716734756899 -0.054496453091326037 0 0.003886405537072308 -0.074985287574065307 0 0.01833358543460277 -0.05641701057889667 0 -0.00022463716734756899 -0.054496453091326037 0 0.01494251690265052 -0.041372340822573933 0 0.01833358543460277 -0.05641701057889667 0 0.028295076817156449 -0.069568801619081161 0 0.01833358543460277 -0.05641701057889667 0 0.043412112850471737 -0.054930671915401803 0 0.01833358543460277 -0.05641701057889667 0 0.043412112850471737 -0.054930671915401803 0 0.033883011247947889 -0.038020638867075192 0 0.043412112850471737 -0.054930671915401803 0 0.059769218069649313 -0.045902054602901338 0 0.062505798999464707 -0.060826586793076412 0 0.043412112850471737 -0.054930671915401803 0 0.059769218069649313 -0.045902054602901338 0 0.051344651808144813 -0.03456126235542302 0 0.051344651808144813 -0.03456126235542302 0 0.056061594203691133 -0.025076371103657479 0 0.065665228365204262 -0.034364577790676212 0 0.059769218069649313 -0.045902054602901338 0 0.051344651808144813 -0.03456126235542302 0 0.065665228365204262 -0.034364577790676212 0 0.043412112850471737 -0.054930671915401803 0 0.051344651808144813 -0.03456126235542302 0 0.033883011247947889 -0.038020638867075192 0 0.051344651808144813 -0.03456126235542302 0 0.033883011247947889 -0.038020638867075192 0 0.042848531504065902 -0.022987399095390042 0 0.030110906951190688 -0.01173386609504996 0 0.042848531504065902 -0.022987399095390042 0 0.055644361686216767 -0.014153237420114781 0 0.033883011247947889 -0.038020638867075192 0 0.031518170358815163 -0.024102367719011381 0 0.042848531504065902 -0.022987399095390042 0 0.030110906951190688 -0.01173386609504996 0 0.031518170358815163 -0.024102367719011381 0 0.042848531504065902 -0.022987399095390042 0 0.051344651808144813 -0.03456126235542302 0 0.042848531504065902 -0.022987399095390042 0 0.056061594203691133 -0.025076371103657479 0 0.056061594203691133 -0.025076371103657479 0 0.064805197654823885 -0.019315378856683371 0 0.065665228365204262 -0.034364577790676212 0 0.056061594203691133 -0.025076371103657479 0 0.055644361686216767 -0.014153237420114781 0 0.064805197654823885 -0.019315378856683371 0 0.042848531504065902 -0.022987399095390042 0 0.056061594203691133 -0.025076371103657479 0 0.055644361686216767 -0.014153237420114781 0 0.055644361686216767 -0.014153237420114781 0 0.058196269712748661 -0.0010094984802769141 0 0.069352637037845374 -0.0058266927155855106 0 0.055644361686216767 -0.014153237420114781 0 0.058196269712748661 -0.0010094984802769141 0 0.045210290485040869 -0.0034719151203993228 0 0.030110906951190688 -0.01173386609504996 0 0.055644361686216767 -0.014153237420114781 0 0.045210290485040869 -0.0034719151203993228 0 0.035622497167505339 0.0063925700628825917 0 0.030110906951190688 -0.01173386609504996 0 0.045210290485040869 -0.0034719151203993228 0 0.030110906951190688 -0.01173386609504996 0 0.055644361686216767 -0.014153237420114781 0 0.096167504599054904 0.0042442054759202954 0 0.081717153665888317 -0.0025063239881197622 0 0.095472413630543998 -0.0072730453323191883 0 0.081717153665888317 -0.0025063239881197622 0 0.081177816421242804 -0.016572608745179591 0 0.095472413630543998 -0.0072730453323191883 0 0.055644361686216767 -0.014153237420114781 0 0.081177816421242804 -0.016572608745179591 0 0.055644361686216767 -0.014153237420114781 0 0.069352637037845374 -0.0058266927155855106 0 0.081177816421242804 -0.016572608745179591 0 0.070381517258247442 0.0054324954822656396 0 0.081717153665888317 -0.0025063239881197622 0 0.069352637037845374 -0.0058266927155855106 0 0.070381517258247442 0.0054324954822656396 0 0.058196269712748661 -0.0010094984802769141 0 0.069352637037845374 -0.0058266927155855106 0 0.081717153665888317 -0.0025063239881197622 0 0.069352637037845374 -0.0058266927155855106 0 0.081177816421242804 -0.016572608745179591 0 0.064805197654823885 -0.019315378856683371 0 0.085712771491518958 -0.038211511484016539 0 0.065665228365204262 -0.034364577790676212 0 0.064805197654823885 -0.019315378856683371 0 0.076287907678157074 -0.023986159701047009 0 0.081177816421242804 -0.016572608745179591 0 0.055644361686216767 -0.014153237420114781 0 0.064805197654823885 -0.019315378856683371 0 0.081177816421242804 -0.016572608745179591 0 0.064805197654823885 -0.019315378856683371 0 0.076287907678157074 -0.023986159701047009 0 0.085712771491518958 -0.038211511484016539 0 0.064805197654823885 -0.019315378856683371 0 0.085712771491518958 -0.038211511484016539 0 0.076287907678157074 -0.023986159701047009 0 0.090532384742726735 -0.027505059676875141 0 0.085712771491518958 -0.038211511484016539 0 0.076287907678157074 -0.023986159701047009 0 0.085712771491518958 -0.038211511484016539 0 0.081177816421242804 -0.016572608745179591 0 0.090532384742726735 -0.027505059676875141 0 0.1067112711562688 -0.01899198007024441 0 0.076287907678157074 -0.023986159701047009 0 0.081177816421242804 -0.016572608745179591 0 0.090532384742726735 -0.027505059676875141 0 0.090532384742726735 -0.027505059676875141 0 0.085712771491518958 -0.038211511484016539 0 0.102772156966446 -0.039763038383888151 0 0.085712771491518958 -0.038211511484016539 0 0.07267749436203183 -0.048188407729665747 0 0.085132366133298415 -0.052458296335176707 0 0.085712771491518958 -0.038211511484016539 0 0.065665228365204262 -0.034364577790676212 0 0.07267749436203183 -0.048188407729665747 0 0.059769218069649313 -0.045902054602901338 0 0.065665228365204262 -0.034364577790676212 0 0.07267749436203183 -0.048188407729665747 0 0.059769218069649313 -0.045902054602901338 0 0.07267749436203183 -0.048188407729665747 0 0.062505798999464707 -0.060826586793076412 0 0.07267749436203183 -0.048188407729665747 0 0.062505798999464707 -0.060826586793076412 0 0.07727958311305537 -0.057367419372147309 0 0.085712771491518958 -0.038211511484016539 0 0.098207536939253007 -0.057070397666300149 0 0.07727958311305537 -0.057367419372147309 0 0.085132366133298415 -0.052458296335176707 0 0.088807886296056321 -0.06442462200908719 0 0.085712771491518958 -0.038211511484016539 0 0.085132366133298415 -0.052458296335176707 0 0.098207536939253007 -0.057070397666300149 0 0.07267749436203183 -0.048188407729665747 0 0.07727958311305537 -0.057367419372147309 0 0.085132366133298415 -0.052458296335176707 0 0.085132366133298415 -0.052458296335176707 0 0.098207536939253007 -0.057070397666300149 0 0.088807886296056321 -0.06442462200908719 0 0.085712771491518958 -0.038211511484016539 0 0.1060355466537841 -0.056579106778484822 0 0.085712771491518958 -0.038211511484016539 0 0.098207536939253007 -0.057070397666300149 0 0.1060355466537841 -0.056579106778484822 0 0.098207536939253007 -0.057070397666300149 0 0.1060355466537841 -0.056579106778484822 0 0.1035330678577871 -0.060408744014543561 0 0.1060355466537841 -0.056579106778484822 0 0.1035330678577871 -0.060408744014543561 0 0.1060355466537841 -0.056579106778484822 0 0.12407046944405239 -0.056682210957894767 0 0.1194833752947594 -0.035999389823432593 0 0.1060355466537841 -0.056579106778484822 0 0.1194833752947594 -0.035999389823432593 0 0.102772156966446 -0.039763038383888151 0 0.1060355466537841 -0.056579106778484822 0 0.1194833752947594 -0.035999389823432593 0 0.1194833752947594 -0.035999389823432593 0 0.102772156966446 -0.039763038383888151 0 0.1067112711562688 -0.01899198007024441 0 0.085712771491518958 -0.038211511484016539 0 0.1060355466537841 -0.056579106778484822 0 0.102772156966446 -0.039763038383888151 0 0.090532384742726735 -0.027505059676875141 0 0.102772156966446 -0.039763038383888151 0 0.1067112711562688 -0.01899198007024441 0 0.081177816421242804 -0.016572608745179591 0 0.1067112711562688 -0.01899198007024441 0 0.1194833752947594 -0.035999389823432593 0 0.119688443476294 -0.020419382492060888 0 0.13293120393573529 -0.01541967286838083 0 0.1194833752947594 -0.035999389823432593 0 0.1067112711562688 -0.01899198007024441 0 0.119688443476294 -0.020419382492060888 0 0.119688443476294 -0.020419382492060888 0 0.1196279235184127 -0.011266487206185741 0 0.13293120393573529 -0.01541967286838083 0 0.1067112711562688 -0.01899198007024441 0 0.119688443476294 -0.020419382492060888 0 0.1196279235184127 -0.011266487206185741 0 0.1067112711562688 -0.01899198007024441 0 0.1196279235184127 -0.011266487206185741 0 0.11158832231026521 -0.002538519333972472 0 0.12681727907172599 0.0028609529651058472 0 0.1196279235184127 -0.011266487206185741 0 0.11158832231026521 -0.002538519333972472 0 0.081177816421242804 -0.016572608745179591 0 0.1067112711562688 -0.01899198007024441 0 0.095472413630543998 -0.0072730453323191883 0 0.1067112711562688 -0.01899198007024441 0 0.11158832231026521 -0.002538519333972472 0 0.095472413630543998 -0.0072730453323191883 0 0.096167504599054904 0.0042442054759202954 0 0.11158832231026521 -0.002538519333972472 0 0.095472413630543998 -0.0072730453323191883 0 0.088205186756687592 -0.098499163401079406 0 0.088306584707542421 -0.11364295246223539 0 0.1041297467101449 -0.10443009357677931 0 0.088205186756687592 -0.098499163401079406 0 0.088306584707542421 -0.11364295246223539 0 0.074368452797441906 -0.1081427041937684 0 0.086025777066828416 -0.13071312073542821 0 0.088306584707542421 -0.11364295246223539 0 0.1003755091591467 -0.120365047089626 0 0.086025777066828416 -0.13071312073542821 0 0.088306584707542421 -0.11364295246223539 0 0.076734835755005087 -0.11970758577673089 0 0.088306584707542421 -0.11364295246223539 0 0.076734835755005087 -0.11970758577673089 0 0.074368452797441906 -0.1081427041937684 0 0.076734835755005087 -0.11970758577673089 0 0.065906963652981487 -0.1182248878619804 0 0.074368452797441906 -0.1081427041937684 0 0.055228870314899682 -0.103843804558387 0 0.065906963652981487 -0.1182248878619804 0 0.074368452797441906 -0.1081427041937684 0 0.067777920578933518 -0.1299680747675574 0 0.076734835755005087 -0.11970758577673089 0 0.065906963652981487 -0.1182248878619804 0 0.067777920578933518 -0.1299680747675574 0 0.05399936433302991 -0.12122894057442581 0 0.065906963652981487 -0.1182248878619804 0 0.088205186756687592 -0.098499163401079406 0 0.070281085843191191 -0.093817275438188408 0 0.074368452797441906 -0.1081427041937684 0 0.055228870314899682 -0.103843804558387 0 0.070281085843191191 -0.093817275438188408 0 0.074368452797441906 -0.1081427041937684 0 0.056852127489792813 -0.07490730178705754 0 0.078967107604769243 -0.081534257868326937 0 0.056852127489792813 -0.07490730178705754 0 0.070281085843191191 -0.093817275438188408 0 0.078967107604769243 -0.081534257868326937 0 0.062505798999464707 -0.060826586793076412 0 0.07727958311305537 -0.057367419372147309 0 0.078967107604769243 -0.081534257868326937 0 0.056852127489792813 -0.07490730178705754 0 0.062505798999464707 -0.060826586793076412 0 0.078967107604769243 -0.081534257868326937 0 0.07727958311305537 -0.057367419372147309 0 0.088807886296056321 -0.06442462200908719 0 0.078967107604769243 -0.081534257868326937 0 0.088807886296056321 -0.06442462200908719 0 0.078967107604769243 -0.081534257868326937 0 0.094886380824945021 -0.074739832907536372 0 0.088205186756687592 -0.098499163401079406 0 0.078967107604769243 -0.081534257868326937 0 0.10108208771974569 -0.088161213949596334 0 0.078967107604769243 -0.081534257868326937 0 0.10108208771974569 -0.088161213949596334 0 0.088205186756687592 -0.098499163401079406 0 0.070281085843191191 -0.093817275438188408 0 0.078967107604769243 -0.081534257868326937 0 0.078967107604769243 -0.081534257868326937 0 0.10108208771974569 -0.088161213949596334 0 0.094886380824945021 -0.074739832907536372 0 0.10108208771974569 -0.088161213949596334 0 0.094886380824945021 -0.074739832907536372 0 0.1107023023869871 -0.07592928384858362 0 0.1060355466537841 -0.056579106778484822 0 0.1035330678577871 -0.060408744014543561 0 0.1107023023869871 -0.07592928384858362 0 0.098151026611810355 -0.068041034107876819 0 0.094886380824945021 -0.074739832907536372 0 0.1107023023869871 -0.07592928384858362 0 0.098207536939253007 -0.057070397666300149 0 0.1107023023869871 -0.07592928384858362 0 0.098207536939253007 -0.057070397666300149 0 0.098151026611810355 -0.068041034107876819 0 0.1107023023869871 -0.07592928384858362 0 0.098207536939253007 -0.057070397666300149 0 0.1035330678577871 -0.060408744014543561 0 0.1107023023869871 -0.07592928384858362 0 0.088807886296056321 -0.06442462200908719 0 0.098151026611810355 -0.068041034107876819 0 0.094886380824945021 -0.074739832907536372 0 0.098207536939253007 -0.057070397666300149 0 0.088807886296056321 -0.06442462200908719 0 0.098151026611810355 -0.068041034107876819 0 0.1060355466537841 -0.056579106778484822 0 0.1107023023869871 -0.07592928384858362 0 0.12599115970317629 -0.074614863284063901 0 0.1060355466537841 -0.056579106778484822 0 0.12599115970317629 -0.074614863284063901 0 0.1060355466537841 -0.056579106778484822 0 0.12407046944405239 -0.056682210957894767 0 0.12599115970317629 -0.074614863284063901 0 0.1107023023869871 -0.07592928384858362 0 0.1231970678347219 -0.094788170030866675 0 0.10108208771974569 -0.088161213949596334 0 0.1231970678347219 -0.094788170030866675 0 0.10108208771974569 -0.088161213949596334 0 0.1107023023869871 -0.07592928384858362 0 0.1231970678347219 -0.094788170030866675 0 0.1107023023869871 -0.07592928384858362 0 0.1231970678347219 -0.094788170030866675 0 0.12599115970317629 -0.074614863284063901 0 0.1231970678347219 -0.094788170030866675 0 0.1041297467101449 -0.10443009357677931 0 0.1165495357793246 -0.11537146045311671 0 0.10108208771974569 -0.088161213949596334 0 0.1231970678347219 -0.094788170030866675 0 0.1041297467101449 -0.10443009357677931 0 0.088205186756687592 -0.098499163401079406 0 0.10108208771974569 -0.088161213949596334 0 0.1041297467101449 -0.10443009357677931 0 0.1110772144577262 -0.12607447494648069 0 0.1003755091591467 -0.120365047089626 0 0.1165495357793246 -0.11537146045311671 0 0.088306584707542421 -0.11364295246223539 0 0.1041297467101449 -0.10443009357677931 0 0.1003755091591467 -0.120365047089626 0 0.1041297467101449 -0.10443009357677931 0 0.1003755091591467 -0.120365047089626 0 0.1165495357793246 -0.11537146045311671 0 0.1110772144577262 -0.12607447494648069 0 0.1165495357793246 -0.11537146045311671 0 0.125059882544757 -0.1243050716586782 0 0.1165495357793246 -0.11537146045311671 0 0.125059882544757 -0.1243050716586782 0 0.13570225296767791 -0.1136627830916173 0 0.125059882544757 -0.1243050716586782 0 0.13570225296767791 -0.1136627830916173 0 0.13351042007077771 -0.13535464583232679 0 0.13570225296767791 -0.1136627830916173 0 0.14916210969568239 -0.1144869233999513 0 0.14820743810063461 -0.13253739615236759 0 0.13570225296767791 -0.1136627830916173 0 0.14820743810063461 -0.13253739615236759 0 0.14916210969568239 -0.1144869233999513 0 0.1659023858019596 -0.11068637629522381 0 0.14820743810063461 -0.13253739615236759 0 0.13570225296767791 -0.1136627830916173 0 0.14916210969568239 -0.1144869233999513 0 0.1438387705826743 -0.1009736450727655 0 0.14916210969568239 -0.1144869233999513 0 0.1438387705826743 -0.1009736450727655 0 0.1659023858019596 -0.11068637629522381 0 0.1438387705826743 -0.1009736450727655 0 0.14594677275256851 -0.092650619789643215 0 0.1659023858019596 -0.11068637629522381 0 0.14594677275256851 -0.092650619789643215 0 0.1659023858019596 -0.11068637629522381 0 0.1231970678347219 -0.094788170030866675 0 0.1438387705826743 -0.1009736450727655 0 0.14594677275256851 -0.092650619789643215 0 0.1231970678347219 -0.094788170030866675 0 0.1438387705826743 -0.1009736450727655 0 0.1231970678347219 -0.094788170030866675 0 0.13570225296767791 -0.1136627830916173 0 0.1231970678347219 -0.094788170030866675 0 0.13570225296767791 -0.1136627830916173 0 0.1438387705826743 -0.1009736450727655 0 0.1231970678347219 -0.094788170030866675 0 0.1165495357793246 -0.11537146045311671 0 0.13570225296767791 -0.1136627830916173 0 0.12599115970317629 -0.074614863284063901 0 0.14324551520284479 -0.074303388514748908 0 0.14594677275256851 -0.092650619789643215 0 0.12599115970317629 -0.074614863284063901 0 0.14594677275256851 -0.092650619789643215 0 0.1231970678347219 -0.094788170030866675 0 0.12599115970317629 -0.074614863284063901 0 0.14594677275256851 -0.092650619789643215 0 0.13274812921261911 -0.06482196831319062 0 0.14324551520284479 -0.074303388514748908 0 0.14208920836164879 -0.057453001683217583 0 0.12407046944405239 -0.056682210957894767 0 0.13274812921261911 -0.06482196831319062 0 0.12599115970317629 -0.074614863284063901 0 0.13274812921261911 -0.06482196831319062 0 0.12599115970317629 -0.074614863284063901 0 0.14324551520284479 -0.074303388514748908 0 0.14324551520284479 -0.074303388514748908 0 0.1577676676713505 -0.070958881179004327 0 0.14208920836164879 -0.057453001683217583 0 0.14324551520284479 -0.074303388514748908 0 0.15552700132703259 -0.084480842179265062 0 0.1577676676713505 -0.070958881179004327 0 0.14594677275256851 -0.092650619789643215 0 0.15552700132703259 -0.084480842179265062 0 0.16270751108717671 -0.093919671838121624 0 0.14324551520284479 -0.074303388514748908 0 0.14594677275256851 -0.092650619789643215 0 0.15552700132703259 -0.084480842179265062 0 0.15552700132703259 -0.084480842179265062 0 0.1577676676713505 -0.070958881179004327 0 0.17317205283599571 -0.083245500938658068 0 0.15552700132703259 -0.084480842179265062 0 0.17317205283599571 -0.083245500938658068 0 0.16270751108717671 -0.093919671838121624 0 0.17317205283599571 -0.083245500938658068 0 0.1732436498299591 -0.098484742462365965 0 0.16270751108717671 -0.093919671838121624 0 0.1577676676713505 -0.070958881179004327 0 0.17329006297225849 -0.067144545014819187 0 0.17317205283599571 -0.083245500938658068 0 0.1577676676713505 -0.070958881179004327 0 0.17329006297225849 -0.067144545014819187 0 0.16114266970546481 -0.055348584155622209 0 0.17329006297225849 -0.067144545014819187 0 0.18660459660722059 -0.07121356670435669 0 0.17317205283599571 -0.083245500938658068 0 0.17329006297225849 -0.067144545014819187 0 0.18660459660722059 -0.07121356670435669 0 0.18383722960737159 -0.053734604093409272 0 0.18660459660722059 -0.07121356670435669 0 0.17317205283599571 -0.083245500938658068 0 0.19163234817905089 -0.084272585639399919 0 0.17317205283599571 -0.083245500938658068 0 0.18448732685510821 -0.096160788283265797 0 0.19163234817905089 -0.084272585639399919 0 0.17317205283599571 -0.083245500938658068 0 0.18448732685510821 -0.096160788283265797 0 0.1732436498299591 -0.098484742462365965 0 0.18448732685510821 -0.096160788283265797 0 0.1732436498299591 -0.098484742462365965 0 0.1799489725695555 -0.1084113749565605 0 0.1732436498299591 -0.098484742462365965 0 0.1799489725695555 -0.1084113749565605 0 0.1659023858019596 -0.11068637629522381 0 0.18448732685510821 -0.096160788283265797 0 0.1799489725695555 -0.1084113749565605 0 0.19189947738255089 -0.11079770296415201 0 0.1799489725695555 -0.1084113749565605 0 0.1659023858019596 -0.11068637629522381 0 0.18392927920566929 -0.12697896821793581 0 0.1659023858019596 -0.11068637629522381 0 0.18392927920566929 -0.12697896821793581 0 0.1799489725695555 -0.1084113749565605 0 0.19189947738255089 -0.11079770296415201 0 0.18392927920566929 -0.12697896821793581 0 0.1659023858019596 -0.11068637629522381 0 0.17135699408012309 -0.1393121638749876 0 0.1732436498299591 -0.098484742462365965 0 0.1659023858019596 -0.11068637629522381 0 0.16270751108717671 -0.093919671838121624 0 0.14594677275256851 -0.092650619789643215 0 0.1659023858019596 -0.11068637629522381 0 0.16270751108717671 -0.093919671838121624 0 0.1659023858019596 -0.11068637629522381 0 0.16270751108717671 -0.093919671838121624 0 0.1463790325767105 0.0051600440866713393 0 0.13293120393573529 -0.01541967286838083 0 0.14494909117168939 -0.01571097116995826 0 0.1463790325767105 0.0051600440866713393 0 0.15462421245165581 -0.0058893527151400796 0 0.14494909117168939 -0.01571097116995826 0 0.1463790325767105 0.0051600440866713393 0 0.14494909117168939 -0.01571097116995826 0 0.15462421245165581 -0.0058893527151400796 0 0.14494909117168939 -0.01571097116995826 0 0.1598580582920249 -0.020425916519869049 0 0.1463790325767105 0.0051600440866713393 0 0.12681727907172599 0.0028609529651058472 0 0.13293120393573529 -0.01541967286838083 0 0.1463790325767105 0.0051600440866713393 0 0.13293120393573529 -0.01541967286838083 0 0.12681727907172599 0.0028609529651058472 0 0.1196279235184127 -0.011266487206185741 0 0.13293120393573529 -0.01541967286838083 0 0.13293120393573529 -0.01541967286838083 0 0.14494909117168939 -0.01571097116995826 0 0.1435191497666691 -0.036581986426587887 0 0.1194833752947594 -0.035999389823432593 0 0.13293120393573529 -0.01541967286838083 0 0.1435191497666691 -0.036581986426587887 0 0.1194833752947594 -0.035999389823432593 0 0.13293120393573529 -0.01541967286838083 0 0.14494909117168939 -0.01571097116995826 0 0.1435191497666691 -0.036581986426587887 0 0.14494909117168939 -0.01571097116995826 0 0.1435191497666691 -0.036581986426587887 0 0.1598580582920249 -0.020425916519869049 0 0.1194833752947594 -0.035999389823432593 0 0.1435191497666691 -0.036581986426587887 0 0.13229055071678239 -0.046679147222783213 0 0.12407046944405239 -0.056682210957894767 0 0.1194833752947594 -0.035999389823432593 0 0.13229055071678239 -0.046679147222783213 0 0.1435191497666691 -0.036581986426587887 0 0.13229055071678239 -0.046679147222783213 0 0.14208920836164879 -0.057453001683217583 0 0.12407046944405239 -0.056682210957894767 0 0.13229055071678239 -0.046679147222783213 0 0.14208920836164879 -0.057453001683217583 0 0.12407046944405239 -0.056682210957894767 0 0.13274812921261911 -0.06482196831319062 0 0.14208920836164879 -0.057453001683217583 0 0.1577676676713505 -0.070958881179004327 0 0.14208920836164879 -0.057453001683217583 0 0.16114266970546481 -0.055348584155622209 0 0.1435191497666691 -0.036581986426587887 0 0.14208920836164879 -0.057453001683217583 0 0.1435191497666691 -0.036581986426587887 0 0.14208920836164879 -0.057453001683217583 0 0.16114266970546481 -0.055348584155622209 0 0.16114266970546481 -0.055348584155622209 0 0.18383722960737159 -0.053734604093409272 0 0.16867226584066319 -0.036111154955617203 0 0.17329006297225849 -0.067144545014819187 0 0.16114266970546481 -0.055348584155622209 0 0.18383722960737159 -0.053734604093409272 0 0.18383722960737159 -0.053734604093409272 0 0.16867226584066319 -0.036111154955617203 0 0.1895671539671433 -0.037285104408639982 0 0.1435191497666691 -0.036581986426587887 0 0.16114266970546481 -0.055348584155622209 0 0.16867226584066319 -0.036111154955617203 0 0.1435191497666691 -0.036581986426587887 0 0.16867226584066319 -0.036111154955617203 0 0.1598580582920249 -0.020425916519869049 0 0.16867226584066319 -0.036111154955617203 0 0.1598580582920249 -0.020425916519869049 0 0.17626464034529979 -0.01218273843611789 0 0.16867226584066319 -0.036111154955617203 0 0.17626464034529979 -0.01218273843611789 0 0.19288185645158881 -0.018686415508600542 0 0.16867226584066319 -0.036111154955617203 0 0.19288185645158881 -0.018686415508600542 0 0.16867226584066319 -0.036111154955617203 0 0.19288185645158881 -0.018686415508600542 0 0.1895671539671433 -0.037285104408639982 0 0.1913914811785945 0.0015479160267864781 0 0.177795833794237 0.0058736288592868176 0 0.17626464034529979 -0.01218273843611789 0 0.177795833794237 0.0058736288592868176 0 0.17626464034529979 -0.01218273843611789 0 0.16638725000284621 -0.0041024332455818144 0 0.1913914811785945 0.0015479160267864781 0 0.17626464034529979 -0.01218273843611789 0 0.19288185645158881 -0.018686415508600542 0 0.15462421245165581 -0.0058893527151400796 0 0.1598580582920249 -0.020425916519869049 0 0.16638725000284621 -0.0041024332455818144 0 0.1598580582920249 -0.020425916519869049 0 0.17626464034529979 -0.01218273843611789 0 0.16638725000284621 -0.0041024332455818144 0 0.15628357420278671 0.003810722324721363 0 0.15462421245165581 -0.0058893527151400796 0 0.16638725000284621 -0.0041024332455818144 0 0.21709144706251299 -0.0012616760615819459 0 0.19288185645158881 -0.018686415508600542 0 0.21709144706251299 -0.0012616760615819459 0 0.19288185645158881 -0.018686415508600542 0 0.21106230177929311 -0.016930390785221641 0 0.21709144706251299 -0.0012616760615819459 0 0.21106230177929311 -0.016930390785221641 0 0.21880732635032871 -0.001449260780306197 0 0.21106230177929311 -0.016930390785221641 0 0.22385231661827831 -0.017244899007901549 0 0.21880732635032871 -0.001449260780306197 0 0.21991949691130641 0.00077379957079282309 0 0.21709144706251299 -0.0012616760615819459 0 0.21991949691130641 0.00077379957079282309 0 0.21709144706251299 -0.0012616760615819459 0 0.21880732635032871 -0.001449260780306197 0 0.21709144706251299 -0.0012616760615819459 0 0.21880732635032871 -0.001449260780306197 0 0.21106230177929311 -0.016930390785221641 0 0.21880732635032871 -0.001449260780306197 0 0.1913914811785945 0.0015479160267864781 0 0.21709144706251299 -0.0012616760615819459 0 0.19288185645158881 -0.018686415508600542 0 0.19288185645158881 -0.018686415508600542 0 0.21106230177929311 -0.016930390785221641 0 0.2033172772082579 -0.032411520790137288 0 0.19288185645158881 -0.018686415508600542 0 0.2033172772082579 -0.032411520790137288 0 0.1895671539671433 -0.037285104408639982 0 0.21106230177929311 -0.016930390785221641 0 0.2033172772082579 -0.032411520790137288 0 0.21106230177929311 -0.016930390785221641 0 0.21701755041282189 -0.032304719396535099 0 0.2033172772082579 -0.032411520790137288 0 0.21106230177929311 -0.016930390785221641 0 0.21701755041282189 -0.032304719396535099 0 0.22385231661827831 -0.017244899007901549 0 0.21701755041282189 -0.032304719396535099 0 0.21047104707744299 -0.044055030933792823 0 0.21970932447173591 -0.041885045690610363 0 0.21047104707744299 -0.044055030933792823 0 0.2163169812201669 -0.048151654183774213 0 0.21970932447173591 -0.041885045690610363 0 0.21047104707744299 -0.044055030933792823 0 0.2033172772082579 -0.032411520790137288 0 0.19912714072783499 -0.045481826695435601 0 0.21701755041282189 -0.032304719396535099 0 0.21047104707744299 -0.044055030933792823 0 0.2033172772082579 -0.032411520790137288 0 0.2033172772082579 -0.032411520790137288 0 0.1895671539671433 -0.037285104408639982 0 0.19912714072783499 -0.045481826695435601 0 0.18383722960737159 -0.053734604093409272 0 0.1895671539671433 -0.037285104408639982 0 0.19912714072783499 -0.045481826695435601 0 0.18383722960737159 -0.053734604093409272 0 0.19912714072783499 -0.045481826695435601 0 0.20031667673944939 -0.057421141152823332 0 0.18383722960737159 -0.053734604093409272 0 0.20031667673944939 -0.057421141152823332 0 0.19584992287481651 -0.066326971565447423 0 0.19912714072783499 -0.045481826695435601 0 0.20031667673944939 -0.057421141152823332 0 0.20701231567461709 -0.051722697756719387 0 0.20031667673944939 -0.057421141152823332 0 0.21110366793748389 -0.058962871247726333 0 0.20754781500579161 -0.067167929918243774 0 0.20031667673944939 -0.057421141152823332 0 0.20701231567461709 -0.051722697756719387 0 0.21110366793748389 -0.058962871247726333 0 0.21047104707744299 -0.044055030933792823 0 0.19912714072783499 -0.045481826695435601 0 0.20701231567461709 -0.051722697756719387 0 0.21047104707744299 -0.044055030933792823 0 0.20701231567461709 -0.051722697756719387 0 0.21404304589087411 -0.052692618753818851 0 0.20701231567461709 -0.051722697756719387 0 0.21404304589087411 -0.052692618753818851 0 0.21110366793748389 -0.058962871247726333 0 0.21047104707744299 -0.044055030933792823 0 0.21404304589087411 -0.052692618753818851 0 0.2163169812201669 -0.048151654183774213 0 0.21404304589087411 -0.052692618753818851 0 0.2163169812201669 -0.048151654183774213 0 0.22104450744061471 -0.053973921356874788 0 0.21404304589087411 -0.052692618753818851 0 0.21720125996139161 -0.057407354338342383 0 0.22104450744061471 -0.053973921356874788 0 0.21720125996139161 -0.057407354338342383 0 0.21110366793748389 -0.058962871247726333 0 0.2190710203991128 -0.066761103999133015 0 0.21404304589087411 -0.052692618753818851 0 0.21720125996139161 -0.057407354338342383 0 0.21110366793748389 -0.058962871247726333 0 0.22259109842381891 -0.056331752972584533 0 0.24466000719816181 -0.052572806154117767 0 0.23359814963938669 -0.073112384460560717 0 0.22259109842381891 -0.056331752972584533 0 0.2190710203991128 -0.066761103999133015 0 0.21720125996139161 -0.057407354338342383 0 0.22259109842381891 -0.056331752972584533 0 0.2190710203991128 -0.066761103999133015 0 0.21720125996139161 -0.057407354338342383 0 0.22259109842381891 -0.056331752972584533 0 0.22104450744061471 -0.053973921356874788 0 0.22259109842381891 -0.056331752972584533 0 0.22104450744061471 -0.053973921356874788 0 0.2163169812201669 -0.048151654183774213 0 0.22104450744061471 -0.053973921356874788 0 0.21970932447173591 -0.041885045690610363 0 0.25572186475693609 -0.032033227847674262 0 0.24466000719816181 -0.052572806154117767 0 0.2314560627619717 -0.030066475819188941 0 0.22259109842381891 -0.056331752972584533 0 0.24466000719816181 -0.052572806154117767 0 0.2314560627619717 -0.030066475819188941 0 0.22259109842381891 -0.056331752972584533 0 0.2314560627619717 -0.030066475819188941 0 0.22259109842381891 -0.056331752972584533 0 0.22104450744061471 -0.053973921356874788 0 0.2314560627619717 -0.030066475819188941 0 0.22104450744061471 -0.053973921356874788 0 0.21970932447173591 -0.041885045690610363 0 0.2314560627619717 -0.030066475819188941 0 0.21701755041282189 -0.032304719396535099 0 0.21970932447173591 -0.041885045690610363 0 0.2314560627619717 -0.030066475819188941 0 0.22385231661827831 -0.017244899007901549 0 0.2314560627619717 -0.030066475819188941 0 0.2403210271001277 -0.0038011986657945939 0 0.21701755041282189 -0.032304719396535099 0 0.22385231661827831 -0.017244899007901549 0 0.2314560627619717 -0.030066475819188941 0 0.25159771702699008 -0.014371615300676641 0 0.2314560627619717 -0.030066475819188941 0 0.2403210271001277 -0.0038011986657945939 0 0.25572186475693609 -0.032033227847674262 0 0.25159771702699008 -0.014371615300676641 0 0.2314560627619717 -0.030066475819188941 0 0.2314560627619717 -0.030066475819188941 0 0.2403210271001277 -0.0038011986657945939 0 0.2403210271001277 -0.0038011986657945939 0 0.21880732635032871 -0.001449260780306197 0 0.21991949691130641 0.00077379957079282309 0 0.2403210271001277 -0.0038011986657945939 0 0.21880732635032871 -0.001449260780306197 0 0.22385231661827831 -0.017244899007901549 0 0.2403210271001277 -0.0038011986657945939 0 0.21880732635032871 -0.001449260780306197 0 0.21991949691130641 0.00077379957079282309 0 0.21880732635032871 -0.001449260780306197 0 0.20659325823048899 -0.099029874252906047 0 0.21655448612892231 -0.108466948295262 0 0.2034485844213379 -0.1104083252764293 0 0.20659325823048899 -0.099029874252906047 0 0.21858698215692479 -0.095058636804357027 0 0.21655448612892231 -0.108466948295262 0 0.20659325823048899 -0.099029874252906047 0 0.21858698215692479 -0.095058636804357027 0 0.21076223576946701 -0.091385441013354662 0 0.21237619803781799 -0.123978557377612 0 0.2034485844213379 -0.1104083252764293 0 0.19857579603009881 -0.123745354966356 0 0.21655448612892231 -0.108466948295262 0 0.21237619803781799 -0.123978557377612 0 0.2034485844213379 -0.1104083252764293 0 0.19857579603009881 -0.123745354966356 0 0.19189947738255089 -0.11079770296415201 0 0.18392927920566929 -0.12697896821793581 0 0.2034485844213379 -0.1104083252764293 0 0.19857579603009881 -0.123745354966356 0 0.19189947738255089 -0.11079770296415201 0 0.18448732685510821 -0.096160788283265797 0 0.19189947738255089 -0.11079770296415201 0 0.19704440529688971 -0.097808096169463843 0 0.2034485844213379 -0.1104083252764293 0 0.19189947738255089 -0.11079770296415201 0 0.19704440529688971 -0.097808096169463843 0 0.20659325823048899 -0.099029874252906047 0 0.2034485844213379 -0.1104083252764293 0 0.19704440529688971 -0.097808096169463843 0 0.20659325823048899 -0.099029874252906047 0 0.19704440529688971 -0.097808096169463843 0 0.20377507451519661 -0.086639367611932153 0 0.18448732685510821 -0.096160788283265797 0 0.19704440529688971 -0.097808096169463843 0 0.19163234817905089 -0.084272585639399919 0 0.19163234817905089 -0.084272585639399919 0 0.20020732292815921 -0.075382335334988601 0 0.20377507451519661 -0.086639367611932153 0 0.19704440529688971 -0.097808096169463843 0 0.19163234817905089 -0.084272585639399919 0 0.20377507451519661 -0.086639367611932153 0 0.18660459660722059 -0.07121356670435669 0 0.18383722960737159 -0.053734604093409272 0 0.19584992287481651 -0.066326971565447423 0 0.18660459660722059 -0.07121356670435669 0 0.20020732292815921 -0.075382335334988601 0 0.19584992287481651 -0.066326971565447423 0 0.18660459660722059 -0.07121356670435669 0 0.19163234817905089 -0.084272585639399919 0 0.20020732292815921 -0.075382335334988601 0 0.20031667673944939 -0.057421141152823332 0 0.19584992287481651 -0.066326971565447423 0 0.20754781500579161 -0.067167929918243774 0 0.20020732292815921 -0.075382335334988601 0 0.19584992287481651 -0.066326971565447423 0 0.20754781500579161 -0.067167929918243774 0 0.20020732292815921 -0.075382335334988601 0 0.20754781500579161 -0.067167929918243774 0 0.21182278070176411 -0.07642901816315241 0 0.21182278070176411 -0.07642901816315241 0 0.2190710203991128 -0.066761103999133015 0 0.22185546860341471 -0.076890537193463129 0 0.21110366793748389 -0.058962871247726333 0 0.20754781500579161 -0.067167929918243774 0 0.2190710203991128 -0.066761103999133015 0 0.20754781500579161 -0.067167929918243774 0 0.21182278070176411 -0.07642901816315241 0 0.2190710203991128 -0.066761103999133015 0 0.20377507451519661 -0.086639367611932153 0 0.21076223576946701 -0.091385441013354662 0 0.2156201083762905 -0.085211377739258853 0 0.20659325823048899 -0.099029874252906047 0 0.20377507451519661 -0.086639367611932153 0 0.21076223576946701 -0.091385441013354662 0 0.21182278070176411 -0.07642901816315241 0 0.20377507451519661 -0.086639367611932153 0 0.2156201083762905 -0.085211377739258853 0 0.20020732292815921 -0.075382335334988601 0 0.21182278070176411 -0.07642901816315241 0 0.20377507451519661 -0.086639367611932153 0 0.21182278070176411 -0.07642901816315241 0 0.2156201083762905 -0.085211377739258853 0 0.22185546860341471 -0.076890537193463129 0 0.21858698215692479 -0.095058636804357027 0 0.21076223576946701 -0.091385441013354662 0 0.2156201083762905 -0.085211377739258853 0 0.21858698215692479 -0.095058636804357027 0 0.22254221780738029 -0.08612048538839856 0 0.22945301150852729 -0.089618177888440453 0 0.21858698215692479 -0.095058636804357027 0 0.2156201083762905 -0.085211377739258853 0 0.22254221780738029 -0.08612048538839856 0 0.22254221780738029 -0.08612048538839856 0 0.22667762447946821 -0.081336379644961862 0 0.22945301150852729 -0.089618177888440453 0 0.2156201083762905 -0.085211377739258853 0 0.22254221780738029 -0.08612048538839856 0 0.22185546860341471 -0.076890537193463129 0 0.22254221780738029 -0.08612048538839856 0 0.22667762447946821 -0.081336379644961862 0 0.22185546860341471 -0.076890537193463129 0 0.22667762447946821 -0.081336379644961862 0 0.22945301150852729 -0.089618177888440453 0 0.232130230341555 -0.075838006554786702 0 0.22259109842381891 -0.056331752972584533 0 0.23359814963938669 -0.073112384460560717 0 0.22259109842381891 -0.056331752972584533 0 0.22559767577824291 -0.070341033318702742 0 0.23359814963938669 -0.073112384460560717 0 0.22259109842381891 -0.056331752972584533 0 0.2190710203991128 -0.066761103999133015 0 0.22559767577824291 -0.070341033318702742 0 0.2190710203991128 -0.066761103999133015 0 0.22559767577824291 -0.070341033318702742 0 0.22185546860341471 -0.076890537193463129 0 0.22559767577824291 -0.070341033318702742 0 0.22185546860341471 -0.076890537193463129 0 0.226513327956856 -0.076031742247647013 0 0.22667762447946821 -0.081336379644961862 0 0.22185546860341471 -0.076890537193463129 0 0.226513327956856 -0.076031742247647013 0 0.22559767577824291 -0.070341033318702742 0 0.232130230341555 -0.075838006554786702 0 0.23359814963938669 -0.073112384460560717 0 0.22667762447946821 -0.081336379644961862 0 0.226513327956856 -0.076031742247647013 0 0.232130230341555 -0.075838006554786702 0 0.232130230341555 -0.075838006554786702 0 0.23359814963938669 -0.073112384460560717 0 0.22559767577824291 -0.070341033318702742 0 0.226513327956856 -0.076031742247647013 0 0.232130230341555 -0.075838006554786702 0 0.25578894406637898 -0.071814983055159112 0 0.24466000719816181 -0.052572806154117767 0 0.23359814963938669 -0.073112384460560717 0 0.24466000719816181 -0.052572806154117767 0 0.23359814963938669 -0.073112384460560717 0 0.232130230341555 -0.075838006554786702 0 0.23359814963938669 -0.073112384460560717 0 0.248052431344363 -0.095148438437639593 0 0.25578894406637898 -0.071814983055159112 0 0.23359814963938669 -0.073112384460560717 0 0.248052431344363 -0.095148438437639593 0 0.23359814963938669 -0.073112384460560717 0 0.248052431344363 -0.095148438437639593 0 0.22945301150852729 -0.089618177888440453 0 0.232130230341555 -0.075838006554786702 0 0.248052431344363 -0.095148438437639593 0 0.22945301150852729 -0.089618177888440453 0 0.248052431344363 -0.095148438437639593 0 0.23028066412444251 -0.1035134914659659 0 0.248052431344363 -0.095148438437639593 0 0.23028066412444251 -0.1035134914659659 0 0.24260121657943401 -0.11258968035378961 0 0.21858698215692479 -0.095058636804357027 0 0.21655448612892231 -0.108466948295262 0 0.23028066412444251 -0.1035134914659659 0 0.21858698215692479 -0.095058636804357027 0 0.22945301150852729 -0.089618177888440453 0 0.23028066412444251 -0.1035134914659659 0 0.21655448612892231 -0.108466948295262 0 0.21237619803781799 -0.123978557377612 0 0.22804122980252159 -0.1188128045943018 0 0.21655448612892231 -0.108466948295262 0 0.23028066412444251 -0.1035134914659659 0 0.22804122980252159 -0.1188128045943018 0 0.23028066412444251 -0.1035134914659659 0 0.22804122980252159 -0.1188128045943018 0 0.24260121657943401 -0.11258968035378961 0 0.26250671304934198 -0.1171844924147165 0 0.24260121657943401 -0.11258968035378961 0 0.2441250445765018 -0.1282891748563233 0 0.22804122980252159 -0.1188128045943018 0 0.24260121657943401 -0.11258968035378961 0 0.2441250445765018 -0.1282891748563233 0 0.2441250445765018 -0.1282891748563233 0 0.23903729808979979 -0.1497956366535709 0 0.2244889389359962 -0.13749465980780429 0 0.26140577643439422 -0.14332992145424359 0 0.2441250445765018 -0.1282891748563233 0 0.23903729808979979 -0.1497956366535709 0 0.26140577643439422 -0.14332992145424359 0 0.23903729808979979 -0.1497956366535709 0 0.24727016264961249 -0.1692414738038848 0 0.23903729808979979 -0.1497956366535709 0 0.2244889389359962 -0.13749465980780429 0 0.2199830660130864 -0.1595641520633625 0 0.22804122980252159 -0.1188128045943018 0 0.2441250445765018 -0.1282891748563233 0 0.2244889389359962 -0.13749465980780429 0 0.21237619803781799 -0.123978557377612 0 0.22804122980252159 -0.1188128045943018 0 0.2244889389359962 -0.13749465980780429 0 0.21237619803781799 -0.123978557377612 0 0.2244889389359962 -0.13749465980780429 0 0.2019561726093779 -0.14327156014064921 0 0.21237619803781799 -0.123978557377612 0 0.19857579603009881 -0.123745354966356 0 0.2019561726093779 -0.14327156014064921 0 0.2244889389359962 -0.13749465980780429 0 0.2019561726093779 -0.14327156014064921 0 0.2199830660130864 -0.1595641520633625 0 0.2019561726093779 -0.14327156014064921 0 0.2199830660130864 -0.1595641520633625 0 0.2019561726093779 -0.14327156014064921 0 0.2047419039749544 -0.16383627848553101 0 0.2199830660130864 -0.1595641520633625 0 0.2019561726093779 -0.14327156014064921 0 0.1858442134446858 -0.1403981851473228 0 0.18613440788357311 -0.15203004835571851 0 0.2019561726093779 -0.14327156014064921 0 0.2047419039749544 -0.16383627848553101 0 0.18613440788357311 -0.15203004835571851 0 0.19857579603009881 -0.123745354966356 0 0.2019561726093779 -0.14327156014064921 0 0.18392927920566929 -0.12697896821793581 0 0.2019561726093779 -0.14327156014064921 0 0.18392927920566929 -0.12697896821793581 0 0.2019561726093779 -0.14327156014064921 0 0.1858442134446858 -0.1403981851473228 0 0.18392927920566929 -0.12697896821793581 0 0.20143056513873611 -0.17998665641699849 0 0.18945430304214239 -0.18113699365130109 0 0.1956775580667883 -0.19315745649050381 0 0.20143056513873611 -0.17998665641699849 0 0.18945430304214239 -0.18113699365130109 0 0.19108557901044451 -0.16803916485973749 0 0.19108557901044451 -0.16803916485973749 0 0.2047419039749544 -0.16383627848553101 0 0.18613440788357311 -0.15203004835571851 0 0.20143056513873611 -0.17998665641699849 0 0.19108557901044451 -0.16803916485973749 0 0.2047419039749544 -0.16383627848553101 0 0.2047419039749544 -0.16383627848553101 0 0.21987806867346529 -0.181539582491408 0 0.2199830660130864 -0.1595641520633625 0 0.20143056513873611 -0.17998665641699849 0 0.2047419039749544 -0.16383627848553101 0 0.21987806867346529 -0.181539582491408 0 0.20143056513873611 -0.17998665641699849 0 0.21987806867346529 -0.181539582491408 0 0.21026993533039931 -0.19452922539566581 0 0.21987806867346529 -0.181539582491408 0 0.2199830660130864 -0.1595641520633625 0 0.23800995941679501 -0.17585674398607579 0 0.21987806867346529 -0.181539582491408 0 0.23800995941679501 -0.17585674398607579 0 0.2331345488648309 -0.19515302615352589 0 0.2199830660130864 -0.1595641520633625 0 0.23800995941679501 -0.17585674398607579 0 0.23903729808979979 -0.1497956366535709 0 0.2199830660130864 -0.1595641520633625 0 0.23506515458377289 -0.16194558534122611 0 0.2199830660130864 -0.1595641520633625 0 0.23506515458377289 -0.16194558534122611 0 0.23800995941679501 -0.17585674398607579 0 0.23903729808979979 -0.1497956366535709 0 0.23506515458377289 -0.16194558534122611 0 0.24727016264961249 -0.1692414738038848 0 0.23506515458377289 -0.16194558534122611 0 0.24727016264961249 -0.1692414738038848 0 0.23800995941679501 -0.17585674398607579 0 0.24727016264961249 -0.1692414738038848 0 0.2331345488648309 -0.19515302615352589 0 0.24727016264961249 -0.1692414738038848 0 0.23800995941679501 -0.17585674398607579 0 0.2331345488648309 -0.19515302615352589 0 0.25115080808597218 -0.18349252771031549 0 0.24727016264961249 -0.1692414738038848 0 0.2331345488648309 -0.19515302615352589 0 0.25294493867930001 -0.1971512634910503 0 0.25115080808597218 -0.18349252771031549 0 0.2331345488648309 -0.19515302615352589 0 0.25294493867930001 -0.1971512634910503 0 0.23924146656863479 -0.21600942233651971 0 0.2331345488648309 -0.19515302615352589 0 0.25948399805722178 -0.21095426616987389 0 0.23924146656863479 -0.21600942233651971 0 0.23924146656863479 -0.21600942233651971 0 0.218998935080048 -0.22106457850316641 0 0.21946760776481619 -0.20450875509018021 0 0.2331345488648309 -0.19515302615352589 0 0.218998935080048 -0.22106457850316641 0 0.2331345488648309 -0.19515302615352589 0 0.218998935080048 -0.22106457850316641 0 0.23924146656863479 -0.21600942233651971 0 0.2331345488648309 -0.19515302615352589 0 0.218998935080048 -0.22106457850316641 0 0.21946760776481619 -0.20450875509018021 0 0.22068754015837791 -0.19393264728269499 0 0.2331345488648309 -0.19515302615352589 0 0.21987806867346529 -0.181539582491408 0 0.22068754015837791 -0.19393264728269499 0 0.2331345488648309 -0.19515302615352589 0 0.25406429941061343 -0.23112732810889039 0 0.24146341680214309 -0.24448521489457861 0 0.23197262628044979 -0.22995906340082059 0 0.25406429941061343 -0.23112732810889039 0 0.23924146656863479 -0.21600942233651971 0 0.23197262628044979 -0.22995906340082059 0 0.23924146656863479 -0.21600942233651971 0 0.218998935080048 -0.22106457850316641 0 0.23197262628044979 -0.22995906340082059 0 0.218998935080048 -0.22106457850316641 0 0.23197262628044979 -0.22995906340082059 0 0.2174712270181591 -0.22386497246011361 0 0.23197262628044979 -0.22995906340082059 0 0.22090538197196211 -0.23599380530564679 0 0.2174712270181591 -0.22386497246011361 0 0.23197262628044979 -0.22995906340082059 0 0.2264227451730553 -0.24971222362376699 0 0.22090538197196211 -0.23599380530564679 0 0.24146341680214309 -0.24448521489457861 0 0.23197262628044979 -0.22995906340082059 0 0.2264227451730553 -0.24971222362376699 0 0.21040399342164171 -0.25176681621351038 0 0.2264227451730553 -0.24971222362376699 0 0.22090538197196211 -0.23599380530564679 0 0.21040399342164171 -0.25176681621351038 0 0.22090538197196211 -0.23599380530564679 0 0.20830595876386901 -0.23638945826593061 0 0.21040399342164171 -0.25176681621351038 0 0.20830595876386901 -0.23638945826593061 0 0.19936230214102421 -0.2479946931896729 0 0.22090538197196211 -0.23599380530564679 0 0.20830595876386901 -0.23638945826593061 0 0.2144511399868903 -0.2312706685566866 0 0.218998935080048 -0.22106457850316641 0 0.19612053567392879 -0.2267779885035914 0 0.218998935080048 -0.22106457850316641 0 0.19612053567392879 -0.2267779885035914 0 0.2105383011147646 -0.21819048542197941 0 0.218998935080048 -0.22106457850316641 0 0.20576090592389351 -0.2270860010417686 0 0.19612053567392879 -0.2267779885035914 0 0.20830595876386901 -0.23638945826593061 0 0.20576090592389351 -0.2270860010417686 0 0.20182830522270101 -0.2319599292687276 0 0.20830595876386901 -0.23638945826593061 0 0.20576090592389351 -0.2270860010417686 0 0.2144511399868903 -0.2312706685566866 0 0.22090538197196211 -0.23599380530564679 0 0.2144511399868903 -0.2312706685566866 0 0.2174712270181591 -0.22386497246011361 0 0.20576090592389351 -0.2270860010417686 0 0.2144511399868903 -0.2312706685566866 0 0.21346905720863779 -0.2258257771414271 0 0.2144511399868903 -0.2312706685566866 0 0.21346905720863779 -0.2258257771414271 0 0.2174712270181591 -0.22386497246011361 0 0.218998935080048 -0.22106457850316641 0 0.20576090592389351 -0.2270860010417686 0 0.21346905720863779 -0.2258257771414271 0 0.218998935080048 -0.22106457850316641 0 0.21346905720863779 -0.2258257771414271 0 0.2174712270181591 -0.22386497246011361 0 0.218998935080048 -0.22106457850316641 0 0.2174712270181591 -0.22386497246011361 0 0.19612053567392879 -0.2267779885035914 0 0.2105383011147646 -0.21819048542197941 0 0.20425053182178279 -0.21841625855527369 0 0.19777000223886329 -0.21875233346220549 0 0.19612053567392879 -0.2267779885035914 0 0.20425053182178279 -0.21841625855527369 0 0.19777000223886329 -0.21875233346220549 0 0.19393270034329779 -0.22126915535208849 0 0.19612053567392879 -0.2267779885035914 0 0.19393270034329779 -0.22126915535208849 0 0.18772081891462031 -0.22518952661427791 0 0.19612053567392879 -0.2267779885035914 0 0.19393270034329779 -0.22126915535208849 0 0.18772081891462031 -0.22518952661427791 0 0.19411944454577909 -0.214356772828279 0 0.19612053567392879 -0.2267779885035914 0 0.19712582052911259 -0.23758626926361981 0 0.1871717184338115 -0.23640941086597769 0 0.19612053567392879 -0.2267779885035914 0 0.20182830522270101 -0.2319599292687276 0 0.19712582052911259 -0.23758626926361981 0 0.20576090592389351 -0.2270860010417686 0 0.19612053567392879 -0.2267779885035914 0 0.20182830522270101 -0.2319599292687276 0 0.20830595876386901 -0.23638945826593061 0 0.19712582052911259 -0.23758626926361981 0 0.19936230214102421 -0.2479946931896729 0 0.20830595876386901 -0.23638945826593061 0 0.20182830522270101 -0.2319599292687276 0 0.19712582052911259 -0.23758626926361981 0 0.19712582052911259 -0.23758626926361981 0 0.18957958600208469 -0.24548130840959781 0 0.1871717184338115 -0.23640941086597769 0 0.19712582052911259 -0.23758626926361981 0 0.18957958600208469 -0.24548130840959781 0 0.19936230214102421 -0.2479946931896729 0 0.21026993533039931 -0.19452922539566581 0 0.2106024981415649 -0.2056222994823437 0 0.20186537415214451 -0.20478020160934601 0 0.21987806867346529 -0.181539582491408 0 0.22068754015837791 -0.19393264728269499 0 0.21026993533039931 -0.19452922539566581 0 0.21946760776481619 -0.20450875509018021 0 0.22068754015837791 -0.19393264728269499 0 0.21026993533039931 -0.19452922539566581 0 0.21946760776481619 -0.20450875509018021 0 0.21026993533039931 -0.19452922539566581 0 0.2106024981415649 -0.2056222994823437 0 0.21946760776481619 -0.20450875509018021 0 0.218998935080048 -0.22106457850316641 0 0.21566385185952111 -0.2138241496878262 0 0.21946760776481619 -0.20450875509018021 0 0.21566385185952111 -0.2138241496878262 0 0.21365056347845579 -0.2115327797359787 0 0.21946760776481619 -0.20450875509018021 0 0.21365056347845579 -0.2115327797359787 0 0.2106024981415649 -0.2056222994823437 0 0.218998935080048 -0.22106457850316641 0 0.21566385185952111 -0.2138241496878262 0 0.2105383011147646 -0.21819048542197941 0 0.21566385185952111 -0.2138241496878262 0 0.21365056347845579 -0.2115327797359787 0 0.2105383011147646 -0.21819048542197941 0 0.2105383011147646 -0.21819048542197941 0 0.20775900998200869 -0.21276053558054769 0 0.20425053182178279 -0.21841625855527369 0 0.21365056347845579 -0.2115327797359787 0 0.2105383011147646 -0.21819048542197941 0 0.20775900998200869 -0.21276053558054769 0 0.20775900998200869 -0.21276053558054769 0 0.20425053182178279 -0.21841625855527369 0 0.20156851284219721 -0.21282904574896491 0 0.20775900998200869 -0.21276053558054769 0 0.20186537415214451 -0.20478020160934601 0 0.20156851284219721 -0.21282904574896491 0 0.20775900998200869 -0.21276053558054769 0 0.2106024981415649 -0.2056222994823437 0 0.20186537415214451 -0.20478020160934601 0 0.21365056347845579 -0.2115327797359787 0 0.20775900998200869 -0.21276053558054769 0 0.2106024981415649 -0.2056222994823437 0 0.20186537415214451 -0.20478020160934601 0 0.19411944454577909 -0.214356772828279 0 0.19348214685029161 -0.20221454249066079 0 0.18772081891462031 -0.22518952661427791 0 0.19411944454577909 -0.214356772828279 0 0.18226621063645451 -0.19656373903451449 0 0.20186537415214451 -0.20478020160934601 0 0.20156851284219721 -0.21282904574896491 0 0.19411944454577909 -0.214356772828279 0 0.19411944454577909 -0.214356772828279 0 0.19348214685029161 -0.20221454249066079 0 0.18226621063645451 -0.19656373903451449 0 0.19777000223886329 -0.21875233346220549 0 0.20425053182178279 -0.21841625855527369 0 0.20156851284219721 -0.21282904574896491 0 0.19777000223886329 -0.21875233346220549 0 0.20156851284219721 -0.21282904574896491 0 0.19411944454577909 -0.214356772828279 0 0.19777000223886329 -0.21875233346220549 0 0.19393270034329779 -0.22126915535208849 0 0.19411944454577909 -0.214356772828279 0 0.19348214685029161 -0.20221454249066079 0 0.1956775580667883 -0.19315745649050381 0 0.18226621063645451 -0.19656373903451449 0 0.20186537415214451 -0.20478020160934601 0 0.19348214685029161 -0.20221454249066079 0 0.1956775580667883 -0.19315745649050381 0 0.21026993533039931 -0.19452922539566581 0 0.20186537415214451 -0.20478020160934601 0 0.1956775580667883 -0.19315745649050381 0 0.20143056513873611 -0.17998665641699849 0 0.21026993533039931 -0.19452922539566581 0 0.1956775580667883 -0.19315745649050381 0 0.18945430304214239 -0.18113699365130109 0 0.1956775580667883 -0.19315745649050381 0 0.18226621063645451 -0.19656373903451449 0 0.18226621063645451 -0.19656373903451449 0 0.1715432114556068 -0.21122996104898861 0 0.16984428664340401 -0.18996852359395999 0 0.18772081891462031 -0.22518952661427791 0 0.18226621063645451 -0.19656373903451449 0 0.1715432114556068 -0.21122996104898861 0 0.18772081891462031 -0.22518952661427791 0 0.18226621063645451 -0.19656373903451449 0 0.1715432114556068 -0.21122996104898861 0 0.1573322870795833 -0.20789039819694149 0 0.1623168744573055 -0.22287573648660611 0 0.1573322870795833 -0.20789039819694149 0 0.1623168744573055 -0.22287573648660611 0 0.1522967848894444 -0.22083493224417339 0 0.1715432114556068 -0.21122996104898861 0 0.1573322870795833 -0.20789039819694149 0 0.16984428664340401 -0.18996852359395999 0 0.1573322870795833 -0.20789039819694149 0 0.16984428664340401 -0.18996852359395999 0 0.15597410852767299 -0.19239463322910441 0 0.1715432114556068 -0.21122996104898861 0 0.16984428664340401 -0.18996852359395999 0 0.16984428664340401 -0.18996852359395999 0 0.15597410852767299 -0.19239463322910441 0 0.1614518955362341 -0.18261220584938501 0 0.17531814171820079 -0.25847186551630352 0 0.18140855909891221 -0.24875385404173869 0 0.17324213626780979 -0.23249139850401729 0 0.17531814171820079 -0.25847186551630352 0 0.17324213626780979 -0.23249139850401729 0 0.18140855909891221 -0.24875385404173869 0 0.182482909248532 -0.24101033857802051 0 0.17324213626780979 -0.23249139850401729 0 0.18957958600208469 -0.24548130840959781 0 0.18140855909891221 -0.24875385404173869 0 0.182482909248532 -0.24101033857802051 0 0.18957958600208469 -0.24548130840959781 0 0.182482909248532 -0.24101033857802051 0 0.1871717184338115 -0.23640941086597769 0 0.182482909248532 -0.24101033857802051 0 0.1871717184338115 -0.23640941086597769 0 0.17324213626780979 -0.23249139850401729 0 0.18772081891462031 -0.22518952661427791 0 0.19612053567392879 -0.2267779885035914 0 0.17324213626780979 -0.23249139850401729 0 0.19612053567392879 -0.2267779885035914 0 0.1871717184338115 -0.23640941086597769 0 0.17324213626780979 -0.23249139850401729 0 0.1715432114556068 -0.21122996104898861 0 0.17324213626780979 -0.23249139850401729 0 0.19612053567392879 -0.2267779885035914 0 0.17324213626780979 -0.23249139850401729 0 0.18772081891462031 -0.22518952661427791 0 0.1715432114556068 -0.21122996104898861 0 0.17324213626780979 -0.23249139850401729 0 0.1715432114556068 -0.21122996104898861 0 0.17324213626780979 -0.23249139850401729 0 0.1623168744573055 -0.22287573648660611 0 0.1623168744573055 -0.22287573648660611 0 0.15535209141549861 -0.22942801887575409 0 0.1522967848894444 -0.22083493224417339 0 0.1623168744573055 -0.22287573648660611 0 0.16254320702155209 -0.2351632361734422 0 0.15535209141549861 -0.22942801887575409 0 0.17324213626780979 -0.23249139850401729 0 0.16254320702155209 -0.2351632361734422 0 0.17324213626780979 -0.23249139850401729 0 0.1623168744573055 -0.22287573648660611 0 0.16254320702155209 -0.2351632361734422 0 0.16416434830993021 -0.25348076251168611 0 0.17531814171820079 -0.25847186551630352 0 0.17324213626780979 -0.23249139850401729 0 0.16416434830993021 -0.25348076251168611 0 0.17324213626780979 -0.23249139850401729 0 0.16097870724125449 -0.24292032119762011 0 0.17324213626780979 -0.23249139850401729 0 0.16254320702155209 -0.2351632361734422 0 0.16097870724125449 -0.24292032119762011 0 0.16254320702155209 -0.2351632361734422 0 0.16097870724125449 -0.24292032119762011 0 0.15390853800913809 -0.24274468653761391 0 0.16416434830993021 -0.25348076251168611 0 0.16097870724125449 -0.24292032119762011 0 0.15746623258843939 -0.24717962177743169 0 0.16097870724125449 -0.24292032119762011 0 0.15746623258843939 -0.24717962177743169 0 0.15390853800913809 -0.24274468653761391 0 0.1338120645475761 -0.25178135897747889 0 0.14143480209138451 -0.24391931440815429 0 0.15081333679343489 -0.24957271686280691 0 0.14143480209138451 -0.24391931440815429 0 0.14954523601732381 -0.23656141158161401 0 0.13965007243053049 -0.2272862619181428 0 0.14143480209138451 -0.24391931440815429 0 0.15081333679343489 -0.24957271686280691 0 0.14892547822782029 -0.24319953234754729 0 0.15746623258843939 -0.24717962177743169 0 0.15081333679343489 -0.24957271686280691 0 0.15390853800913809 -0.24274468653761391 0 0.15081333679343489 -0.24957271686280691 0 0.15390853800913809 -0.24274468653761391 0 0.14892547822782029 -0.24319953234754729 0 0.16254320702155209 -0.2351632361734422 0 0.15390853800913809 -0.24274468653761391 0 0.14954523601732381 -0.23656141158161401 0 0.15390853800913809 -0.24274468653761391 0 0.14892547822782029 -0.24319953234754729 0 0.14954523601732381 -0.23656141158161401 0 0.14143480209138451 -0.24391931440815429 0 0.14892547822782029 -0.24319953234754729 0 0.14954523601732381 -0.23656141158161401 0 0.14954523601732381 -0.23656141158161401 0 0.15535209141549861 -0.22942801887575409 0 0.13965007243053049 -0.2272862619181428 0 0.15535209141549861 -0.22942801887575409 0 0.1522967848894444 -0.22083493224417339 0 0.13965007243053049 -0.2272862619181428 0 0.16254320702155209 -0.2351632361734422 0 0.14954523601732381 -0.23656141158161401 0 0.15535209141549861 -0.22942801887575409 0 0.1522967848894444 -0.22083493224417339 0 0.13965007243053049 -0.2272862619181428 0 0.14214428324753289 -0.2154529738929884 0 0.11925867152865099 -0.22395178641925401 0 0.13965007243053049 -0.2272862619181428 0 0.12727927076528461 -0.2378210325384271 0 0.11925867152865099 -0.22395178641925401 0 0.13965007243053049 -0.2272862619181428 0 0.1296813367821156 -0.2112782106774091 0 0.14143480209138451 -0.24391931440815429 0 0.13965007243053049 -0.2272862619181428 0 0.12727927076528461 -0.2378210325384271 0 0.1338120645475761 -0.25178135897747889 0 0.1155402395781918 -0.2507583320391269 0 0.12727927076528461 -0.2378210325384271 0 0.1338120645475761 -0.25178135897747889 0 0.14143480209138451 -0.24391931440815429 0 0.12727927076528461 -0.2378210325384271 0 0.1472064603361167 -0.20247602688276969 0 0.14541013119376039 -0.19094925991957609 0 0.13560729147637779 -0.19666813964102769 0 0.1472064603361167 -0.20247602688276969 0 0.14541013119376039 -0.19094925991957609 0 0.15597410852767299 -0.19239463322910441 0 0.14541013119376039 -0.19094925991957609 0 0.15597410852767299 -0.19239463322910441 0 0.15149562072024261 -0.18002206604153331 0 0.1573322870795833 -0.20789039819694149 0 0.1472064603361167 -0.20247602688276969 0 0.15597410852767299 -0.19239463322910441 0 0.1573322870795833 -0.20789039819694149 0 0.1472064603361167 -0.20247602688276969 0 0.14214428324753289 -0.2154529738929884 0 0.1573322870795833 -0.20789039819694149 0 0.1522967848894444 -0.22083493224417339 0 0.14214428324753289 -0.2154529738929884 0 0.1472064603361167 -0.20247602688276969 0 0.14214428324753289 -0.2154529738929884 0 0.1296813367821156 -0.2112782106774091 0 0.1472064603361167 -0.20247602688276969 0 0.1296813367821156 -0.2112782106774091 0 0.13560729147637779 -0.19666813964102769 0 0.13965007243053049 -0.2272862619181428 0 0.14214428324753289 -0.2154529738929884 0 0.1296813367821156 -0.2112782106774091 0 0.1232396379011078 -0.1927549034493776 0 0.1296813367821156 -0.2112782106774091 0 0.13560729147637779 -0.19666813964102769 0 0.14541013119376039 -0.19094925991957609 0 0.13560729147637779 -0.19666813964102769 0 0.1367671749083921 -0.18318543380344571 0 0.1232396379011078 -0.1927549034493776 0 0.13560729147637779 -0.19666813964102769 0 0.1367671749083921 -0.18318543380344571 0 0.1232396379011078 -0.1927549034493776 0 0.1240882674421261 -0.17221834261327171 0 0.1367671749083921 -0.18318543380344571 0 0.1240882674421261 -0.17221834261327171 0 0.1367671749083921 -0.18318543380344571 0 0.13968624526684381 -0.1663096509244866 0 0.14541013119376039 -0.19094925991957609 0 0.1367671749083921 -0.18318543380344571 0 0.15149562072024261 -0.18002206604153331 0 0.1367671749083921 -0.18318543380344571 0 0.15149562072024261 -0.18002206604153331 0 0.13968624526684381 -0.1663096509244866 0 0.15149562072024261 -0.18002206604153331 0 0.15438358984087761 -0.16681526513507461 0 0.15901421514929279 -0.17490695601163531 0 0.13968624526684381 -0.1663096509244866 0 0.137218974646206 -0.14902146964549531 0 0.15110583492258711 -0.15411329859263981 0 0.15438358984087761 -0.16681526513507461 0 0.15110583492258711 -0.15411329859263981 0 0.16298457853711951 -0.16119870976526179 0 0.15149562072024261 -0.18002206604153331 0 0.15438358984087761 -0.16681526513507461 0 0.13968624526684381 -0.1663096509244866 0 0.15438358984087761 -0.16681526513507461 0 0.13968624526684381 -0.1663096509244866 0 0.15110583492258711 -0.15411329859263981 0 0.1238726331408222 -0.15597973401630799 0 0.13968624526684381 -0.1663096509244866 0 0.137218974646206 -0.14902146964549531 0 0.1238726331408222 -0.15597973401630799 0 0.1240882674421261 -0.17221834261327171 0 0.13968624526684381 -0.1663096509244866 0 0.1238726331408222 -0.15597973401630799 0 0.12550759679471971 -0.14428239988351421 0 0.137218974646206 -0.14902146964549531 0 0.12550759679471971 -0.14428239988351421 0 0.137218974646206 -0.14902146964549531 0 0.13351042007077771 -0.13535464583232679 0 0.13570225296767791 -0.1136627830916173 0 0.13351042007077771 -0.13535464583232679 0 0.14820743810063461 -0.13253739615236759 0 0.137218974646206 -0.14902146964549531 0 0.13351042007077771 -0.13535464583232679 0 0.14820743810063461 -0.13253739615236759 0 0.1195920268695274 -0.13435801890873961 0 0.125059882544757 -0.1243050716586782 0 0.13351042007077771 -0.13535464583232679 0 0.1195920268695274 -0.13435801890873961 0 0.12550759679471971 -0.14428239988351421 0 0.13351042007077771 -0.13535464583232679 0 0.14820743810063461 -0.13253739615236759 0 0.15110583492258711 -0.15411329859263981 0 0.1632605781546366 -0.14974645590444771 0 0.137218974646206 -0.14902146964549531 0 0.14820743810063461 -0.13253739615236759 0 0.15110583492258711 -0.15411329859263981 0 0.1632605781546366 -0.14974645590444771 0 0.17135699408012309 -0.1393121638749876 0 0.1768116023582888 -0.16793795145475099 0 0.15110583492258711 -0.15411329859263981 0 0.1632605781546366 -0.14974645590444771 0 0.16298457853711951 -0.16119870976526179 0 0.14820743810063461 -0.13253739615236759 0 0.1632605781546366 -0.14974645590444771 0 0.17135699408012309 -0.1393121638749876 0 0.1659023858019596 -0.11068637629522381 0 0.14820743810063461 -0.13253739615236759 0 0.17135699408012309 -0.1393121638749876 0 0.1659023858019596 -0.11068637629522381 0 0.17135699408012309 -0.1393121638749876 0 0.18392927920566929 -0.12697896821793581 0 0.17135699408012309 -0.1393121638749876 0 0.1858442134446858 -0.1403981851473228 0 0.18392927920566929 -0.12697896821793581 0 0.17135699408012309 -0.1393121638749876 0 0.1768116023582888 -0.16793795145475099 0 0.17135699408012309 -0.1393121638749876 0 0.18613440788357311 -0.15203004835571851 0 0.1768116023582888 -0.16793795145475099 0 0.17135699408012309 -0.1393121638749876 0 0.1858442134446858 -0.1403981851473228 0 0.18613440788357311 -0.15203004835571851 0 0.19108557901044451 -0.16803916485973749 0 0.18613440788357311 -0.15203004835571851 0 0.1768116023582888 -0.16793795145475099 0 0.18226621063645451 -0.19656373903451449 0 0.16984428664340401 -0.18996852359395999 0 0.1768116023582888 -0.16793795145475099 0 0.18945430304214239 -0.18113699365130109 0 0.19108557901044451 -0.16803916485973749 0 0.1768116023582888 -0.16793795145475099 0 0.18226621063645451 -0.19656373903451449 0 0.1768116023582888 -0.16793795145475099 0 0.18945430304214239 -0.18113699365130109 0 0.18226621063645451 -0.19656373903451449 0 0.1768116023582888 -0.16793795145475099 0 0.16984428664340401 -0.18996852359395999 0 0.1681453618312011 -0.16870708613893129 0 0.16984428664340401 -0.18996852359395999 0 0.1768116023582888 -0.16793795145475099 0 0.1681453618312011 -0.16870708613893129 0 0.16984428664340401 -0.18996852359395999 0 0.1614518955362341 -0.18261220584938501 0 0.1681453618312011 -0.16870708613893129 0 0.15597410852767299 -0.19239463322910441 0 0.15149562072024261 -0.18002206604153331 0 0.1614518955362341 -0.18261220584938501 0 0.1614518955362341 -0.18261220584938501 0 0.15901421514929279 -0.17490695601163531 0 0.1681453618312011 -0.16870708613893129 0 0.15149562072024261 -0.18002206604153331 0 0.1614518955362341 -0.18261220584938501 0 0.15901421514929279 -0.17490695601163531 0 0.15438358984087761 -0.16681526513507461 0 0.16298457853711951 -0.16119870976526179 0 0.1681453618312011 -0.16870708613893129 0 0.15438358984087761 -0.16681526513507461 0 0.15901421514929279 -0.17490695601163531 0 0.1681453618312011 -0.16870708613893129 0 0.1632605781546366 -0.14974645590444771 0 0.1768116023582888 -0.16793795145475099 0 0.16298457853711951 -0.16119870976526179 0 0.1768116023582888 -0.16793795145475099 0 0.16298457853711951 -0.16119870976526179 0 0.1681453618312011 -0.16870708613893129 0 
</DataArray>
</Points>
<Cells>
<DataArray type="UInt32" Name="connectivity" format="ascii">
0 1 2 3 4 5 6 7 8 9 10 11 12 13 14 15 16 17 18 19 20 21 22 23 24 25 26 27 28 29 30 31 32 33 34 35 36 37 38 39 40 41 42 43 44 45 46 47 48 49 50 51 52 53 54 55 56 57 58 59 60 61 62 63 64 65 66 67 68 69 70 71 72 73 74 75 76 77 78 79 80 81 82 83 84 85 86 87 88 89 90 91 92 93 94 95 96 97 98 99 100 101 102 103 104 105 106 107 108 109 110 111 112 113 114 115 116 117 118 119 120 121 122 123 124 125 126 127 128 129 130 131 132 133 134 135 136 137 138 139 140 141 142 143 144 145 146 147 148 149 150 151 152 153 154 155 156 157 158 159 160 161 162 163 164 165 166 167 168 169 170 171 172 173 174 175 176 177 178 179 180 181 182 183 184 185 186 187 188 189 190 191 192 193 194 195 196 197 198 199 200 201 202 203 204 205 206 207 208 209 210 211 212 213 214 215 216 217 218 219 220 221 222 223 224 225 226 227 228 229 230 231 232 233 234 235 236 237 238 239 240 241 242 243 244 245 246 247 248 249 250 251 252 253 254 255 256 257 258 259 260 261 262 263 264 265 266 267 268 269 270 271 272 273 274 275 276 277 278 279 280 281 282 283 284 285 286 287 288 289 290 291 292 293 294 295 296 297 298 299 300 301 302 303 304 305 306 307 308 309 310 311 312 313 314 315 316 317 318 319 320 321 322 323 324 325 326 327 328 329 330 331 332 333 334 335 336 337 338 339 340 341 342 343 344 345 346 347 348 349 350 351 352 353 354 355 356 357 358 359 360 361 362 363 364 365 366 367 368 369 370 371 372 373 374 375 376 377 378 379 380 381 382 383 384 385 386 387 388 389 390 391 392 393 394 395 396 397 398 399 400 401 402 403 404 405 406 407 408 409 410 411 412 413 414 415 416 417 418 419 420 421 422 423 424 425 426 427 428 429 430 431 432 433 434 435 436 437 438 439 440 441 442 443 444 445 446 447 448 449 450 451 452 453 454 455 456 457 458 459 460 461 462 463 464 465 466 467 468 469 470 471 472 473 474 475 476 477 478 479 480 481 482 483 484 485 486 487 488 489 490 491 492 493 494 495 496 497 498 499 500 501 502 503 504 505 506 507 508 509 510 511 512 513 514 515 516 517 518 519 520 521 522 523 524 525 526 527 528 529 530 531 532 533 534 535 536 537 538 539 540 541 542 543 544 545 546 547 548 549 550 551 552 553 554 555 556 557 558 559 560 561 562 563 564 565 566 567 568 569 570 571 572 573 574 575 576 577 578 579 580 581 582 583 584 585 586 587 588 589 590 591 592 593 594 595 596 597 598 599 600 601 602 603 604 605 606 607 608 609 610 611 612 613 614 615 616 617 618 619 620 621 622 623 624 625 626 627 628 629 630 631 632 633 634 635 636 637 638 639 640 641 642 643 644 645 646 647 648 649 650 651 652 653 654 655 656 657 658 659 660 661 662 663 664 665 666 667 668 669 670 671 672 673 674 675 676 677 678 679 680 681 682 683 684 685 686 687 688 689 690 691 692 693 694 695 696 697 698 699 700 701 702 703 704 705 706 707 708 709 710 711 712 713 714 715 716 717 718 719 720 721 722 723 724 725 726 727 728 729 730 731 732 733 734 735 736 737 738 739 740 741 742 743 744 745 746 747 748 749 750 751 752 753 754 755 756 757 758 759 760 761 762 763 764 765 766 767 768 769 770 771 772 773 774 775 776 777 778 779 780 781 782 783 784 785 786 787 788 789 790 791 792 793 794 795 796 797 798 799 800 801 802 803 804 805 806 807 808 809 810 811 812 813 814 815 816 817 818 819 820 821 822 823 824 825 826 827 828 829 830 831 832 833 834 835 836 837 838 839 840 841 842 843 844 845 846 847 848 849 850 851 852 853 854 855 856 857 858 859 860 861 862 863 864 865 866 867 868 869 870 871 872 873 874 875 876 877 878 879 880 881 882 883 884 885 886 887 888 889 890 891 892 893 894 895 896 897 898 899 900 901 902 903 904 905 906 907 908 909 910 911 912 913 914 915 916 917 918 919 920 921 922 923 924 925 926 927 928 929 930 931 932 933 934 935 936 937 938 939 940 941 942 943 944 945 946 947 948 949 950 951 952 953 954 955 956 957 958 959 960 961 962 963 964 965 966 967 968 969 970 971 972 973 974 975 976 977 978 979 980 981 982 983 984 985 986 987 988 989 990 991 992 993 994 995 996 997 998 999 1000 1001 1002 1003 1004 1005 1006 1007 1008 1009 1010 1011 1012 1013 1014 1015 1016 1017 1018 1019 1020 1021 1022 1023 1024 1025 1026 1027 1028 1029 1030 1031 1032 1033 1034 1035 1036 1037 1038 1039 1040 1041 1042 1043 1044 1045 1046 1047 1048 1049 1050 1051 1052 1053 1054 1055 1056 1057 1058 1059 1060 1061 1062 1063 1064 1065 1066 1067 1068 1069 1070 1071 1072 1073 1074 1075 1076 1077 1078 1079 1080 1081 1082 1083 1084 1085 1086 1087 1088 1089 1090 1091 1092 1093 1094 1095 1096 1097 1098 1099 1100 1101 1102 1103 1104 1105 1106 1107 1108 1109 1110 1111 1112 1113 1114 1115 1116 1117 1118 1119 1120 1121 1122 1123 1124 1125 1126 1127 1128 1129 1130 1131 1132 1133 1134 1135 1136 1137 1138 1139 1140 1141 1142 1143 1144 1145 1146 1147 1148 1149 1150 1151 1152 1153 1154 1155 1156 1157 1158 1159 1160 1161 1162 1163 1164 1165 1166 1167 1168 1169 1170 1171 1172 1173 1174 1175 1176 1177 1178 1179 1180 1181 1182 1183 1184 1185 1186 1187 1188 1189 1190 1191 1192 1193 1194 1195 1196 1197 1198 1199 1200 1201 1202 1203 1204 1205 1206 1207 1208 1209 1210 1211 1212 1213 1214 1215 1216 1217 1218 1219 1220 1221 1222 1223 1224 1225 1226 1227 1228 1229 1230 1231 1232 1233 1234 1235 1236 1237 1238 1239 1240 1241 1242 1243 1244 1245 1246 1247 1248 1249 1250 1251 1252 1253 1254 1255 1256 1257 1258 1259 1260 1261 1262 1263 1264 1265 1266 1267 1268 1269 1270 1271 1272 1273 1274 1275 1276 1277 1278 1279 1280 1281 1282 1283 1284 1285 1286 1287 1288 1289 1290 1291 1292 1293 1294 1295 1296 1297 1298 1299 1300 1301 1302 1303 1304 1305 1306 1307 1308 1309 1310 1311 1312 1313 1314 1315 1316 1317 1318 1319 1320 1321 1322 1323 1324 1325 1326 1327 1328 1329 1330 1331 1332 1333 1334 1335 1336 1337 1338 1339 1340 1341 1342 1343 1344 1345 1346 1347 1348 1349 1350 1351 1352 1353 1354 1355 1356 1357 1358 1359 1360 1361 1362 1363 1364 1365 1366 1367 1368 1369 1370 1371 1372 1373 1374 1375 1376 1377 1378 1379 1380 1381 1382 1383 1384 1385 1386 1387 1388 1389 1390 1391 1392 1393 1394 1395 1396 1397 1398 1399 1400 1401 1402 1403 1404 1405 1406 1407 1408 1409 1410 1411 1412 1413 1414 1415 1416 1417 1418 1419 1420 1421 1422 1423 1424 1425 1426 1427 1428 1429 1430 1431 1432 1433 1434 1435 1436 1437 1438 1439 1440 1441 1442 1443 1444 1445 1446 1447 1448 1449 1450 1451 1452 1453 1454 1455 1456 1457 1458 1459 1460 1461 1462 1463 1464 1465 1466 1467 1468 1469 1470 1471 1472 1473 1474 1475 1476 1477 1478 1479 1480 1481 1482 1483 1484 1485 1486 1487 1488 1489 1490 1491 1492 1493 1494 1495 1496 1497 1498 1499 1500 1501 1502 1503 1504 1505 1506 1507 1508 1509 1510 1511 1512 1513 1514 1515 1516 1517 1518 1519 1520 1521 1522 1523 1524 1525 1526 1527 1528 1529 1530 1531 1532 1533 1534 1535 1536 1537 1538 1539 1540 1541 1542 1543 1544 1545 1546 1547 1548 1549 1550 1551 1552 1553 1554 1555 1556 1557 1558 1559 1560 1561 1562 1563 1564 1565 1566 1567 1568 1569 1570 1571 1572 1573 1574 1575 1576 1577 1578 1579 1580 1581 1582 1583 1584 1585 1586 1587 1588 1589 1590 1591 1592 1593 1594 1595 1596 1597 1598 1599 1600 1601 1602 1603 1604 1605 1606 1607 1608 1609 1610 1611 1612 1613 1614 1615 1616 1617 1618 1619 1620 1621 1622 1623 1624 1625 1626 1627 1628 1629 1630 1631 1632 1633 1634 1635 1636 1637 1638 1639 1640 1641 1642 1643 1644 1645 1646 1647 1648 1649 1650 1651 1652 1653 1654 1655 1656 1657 1658 1659 1660 1661 1662 1663 1664 1665 1666 1667 1668 1669 1670 1671 1672 1673 1674 1675 1676 1677 1678 1679 1680 1681 1682 1683 1684 1685 1686 1687 1688 1689 1690 1691 1692 1693 1694 1695 1696 1697 1698 1699 1700 1701 1702 1703 1704 1705 1706 1707 1708 1709 1710 1711 1712 1713 1714 1715 1716 1717 1718 1719 1720 1721 1722 1723 1724 1725 1726 1727 1728 1729 1730 1731 1732 1733 1734 1735 1736 1737 1738 1739 1740 1741 1742 1743 1744 1745 1746 1747 1748 1749 1750 1751 1752 1753 1754 1755 1756 1757 1758 1759 1760 1761 1762 1763 1764 1765 1766 1767 1768 1769 1770 1771 1772 1773 1774 1775 1776 1777 1778 1779 1780 1781 1782 1783 1784 1785 1786 1787 1788 1789 1790 1791 1792 1793 1794 1795 1796 1797 1798 1799 1800 1801 1802 1803 1804 1805 1806 1807 1808 1809 1810 1811 1812 1813 1814 1815 1816 1817 1818 1819 1820 1821 1822 1823 1824 1825 1826 1827 1828 1829 1830 1831 1832 1833 1834 1835 1836 1837 1838 1839 1840 1841 1842 1843 1844 1845 1846 1847 1848 1849 1850 1851 1852 1853 1854 1855 1856 1857 1858 1859 1860 1861 1862 1863 1864 1865 1866 1867 1868 1869 1870 1871 1872 1873 1874 1875 1876 1877 1878 1879 1880 1881 1882 1883 1884 1885 1886 1887 1888 1889 1890 1891 1892 1893 1894 1895 1896 1897 1898 1899 1900 1901 1902 1903 1904 1905 1906 1907 1908 1909 1910 1911 1912 1913 1914 1915 1916 1917 1918 1919 1920 1921 1922 1923 1924 1925 1926 1927 1928 1929 1930 1931 1932 1933 1934 1935 1936 1937 1938 1939 1940 1941 1942 1943 1944 1945 1946 1947 1948 1949 1950 1951 1952 1953 1954 1955 1956 1957 1958 1959 1960 1961 1962 1963 1964 1965 1966 1967 1968 1969 1970 1971 1972 1973 1974 1975 1976 1977 1978 1979 1980 1981 1982 1983 1984 1985 1986 1987 1988 1989 1990 1991 1992 1993 1994 1995 1996 1997 1998 1999 2000 2001 2002 2003 2004 2005 2006 2007 2008 2009 2010 2011 2012 2013 2014 2015 2016 2017 2018 2019 2020 2021 2022 2023 2024 2025 2026 2027 2028 2029 2030 2031 2032 2033 2034 2035 2036 2037 2038 2039 2040 2041 2042 2043 2044 2045 2046 2047 2048 2049 2050 2051 2052 2053 2054 2055 2056 2057 2058 2059 2060 2061 2062 2063 2064 2065 2066 2067 2068 2069 2070 2071 2072 2073 2074 2075 2076 2077 2078 2079 2080 2081 2082 2083 2084 2085 2086 2087 2088 2089 2090 2091 2092 2093 2094 2095 2096 2097 2098 2099 2100 2101 2102 2103 2104 2105 2106 2107 2108 2109 2110 2111 2112 2113 2114 2115 2116 2117 2118 2119 2120 2121 2122 2123 2124 2125 2126 2127 2128 2129 2130 2131 2132 2133 2134 2135 2136 2137 2138 2139 2140 2141 2142 2143 2144 2145 2146 2147 2148 2149 2150 2151 2152 2153 2154 2155 2156 2157 2158 2159 2160 2161 2162 2163 2164 2165 2166 2167 2168 2169 2170 2171 2172 2173 2174 2175 2176 2177 2178 2179 2180 2181 2182 2183 2184 2185 2186 2187 2188 2189 2190 2191 2192 2193 2194 2195 2196 2197 2198 2199 2200 2201 2202 2203 2204 2205 2206 2207 2208 2209 2210 2211 2212 2213 2214 2215 2216 2217 2218 2219 2220 2221 2222 2223 2224 2225 2226 2227 2228 2229 2230 2231 2232 2233 2234 2235 2236 2237 2238 2239 2240 2241 2242 2243 2244 2245 2246 2247 2248 2249 2250 2251 2252 2253 2254 2255 2256 2257 2258 2259 2260 2261 2262 2263 2264 2265 2266 2267 2268 2269 2270 2271 2272 2273 2274 2275 2276 2277 2278 2279 2280 2281 2282 2283 2284 2285 2286 2287 2288 2289 2290 2291 2292 2293 2294 2295 2296 2297 2298 2299 2300 2301 2302 2303 2304 2305 2306 2307 2308 2309 2310 2311 2312 2313 2314 2315 2316 2317 2318 2319 2320 2321 2322 2323 2324 2325 2326 2327 2328 2329 2330 2331 2332 2333 2334 2335 2336 2337 2338 2339 2340 2341 2342 2343 2344 2345 2346 2347 2348 2349 2350 2351 2352 2353 2354 2355 2356 2357 2358 2359 2360 2361 2362 2363 2364 2365 2366 2367 2368 2369 2370 2371 2372 2373 2374 2375 2376 2377 2378 2379 2380 2381 2382 2383 2384 2385 2386 2387 2388 2389 2390 2391 2392 2393 2394 2395 2396 2397 2398 2399 2400 2401 2402 2403 2404 2405 2406 2407 2408 2409 2410 2411 2412 2413 2414 2415 2416 2417 2418 2419 2420 2421 2422 2423 2424 2425 2426 2427 2428 2429 2430 2431 2432 2433 2434 2435 2436 2437 2438 2439 2440 2441 2442 2443 2444 2445 2446 2447 2448 2449 2450 2451 2452 2453 2454 2455 2456 2457 2458 2459 2460 2461 2462 2463 2464 2465 2466 2467 2468 2469 2470 2471 2472 2473 2474 2475 2476 2477 2478 2479 2480 2481 2482 2483 2484 2485 2486 2487 2488 2489 2490 2491 2492 2493 2494 2495 2496 2497 2498 2499 2500 2501 2502 2503 2504 2505 2506 2507 2508 2509 2510 2511 2512 2513 2514 2515 2516 2517 2518 2519 2520 2521 2522 2523 2524 2525 2526 2527 2528 2529 2530 2531 2532 2533 2534 2535 2536 2537 2538 2539 2540 2541 2542 2543 2544 2545 2546 2547 2548 2549 2550 2551 2552 2553 2554 2555 2556 2557 2558 2559 2560 2561 2562 2563 2564 2565 2566 2567 2568 2569 2570 2571 2572 2573 2574 2575 2576 2577 2578 2579 2580 2581 2582 2583 2584 2585 2586 2587 2588 2589 2590 2591 2592 2593 2594 2595 2596 2597 2598 2599 2600 2601 2602 2603 2604 2605 2606 2607 2608 2609 2610 2611 2612 2613 2614 2615 2616 2617 2618 2619 2620 2621 2622 2623 2624 2625 2626 2627 2628 2629 2630 2631 2632 2633 2634 2635 2636 2637 2638 2639 2640 2641 2642 2643 2644 2645 2646 2647 2648 2649 2650 2651 2652 2653 2654 2655 2656 2657 2658 2659 2660 2661 2662 2663 2664 2665 2666 2667 2668 2669 2670 2671 2672 2673 2674 2675 2676 2677 2678 2679 2680 2681 2682 2683 2684 2685 2686 2687 2688 2689 2690 2691 2692 2693 2694 2695 2696 2697 2698 2699 2700 2701 2702 2703 2704 2705 2706 2707 2708 2709 2710 2711 2712 2713 2714 2715 2716 2717 2718 2719 2720 2721 2722 2723 2724 2725 2726 2727 2728 2729 2730 2731 2732 2733 2734 2735 2736 2737 2738 2739 2740 2741 2742 2743 2744 2745 2746 2747 2748 2749 2750 2751 2752 2753 2754 2755 2756 2757 2758 2759 2760 2761 2762 2763 2764 2765 2766 2767 2768 2769 2770 2771 2772 2773 2774 2775 2776 2777 2778 2779 2780 2781 2782 2783 2784 2785 2786 2787 2788 2789 2790 2791 2792 2793 2794 2795 2796 2797 2798 2799 2800 2801 2802 2803 2804 2805 2806 2807 2808 2809 2810 2811 2812 2813 2814 2815 2816 2817 2818 2819 2820 2821 2822 2823 2824 2825 2826 2827 2828 2829 2830 2831 2832 2833 2834 2835 2836 2837 2838 2839 2840 2841 2842 2843 2844 2845 2846 2847 2848 2849 2850 2851 2852 2853 2854 2855 2856 2857 2858 2859 2860 2861 2862 2863 2864 2865 2866 2867 2868 2869 2870 2871 2872 2873 2874 2875 2876 2877 2878 2879 2880 2881 2882 2883 2884 2885 2886 2887 2888 2889 2890 2891 2892 2893 2894 2895 2896 2897 2898 2899 2900 2901 2902 2903 2904 2905 2906 2907 2908 2909 2910 2911 2912 2913 2914 2915 2916 2917 2918 2919 2920 2921 2922 2923 2924 2925 2926 2927 2928 2929 2930 2931 2932 2933 2934 2935 2936 2937 2938 2939 2940 2941 2942 2943 2944 2945 2946 2947 2948 2949 2950 2951 2952 2953 2954 2955 2956 2957 2958 2959 2960 2961 2962 2963 2964 2965 2966 2967 2968 2969 2970 2971 2972 2973 2974 2975 2976 2977 2978 2979 2980 2981 2982 2983 2984 2985 2986 2987 2988 2989 2990 2991 2992 2993 2994 2995 2996 2997 2998 2999 3000 3001 3002 3003 3004 3005 3006 3007 3008 3009 3010 3011 3012 3013 3014 3015 3016 3017 3018 3019 3020 3021 3022 3023 3024 3025 3026 3027 3028 3029 3030 3031 3032 3033 3034 3035 3036 3037 3038 3039 3040 3041 3042 3043 3044 3045 3046 3047 3048 3049 3050 3051 3052 3053 3054 3055 3056 3057 3058 3059 3060 3061 3062 3063 3064 3065 3066 3067 3068 3069 3070 3071 3072 3073 3074 3075 3076 3077 3078 3079 3080 3081 3082 3083 3084 3085 3086 3087 3088 3089 3090 3091 3092 3093 3094 3095 3096 3097 3098 3099 3100 3101 3102 3103 3104 3105 3106 3107 3108 3109 3110 3111 3112 3113 3114 3115 3116 3117 3118 3119 3120 3121 3122 3123 3124 3125 3126 3127 3128 3129 3130 3131 3132 3133 3134 3135 3136 3137 3138 3139 3140 3141 3142 3143 3144 3145 3146 3147 3148 3149 3150 3151 3152 3153 3154 3155 3156 3157 3158 3159 3160 3161 3162 3163 3164 3165 3166 3167 3168 3169 3170 3171 3172 3173 3174 3175 3176 3177 3178 3179 3180 3181 3182 3183 3184 3185 3186 3187 3188 3189 3190 3191 3192 3193 3194 3195 3196 3197 3198 3199 3200 3201 3202 3203 3204 3205 3206 3207 3208 3209 3210 3211 3212 3213 3214 3215 3216 3217 3218 3219 3220 3221 3222 3223 3224 3225 3226 3227 3228 3229 3230 3231 3232 3233 3234 3235 3236 3237 3238 3239 3240 3241 3242 3243 3244 3245 3246 3247 3248 3249 3250 3251 3252 3253 3254 3255 3256 3257 3258 3259 3260 3261 3262 3263 3264 3265 3266 3267 3268 3269 3270 3271 3272 3273 3274 3275 3276 3277 3278 3279 3280 3281 3282 3283 3284 3285 3286 3287 3288 3289 3290 3291 3292 3293 3294 3295 3296 3297 3298 3299 3300 3301 3302 3303 3304 3305 3306 3307 3308 3309 3310 3311 3312 3313 3314 3315 3316 3317 3318 3319 3320 3321 3322 3323 3324 3325 3326 3327 3328 3329 3330 3331 3332 3333 3334 3335 3336 3337 3338 3339 3340 3341 3342 3343 3344 3345 3346 3347 3348 3349 3350 3351 3352 3353 3354 3355 3356 3357 3358 3359 3360 3361 3362 3363 3364 3365 3366 3367 3368 3369 3370 3371 3372 3373 3374 3375 3376 3377 3378 3379 3380 3381 3382 3383 3384 3385 3386 3387 3388 3389 3390 3391 3392 3393 3394 3395 3396 3397 3398 3399 3400 3401 3402 3403 3404 3405 3406 3407 3408 3409 3410 3411 3412 3413 3414 3415 3416 3417 3418 3419 3420 3421 3422 3423 3424 3425 3426 3427 3428 3429 3430 3431 3432 3433 3434 3435 3436 3437 3438 3439 3440 3441 3442 3443 3444 3445 3446 3447 3448 3449 3450 3451 3452 3453 3454 3455 3456 3457 3458 3459 3460 3461 3462 3463 3464 3465 3466 3467 3468 3469 3470 3471 3472 3473 3474 3475 3476 3477 3478 3479 3480 3481 3482 3483 3484 3485 3486 3487 3488 3489 3490 3491 3492 3493 3494 3495 3496 3497 3498 3499 3500 3501 3502 3503 3504 3505 3506 3507 3508 3509 3510 3511 3512 3513 3514 3515 3516 3517 3518 3519 3520 3521 3522 3523 3524 3525 3526 3527 3528 3529 3530 3531 3532 3533 3534 3535 3536 3537 3538 3539 3540 3541 3542 3543 3544 3545 3546 3547 3548 3549 3550 3551 3552 3553 3554 3555 3556 3557 3558 3559 3560 3561 3562 3563 3564 3565 3566 3567 3568 3569 3570 3571 3572 3573 3574 3575 3576 3577 3578 3579 3580 3581 3582 3583 3584 3585 3586 3587 3588 3589 3590 3591 3592 3593 3594 3595 3596 3597 3598 3599 3600 3601 3602 3603 3604 3605 3606 3607 3608 3609 3610 3611 3612 3613 3614 3615 3616 3617 3618 3619 3620 3621 3622 3623 3624 3625 3626 3627 3628 3629 3630 3631 3632 3633 3634 3635 3636 3637 3638 3639 3640 3641 3642 3643 3644 3645 3646 3647 3648 3649 3650 3651 3652 3653 3654 3655 3656 3657 3658 3659 3660 3661 3662 3663 3664 3665 3666 3667 3668 3669 3670 3671 3672 3673 3674 3675 3676 3677 3678 3679 3680 3681 3682 3683 3684 3685 3686 3687 3688 3689 3690 3691 3692 3693 3694 3695 3696 3697 3698 3699 3700 3701 3702 3703 3704 3705 3706 3707 3708 3709 3710 3711 3712 3713 3714 3715 3716 3717 3718 3719 3720 3721 3722 3723 3724 3725 3726 3727 3728 3729 3730 3731 3732 3733 3734 3735 3736 3737 3738 3739 3740 3741 3742 3743 3744 3745 3746 3747 3748 3749 3750 3751 3752 3753 3754 3755 3756 3757 3758 3759 3760 3761 3762 3763 3764 3765 3766 3767 3768 3769 3770 3771 3772 3773 3774 3775 3776 3777 3778 3779 3780 3781 3782 3783 3784 3785 3786 3787 3788 3789 3790 3791 3792 3793 3794 3795 3796 3797 3798 3799 3800 3801 3802 3803 3804 3805 3806 3807 3808 3809 3810 3811 3812 3813 3814 3815 3816 3817 3818 3819 3820 3821 3822 3823 3824 3825 3826 3827 3828 3829 3830 3831 3832 3833 3834 3835 3836 3837 3838 3839 3840 3841 3842 3843 3844 3845 3846 3847 3848 3849 3850 3851 3852 3853 3854 3855 3856 3857 3858 3859 3860 3861 3862 3863 3864 3865 3866 3867 3868 3869 3870 3871 3872 3873 3874 3875 3876 3877 3878 3879 3880 3881 3882 3883 3884 3885 3886 3887 3888 3889 3890 3891 3892 3893 3894 3895 3896 3897 3898 3899 3900 3901 3902 3903 3904 3905 3906 3907 3908 3909 3910 3911 3912 3913 3914 3915 3916 3917 3918 3919 3920 3921 3922 3923 3924 3925 3926 3927 3928 3929 3930 3931 3932 3933 3934 3935 3936 3937 3938 3939 3940 3941 3942 3943 3944 3945 3946 3947 3948 3949 3950 3951 3952 3953 3954 3955 3956 3957 3958 3959 3960 3961 3962 3963 3964 3965 3966 3967 3968 3969 3970 3971 3972 3973 3974 3975 3976 3977 3978 3979 3980 3981 3982 3983 3984 3985 3986 3987 3988 3989 3990 3991 3992 3993 3994 3995 3996 3997 3998 3999 4000 4001 4002 4003 4004 4005 4006 4007 4008 4009 4010 4011 4012 4013 4014 4015 4016 4017 4018 4019 4020 4021 4022 4023 4024 4025 4026 4027 4028 4029 4030 4031 4032 4033 4034 4035 4036 4037 4038 4039 4040 4041 4042 4043 4044 4045 4046 4047 4048 4049 4050 4051 4052 4053 4054 4055 4056 4057 4058 4059 4060 4061 4062 4063 4064 4065 4066 4067 4068 4069 4070 4071 4072 4073 4074 4075 4076 4077 4078 4079 4080 4081 4082 4083 4084 4085 4086 4087 4088 4089 4090 4091 4092 4093 4094 4095 4096 4097 4098 4099 4100 4101 4102 4103 4104 4105 4106 4107 4108 4109 4110 4111 4112 4113 4114 4115 4116 4117 4118 4119 4120 4121 4122 4123 4124 4125 4126 4127 4128 4129 4130 4131 4132 4133 4134 4135 4136 4137 4138 4139 4140 4141 4142 4143 4144 4145 4146 4147 4148 4149 4150 4151 4152 4153 4154 4155 4156 4157 4158 4159 4160 4161 4162 4163 4164 4165 4166 4167 4168 4169 4170 4171 4172 4173 4174 4175 4176 4177 4178 4179 4180 4181 4182 4183 4184 4185 4186 4187 4188 4189 4190 4191 4192 4193 4194 4195 4196 4197 4198 4199 4200 4201 4202 4203 4204 4205 4206 4207 4208 4209 4210 4211 4212 4213 4214 4215 4216 4217 4218 4219 4220 4221 4222 4223 4224 4225 4226 4227 4228 4229 4230 4231 4232 4233 4234 4235 4236 4237 4238 4239 4240 4241 4242 4243 4244 4245 4246 4247 4248 4249 4250 4251 4252 4253 4254 4255 4256 4257 4258 4259 4260 4261 4262 4263 4264 4265 4266 4267 4268 4269 4270 4271 4272 4273 4274 4275 4276 4277 4278 4279 4280 4281 4282 4283 4284 4285 4286 4287 4288 4289 4290 4291 4292 4293 4294 4295 4296 4297 4298 4299 4300 4301 4302 4303 4304 4305 4306 4307 4308 4309 4310 4311 4312 4313 4314 4315 4316 4317 4318 4319 4320 4321 4322 4323 4324 4325 4326 4327 4328 4329 4330 4331 4332 4333 4334 4335 4336 4337 4338 4339 4340 4341 4342 4343 4344 4345 4346 4347 4348 4349 4350 4351 4352 4353 4354 4355 4356 4357 4358 4359 4360 4361 4362 4363 4364 4365 4366 4367 4368 4369 4370 4371 4372 4373 4374 4375 4376 4377 4378 4379 4380 4381 4382 4383 4384 4385 4386 4387 4388 4389 4390 4391 4392 4393 4394 4395 4396 4397 4398 4399 4400 4401 4402 4403 4404 4405 4406 4407 4408 4409 4410 4411 4412 4413 4414 4415 4416 4417 4418 4419 4420 4421 4422 4423 4424 4425 4426 4427 4428 4429 4430 4431 4432 4433 4434 4435 4436 4437 4438 4439 4440 4441 4442 4443 4444 4445 4446 4447 4448 4449 4450 4451 4452 4453 4454 4455 4456 4457 4458 4459 4460 4461 4462 4463 4464 4465 4466 4467 4468 4469 4470 4471 4472 4473 4474 4475 4476 4477 4478 4479 4480 4481 4482 4483 4484 4485 4486 4487 4488 4489 4490 4491 4492 4493 4494 4495 4496 4497 4498 4499 4500 4501 4502 4503 4504 4505 4506 4507 4508 4509 4510 4511 4512 4513 4514 4515 4516 4517 4518 4519 4520 4521 4522 4523 4524 4525 4526 4527 4528 4529 4530 4531 4532 4533 4534 4535 4536 4537 4538 4539 4540 4541 4542 4543 4544 4545 4546 4547 4548 4549 4550 4551 4552 4553 4554 4555 4556 4557 4558 4559 4560 4561 4562 4563 4564 4565 4566 4567 4568 4569 4570 4571 4572 4573 4574 4575 4576 4577 4578 4579 4580 4581 4582 4583 4584 4585 4586 4587 4588 4589 4590 4591 4592 4593 4594 4595 4596 4597 4598 4599 4600 4601 4602 4603 4604 4605 4606 4607 4608 4609 4610 4611 4612 4613 4614 4615 4616 4617 4618 4619 4620 4621 4622 4623 4624 4625 4626 4627 4628 4629 4630 4631 4632 4633 4634 4635 4636 4637 4638 4639 4640 4641 4642 4643 4644 4645 4646 4647 4648 4649 4650 4651 4652 4653 4654 4655 4656 4657 4658 4659 4660 4661 4662 4663 4664 4665 4666 4667 4668 4669 4670 4671 4672 4673 4674 4675 4676 4677 4678 4679 4680 4681 4682 4683 4684 4685 4686 4687 4688 4689 4690 4691 4692 4693 4694 4695 4696 4697 4698 4699 4700 4701 4702 4703 4704 4705 4706 4707 4708 4709 4710 4711 4712 4713 4714 4715 4716 4717 4718 4719 4720 4721 4722 4723 4724 4725 4726 4727 4728 4729 4730 4731 4732 4733 4734 4735 4736 4737 4738 4739 4740 4741 4742 4743 4744 4745 4746 4747 4748 4749 4750 4751 4752 4753 4754 4755 4756 4757 4758 4759 4760 4761 4762 4763 4764 4765 4766 4767 4768 4769 4770 4771 4772 4773 4774 4775 4776 4777 4778 4779 4780 4781 4782 4783 4784 4785 4786 4787 4788 4789 4790 4791 4792 4793 4794 4795 4796 4797 4798 4799 4800 4801 4802 4803 4804 4805 4806 4807 4808 4809 4810 4811 4812 4813 4814 4815 4816 4817 4818 4819 4820 4821 4822 4823 4824 4825 4826 4827 4828 4829 4830 4831 4832 4833 4834 4835 4836 4837 4838 4839 4840 4841 4842 4843 4844 4845 4846 4847 4848 4849 4850 4851 4852 4853 4854 4855 4856 4857 4858 4859 4860 4861 4862 4863 4864 4865 4866 4867 4868 4869 4870 4871 4872 4873 4874 4875 4876 4877 4878 4879 4880 4881 4882 4883 4884 4885 4886 4887 4888 4889 4890 4891 4892 4893 4894 4895 4896 4897 4898 4899 4900 4901 4902 4903 4904 4905 4906 4907 4908 4909 4910 4911 4912 4913 4914 4915 4916 4917 4918 4919 4920 4921 4922 4923 4924 4925 4926 4927 4928 4929 4930 4931 4932 4933 4934 4935 4936 4937 4938 4939 4940 4941 4942 4943 4944 4945 4946 4947 4948 4949 4950 4951 4952 4953 4954 4955 4956 4957 4958 4959 4960 4961 4962 4963 4964 4965 4966 4967 4968 4969 4970 4971 4972 4973 4974 4975 4976 4977 4978 4979 4980 4981 4982 4983 4984 4985 4986 4987 4988 4989 4990 4991 4992 4993 4994 4995 4996 4997 4998 4999 5000 5001 5002 5003 5004 5005 5006 5007 5008 5009 5010 5011 5012 5013 5014 5015 5016 5017 5018 5019 5020 5021 5022 5023 5024 5025 5026 5027 5028 5029 5030 5031 5032 5033 5034 5035 5036 5037 5038 5039 5040 5041 5042 5043 5044 5045 5046 5047 5048 5049 5050 5051 5052 5053 5054 5055 5056 5057 5058 5059 5060 5061 5062 5063 5064 5065 5066 5067 5068 5069 5070 5071 5072 5073 5074 5075 5076 5077 5078 5079 5080 5081 5082 5083 5084 5085 5086 5087 5088 5089 5090 5091 5092 5093 5094 5095 5096 5097 5098 5099 5100 5101 5102 5103 5104 5105 5106 5107 5108 5109 5110 5111 5112 5113 5114 5115 5116 5117 5118 5119 5120 5121 5122 5123 5124 5125 5126 5127 5128 5129 5130 5131 5132 5133 5134 5135 5136 5137 5138 5139 5140 5141 5142 5143 5144 5145 5146 5147 5148 5149 5150 5151 5152 5153 5154 5155 5156 5157 5158 5159 5160 5161 5162 5163 5164 5165 5166 5167 5168 5169 5170 5171 5172 5173 5174 5175 5176 5177 5178 5179 5180 5181 5182 5183 5184 5185 5186 5187 5188 5189 5190 5191 5192 5193 5194 5195 5196 5197 5198 5199 5200 5201 5202 5203 5204 5205 5206 5207 5208 5209 5210 5211 5212 5213 5214 5215 5216 5217 5218 5219 5220 5221 5222 5223 5224 5225 5226 5227 5228 5229 5230 5231 5232 5233 5234 5235 5236 5237 5238 5239 5240 5241 5242 5243 5244 5245 5246 5247 5248 5249 5250 5251 5252 5253 5254 5255 5256 5257 5258 5259 5260 5261 5262 5263 5264 5265 5266 5267 5268 5269 5270 5271 5272 5273 5274 5275 5276 5277 5278 5279 5280 5281 5282 5283 5284 5285 5286 5287 5288 5289 5290 5291 5292 5293 5294 5295 5296 5297 5298 5299 5300 5301 5302 5303 5304 5305 5306 5307 5308 5309 5310 5311 5312 5313 5314 5315 5316 5317 5318 5319 5320 5321 5322 5323 5324 5325 5326 5327 5328 5329 5330 5331 5332 5333 5334 5335 5336 5337 5338 5339 5340 5341 5342 5343 5344 5345 5346 5347 5348 5349 5350 5351 5352 5353 5354 5355 5356 5357 5358 5359 5360 5361 5362 5363 5364 5365 5366 5367 5368 5369 5370 5371 5372 5373 5374 5375 5376 5377 5378 5379 5380 5381 5382 5383 5384 5385 5386 5387 5388 5389 5390 5391 5392 5393 5394 5395 5396 5397 5398 5399 5400 5401 5402 5403 5404 5405 5406 5407 5408 5409 5410 5411 5412 5413 5414 5415 5416 5417 5418 5419 5420 5421 5422 5423 5424 5425 5426 5427 5428 5429 5430 5431 5432 5433 5434 5435 5436 5437 5438 5439 5440 5441 5442 5443 5444 5445 5446 5447 5448 5449 5450 5451 5452 5453 5454 5455 5456 5457 5458 5459 5460 5461 5462 5463 5464 5465 5466 5467 5468 5469 5470 5471 5472 5473 5474 5475 5476 5477 5478 5479 5480 5481 5482 5483 5484 5485 5486 5487 5488 5489 5490 5491 5492 5493 5494 5495 5496 5497 5498 5499 5500 5501 5502 5503 5504 5505 5506 5507 5508 5509 5510 5511 5512 5513 5514 5515 5516 5517 5518 5519 5520 5521 5522 5523 5524 5525 5526 5527 5528 5529 5530 5531 5532 5533 5534 5535 5536 5537 5538 5539 5540 5541 5542 5543 5544 5545 5546 5547 5548 5549 5550 5551 5552 5553 5554 5555 5556 5557 5558 5559 5560 5561 5562 5563 5564 5565 5566 5567 5568 5569 5570 5571 5572 5573 5574 5575 5576 5577 5578 5579 5580 5581 5582 5583 5584 5585 5586 5587 5588 5589 5590 5591 5592 5593 5594 5595 5596 5597 5598 5599 5600 5601 5602 5603 5604 5605 5606 5607 5608 5609 5610 5611 5612 5613 5614 5615 5616 5617 5618 5619 5620 5621 5622 5623 5624 5625 5626 5627 5628 5629 5630 5631 5632 5633 5634 5635 5636 5637 5638 5639 5640 5641 5642 5643 5644 5645 5646 5647 5648 5649 5650 5651 5652 5653 5654 5655 5656 5657 5658 5659 5660 5661 5662 5663 5664 5665 5666 5667 5668 5669 5670 5671 5672 5673 5674 5675 5676 5677 5678 5679 5680 5681 5682 5683 5684 5685 5686 5687 5688 5689 5690 5691 5692 5693 5694 5695 5696 5697 5698 5699 5700 5701 5702 5703 5704 5705 5706 5707 5708 5709 5710 5711 5712 5713 5714 5715 5716 5717 5718 5719 5720 5721 5722 5723 5724 5725 5726 5727 5728 5729 5730 5731 5732 5733 5734 5735 5736 5737 5738 5739 5740 5741 5742 5743 5744 5745 5746 5747 5748 5749 5750 5751 5752 5753 5754 5755 5756 5757 5758 5759 5760 5761 5762 5763 5764 5765 5766 5767 5768 5769 5770 5771 5772 5773 5774 5775 5776 5777 5778 5779 5780 5781 5782 5783 5784 5785 5786 5787 5788 5789 5790 5791 5792 5793 5794 5795 5796 5797 5798 5799 5800 5801 5802 5803 5804 5805 5806 5807 5808 5809 5810 5811 5812 5813 5814 5815 5816 5817 5818 5819 5820 5821 5822 5823 5824 5825 5826 5827 5828 5829 5830 5831 5832 5833 5834 5835 5836 5837 5838 5839 5840 5841 5842 5843 5844 5845 5846 5847 5848 5849 5850 5851 5852 5853 5854 5855 5856 5857 5858 5859 5860 5861 5862 5863 5864 5865 5866 5867 5868 5869 5870 5871 5872 5873 5874 5875 5876 5877 5878 5879 5880 5881 5882 5883 5884 5885 5886 5887 5888 5889 5890 5891 5892 5893 5894 5895 5896 5897 5898 5899 5900 5901 5902 5903 5904 5905 5906 5907 5908 5909 5910 5911 5912 5913 5914 5915 5916 5917 5918 5919 5920 5921 5922 5923 5924 5925 5926 5927 5928 5929 5930 5931 5932 5933 5934 5935 5936 5937 5938 5939 5940 5941 5942 5943 5944 5945 5946 5947 5948 5949 5950 5951 5952 5953 5954 5955 5956 5957 5958 5959 5960 5961 5962 5963 5964 5965 5966 5967 5968 5969 5970 5971 5972 5973 5974 5975 5976 5977 5978 5979 5980 5981 5982 5983 5984 5985 5986 5987 5988 5989 5990 5991 5992 5993 5994 5995 5996 5997 5998 5999 6000 6001 6002 6003 6004 6005 6006 6007 6008 6009 6010 6011 6012 6013 6014 6015 6016 6017 6018 6019 6020 6021 6022 6023 6024 6025 6026 6027 6028 6029 6030 6031 6032 6033 6034 6035 6036 6037 6038 6039 6040 6041 6042 6043 6044 6045 6046 6047 6048 6049 6050 6051 6052 6053 6054 6055 6056 6057 6058 6059 6060 6061 6062 6063 6064 6065 6066 6067 6068 6069 6070 6071 6072 6073 6074 6075 6076 6077 6078 6079 6080 6081 6082 6083 6084 6085 6086 6087 6088 6089 6090 6091 6092 6093 6094 6095 6096 6097 6098 6099 6100 6101 6102 6103 6104 6105 6106 6107 6108 6109 6110 6111 6112 6113 6114 6115 6116 6117 6118 6119 6120 6121 6122 6123 6124 6125 6126 6127 6128 6129 6130 6131 6132 6133 6134 6135 6136 6137 6138 6139 6140 6141 6142 6143 6144 6145 6146 6147 6148 6149 6150 6151 6152 6153 6154 6155 6156 6157 6158 6159 6160 6161 6162 6163 6164 6165 6166 6167 6168 6169 6170 6171 6172 6173 6174 6175 6176 6177 6178 6179 6180 6181 6182 6183 6184 6185 6186 6187 6188 6189 6190 6191 6192 6193 6194 6195 6196 6197 6198 6199 6200 6201 6202 6203 6204 6205 6206 6207 6208 6209 6210 6211 6212 6213 6214 6215 6216 6217 6218 6219 6220 6221 6222 6223 6224 6225 6226 6227 6228 6229 6230 6231 6232 6233 6234 6235 6236 6237 6238 6239 6240 6241 6242 6243 6244 6245 6246 6247 6248 6249 6250 6251 6252 6253 6254 6255 6256 6257 6258 6259 6260 6261 6262 6263 6264 6265 6266 6267 6268 6269 6270 6271 6272 6273 6274 6275 6276 6277 6278 6279 6280 6281 6282 6283 6284 6285 6286 6287 6288 6289 6290 6291 6292 6293 6294 6295 6296 6297 6298 6299 6300 6301 6302 6303 6304 6305 6306 6307 6308 6309 6310 6311 6312 6313 6314 6315 6316 6317 6318 6319 6320 6321 6322 6323 6324 6325 6326 6327 6328 6329 6330 6331 6332 6333 6334 6335 6336 6337 6338 6339 6340 6341 6342 6343 6344 6345 6346 6347 6348 6349 6350 6351 6352 6353 6354 6355 6356 6357 6358 6359 6360 6361 6362 6363 6364 6365 6366 6367 6368 6369 6370 6371 6372 6373 6374 6375 6376 6377 6378 6379 6380 6381 6382 6383 6384 6385 6386 6387 6388 6389 6390 6391 6392 6393 6394 6395 6396 6397 6398 6399 6400 6401 6402 6403 6404 6405 6406 6407 6408 6409 6410 6411 6412 6413 6414 6415 6416 6417 6418 6419 6420 6421 6422 6423 6424 6425 6426 6427 6428 6429 6430 6431 6432 6433 6434 6435 6436 6437 6438 6439 6440 6441 6442 6443 6444 6445 6446 6447 6448 6449 6450 6451 6452 6453 6454 6455 6456 6457 6458 6459 6460 6461 6462 6463 6464 6465 6466 6467 6468 6469 6470 6471 6472 6473 6474 6475 6476 6477 6478 6479 6480 6481 6482 6483 6484 6485 6486 6487 6488 6489 6490 6491 6492 6493 6494 6495 6496 6497 6498 6499 6500 6501 6502 6503 6504 6505 6506 6507 6508 6509 6510 6511 6512 6513 6514 6515 6516 6517 6518 6519 6520 6521 6522 6523 6524 6525 6526 6527 6528 6529 6530 6531 6532 6533 6534 6535 6536 6537 6538 6539 6540 6541 6542 6543 6544 6545 6546 6547 6548 6549 6550 6551 6552 6553 6554 6555 6556 6557 6558 6559 6560 6561 6562 6563 6564 6565 6566 6567 6568 6569 6570 6571 6572 6573 6574 6575 6576 6577 6578 6579 6580 6581 6582 6583 6584 6585 6586 6587 6588 6589 6590 6591 6592 6593 6594 6595 6596 6597 6598 6599 6600 6601 6602 6603 6604 6605 6606 6607 6608 6609 6610 6611 6612 6613 6614 6615 6616 6617 6618 6619 6620 6621 6622 6623 6624 6625 6626 6627 6628 6629 6630 6631 6632 6633 6634 6635 6636 6637 6638 6639 6640 6641 6642 6643 6644 6645 6646 6647 6648 6649 6650 6651 6652 6653 6654 6655 6656 6657 6658 6659 6660 6661 6662 6663 6664 6665 6666 6667 6668 6669 6670 6671 6672 6673 6674 6675 6676 6677 6678 6679 6680 6681 6682 6683 6684 6685 6686 6687 6688 6689 6690 6691 6692 6693 6694 6695 6696 6697 6698 6699 6700 6701 6702 6703 6704 6705 6706 6707 6708 6709 6710 6711 6712 6713 6714 6715 6716 6717 6718 6719 6720 6721 6722 6723 6724 6725 6726 6727 6728 6729 6730 6731 6732 6733 6734 6735 6736 6737 6738 6739 6740 6741 6742 6743 6744 6745 6746 6747 6748 6749 6750 6751 6752 6753 6754 6755 6756 6757 6758 6759 6760 6761 6762 6763 6764 6765 6766 6767 6768 6769 6770 6771 6772 6773 6774 6775 6776 6777 6778 6779 6780 6781 6782 6783 6784 6785 6786 6787 6788 6789 6790 6791 6792 6793 6794 6795 6796 6797 6798 6799 6800 6801 6802 6803 6804 6805 6806 6807 6808 6809 6810 6811 6812 6813 6814 6815 6816 6817 6818 6819 6820 6821 6822 6823 6824 6825 6826 6827 6828 6829 6830 6831 6832 6833 6834 6835 6836 6837 6838 6839 6840 6841 6842 6843 6844 6845 6846 6847 6848 6849 6850 6851 6852 6853 6854 6855 6856 6857 6858 6859 6860 6861 6862 6863 6864 6865 6866 6867 6868 6869 6870 6871 6872 6873 6874 6875 6876 6877 6878 6879 6880 6881 6882 6883 6884 6885 6886 6887 6888 6889 6890 6891 6892 6893 6894 6895 6896 6897 6898 6899 6900 6901 6902 6903 6904 6905 6906 6907 6908 6909 6910 6911 6912 6913 6914 6915 6916 6917 6918 6919 6920 6921 6922 6923 6924 6925 6926 6927 6928 6929 6930 6931 6932 6933 6934 6935 6936 6937 6938 6939 6940 6941 6942 6943 6944 6945 6946 6947 6948 6949 6950 6951 6952 6953 6954 6955 6956 6957 6958 6959 6960 6961 6962 6963 6964 6965 6966 6967 6968 6969 6970 6971 6972 6973 6974 6975 6976 6977 6978 6979 6980 6981 6982 6983 6984 6985 6986 6987 6988 6989 6990 6991 6992 6993 6994 6995 6996 6997 6998 6999 7000 7001 7002 7003 7004 7005 7006 7007 7008 7009 7010 7011 7012 7013 7014 7015 7016 7017 7018 7019 7020 7021 7022 7023 7024 7025 7026 7027 7028 7029 7030 7031 7032 7033 7034 7035 7036 7037 7038 7039 7040 7041 7042 7043 7044 7045 7046 7047 7048 7049 7050 7051 7052 7053 7054 7055 7056 7057 7058 7059 7060 7061 7062 7063 7064 7065 7066 7067 7068 7069 7070 7071 7072 7073 7074 7075 7076 7077 7078 7079 7080 7081 7082 7083 7084 7085 7086 7087 7088 7089 7090 7091 7092 7093 7094 7095 7096 7097 7098 7099 7100 7101 7102 7103 7104 7105 7106 7107 7108 7109 7110 7111 7112 7113 7114 7115 7116 7117 7118 7119 7120 7121 7122 7123 7124 7125 7126 7127 7128 7129 7130 7131 7132 7133 7134 7135 7136 7137 7138 7139 7140 7141 7142 7143 7144 7145 7146 7147 7148 7149 7150 7151 7152 7153 7154 7155 7156 7157 7158 7159 7160 7161 7162 7163 7164 7165 7166 7167 7168 7169 7170 7171 7172 7173 7174 7175 7176 7177 7178 7179 7180 7181 7182 7183 7184 7185 7186 7187 7188 7189 7190 7191 7192 7193 7194 7195 7196 7197 7198 7199 7200 7201 7202 7203 7204 7205 7206 7207 7208 7209 7210 7211 7212 7213 7214 7215 7216 7217 7218 7219 7220 7221 7222 7223 7224 7225 7226 7227 7228 7229 7230 7231 7232 7233 7234 7235 7236 7237 7238 7239 7240 7241 7242 7243 7244 7245 7246 7247 7248 7249 7250 7251 7252 7253 7254 7255 7256 7257 7258 7259 7260 7261 7262 7263 7264 7265 7266 7267 7268 7269 7270 7271 7272 7273 7274 7275 7276 7277 7278 7279 7280 7281 7282 7283 7284 7285 7286 7287 7288 7289 7290 7291 7292 7293 7294 7295 7296 7297 7298 7299 7300 7301 7302 7303 7304 7305 7306 7307 7308 7309 7310 7311 7312 7313 7314 7315 7316 7317 7318 7319 7320 7321 7322 7323 7324 7325 7326 7327 7328 7329 7330 7331 7332 7333 7334 7335 7336 7337 7338 7339 7340 7341 7342 7343 7344 7345 7346 7347 7348 7349 7350 7351 7352 7353 7354 7355 7356 7357 7358 7359 7360 7361 7362 7363 7364 7365 7366 7367 7368 7369 7370 7371 7372 7373 7374 7375 7376 7377 7378 7379 7380 7381 7382 7383 7384 7385 7386 7387 7388 7389 7390 7391 7392 7393 7394 7395 7396 7397 7398 7399 7400 7401 7402 7403 7404 7405 7406 7407 7408 7409 7410 7411 7412 7413 7414 7415 7416 7417 7418 7419 7420 7421 7422 7423 7424 7425 7426 7427 7428 7429 7430 7431 7432 7433 7434 7435 7436 7437 7438 7439 7440 7441 7442 7443 7444 7445 7446 7447 7448 7449 7450 7451 7452 7453 7454 7455 7456 7457 7458 7459 7460 7461 7462 7463 7464 7465 7466 7467 7468 7469 7470 7471 7472 7473 7474 7475 7476 7477 7478 7479 7480 7481 7482 7483 7484 7485 7486 7487 7488 7489 7490 7491 7492 7493 7494 7495 7496 7497 7498 7499 7500 7501 7502 7503 7504 7505 7506 7507 7508 7509 7510 7511 7512 7513 7514 7515 7516 7517 7518 7519 7520 7521 7522 7523 7524 7525 7526 7527 7528 7529 7530 7531 7532 7533 7534 7535 7536 7537 7538 7539 7540 7541 7542 7543 7544 7545 7546 7547 7548 7549 7550 7551 7552 7553 7554 7555 7556 7557 7558 7559 7560 7561 7562 7563 7564 7565 7566 7567 7568 7569 7570 7571 7572 7573 7574 7575 7576 7577 7578 7579 7580 7581 7582 7583 7584 7585 7586 7587 7588 7589 7590 7591 7592 7593 7594 7595 7596 7597 7598 7599 7600 7601 7602 7603 7604 7605 7606 7607 7608 7609 7610 7611 7612 7613 7614 7615 7616 7617 7618 7619 7620 7621 7622 7623 7624 7625 7626 7627 7628 7629 7630 7631 7632 7633 7634 7635 7636 7637 7638 7639 7640 7641 7642 7643 7644 7645 7646 7647 7648 7649 7650 7651 7652 7653 7654 7655 7656 7657 7658 7659 7660 7661 7662 7663 7664 7665 7666 7667 7668 7669 7670 7671 7672 7673 7674 7675 7676 7677 7678 7679 7680 7681 7682 7683 7684 7685 7686 7687 7688 7689 7690 7691 7692 7693 7694 7695 7696 7697 7698 7699 7700 7701 7702 7703 7704 7705 7706 7707 7708 7709 7710 7711 7712 7713 7714 7715 7716 7717 7718 7719 7720 7721 7722 7723 7724 7725 7726 7727 7728 7729 7730 7731 7732 7733 7734 7735 7736 7737 7738 7739 7740 7741 7742 7743 7744 7745 7746 7747 7748 7749 7750 7751 7752 7753 7754 7755 7756 7757 7758 7759 7760 7761 7762 7763 7764 7765 7766 7767 7768 7769 7770 7771 7772 7773 7774 7775 7776 7777 7778 7779 7780 7781 7782 7783 7784 7785 7786 7787 7788 7789 7790 7791 7792 7793 7794 7795 7796 7797 7798 7799 7800 7801 7802 7803 7804 7805 7806 7807 7808 7809 7810 7811 7812 7813 7814 7815 7816 7817 7818 7819 7820 7821 7822 7823 7824 7825 7826 7827 7828 7829 7830 7831 7832 7833 7834 7835 7836 7837 7838 7839 7840 7841 7842 7843 7844 7845 7846 7847 7848 7849 7850 7851 7852 7853 7854 7855 7856 7857 7858 7859 7860 7861 7862 7863 7864 7865 7866 7867 7868 7869 7870 7871 7872 7873 7874 7875 7876 7877 7878 7879 7880 7881 7882 7883 7884 7885 7886 7887 7888 7889 7890 7891 7892 7893 7894 7895 7896 7897 7898 7899 7900 7901 7902 7903 7904 7905 7906 7907 7908 7909 7910 7911 7912 7913 7914 7915 7916 7917 7918 7919 7920 7921 7922 7923 7924 7925 7926 7927 7928 7929 7930 7931 7932 7933 7934 7935 7936 7937 7938 7939 7940 7941 7942 7943 7944 7945 7946 7947 7948 7949 7950 7951 7952 7953 7954 7955 7956 7957 7958 7959 7960 7961 7962 7963 7964 7965 7966 7967 7968 7969 7970 7971 7972 7973 7974 7975 7976 7977 7978 7979 7980 7981 7982 7983 7984 7985 7986 7987 7988 7989 7990 7991 7992 7993 7994 7995 7996 7997 7998 7999 8000 8001 8002 8003 8004 8005 8006 8007 8008 8009 8010 8011 8012 8013 8014 8015 8016 8017 8018 8019 8020 8021 8022 8023 8024 8025 8026 8027 8028 8029 8030 8031 8032 8033 8034 8035 8036 8037 8038 8039 8040 8041 8042 8043 8044 8045 8046 8047 8048 8049 8050 8051 8052 8053 8054 8055 8056 8057 8058 8059 8060 8061 8062 8063 8064 8065 8066 8067 8068 8069 8070 8071 8072 8073 8074 8075 8076 8077 8078 8079 8080 8081 8082 8083 8084 8085 8086 8087 8088 8089 8090 8091 8092 8093 8094 8095 8096 8097 8098 8099 8100 8101 8102 8103 8104 8105 8106 8107 8108 8109 8110 8111 8112 8113 8114 8115 8116 8117 8118 8119 8120 8121 8122 8123 8124 8125 8126 8127 8128 8129 8130 8131 8132 8133 8134 8135 8136 8137 8138 8139 8140 8141 8142 8143 8144 8145 8146 8147 8148 8149 8150 8151 8152 8153 8154 8155 8156 8157 8158 8159 8160 8161 8162 8163 8164 8165 8166 8167 8168 8169 8170 8171 8172 8173 8174 8175 8176 8177 8178 8179 8180 8181 8182 8183 8184 8185 8186 8187 8188 8189 8190 8191 8192 8193 8194 8195 8196 8197 8198 8199 8200 8201 8202 8203 8204 8205 8206 8207 8208 8209 8210 8211 8212 8213 8214 8215 8216 8217 8218 8219 8220 8221 8222 8223 8224 8225 8226 8227 8228 8229 8230 8231 8232 8233 8234 8235 8236 8237 8238 8239 8240 8241 8242 8243 8244 8245 8246 8247 8248 8249 8250 8251 8252 8253 8254 8255 8256 8257 8258 8259 8260 8261 8262 8263 8264 8265 8266 8267 8268 8269 8270 8271 8272 8273 8274 8275 8276 8277 8278 8279 8280 8281 8282 8283 8284 8285 8286 8287 8288 8289 8290 8291 8292 8293 8294 8295 8296 8297 8298 8299 8300 8301 8302 8303 8304 8305 8306 8307 8308 8309 8310 8311 8312 8313 8314 8315 8316 8317 8318 8319 8320 8321 8322 8323 8324 8325 8326 8327 8328 8329 8330 8331 8332 8333 8334 8335 8336 8337 8338 8339 8340 8341 8342 8343 8344 8345 8346 8347 8348 8349 8350 8351 8352 8353 8354 8355 8356 8357 8358 8359 8360 8361 8362 8363 8364 8365 8366 8367 8368 8369 8370 8371 8372 8373 8374 8375 8376 8377 8378 8379 8380 8381 8382 8383 8384 8385 8386 8387 8388 8389 8390 8391 8392 8393 8394 8395 8396 8397 8398 8399 8400 8401 8402 8403 8404 8405 8406 8407 8408 8409 8410 8411 8412 8413 8414 8415 8416 8417 8418 8419 8420 8421 8422 8423 8424 8425 8426 8427 8428 8429 8430 8431 8432 8433 8434 8435 8436 8437 8438 8439 8440 8441 8442 8443 8444 8445 8446 8447 8448 8449 8450 8451 8452 8453 8454 8455 8456 8457 8458 8459 8460 8461 8462 8463 8464 8465 8466 8467 8468 8469 8470 8471 8472 8473 8474 8475 8476 8477 8478 8479 8480 8481 8482 8483 8484 8485 8486 8487 8488 8489 8490 8491 8492 8493 8494 8495 8496 8497 8498 8499 8500 8501 8502 8503 8504 8505 8506 8507 8508 8509 8510 8511 8512 8513 8514 8515 8516 8517 8518 8519 8520 8521 8522 8523 8524 8525 8526 8527 8528 8529 8530 8531 8532 8533 8534 8535 8536 8537 8538 8539 8540 8541 8542 8543 8544 8545 8546 8547 8548 8549 8550 8551 8552 8553 8554 8555 8556 8557 8558 8559 8560 8561 8562 8563 8564 8565 8566 8567 8568 8569 8570 8571 8572 8573 8574 8575 8576 8577 8578 8579 8580 8581 8582 8583 8584 8585 8586 8587 8588 8589 8590 8591 8592 8593 8594 8595 8596 8597 8598 8599 8600 8601 8602 8603 8604 8605 8606 8607 8608 8609 8610 8611 8612 8613 8614 8615 8616 8617 8618 8619 8620 8621 8622 8623 8624 8625 8626 8627 8628 8629 8630 8631 8632 8633 8634 8635 8636 8637 8638 8639 8640 8641 8642 8643 8644 8645 8646 8647 8648 8649 8650 8651 8652 8653 8654 8655 8656 8657 8658 8659 8660 8661 8662 8663 8664 8665 8666 8667 8668 8669 8670 8671 8672 8673 8674 8675 8676 8677 8678 8679 8680 8681 8682 8683 8684 8685 8686 8687 8688 8689 8690 8691 8692 8693 8694 8695 8696 8697 8698 8699 8700 8701 8702 8703 8704 8705 8706 8707 8708 8709 8710 8711 8712 8713 8714 8715 8716 8717 8718 8719 8720 8721 8722 8723 8724 8725 8726 8727 8728 8729 8730 8731 8732 8733 8734 8735 8736 8737 8738 8739 8740 8741 8742 8743 8744 8745 8746 8747 8748 8749 8750 8751 8752 8753 8754 8755 8756 8757 8758 8759 8760 8761 8762 8763 8764 8765 8766 8767 8768 8769 8770 8771 8772 8773 8774 8775 8776 8777 8778 8779 8780 8781 8782 8783 8784 8785 8786 8787 8788 8789 8790 8791 8792 8793 8794 8795 8796 8797 8798 8799 8800 8801 8802 8803 8804 8805 8806 8807 8808 8809 8810 8811 8812 8813 8814 8815 8816 8817 8818 8819 8820 8821 8822 8823 8824 8825 8826 8827 8828 8829 8830 8831 8832 8833 8834 8835 8836 8837 8838 8839 8840 8841 8842 8843 8844 8845 8846 8847 8848 8849 8850 8851 8852 8853 8854 8855 8856 8857 8858 8859 8860 8861 8862 8863 8864 8865 8866 8867 8868 8869 8870 8871 8872 8873 8874 8875 8876 8877 8878 8879 8880 8881 8882 8883 8884 8885 8886 8887 8888 8889 8890 8891 8892 8893 8894 8895 8896 8897 8898 8899 8900 8901 8902 8903 8904 8905 8906 8907 8908 8909 8910 8911 8912 8913 8914 8915 8916 8917 8918 8919 8920 8921 8922 8923 8924 8925 8926 8927 8928 8929 8930 8931 8932 8933 8934 8935 8936 8937 8938 8939 8940 8941 8942 8943 8944 8945 8946 8947 8948 8949 8950 8951 8952 8953 8954 8955 8956 8957 8958 8959 8960 8961 8962 8963 8964 8965 8966 8967 8968 8969 8970 8971 8972 8973 8974 8975 8976 8977 8978 8979 8980 8981 8982 8983 8984 8985 8986 8987 8988 8989 8990 8991 8992 8993 8994 8995 8996 8997 8998 8999 9000 9001 9002 9003 9004 9005 9006 9007 9008 9009 9010 9011 9012 9013 9014 9015 9016 9017 9018 9019 9020 9021 9022 9023 9024 9025 9026 9027 9028 9029 9030 9031 9032 9033 9034 9035 9036 9037 9038 9039 9040 9041 9042 9043 9044 9045 9046 9047 9048 9049 9050 9051 9052 9053 9054 9055 9056 9057 9058 9059 9060 9061 9062 9063 9064 9065 9066 9067 9068 9069 9070 9071 9072 9073 9074 9075 9076 9077 9078 9079 9080 9081 9082 9083 9084 9085 9086 9087 9088 9089 9090 9091 9092 9093 9094 9095 9096 9097 9098 9099 9100 9101 9102 9103 9104 9105 9106 9107 9108 9109 9110 9111 9112 9113 9114 9115 9116 9117 9118 9119 9120 9121 9122 9123 9124 9125 9126 9127 9128 9129 9130 9131 9132 9133 9134 9135 9136 9137 9138 9139 9140 9141 9142 9143 9144 9145 9146 9147 9148 9149 9150 9151 9152 9153 9154 9155 9156 9157 9158 9159 9160 9161 9162 9163 9164 9165 9166 9167 9168 9169 9170 9171 9172 9173 9174 9175 9176 9177 9178 9179 9180 9181 9182 9183 9184 9185 9186 9187 9188 9189 9190 9191 9192 9193 9194 9195 9196 9197 9198 9199 9200 9201 9202 9203 9204 9205 9206 9207 9208 9209 9210 9211 9212 9213 9214 9215 9216 9217 9218 9219 9220 9221 9222 9223 9224 9225 9226 9227 9228 9229 9230 9231 9232 9233 9234 9235 9236 9237 9238 9239 9240 9241 9242 9243 9244 9245 9246 9247 9248 9249 9250 9251 9252 9253 9254 9255 9256 9257 9258 9259 9260 9261 9262 9263 9264 9265 9266 9267 9268 9269 9270 9271 9272 9273 9274 9275 9276 9277 9278 9279 9280 9281 9282 9283 9284 9285 9286 9287 9288 9289 9290 9291 9292 9293 9294 9295 9296 9297 9298 9299 9300 9301 9302 9303 9304 9305 9306 9307 9308 9309 9310 9311 9312 9313 9314 9315 9316 9317 9318 9319 9320 9321 9322 9323 9324 9325 9326 9327 9328 9329 9330 9331 9332 9333 9334 9335 9336 9337 9338 9339 9340 9341 9342 9343 9344 9345 9346 9347 9348 9349 9350 9351 9352 9353 9354 9355 9356 9357 9358 9359 9360 9361 9362 9363 9364 9365 9366 9367 9368 9369 9370 9371 9372 9373 9374 9375 9376 9377 9378 9379 9380 9381 9382 9383 9384 9385 9386 9387 9388 9389 9390 9391 9392 9393 9394 9395 9396 9397 9398 9399 9400 9401 9402 9403 9404 9405 9406 9407 9408 9409 9410 9411 9412 9413 9414 9415 9416 9417 9418 9419 9420 9421 9422 9423 9424 9425 9426 9427 9428 9429 9430 9431 9432 9433 9434 9435 9436 9437 9438 9439 9440 9441 9442 9443 9444 9445 9446 9447 9448 9449 9450 9451 9452 9453 9454 9455 9456 9457 9458 9459 9460 9461 9462 9463 9464 9465 9466 9467 9468 9469 9470 9471 9472 9473 9474 9475 9476 9477 9478 9479 9480 9481 9482 9483 9484 9485 9486 9487 9488 9489 9490 9491 9492 9493 9494 9495 9496 9497 9498 9499 9500 9501 9502 9503 9504 9505 9506 9507 9508 9509 9510 9511 9512 9513 9514 9515 9516 9517 9518 9519 9520 9521 9522 9523 9524 9525 9526 9527 9528 9529 9530 9531 9532 9533 9534 9535 9536 9537 9538 9539 9540 9541 9542 9543 9544 9545 9546 9547 9548 9549 9550 9551 9552 9553 9554 9555 9556 9557 9558 9559 9560 9561 9562 9563 9564 9565 9566 9567 9568 9569 9570 9571 9572 9573 9574 9575 9576 9577 9578 9579 9580 9581 9582 9583 9584 9585 9586 9587 9588 9589 9590 9591 9592 9593 9594 9595 9596 9597 9598 9599 9600 9601 9602 9603 9604 9605 9606 9607 9608 9609 9610 9611 9612 9613 9614 9615 9616 9617 9618 9619 9620 9621 9622 9623 9624 9625 9626 9627 9628 9629 9630 9631 9632 9633 9634 9635 9636 9637 9638 9639 9640 9641 9642 9643 9644 9645 9646 9647 9648 9649 9650 9651 9652 9653 9654 9655 9656 9657 9658 9659 9660 9661 9662 9663 9664 9665 9666 9667 9668 9669 9670 9671 9672 9673 9674 9675 9676 9677 9678 9679 9680 9681 9682 9683 9684 9685 9686 9687 9688 9689 9690 9691 9692 9693 9694 9695 9696 9697 9698 9699 9700 9701 9702 9703 9704 9705 9706 9707 9708 9709 9710 9711 9712 9713 9714 9715 9716 9717 9718 9719 9720 9721 9722 9723 9724 9725 9726 9727 9728 9729 9730 9731 9732 9733 9734 9735 9736 9737 9738 9739 9740 9741 9742 9743 9744 9745 9746 9747 9748 9749 9750 9751 9752 9753 9754 9755 9756 9757 9758 9759 9760 9761 9762 9763 9764 9765 9766 9767 9768 9769 9770 9771 9772 9773 9774 9775 9776 9777 9778 9779 9780 9781 9782 9783 9784 9785 9786 9787 9788 9789 9790 9791 9792 9793 9794 9795 9796 9797 9798 9799 9800 9801 9802 9803 9804 9805 9806 9807 9808 9809 9810 9811 9812 9813 9814 9815 9816 9817 9818 9819 9820 9821 9822 9823 9824 9825 9826 9827 9828 9829 9830 9831 9832 9833 9834 9835 9836 9837 9838 9839 9840 9841 9842 9843 9844 9845 9846 9847 9848 9849 9850 9851 9852 9853 9854 9855 9856 9857 9858 9859 9860 9861 9862 9863 9864 9865 9866 9867 9868 9869 9870 9871 9872 9873 9874 9875 9876 9877 9878 9879 9880 9881 9882 9883 9884 9885 9886 9887 9888 9889 9890 9891 9892 9893 9894 9895 9896 9897 9898 9899 9900 9901 9902 9903 9904 9905 9906 9907 9908 9909 9910 9911 9912 9913 9914 9915 9916 9917 9918 9919 9920 9921 9922 9923 9924 9925 9926 9927 9928 9929 9930 9931 9932 9933 9934 9935 9936 9937 9938 9939 9940 9941 9942 9943 9944 9945 9946 9947 9948 9949 9950 9951 9952 9953 9954 9955 9956 9957 9958 9959 9960 9961 9962 9963 9964 9965 9966 9967 9968 9969 9970 9971 9972 9973 9974 9975 9976 9977 9978 9979 9980 9981 9982 9983 9984 9985 9986 9987 9988 9989 9990 9991 9992 9993 9994 9995 9996 9997 9998 9999 10000 10001 10002 10003 10004 10005 10006 10007 10008 10009 10010 10011 10012 10013 10014 10015 10016 10017 10018 10019 10020 10021 10022 10023 10024 10025 10026 10027 10028 10029 10030 10031 10032 10033 10034 10035 10036 10037 10038 10039 10040 10041 10042 10043 10044 10045 10046 10047 10048 10049 10050 10051 10052 10053 10054 10055 10056 10057 10058 10059 10060 10061 10062 10063 10064 10065 10066 10067 10068 10069 10070 10071 10072 10073 10074 10075 10076 10077 10078 10079 10080 10081 10082 10083 10084 10085 10086 10087 10088 10089 10090 10091 10092 10093 10094 10095 10096 10097 10098 10099 10100 10101 10102 10103 10104 10105 10106 10107 10108 10109 10110 10111 10112 10113 10114 10115 10116 10117 10118 10119 10120 10121 10122 10123 10124 10125 10126 10127 10128 10129 10130 10131 10132 10133 10134 10135 10136 10137 10138 10139 10140 10141 10142 10143 10144 10145 10146 10147 10148 10149 10150 10151 10152 10153 10154 10155 10156 10157 10158 10159 10160 10161 10162 10163 10164 10165 10166 10167 10168 10169 10170 10171 10172 10173 10174 10175 10176 10177 10178 10179 10180 10181 10182 10183 10184 10185 10186 10187 10188 10189 10190 10191 10192 10193 10194 10195 10196 10197 10198 10199 10200 10201 10202 10203 10204 10205 10206 10207 10208 10209 10210 10211 10212 10213 10214 10215 10216 10217 10218 10219 10220 10221 10222 10223 10224 10225 10226 10227 10228 10229 10230 10231 10232 10233 10234 10235 10236 10237 10238 10239 10240 10241 10242 10243 10244 10245 10246 10247 10248 10249 10250 10251 10252 10253 10254 10255 10256 10257 10258 10259 10260 10261 10262 10263 10264 10265 10266 10267 10268 10269 10270 10271 10272 10273 10274 10275 10276 10277 10278 10279 10280 10281 10282 10283 10284 10285 10286 10287 10288 10289 10290 10291 10292 10293 10294 10295 10296 10297 10298 10299 10300 10301 10302 10303 10304 10305 10306 10307 10308 10309 10310 10311 10312 10313 10314 10315 10316 10317 10318 10319 10320 10321 10322 10323 10324 10325 10326 10327 10328 10329 10330 10331 10332 10333 10334 10335 10336 10337 10338 10339 10340 10341 10342 10343 10344 10345 10346 10347 10348 10349 10350 10351 10352 10353 10354 10355 10356 10357 10358 10359 10360 10361 10362 10363 10364 10365 10366 10367 10368 10369 10370 10371 10372 10373 10374 10375 10376 10377 10378 10379 10380 10381 10382 10383 10384 10385 10386 10387 10388 10389 10390 10391 10392 10393 10394 10395 10396 10397 10398 10399 10400 10401 10402 10403 10404 10405 10406 10407 10408 10409 10410 10411 10412 10413 10414 10415 10416 10417 10418 10419 10420 10421 10422 10423 10424 10425 10426 10427 10428 10429 10430 10431 10432 10433 10434 10435 10436 10437 10438 10439 10440 10441 10442 10443 10444 10445 10446 10447 10448 10449 10450 10451 10452 10453 10454 10455 10456 10457 10458 10459 10460 10461 10462 10463 10464 10465 10466 10467 10468 10469 10470 10471 10472 10473 10474 10475 10476 10477 10478 10479 10480 10481 10482 10483 10484 10485 10486 10487 10488 10489 10490 10491 10492 10493 10494 10495 10496 10497 10498 10499 10500 10501 10502 10503 10504 10505 10506 10507 10508 10509 10510 10511 10512 10513 10514 10515 10516 10517 10518 10519 10520 10521 10522 10523 10524 10525 10526 10527 10528 10529 10530 10531 10532 10533 10534 10535 10536 10537 10538 10539 10540 10541 10542 10543 10544 10545 10546 10547 10548 10549 10550 10551 10552 10553 10554 10555 10556 10557 10558 10559 10560 10561 10562 10563 10564 10565 10566 10567 10568 10569 10570 10571 10572 10573 10574 10575 10576 10577 10578 10579 10580 10581 10582 10583 10584 10585 10586 10587 10588 10589 10590 10591 10592 10593 10594 10595 10596 10597 10598 10599 10600 10601 10602 10603 10604 10605 10606 10607 10608 10609 10610 10611 10612 10613 10614 10615 10616 10617 10618 10619 10620 10621 10622 10623 10624 10625 10626 10627 10628 10629 10630 10631 10632 10633 10634 10635 10636 10637 10638 10639 10640 10641 10642 10643 10644 10645 10646 10647 10648 10649 10650 10651 10652 10653 10654 10655 10656 10657 10658 10659 10660 10661 10662 10663 10664 10665 10666 10667 10668 10669 10670 10671 10672 10673 10674 10675 10676 10677 10678 10679 10680 10681 10682 10683 10684 10685 10686 10687 10688 10689 10690 10691 10692 10693 10694 10695 10696 10697 10698 10699 10700 10701 10702 10703 10704 10705 10706 10707 10708 10709 10710 10711 10712 10713 10714 10715 10716 10717 10718 10719 10720 10721 10722 10723 10724 10725 10726 10727 10728 10729 10730 10731 10732 10733 10734 10735 10736 10737 10738 10739 10740 10741 10742 10743 10744 10745 10746 10747 10748 10749 10750 10751 10752 10753 10754 10755 10756 10757 10758 10759 10760 10761 10762 10763 10764 10765 10766 10767 10768 10769 10770 10771 10772 10773 10774 10775 10776 10777 10778 10779 10780 10781 10782 10783 10784 10785 10786 10787 10788 10789 10790 10791 10792 10793 10794 10795 10796 10797 10798 10799 10800 10801 10802 10803 10804 10805 10806 10807 10808 10809 10810 10811 10812 10813 10814 10815 10816 10817 10818 10819 10820 10821 10822 10823 10824 10825 10826 10827 10828 10829 10830 10831 10832 10833 10834 10835 10836 10837 10838 10839 10840 10841 10842 10843 10844 10845 10846 10847 10848 10849 10850 10851 10852 10853 10854 10855 10856 10857 10858 10859 10860 10861 10862 10863 10864 10865 10866 10867 10868 10869 10870 10871 10872 10873 10874 10875 10876 10877 10878 10879 10880 10881 10882 10883 10884 10885 10886 10887 10888 10889 10890 10891 10892 10893 10894 10895 10896 10897 10898 10899 10900 10901 10902 10903 10904 10905 10906 10907 10908 10909 10910 10911 10912 10913 10914 10915 10916 10917 10918 10919 10920 10921 10922 10923 10924 10925 10926 10927 10928 10929 10930 10931 10932 10933 10934 10935 10936 10937 10938 10939 10940 10941 10942 10943 10944 10945 10946 10947 10948 10949 10950 10951 10952 10953 10954 10955 10956 10957 10958 10959 10960 10961 10962 10963 10964 10965 10966 10967 10968 10969 10970 10971 10972 10973 10974 10975 10976 10977 10978 10979 10980 10981 10982 10983 10984 10985 10986 10987 10988 10989 10990 10991 10992 10993 10994 10995 10996 10997 10998 10999 11000 11001 11002 11003 11004 11005 11006 11007 11008 11009 11010 11011 11012 11013 11014 11015 11016 11017 11018 11019 11020 11021 11022 11023 11024 11025 11026 11027 11028 11029 11030 11031 11032 11033 11034 11035 11036 11037 11038 11039 11040 11041 11042 11043 11044 11045 11046 11047 11048 11049 11050 11051 11052 11053 11054 11055 11056 11057 11058 11059 11060 11061 11062 11063 11064 11065 11066 11067 11068 11069 11070 11071 11072 11073 11074 11075 11076 11077 11078 11079 11080 11081 11082 11083 11084 11085 11086 11087 11088 11089 11090 11091 11092 11093 11094 11095 11096 11097 11098 11099 11100 11101 11102 11103 11104 11105 11106 11107 11108 11109 11110 11111 11112 11113 11114 11115 11116 11117 11118 11119 11120 11121 11122 11123 11124 11125 11126 11127 11128 11129 11130 11131 11132 11133 11134 11135 11136 11137 11138 11139 11140 11141 11142 11143 11144 11145 11146 11147 11148 11149 11150 11151 11152 11153 11154 11155 11156 11157 11158 11159 11160 11161 11162 11163 11164 11165 11166 11167 11168 11169 11170 11171 11172 11173 11174 11175 11176 11177 11178 11179 11180 11181 11182 11183 11184 11185 11186 11187 11188 11189 11190 11191 11192 11193 11194 11195 11196 11197 11198 11199 11200 11201 11202 11203 11204 11205 11206 11207 11208 11209 11210 11211 11212 11213 11214 11215 11216 11217 11218 11219 11220 11221 11222 11223 11224 11225 11226 11227 11228 11229 11230 11231 11232 11233 11234 11235 11236 11237 11238 11239 11240 11241 11242 11243 11244 11245 11246 11247 11248 11249 11250 11251 11252 11253 11254 11255 11256 11257 11258 11259 11260 11261 11262 11263 11264 11265 11266 11267 11268 11269 11270 11271 11272 11273 11274 11275 11276 11277 11278 11279 11280 11281 11282 11283 11284 11285 11286 11287 11288 11289 11290 11291 11292 11293 11294 11295 11296 11297 11298 11299 11300 11301 11302 11303 11304 11305 11306 11307 11308 11309 11310 11311 11312 11313 11314 11315 11316 11317 11318 11319 11320 11321 11322 11323 11324 11325 11326 11327 11328 11329 11330 11331 11332 11333 11334 11335 11336 11337 11338 11339 11340 11341 11342 11343 11344 11345 11346 11347 11348 11349 11350 11351 11352 11353 11354 11355 11356 11357 11358 11359 11360 11361 11362 11363 11364 11365 11366 11367 11368 11369 11370 11371 11372 11373 11374 11375 11376 11377 11378 11379 11380 11381 11382 11383 11384 11385 11386 11387 11388 11389 11390 11391 11392 11393 11394 11395 11396 11397 11398 11399 11400 11401 11402 11403 11404 11405 11406 11407 11408 11409 11410 11411 11412 11413 11414 11415 11416 11417 11418 11419 11420 11421 11422 11423 11424 11425 11426 11427 11428 11429 11430 11431 11432 11433 11434 11435 11436 11437 11438 11439 11440 11441 11442 11443 11444 11445 11446 11447 11448 11449 11450 11451 11452 11453 11454 11455 11456 11457 11458 11459 11460 11461 11462 11463 11464 11465 11466 11467 11468 11469 11470 11471 11472 11473 11474 11475 11476 11477 11478 11479 11480 11481 11482 11483 11484 11485 11486 11487 11488 11489 11490 11491 11492 11493 11494 11495 11496 11497 11498 11499 11500 11501 11502 11503 11504 11505 11506 11507 11508 11509 11510 11511 11512 11513 11514 11515 11516 11517 11518 11519 11520 11521 11522 11523 11524 11525 11526 11527 11528 11529 11530 11531 11532 11533 11534 11535 11536 11537 11538 11539 11540 11541 11542 11543 11544 11545 11546 11547 11548 11549 11550 11551 11552 11553 11554 11555 11556 11557 11558 11559 11560 11561 11562 11563 11564 11565 11566 11567 11568 11569 11570 11571 11572 11573 11574 11575 11576 11577 11578 11579 11580 11581 11582 11583 11584 11585 11586 11587 11588 11589 11590 11591 11592 11593 11594 11595 11596 11597 11598 11599 11600 11601 11602 11603 11604 11605 11606 11607 11608 11609 11610 11611 11612 11613 11614 11615 11616 11617 11618 11619 11620 11621 11622 11623 11624 11625 11626 11627 11628 11629 11630 11631 11632 11633 11634 11635 11636 11637 11638 11639 11640 11641 11642 11643 11644 11645 11646 11647 11648 11649 11650 11651 11652 11653 11654 11655 11656 11657 11658 11659 11660 11661 11662 11663 11664 11665 11666 11667 11668 11669 11670 11671 11672 11673 11674 11675 11676 11677 11678 11679 11680 11681 11682 11683 11684 11685 11686 11687 11688 11689 11690 11691 11692 11693 11694 11695 11696 11697 11698 11699 11700 11701 11702 11703 11704 11705 11706 11707 11708 11709 11710 11711 11712 11713 11714 11715 11716 11717 11718 11719 11720 11721 11722 11723 11724 11725 11726 11727 11728 11729 11730 11731 11732 11733 11734 11735 11736 11737 11738 11739 11740 11741 11742 11743 11744 11745 11746 11747 11748 11749 11750 11751 11752 11753 11754 11755 11756 11757 11758 11759 11760 11761 11762 11763 11764 11765 11766 11767 11768 11769 11770 11771 11772 11773 11774 11775 11776 11777 11778 11779 11780 11781 11782 11783 11784 11785 11786 11787 11788 11789 11790 11791 11792 11793 11794 11795 11796 11797 11798 11799 11800 11801 11802 11803 11804 11805 11806 11807 11808 11809 11810 11811 11812 11813 11814 11815 11816 11817 11818 11819 11820 11821 11822 11823 11824 11825 11826 11827 11828 11829 11830 11831 11832 11833 11834 11835 11836 11837 11838 11839 11840 11841 11842 11843 11844 11845 11846 11847 11848 11849 11850 11851 11852 11853 11854 11855 11856 11857 11858 11859 11860 11861 11862 11863 11864 11865 11866 11867 11868 11869 11870 11871 11872 11873 11874 11875 11876 11877 11878 11879 11880 11881 11882 11883 11884 11885 11886 11887 11888 11889 11890 11891 11892 11893 11894 11895 11896 11897 11898 11899 11900 11901 11902 11903 11904 11905 11906 11907 11908 11909 11910 11911 11912 11913 11914 11915 11916 11917 11918 11919 11920 11921 11922 11923 11924 11925 11926 11927 11928 11929 11930 11931 11932 11933 11934 11935 11936 11937 11938 11939 11940 11941 11942 11943 11944 11945 11946 11947 11948 11949 11950 11951 11952 11953 11954 11955 11956 11957 11958 11959 11960 11961 11962 11963 11964 11965 11966 11967 11968 11969 11970 11971 11972 11973 11974 11975 11976 11977 11978 11979 11980 11981 11982 11983 11984 11985 11986 11987 11988 11989 11990 11991 11992 11993 11994 11995 11996 11997 11998 11999 12000 12001 12002 12003 12004 12005 12006 12007 12008 12009 12010 12011 12012 12013 12014 12015 12016 12017 12018 12019 12020 12021 12022 12023 12024 12025 12026 12027 12028 12029 12030 12031 12032 12033 12034 12035 12036 12037 12038 12039 12040 12041 12042 12043 12044 12045 12046 12047 12048 12049 12050 12051 12052 12053 12054 12055 12056 12057 12058 12059 12060 12061 12062 12063 12064 12065 12066 12067 12068 12069 12070 12071 12072 12073 12074 12075 12076 12077 12078 12079 12080 12081 12082 12083 12084 12085 12086 12087 12088 12089 12090 12091 12092 12093 12094 12095 12096 12097 12098 12099 12100 12101 12102 12103 12104 12105 12106 12107 12108 12109 12110 12111 12112 12113 12114 12115 12116 12117 12118 12119 12120 12121 12122 12123 12124 12125 12126 12127 12128 12129 12130 12131 12132 12133 12134 12135 12136 12137 12138 12139 12140 12141 12142 12143 12144 12145 12146 12147 12148 12149 12150 12151 12152 12153 12154 12155 12156 12157 12158 12159 12160 12161 12162 12163 12164 12165 12166 12167 12168 12169 12170 12171 12172 12173 12174 12175 12176 12177 12178 12179 12180 12181 12182 12183 12184 12185 12186 12187 12188 12189 12190 12191 12192 12193 12194 12195 12196 12197 12198 12199 12200 12201 12202 12203 12204 12205 12206 12207 12208 12209 12210 12211 12212 12213 12214 12215 12216 12217 12218 12219 12220 12221 12222 12223 12224 12225 12226 12227 12228 12229 12230 12231 12232 12233 12234 12235 12236 12237 12238 12239 12240 12241 12242 12243 12244 12245 12246 12247 12248 12249 12250 12251 12252 12253 12254 12255 12256 12257 12258 12259 12260 12261 12262 12263 12264 12265 12266 12267 12268 12269 12270 12271 12272 12273 12274 12275 12276 12277 12278 12279 12280 12281 12282 12283 12284 12285 12286 12287 12288 12289 12290 12291 12292 12293 12294 12295 12296 12297 12298 12299 12300 12301 12302 12303 12304 12305 12306 12307 12308 12309 12310 12311 12312 12313 12314 12315 12316 12317 12318 12319 12320 12321 12322 12323 12324 12325 12326 12327 12328 12329 12330 12331 12332 12333 12334 12335 12336 12337 12338 12339 12340 12341 12342 12343 12344 12345 12346 12347 12348 12349 12350 12351 12352 12353 12354 12355 12356 12357 12358 12359 12360 12361 12362 12363 12364 12365 12366 12367 12368 12369 12370 12371 12372 12373 12374 12375 12376 12377 12378 12379 12380 12381 12382 12383 12384 12385 12386 12387 12388 12389 12390 12391 12392 12393 12394 12395 12396 12397 12398 12399 12400 12401 12402 12403 12404 12405 12406 12407 12408 12409 12410 12411 12412 12413 12414 12415 12416 12417 12418 12419 12420 12421 12422 12423 12424 12425 12426 12427 12428 12429 12430 12431 12432 12433 12434 12435 12436 12437 12438 12439 12440 12441 12442 12443 12444 12445 12446 12447 12448 12449 12450 12451 12452 12453 12454 12455 12456 12457 12458 12459 12460 12461 12462 12463 12464 12465 12466 12467 12468 12469 12470 12471 12472 12473 12474 12475 12476 12477 12478 12479 12480 12481 12482 12483 12484 12485 12486 12487 12488 12489 12490 12491 12492 12493 12494 12495 12496 12497 12498 12499 12500 12501 12502 12503 12504 12505 12506 12507 12508 12509 12510 12511 12512 12513 12514 12515 12516 12517 12518 12519 12520 12521 12522 12523 12524 12525 12526 12527 12528 12529 12530 12531 12532 12533 12534 12535 12536 12537 12538 12539 12540 12541 12542 12543 12544 12545 12546 12547 12548 12549 12550 12551 12552 12553 12554 12555 12556 12557 12558 12559 12560 12561 12562 12563 12564 12565 12566 12567 12568 12569 12570 12571 12572 12573 12574 12575 12576 12577 12578 12579 12580 12581 12582 12583 12584 12585 12586 12587 12588 12589 12590 12591 12592 12593 12594 12595 12596 12597 12598 12599 12600 12601 12602 12603 12604 12605 12606 12607 12608 12609 12610 12611 12612 12613 12614 12615 12616 12617 12618 12619 12620 12621 12622 12623 12624 12625 12626 12627 12628 12629 12630 12631 12632 12633 12634 12635 12636 12637 12638 12639 12640 12641 12642 12643 12644 12645 12646 12647 12648 12649 12650 12651 12652 12653 12654 12655 12656 12657 12658 12659 12660 12661 12662 12663 12664 12665 12666 12667 12668 12669 12670 12671 12672 12673 12674 12675 12676 12677 12678 12679 12680 12681 12682 12683 12684 12685 12686 12687 12688 12689 12690 12691 12692 12693 12694 12695 12696 12697 12698 12699 12700 12701 12702 12703 12704 12705 12706 12707 12708 12709 12710 12711 12712 12713 12714 12715 12716 12717 12718 12719 12720 12721 12722 12723 12724 12725 12726 12727 12728 12729 12730 12731 12732 12733 12734 12735 12736 12737 12738 12739 12740 12741 12742 12743 12744 12745 12746 12747 12748 12749 12750 12751 12752 12753 12754 12755 12756 12757 12758 12759 12760 12761 12762 12763 12764 12765 12766 12767 12768 12769 12770 12771 12772 12773 12774 12775 12776 12777 12778 12779 12780 12781 12782 12783 12784 12785 12786 12787 12788 12789 12790 12791 12792 12793 12794 12795 12796 12797 12798 12799 12800 12801 12802 12803 12804 12805 12806 12807 12808 12809 12810 12811 12812 12813 12814 12815 12816 12817 12818 12819 12820 12821 12822 12823 12824 12825 12826 12827 12828 12829 12830 12831 12832 12833 12834 12835 12836 12837 12838 12839 12840 12841 12842 12843 12844 12845 12846 12847 12848 12849 12850 12851 12852 12853 12854 12855 12856 12857 12858 12859 12860 12861 12862 12863 12864 12865 12866 12867 12868 12869 12870 12871 12872 12873 12874 12875 12876 12877 12878 12879 12880 12881 12882 12883 12884 12885 12886 12887 12888 12889 12890 12891 12892 12893 12894 12895 12896 12897 12898 12899 12900 12901 12902 12903 12904 12905 12906 12907 12908 12909 12910 12911 12912 12913 12914 12915 12916 12917 12918 12919 12920 12921 12922 12923 12924 12925 12926 12927 12928 12929 12930 12931 12932 12933 12934 12935 12936 12937 12938 12939 12940 12941 12942 12943 12944 12945 12946 12947 12948 12949 12950 12951 12952 12953 12954 12955 12956 12957 12958 12959 12960 12961 12962 12963 12964 12965 12966 12967 12968 12969 12970 12971 12972 12973 12974 12975 12976 12977 12978 12979 12980 12981 12982 12983 12984 12985 12986 12987 12988 12989 12990 12991 12992 12993 12994 12995 12996 12997 12998 12999 13000 13001 13002 13003 13004 13005 13006 13007 13008 13009 13010 13011 13012 13013 13014 13015 13016 13017 13018 13019 13020 13021 13022 13023 13024 13025 13026 13027 13028 13029 13030 13031 13032 13033 13034 13035 13036 13037 13038 13039 13040 13041 13042 13043 13044 13045 13046 13047 13048 13049 13050 13051 13052 13053 13054 13055 13056 13057 13058 13059 13060 13061 13062 13063 13064 13065 13066 13067 13068 13069 13070 13071 13072 13073 13074 13075 13076 13077 13078 13079 13080 13081 13082 13083 13084 13085 13086 13087 13088 13089 13090 13091 13092 13093 13094 13095 13096 13097 13098 13099 13100 13101 13102 13103 13104 13105 13106 13107 13108 13109 13110 13111 13112 13113 13114 13115 13116 13117 13118 13119 13120 13121 13122 13123 13124 13125 13126 13127 13128 13129 13130 13131 13132 13133 13134 13135 13136 13137 13138 13139 13140 13141 13142 13143 13144 13145 13146 13147 13148 13149 13150 13151 13152 13153 13154 13155 13156 13157 13158 13159 13160 13161 13162 13163 13164 13165 13166 13167 13168 13169 13170 13171 13172 13173 13174 13175 13176 13177 13178 13179 13180 13181 13182 13183 13184 13185 13186 13187 13188 13189 13190 13191 13192 13193 13194 13195 13196 13197 13198 13199 13200 13201 13202 13203 13204 13205 13206 13207 13208 13209 13210 13211 13212 13213 13214 13215 13216 13217 13218 13219 13220 13221 13222 13223 13224 13225 13226 13227 13228 13229 13230 13231 13232 13233 13234 13235 13236 13237 13238 13239 13240 13241 13242 13243 13244 13245 13246 13247 13248 13249 13250 13251 13252 13253 13254 13255 13256 13257 13258 13259 13260 13261 13262 13263 13264 13265 13266 13267 13268 13269 13270 13271 13272 13273 13274 13275 13276 13277 13278 13279 13280 13281 13282 13283 13284 13285 13286 13287 13288 13289 13290 13291 13292 13293 13294 13295 13296 13297 13298 13299 13300 13301 13302 13303 13304 13305 13306 13307 13308 13309 13310 13311 13312 13313 13314 13315 13316 13317 13318 13319 13320 13321 13322 13323 13324 13325 13326 13327 13328 13329 13330 13331 13332 13333 13334 13335 13336 13337 13338 13339 13340 13341 13342 13343 13344 13345 13346 13347 13348 13349 13350 13351 13352 13353 13354 13355 13356 13357 13358 13359 13360 13361 13362 13363 13364 13365 13366 13367 13368 13369 13370 13371 13372 13373 13374 13375 13376 13377 13378 13379 13380 13381 13382 13383 13384 13385 13386 13387 13388 13389 13390 13391 13392 13393 13394 13395 13396 13397 13398 13399 13400 13401 13402 13403 13404 13405 13406 13407 13408 13409 13410 13411 13412 13413 13414 13415 13416 13417 13418 13419 13420 13421 13422 13423 13424 13425 13426 13427 13428 13429 13430 13431 13432 13433 13434 13435 13436 13437 13438 13439 13440 13441 13442 13443 13444 13445 13446 13447 13448 13449 13450 13451 13452 13453 13454 13455 13456 13457 13458 13459 13460 13461 13462 13463 13464 13465 13466 13467 13468 13469 13470 13471 13472 13473 13474 13475 13476 13477 13478 13479 13480 13481 13482 13483 13484 13485 13486 13487 13488 13489 13490 13491 13492 13493 13494 13495 13496 13497 13498 13499 13500 13501 13502 13503 13504 13505 13506 13507 13508 13509 13510 13511 13512 13513 13514 13515 13516 13517 13518 13519 13520 13521 13522 13523 13524 13525 13526 13527 13528 13529 13530 13531 13532 13533 13534 13535 13536 13537 13538 13539 13540 13541 13542 13543 13544 13545 13546 13547 13548 13549 13550 13551 13552 13553 13554 13555 13556 13557 13558 13559 13560 13561 13562 13563 13564 13565 13566 13567 13568 13569 13570 13571 13572 13573 13574 13575 13576 13577 13578 13579 13580 13581 13582 13583 13584 13585 13586 13587 13588 13589 13590 13591 13592 13593 13594 13595 13596 13597 13598 13599 13600 13601 13602 13603 13604 13605 13606 13607 13608 13609 13610 13611 13612 13613 13614 13615 13616 13617 13618 13619 13620 13621 13622 13623 13624 13625 13626 13627 13628 13629 13630 13631 13632 13633 13634 13635 13636 13637 13638 13639 13640 13641 13642 13643 13644 13645 13646 13647 13648 13649 13650 13651 13652 13653 13654 13655 13656 13657 13658 13659 13660 13661 13662 13663 13664 13665 13666 13667 13668 13669 13670 13671 13672 13673 13674 13675 13676 13677 13678 13679 13680 13681 13682 13683 13684 13685 13686 13687 13688 13689 13690 13691 13692 13693 13694 13695 13696 13697 13698 13699 13700 13701 13702 13703 13704 13705 13706 13707 13708 13709 13710 13711 13712 13713 13714 13715 13716 13717 13718 13719 13720 13721 13722 13723 13724 13725 13726 13727 13728 13729 13730 13731 13732 13733 13734 13735 13736 13737 13738 13739 13740 13741 13742 13743 13744 13745 13746 13747 13748 13749 13750 13751 13752 13753 13754 13755 13756 13757 13758 13759 13760 13761 13762 13763 13764 13765 13766 13767 13768 13769 13770 13771 13772 13773 13774 13775 13776 13777 13778 13779 13780 13781 13782 13783 13784 13785 13786 13787 13788 13789 13790 13791 13792 13793 13794 13795 13796 13797 13798 13799 13800 13801 13802 13803 13804 13805 13806 13807 13808 13809 13810 13811 13812 13813 13814 13815 13816 13817 13818 13819 13820 13821 13822 13823 13824 13825 13826 13827 13828 13829 13830 13831 13832 13833 13834 13835 13836 13837 13838 13839 13840 13841 13842 13843 13844 13845 13846 13847 13848 13849 13850 13851 13852 13853 13854 13855 13856 13857 13858 13859 13860 13861 13862 13863 13864 13865 13866 13867 13868 13869 13870 13871 13872 13873 13874 13875 13876 13877 13878 13879 13880 13881 13882 13883 13884 13885 13886 13887 13888 13889 13890 13891 13892 13893 13894 13895 13896 13897 13898 13899 13900 13901 13902 13903 13904 13905 13906 13907 13908 13909 13910 13911 13912 13913 13914 13915 13916 13917 13918 13919 13920 13921 13922 13923 13924 13925 13926 13927 13928 13929 13930 13931 13932 13933 13934 13935 13936 13937 13938 13939 13940 13941 13942 13943 13944 13945 13946 13947 13948 13949 13950 13951 13952 13953 13954 13955 13956 13957 13958 13959 13960 13961 13962 13963 13964 13965 13966 13967 13968 13969 13970 13971 13972 13973 13974 13975 13976 13977 13978 13979 13980 13981 13982 13983 13984 13985 13986 13987 13988 13989 13990 13991 13992 13993 13994 13995 13996 13997 13998 13999 14000 14001 14002 14003 14004 14005 14006 14007 14008 14009 14010 14011 14012 14013 14014 14015 14016 14017 14018 14019 14020 14021 14022 14023 14024 14025 14026 14027 14028 14029 14030 14031 14032 14033 14034 14035 14036 14037 14038 14039 14040 14041 14042 14043 14044 14045 14046 14047 14048 14049 14050 14051 14052 14053 14054 14055 14056 14057 14058 14059 14060 14061 14062 14063 14064 14065 14066 14067 14068 14069 14070 14071 14072 14073 14074 14075 14076 14077 14078 14079 14080 14081 14082 14083 14084 14085 14086 14087 14088 14089 14090 14091 14092 14093 14094 14095 14096 14097 14098 14099 14100 14101 14102 14103 14104 14105 14106 14107 14108 14109 14110 14111 14112 14113 14114 14115 14116 14117 14118 14119 14120 14121 14122 14123 14124 14125 14126 14127 14128 14129 14130 14131 14132 14133 14134 14135 14136 14137 14138 14139 14140 14141 14142 14143 14144 14145 14146 14147 14148 14149 14150 14151 14152 14153 14154 14155 14156 14157 14158 14159 14160 14161 14162 14163 14164 14165 14166 14167 14168 14169 14170 14171 14172 14173 14174 14175 14176 14177 14178 14179 14180 14181 14182 14183 14184 14185 14186 14187 14188 14189 14190 14191 14192 14193 14194 14195 14196 14197 14198 14199 14200 14201 14202 14203 14204 14205 14206 14207 14208 14209 14210 14211 14212 14213 14214 14215 14216 14217 14218 14219 14220 14221 14222 14223 14224 14225 14226 14227 14228 14229 14230 14231 14232 14233 14234 14235 14236 14237 14238 14239 14240 14241 14242 14243 14244 14245 14246 14247 14248 14249 14250 14251 14252 14253 14254 14255 14256 14257 14258 14259 14260 14261 14262 14263 14264 14265 14266 14267 14268 14269 14270 14271 14272 14273 14274 14275 14276 14277 14278 14279 14280 14281 14282 14283 14284 14285 14286 14287 14288 14289 14290 14291 14292 14293 14294 14295 14296 14297 14298 14299 14300 14301 14302 14303 14304 14305 14306 14307 14308 14309 14310 14311 14312 14313 14314 14315 14316 14317 14318 14319 14320 14321 14322 14323 14324 14325 14326 14327 14328 14329 14330 14331 14332 14333 14334 14335 14336 14337 14338 14339 14340 14341 14342 14343 14344 14345 14346 14347 14348 14349 14350 14351 14352 14353 14354 14355 14356 14357 14358 14359 14360 14361 14362 14363 14364 14365 14366 14367 14368 14369 14370 14371 14372 14373 14374 14375 14376 14377 14378 14379 14380 14381 14382 14383 14384 14385 14386 14387 14388 14389 14390 14391 14392 14393 14394 14395 14396 14397 14398 14399 14400 14401 14402 14403 14404 14405 14406 14407 14408 14409 14410 14411 14412 14413 14414 14415 14416 14417 14418 14419 14420 14421 14422 14423 14424 14425 14426 14427 14428 14429 14430 14431 14432 14433 14434 14435 14436 14437 14438 14439 14440 14441 14442 14443 14444 14445 14446 14447 14448 14449 14450 14451 14452 14453 14454 14455 14456 14457 14458 14459 14460 14461 14462 14463 14464 14465 14466 14467 14468 14469 14470 14471 14472 14473 14474 14475 14476 14477 14478 14479 14480 14481 14482 14483 14484 14485 14486 14487 14488 14489 14490 14491 14492 14493 14494 14495 14496 14497 14498 14499 14500 14501 14502 14503 14504 14505 14506 14507 14508 14509 14510 14511 14512 14513 14514 14515 14516 14517 14518 14519 14520 14521 14522 14523 14524 14525 14526 14527 14528 14529 14530 14531 14532 14533 14534 14535 14536 14537 14538 14539 14540 14541 14542 14543 14544 14545 14546 14547 14548 14549 14550 14551 14552 14553 14554 14555 14556 14557 14558 14559 14560 14561 14562 14563 14564 14565 14566 14567 14568 14569 14570 14571 14572 14573 14574 14575 14576 14577 14578 14579 14580 14581 14582 14583 14584 14585 14586 14587 14588 14589 14590 14591 14592 14593 14594 14595 14596 14597 14598 14599 14600 14601 14602 14603 14604 14605 14606 14607 14608 14609 14610 14611 14612 14613 14614 14615 14616 14617 14618 14619 14620 14621 14622 14623 14624 14625 14626 14627 14628 14629 14630 14631 14632 14633 14634 14635 14636 14637 14638 14639 14640 14641 14642 14643 14644 14645 14646 14647 14648 14649 14650 14651 14652 14653 14654 14655 14656 14657 14658 14659 14660 14661 14662 14663 14664 14665 14666 14667 14668 14669 14670 14671 14672 14673 14674 14675 14676 14677 14678 14679 14680 14681 14682 14683 14684 14685 14686 14687 14688 14689 14690 14691 14692 14693 14694 14695 14696 14697 14698 14699 14700 14701 14702 14703 14704 14705 14706 14707 14708 14709 14710 14711 14712 14713 14714 14715 14716 14717 14718 14719 14720 14721 14722 14723 14724 14725 14726 14727 14728 14729 14730 14731 14732 14733 14734 14735 14736 14737 14738 14739 14740 14741 14742 14743 14744 14745 14746 14747 14748 14749 14750 14751 14752 14753 14754 14755 14756 14757 14758 14759 14760 14761 14762 14763 14764 14765 14766 14767 14768 14769 14770 14771 14772 14773 14774 14775 14776 14777 14778 14779 14780 14781 14782 14783 14784 14785 14786 14787 14788 14789 14790 14791 14792 14793 14794 14795 14796 14797 14798 14799 14800 14801 14802 14803 14804 14805 14806 14807 14808 14809 14810 14811 14812 14813 14814 14815 14816 14817 14818 14819 14820 14821 14822 14823 14824 14825 14826 14827 14828 14829 14830 14831 14832 14833 14834 14835 14836 14837 14838 14839 14840 14841 14842 14843 14844 14845 14846 14847 14848 14849 14850 14851 14852 14853 14854 14855 14856 14857 14858 14859 14860 14861 14862 14863 14864 14865 14866 14867 14868 14869 14870 14871 14872 14873 14874 14875 14876 14877 14878 14879 14880 14881 14882 14883 14884 14885 14886 14887 14888 14889 14890 14891 14892 14893 14894 14895 14896 14897 14898 14899 14900 14901 14902 14903 14904 14905 14906 14907 14908 14909 14910 14911 14912 14913 14914 14915 14916 14917 14918 14919 14920 14921 14922 14923 14924 14925 14926 14927 14928 14929 14930 14931 14932 14933 14934 14935 14936 14937 14938 14939 14940 14941 14942 14943 14944 14945 14946 14947 14948 14949 14950 14951 14952 14953 14954 14955 14956 14957 14958 14959 14960 14961 14962 14963 14964 14965 14966 14967 14968 14969 14970 14971 14972 14973 14974 14975 14976 14977 14978 14979 14980 14981 14982 14983 14984 14985 14986 14987 14988 14989 14990 14991 14992 14993 14994 14995 14996 14997 14998 14999 15000 15001 15002 15003 15004 15005 15006 15007 15008 15009 15010 15011 15012 15013 15014 15015 15016 15017 15018 15019 15020 15021 15022 15023 15024 15025 15026 15027 15028 15029 15030 15031 15032 15033 15034 15035 15036 15037 15038 15039 15040 15041 15042 15043 15044 15045 15046 15047 15048 15049 15050 15051 15052 15053 15054 15055 15056 15057 15058 15059 15060 15061 15062 15063 15064 15065 15066 15067 15068 15069 15070 15071 15072 15073 15074 15075 15076 15077 15078 15079 15080 15081 15082 15083 15084 15085 15086 15087 15088 15089 15090 15091 15092 15093 15094 15095 15096 15097 15098 15099 15100 15101 15102 15103 15104 15105 15106 15107 15108 15109 15110 15111 15112 15113 15114 15115 15116 15117 15118 15119 15120 15121 15122 15123 15124 15125 15126 15127 15128 15129 15130 15131 15132 15133 15134 15135 15136 15137 15138 15139 15140 15141 15142 15143 15144 15145 15146 15147 15148 15149 15150 15151 15152 15153 15154 15155 15156 15157 15158 15159 15160 15161 15162 15163 15164 15165 15166 15167 15168 15169 15170 15171 15172 15173 15174 15175 15176 15177 15178 15179 15180 15181 15182 15183 15184 15185 15186 15187 15188 15189 15190 15191 15192 15193 15194 15195 15196 15197 15198 15199 15200 15201 15202 15203 15204 15205 15206 15207 15208 15209 15210 15211 15212 15213 15214 15215 15216 15217 15218 15219 15220 15221 15222 15223 15224 15225 15226 15227 15228 15229 15230 15231 15232 15233 15234 15235 15236 15237 15238 15239 15240 15241 15242 15243 15244 15245 15246 15247 15248 15249 15250 15251 15252 15253 15254 15255 15256 15257 15258 15259 15260 15261 15262 15263 15264 15265 15266 15267 15268 15269 15270 15271 15272 15273 15274 15275 15276 15277 15278 15279 15280 15281 15282 15283 15284 15285 15286 15287 15288 15289 15290 15291 15292 15293 15294 15295 15296 15297 15298 15299 15300 15301 15302 15303 15304 15305 15306 15307 15308 15309 15310 15311 15312 15313 15314 15315 15316 15317 15318 15319 15320 15321 15322 15323 15324 15325 15326 15327 15328 15329 15330 15331 15332 15333 15334 15335 15336 15337 15338 15339 15340 15341 15342 15343 15344 15345 15346 15347 15348 15349 15350 15351 15352 15353 15354 15355 15356 15357 15358 15359 15360 15361 15362 15363 15364 15365 15366 15367 15368 15369 15370 15371 15372 15373 15374 15375 15376 15377 15378 15379 15380 15381 15382 15383 15384 15385 15386 15387 15388 15389 15390 15391 15392 15393 15394 15395 15396 15397 15398 15399 15400 15401 15402 15403 15404 15405 15406 15407 15408 15409 15410 15411 15412 15413 15414 15415 15416 15417 15418 15419 15420 15421 15422 15423 15424 15425 15426 15427 15428 15429 15430 15431 15432 15433 15434 15435 15436 15437 15438 15439 15440 15441 15442 15443 15444 15445 15446 15447 15448 15449 15450 15451 15452 15453 15454 15455 15456 15457 15458 15459 15460 15461 15462 15463 15464 15465 15466 15467 15468 15469 15470 15471 15472 15473 15474 15475 15476 15477 15478 15479 15480 15481 15482 15483 15484 15485 15486 15487 15488 15489 15490 15491 15492 15493 15494 15495 15496 15497 15498 15499 15500 15501 15502 15503 15504 15505 15506 15507 15508 15509 15510 15511 15512 15513 15514 15515 15516 15517 15518 15519 15520 15521 15522 15523 15524 15525 15526 15527 15528 15529 15530 15531 15532 15533 15534 15535 15536 15537 15538 15539 15540 15541 15542 15543 15544 15545 15546 15547 15548 15549 15550 15551 15552 15553 15554 15555 15556 15557 15558 15559 15560 15561 15562 15563 15564 15565 15566 15567 15568 15569 15570 15571 15572 15573 15574 15575 15576 15577 15578 15579 15580 15581 15582 15583 15584 15585 15586 15587 15588 15589 15590 15591 15592 15593 15594 15595 15596 15597 15598 15599 15600 15601 15602 15603 15604 15605 15606 15607 15608 15609 15610 15611 15612 15613 15614 15615 15616 15617 15618 15619 15620 15621 15622 15623 15624 15625 15626 15627 15628 15629 15630 15631 15632 15633 15634 15635 15636 15637 15638 15639 15640 15641 15642 15643 15644 15645 15646 15647 15648 15649 15650 15651 15652 15653 15654 15655 15656 15657 15658 15659 15660 15661 15662 15663 15664 15665 15666 15667 15668 15669 15670 15671 15672 15673 15674 15675 15676 15677 15678 15679 15680 15681 15682 15683 15684 15685 15686 15687 15688 15689 15690 15691 15692 15693 15694 15695 15696 15697 15698 15699 15700 15701 15702 15703 15704 15705 15706 15707 15708 15709 15710 15711 15712 15713 15714 15715 15716 15717 15718 15719 15720 15721 15722 15723 15724 15725 15726 15727 15728 15729 15730 15731 15732 15733 15734 15735 15736 15737 15738 15739 15740 15741 15742 15743 15744 15745 15746 15747 15748 15749 15750 15751 15752 15753 15754 15755 15756 15757 15758 15759 15760 15761 15762 15763 15764 15765 15766 15767 15768 15769 15770 15771 15772 15773 15774 15775 15776 15777 15778 15779 15780 15781 15782 15783 15784 15785 15786 15787 15788 15789 15790 15791 15792 15793 15794 15795 15796 15797 15798 15799 15800 15801 15802 15803 15804 15805 15806 15807 15808 15809 15810 15811 15812 15813 15814 15815 15816 15817 15818 15819 15820 15821 15822 15823 15824 15825 15826 15827 15828 15829 15830 15831 15832 15833 15834 15835 15836 15837 15838 15839 15840 15841 15842 15843 15844 15845 15846 15847 15848 15849 15850 15851 15852 15853 15854 15855 15856 15857 15858 15859 15860 15861 15862 15863 15864 15865 15866 15867 15868 15869 15870 15871 15872 15873 15874 15875 15876 15877 15878 15879 15880 15881 15882 15883 15884 15885 15886 15887 15888 15889 15890 15891 15892 15893 15894 15895 15896 15897 15898 15899 15900 15901 15902 15903 15904 15905 15906 15907 15908 15909 15910 15911 15912 15913 15914 15915 15916 15917 15918 15919 15920 15921 15922 15923 15924 15925 15926 15927 15928 15929 15930 15931 15932 15933 15934 15935 15936 15937 15938 15939 15940 15941 15942 15943 15944 15945 15946 15947 15948 15949 15950 15951 15952 15953 15954 15955 15956 15957 15958 15959 15960 15961 15962 15963 15964 15965 15966 15967 15968 15969 15970 15971 15972 15973 15974 15975 15976 15977 15978 15979 15980 15981 15982 15983 15984 15985 15986 15987 15988 15989 15990 15991 15992 15993 15994 15995 15996 15997 15998 15999 16000 16001 16002 16003 16004 16005 16006 16007 16008 16009 16010 16011 16012 16013 16014 16015 16016 16017 16018 16019 16020 16021 16022 16023 16024 16025 16026 16027 16028 16029 16030 16031 16032 16033 16034 16035 16036 16037 16038 16039 16040 16041 16042 16043 16044 16045 16046 16047 16048 16049 16050 16051 16052 16053 16054 16055 16056 16057 16058 16059 16060 16061 16062 16063 16064 16065 16066 16067 16068 16069 16070 16071 16072 16073 16074 16075 16076 16077 16078 16079 16080 16081 16082 16083 16084 16085 16086 16087 16088 16089 16090 16091 16092 16093 16094 16095 16096 16097 16098 16099 16100 16101 16102 16103 16104 16105 16106 16107 16108 16109 16110 16111 16112 16113 16114 16115 16116 16117 16118 16119 16120 16121 16122 16123 16124 16125 16126 16127 16128 16129 16130 16131 16132 16133 16134 16135 16136 16137 16138 16139 16140 16141 16142 16143 16144 16145 16146 16147 16148 16149 16150 16151 16152 16153 16154 16155 16156 16157 16158 16159 16160 16161 16162 16163 16164 16165 16166 16167 16168 16169 16170 16171 16172 16173 16174 16175 16176 16177 16178 16179 16180 16181 16182 16183 16184 16185 16186 16187 16188 16189 16190 16191 16192 16193 16194 16195 16196 16197 16198 16199 16200 16201 16202 16203 16204 16205 16206 16207 16208 16209 16210 16211 16212 16213 16214 16215 16216 16217 16218 16219 16220 16221 16222 16223 16224 16225 16226 16227 16228 16229 16230 16231 16232 16233 16234 16235 16236 16237 16238 16239 16240 16241 16242 16243 16244 16245 16246 16247 16248 16249 16250 16251 16252 16253 16254 16255 16256 16257 16258 16259 16260 16261 16262 16263 16264 16265 16266 16267 16268 16269 16270 16271 16272 16273 16274 16275 16276 16277 16278 16279 16280 16281 16282 16283 16284 16285 16286 16287 16288 16289 16290 16291 16292 16293 16294 16295 16296 16297 16298 16299 16300 16301 16302 16303 16304 16305 16306 16307 16308 16309 16310 16311 16312 16313 16314 16315 16316 16317 16318 16319 16320 16321 16322 16323 16324 16325 16326 16327 16328 16329 16330 16331 16332 16333 16334 16335 16336 16337 16338 16339 16340 16341 16342 16343 16344 16345 16346 16347 16348 16349 16350 16351 16352 16353 16354 16355 16356 16357 16358 16359 16360 16361 16362 16363 16364 16365 16366 16367 16368 16369 16370 16371 16372 16373 16374 16375 16376 16377 16378 16379 16380 16381 16382 16383 16384 16385 16386 16387 16388 16389 16390 16391 16392 16393 16394 16395 16396 16397 16398 16399 16400 16401 16402 16403 16404 16405 16406 16407 16408 16409 16410 16411 16412 16413 16414 16415 16416 16417 16418 16419 16420 16421 16422 16423 16424 16425 16426 16427 16428 16429 16430 16431 16432 16433 16434 16435 16436 16437 16438 16439 16440 16441 16442 16443 16444 16445 16446 16447 16448 16449 16450 16451 16452 16453 16454 16455 16456 16457 16458 16459 16460 16461 16462 16463 16464 16465 16466 16467 16468 16469 16470 16471 16472 16473 16474 16475 16476 16477 16478 16479 16480 16481 16482 16483 16484 16485 16486 16487 16488 16489 16490 16491 16492 16493 16494 16495 16496 16497 16498 16499 16500 16501 16502 16503 16504 16505 16506 16507 16508 16509 16510 16511 16512 16513 16514 16515 16516 16517 16518 16519 16520 16521 16522 16523 16524 16525 16526 16527 16528 16529 16530 16531 16532 16533 16534 16535 16536 16537 16538 16539 16540 16541 16542 16543 16544 16545 16546 16547 16548 16549 16550 16551 16552 16553 16554 16555 16556 16557 16558 16559 16560 16561 16562 16563 16564 16565 16566 16567 16568 16569 16570 16571 16572 16573 16574 16575 16576 16577 16578 16579 16580 16581 16582 16583 16584 16585 16586 16587 16588 16589 16590 16591 16592 16593 16594 16595 16596 16597 16598 16599 16600 16601 16602 16603 16604 16605 16606 16607 16608 16609 16610 16611 16612 16613 16614 16615 16616 16617 16618 16619 16620 16621 16622 16623 16624 16625 16626 16627 16628 16629 16630 16631 16632 16633 16634 16635 16636 16637 16638 16639 16640 16641 16642 16643 16644 16645 16646 16647 16648 16649 16650 16651 16652 16653 16654 16655 16656 16657 16658 16659 16660 16661 16662 16663 16664 16665 16666 16667 16668 16669 16670 16671 16672 16673 16674 16675 16676 16677 16678 16679 16680 16681 16682 16683 16684 16685 16686 16687 16688 16689 16690 16691 16692 16693 16694 16695 16696 16697 16698 16699 16700 16701 16702 16703 16704 16705 16706 16707 16708 16709 16710 16711 16712 16713 16714 16715 16716 16717 16718 16719 16720 16721 16722 16723 16724 16725 16726 16727 16728 16729 16730 16731 16732 16733 16734 16735 16736 16737 16738 16739 16740 16741 16742 16743 16744 16745 16746 16747 16748 16749 16750 16751 16752 16753 16754 16755 16756 16757 16758 16759 16760 16761 16762 16763 16764 16765 16766 16767 16768 16769 16770 16771 16772 16773 16774 16775 16776 16777 16778 16779 16780 16781 16782 16783 16784 16785 16786 16787 16788 16789 16790 16791 16792 16793 16794 16795 16796 16797 16798 16799 16800 16801 16802 16803 16804 16805 16806 16807 16808 16809 16810 16811 16812 16813 16814 16815 16816 16817 16818 16819 16820 16821 16822 16823 16824 16825 16826 16827 16828 16829 16830 16831 16832 16833 16834 16835 16836 16837 16838 16839 16840 16841 16842 16843 16844 16845 16846 16847 16848 16849 16850 16851 16852 16853 16854 16855 16856 16857 16858 16859 16860 16861 16862 16863 16864 16865 16866 16867 16868 16869 16870 16871 16872 16873 16874 16875 16876 16877 16878 16879 16880 16881 16882 16883 16884 16885 16886 16887 16888 16889 16890 16891 16892 16893 16894 16895 16896 16897 16898 16899 16900 16901 16902 16903 16904 16905 16906 16907 16908 16909 16910 16911 16912 16913 16914 16915 16916 16917 16918 16919 16920 16921 16922 16923 16924 16925 16926 16927 16928 16929 16930 16931 16932 16933 16934 16935 16936 16937 16938 16939 16940 16941 16942 16943 16944 16945 16946 16947 16948 16949 16950 16951 16952 16953 16954 16955 16956 16957 16958 16959 16960 16961 16962 16963 16964 16965 16966 16967 16968 16969 16970 16971 16972 16973 16974 16975 16976 16977 16978 16979 16980 16981 16982 16983 16984 16985 16986 16987 16988 16989 16990 16991 16992 16993 16994 16995 16996 16997 16998 16999 17000 17001 17002 17003 17004 17005 17006 17007 17008 17009 17010 17011 17012 17013 17014 17015 17016 17017 17018 17019 17020 17021 17022 17023 17024 17025 17026 17027 17028 17029 17030 17031 17032 17033 17034 17035 17036 17037 17038 17039 17040 17041 17042 17043 17044 17045 17046 17047 17048 17049 17050 17051 17052 17053 17054 17055 17056 17057 17058 17059 17060 17061 17062 17063 17064 17065 17066 17067 17068 17069 17070 17071 17072 17073 17074 17075 17076 17077 17078 17079 17080 17081 17082 17083 17084 17085 17086 17087 17088 17089 17090 17091 17092 17093 17094 17095 17096 17097 17098 17099 17100 17101 17102 17103 17104 17105 17106 17107 17108 17109 17110 17111 17112 17113 17114 17115 17116 17117 17118 17119 17120 17121 17122 17123 17124 17125 17126 17127 17128 17129 17130 17131 17132 17133 17134 17135 17136 17137 17138 17139 17140 17141 17142 17143 17144 17145 17146 17147 17148 17149 17150 17151 17152 17153 17154 17155 17156 17157 17158 17159 17160 17161 17162 17163 17164 17165 17166 17167 17168 17169 17170 17171 17172 17173 17174 17175 17176 17177 17178 17179 17180 17181 17182 17183 17184 17185 17186 17187 17188 17189 17190 17191 17192 17193 17194 17195 17196 17197 17198 17199 17200 17201 17202 17203 17204 17205 17206 17207 17208 17209 17210 17211 17212 17213 17214 17215 17216 17217 17218 17219 17220 17221 17222 17223 17224 17225 17226 17227 17228 17229 17230 17231 17232 17233 17234 17235 17236 17237 17238 17239 17240 17241 17242 17243 17244 17245 17246 17247 17248 17249 17250 17251 17252 17253 17254 17255 17256 17257 17258 17259 17260 17261 17262 17263 17264 17265 17266 17267 17268 17269 17270 17271 17272 17273 17274 17275 17276 17277 17278 17279 17280 17281 17282 17283 17284 17285 17286 17287 17288 17289 17290 17291 17292 17293 17294 17295 17296 17297 17298 17299 17300 17301 17302 17303 17304 17305 17306 17307 17308 17309 17310 17311 17312 17313 17314 17315 17316 17317 17318 17319 17320 17321 17322 17323 17324 17325 17326 17327 17328 17329 17330 17331 17332 17333 17334 17335 17336 17337 17338 17339 17340 17341 17342 17343 17344 17345 17346 17347 17348 17349 17350 17351 17352 17353 17354 17355 17356 17357 17358 17359 17360 17361 17362 17363 17364 17365 17366 17367 17368 17369 17370 17371 17372 17373 17374 17375 17376 17377 17378 17379 17380 17381 17382 17383 17384 17385 17386 17387 17388 17389 17390 17391 17392 17393 17394 17395 17396 17397 17398 17399 17400 17401 17402 17403 17404 17405 17406 17407 17408 17409 17410 17411 17412 17413 17414 17415 17416 17417 17418 17419 17420 17421 17422 17423 17424 17425 17426 17427 17428 17429 17430 17431 17432 17433 17434 17435 17436 17437 17438 17439 17440 17441 17442 17443 17444 17445 17446 17447 17448 17449 17450 17451 17452 17453 17454 17455 17456 17457 17458 17459 17460 17461 17462 17463 17464 17465 17466 17467 17468 17469 17470 17471 17472 17473 17474 17475 17476 17477 17478 17479 17480 17481 17482 17483 17484 17485 17486 17487 17488 17489 17490 17491 17492 17493 17494 17495 17496 17497 17498 17499 17500 17501 17502 17503 17504 17505 17506 17507 17508 17509 17510 17511 17512 17513 17514 17515 17516 17517 17518 17519 17520 17521 17522 17523 17524 17525 17526 17527 17528 17529 17530 17531 17532 17533 17534 17535 17536 17537 17538 17539 17540 17541 17542 17543 17544 17545 17546 17547 17548 17549 17550 17551 17552 17553 17554 17555 17556 17557 17558 17559 17560 17561 17562 17563 17564 17565 17566 17567 17568 17569 17570 17571 17572 17573 17574 17575 17576 17577 17578 17579 17580 17581 17582 17583 17584 17585 17586 17587 17588 17589 17590 17591 17592 17593 17594 17595 17596 17597 17598 17599 17600 17601 17602 17603 17604 17605 17606 17607 17608 17609 17610 17611 17612 17613 17614 17615 17616 17617 17618 17619 17620 17621 17622 17623 17624 17625 17626 17627 17628 17629 17630 17631 17632 17633 17634 17635 17636 17637 17638 17639 17640 17641 17642 17643 17644 17645 17646 17647 17648 17649 17650 17651 17652 17653 17654 17655 17656 17657 17658 17659 17660 17661 17662 17663 17664 17665 17666 17667 17668 17669 17670 17671 17672 17673 17674 17675 17676 17677 17678 17679 17680 17681 17682 17683 17684 17685 17686 17687 17688 17689 17690 17691 17692 17693 17694 17695 17696 17697 17698 17699 17700 17701 17702 17703 17704 17705 17706 17707 17708 17709 17710 17711 17712 17713 17714 17715 17716 17717 17718 17719 17720 17721 17722 17723 17724 17725 17726 17727 17728 17729 17730 17731 17732 17733 17734 17735 17736 17737 17738 17739 17740 17741 17742 17743 17744 17745 17746 17747 17748 17749 17750 17751 17752 17753 17754 17755 17756 17757 17758 17759 17760 17761 17762 17763 17764 17765 17766 17767 17768 17769 17770 17771 17772 17773 17774 17775 17776 17777 17778 17779 17780 17781 17782 17783 17784 17785 17786 17787 17788 17789 17790 17791 17792 17793 17794 17795 17796 17797 17798 17799 17800 17801 17802 17803 17804 17805 17806 17807 17808 17809 17810 17811 17812 17813 17814 17815 17816 17817 17818 17819 17820 17821 17822 17823 17824 17825 17826 17827 17828 17829 17830 17831 17832 17833 17834 17835 17836 17837 17838 17839 17840 17841 17842 17843 17844 17845 17846 17847 17848 17849 17850 17851 17852 17853 17854 17855 17856 17857 17858 17859 17860 17861 17862 17863 17864 17865 17866 17867 17868 17869 17870 17871 17872 17873 17874 17875 17876 17877 17878 17879 17880 17881 17882 17883 17884 17885 17886 17887 17888 17889 17890 17891 17892 17893 17894 17895 17896 17897 17898 17899 17900 17901 17902 17903 17904 17905 17906 17907 17908 17909 17910 17911 17912 17913 17914 17915 17916 17917 17918 17919 17920 17921 17922 17923 17924 17925 17926 17927 17928 17929 17930 17931 17932 17933 17934 17935 17936 17937 17938 17939 17940 17941 17942 17943 17944 17945 17946 17947 17948 17949 17950 17951 17952 17953 17954 17955 17956 17957 17958 17959 17960 17961 17962 17963 17964 17965 17966 17967 17968 17969 17970 17971 17972 17973 17974 17975 17976 17977 17978 17979 17980 17981 17982 17983 17984 17985 17986 17987 17988 17989 17990 17991 17992 17993 17994 17995 17996 17997 17998 17999 18000 18001 18002 18003 18004 18005 18006 18007 18008 18009 18010 18011 18012 18013 18014 18015 18016 18017 18018 18019 18020 18021 18022 18023 18024 18025 18026 18027 18028 18029 18030 18031 18032 18033 18034 18035 18036 18037 18038 18039 18040 18041 18042 18043 18044 18045 18046 18047 18048 18049 18050 18051 18052 18053 18054 18055 18056 18057 18058 18059 18060 18061 18062 18063 18064 18065 18066 18067 18068 18069 18070 18071 18072 18073 18074 18075 18076 18077 18078 18079 18080 18081 18082 18083 18084 18085 18086 18087 18088 18089 18090 18091 18092 18093 18094 18095 18096 18097 18098 18099 18100 18101 18102 18103 18104 18105 18106 18107 18108 18109 18110 18111 18112 18113 18114 18115 18116 18117 18118 18119 18120 18121 18122 18123 18124 18125 18126 18127 18128 18129 18130 18131 18132 18133 18134 18135 18136 18137 18138 18139 18140 18141 18142 18143 18144 18145 18146 18147 18148 18149 18150 18151 18152 18153 18154 18155 18156 18157 18158 18159 18160 18161 18162 18163 18164 18165 18166 18167 18168 18169 18170 18171 18172 18173 18174 18175 18176 18177 18178 18179 18180 18181 18182 18183 18184 18185 18186 18187 18188 18189 18190 18191 18192 18193 18194 18195 18196 18197 18198 18199 18200 18201 18202 18203 18204 18205 18206 18207 18208 18209 18210 18211 18212 18213 18214 18215 18216 18217 18218 18219 18220 18221 18222 18223 18224 18225 18226 18227 18228 18229 18230 18231 18232 18233 18234 18235 18236 18237 18238 18239 18240 18241 18242 18243 18244 18245 18246 18247 18248 18249 18250 18251 18252 18253 18254 18255 18256 18257 18258 18259 18260 18261 18262 18263 18264 18265 18266 18267 18268 18269 18270 18271 18272 18273 18274 18275 18276 18277 18278 18279 18280 18281 18282 18283 18284 18285 18286 18287 18288 18289 18290 18291 18292 18293 18294 18295 18296 18297 18298 18299 18300 18301 18302 18303 18304 18305 18306 18307 18308 18309 18310 18311 18312 18313 18314 18315 18316 18317 18318 18319 18320 18321 18322 18323 18324 18325 18326 18327 18328 18329 18330 18331 18332 18333 18334 18335 18336 18337 18338 18339 18340 18341 18342 18343 18344 18345 18346 18347 18348 18349 18350 18351 18352 18353 18354 18355 18356 18357 18358 18359 18360 18361 18362 18363 18364 18365 18366 18367 18368 18369 18370 18371 18372 18373 18374 18375 18376 18377 18378 18379 18380 18381 18382 18383 18384 18385 18386 18387 18388 18389 18390 18391 18392 18393 18394 18395 18396 18397 18398 18399 18400 18401 18402 18403 18404 18405 18406 18407 18408 18409 18410 18411 18412 18413 18414 18415 18416 18417 18418 18419 18420 18421 18422 18423 18424 18425 18426 18427 18428 18429 18430 18431 18432 18433 18434 18435 18436 18437 18438 18439 18440 18441 18442 18443 18444 18445 18446 18447 18448 18449 18450 18451 18452 18453 18454 18455 18456 18457 18458 18459 18460 18461 18462 18463 18464 18465 18466 18467 18468 18469 18470 18471 18472 18473 18474 18475 18476 18477 18478 18479 18480 18481 18482 18483 18484 18485 18486 18487 18488 18489 18490 18491 18492 18493 18494 18495 18496 18497 18498 18499 18500 18501 18502 18503 18504 18505 18506 18507 18508 18509 18510 18511 18512 18513 18514 18515 18516 18517 18518 18519 18520 18521 18522 18523 18524 18525 18526 18527 18528 18529 18530 18531 18532 18533 18534 18535 18536 18537 18538 18539 18540 18541 18542 18543 18544 18545 18546 18547 18548 18549 18550 18551 18552 18553 18554 18555 18556 18557 18558 18559 18560 18561 18562 18563 18564 18565 18566 18567 18568 18569 18570 18571 18572 18573 18574 18575 18576 18577 18578 18579 18580 18581 18582 18583 18584 18585 18586 18587 18588 18589 18590 18591 18592 18593 18594 18595 18596 18597 18598 18599 18600 18601 18602 18603 18604 18605 18606 18607 18608 18609 18610 18611 18612 18613 18614 18615 18616 18617 18618 18619 18620 18621 18622 18623 18624 18625 18626 18627 18628 18629 18630 18631 18632 18633 18634 18635 18636 18637 18638 18639 18640 18641 18642 18643 18644 18645 18646 18647 18648 18649 18650 18651 18652 18653 18654 18655 18656 18657 18658 18659 18660 18661 18662 18663 18664 18665 18666 18667 18668 18669 18670 18671 18672 18673 18674 18675 18676 18677 18678 18679 18680 18681 18682 18683 18684 18685 18686 18687 18688 18689 18690 18691 18692 18693 18694 18695 18696 18697 18698 18699 18700 18701 18702 18703 18704 18705 18706 18707 18708 18709 18710 18711 18712 18713 18714 18715 18716 18717 18718 18719 18720 18721 18722 18723 18724 18725 18726 18727 18728 18729 18730 18731 18732 18733 18734 18735 18736 18737 18738 18739 18740 18741 18742 18743 18744 18745 18746 18747 18748 18749 18750 18751 18752 18753 18754 18755 18756 18757 18758 18759 18760 18761 18762 18763 18764 18765 18766 18767 18768 18769 18770 18771 18772 18773 18774 18775 18776 18777 18778 18779 18780 18781 18782 18783 18784 18785 18786 18787 18788 18789 18790 18791 18792 18793 18794 18795 18796 18797 18798 18799 18800 18801 18802 18803 18804 18805 18806 18807 18808 18809 18810 18811 18812 18813 18814 18815 18816 18817 18818 18819 18820 18821 18822 18823 18824 18825 18826 18827 18828 18829 18830 18831 18832 18833 18834 18835 18836 18837 18838 18839 18840 18841 18842 18843 18844 18845 18846 18847 18848 18849 18850 18851 18852 18853 18854 18855 18856 18857 18858 18859 18860 18861 18862 18863 18864 18865 18866 18867 18868 18869 18870 18871 18872 18873 18874 18875 18876 18877 18878 18879 18880 18881 18882 18883 18884 18885 18886 18887 18888 18889 18890 18891 18892 18893 18894 18895 18896 18897 18898 18899 18900 18901 18902 18903 18904 18905 18906 18907 18908 18909 18910 18911 18912 18913 18914 18915 18916 18917 18918 18919 18920 18921 18922 18923 18924 18925 18926 18927 18928 18929 18930 18931 18932 18933 18934 18935 18936 18937 18938 18939 18940 18941 18942 18943 18944 18945 18946 18947 18948 18949 18950 18951 18952 18953 18954 18955 18956 18957 18958 18959 18960 18961 18962 18963 18964 18965 18966 18967 18968 18969 18970 18971 18972 18973 18974 18975 18976 18977 18978 18979 18980 18981 18982 18983 18984 18985 18986 18987 18988 18989 18990 18991 18992 18993 18994 18995 18996 18997 18998 18999 19000 19001 19002 19003 19004 19005 19006 19007 19008 19009 19010 19011 19012 19013 19014 19015 19016 19017 19018 19019 19020 19021 19022 19023 19024 19025 19026 19027 19028 19029 19030 19031 19032 19033 19034 19035 19036 19037 19038 19039 19040 19041 19042 19043 19044 19045 19046 19047 19048 19049 19050 19051 19052 19053 19054 19055 19056 19057 19058 19059 19060 19061 19062 19063 19064 19065 19066 19067 19068 19069 19070 19071 19072 19073 19074 19075 19076 19077 19078 19079 19080 19081 19082 19083 19084 19085 19086 19087 19088 19089 19090 19091 19092 19093 19094 19095 19096 19097 19098 19099 19100 19101 19102 19103 19104 19105 19106 19107 19108 19109 19110 19111 19112 19113 19114 19115 19116 19117 19118 19119 19120 19121 19122 19123 19124 19125 19126 19127 19128 19129 19130 19131 19132 19133 19134 19135 19136 19137 19138 19139 19140 19141 19142 19143 19144 19145 19146 19147 19148 19149 19150 19151 19152 19153 19154 19155 19156 19157 19158 19159 19160 19161 19162 19163 19164 19165 19166 19167 19168 19169 19170 19171 19172 19173 19174 19175 19176 19177 19178 19179 19180 19181 19182 19183 19184 19185 19186 19187 19188 19189 19190 19191 19192 19193 19194 19195 19196 19197 19198 19199 19200 19201 19202 19203 19204 19205 19206 19207 19208 19209 19210 19211 19212 19213 19214 19215 19216 19217 19218 19219 19220 19221 19222 19223 19224 19225 19226 19227 19228 19229 19230 19231 19232 19233 19234 19235 19236 19237 19238 19239 19240 19241 19242 19243 19244 19245 19246 19247 19248 19249 19250 19251 19252 19253 19254 19255 19256 19257 19258 19259 19260 19261 19262 19263 19264 19265 19266 19267 19268 19269 19270 19271 19272 19273 19274 19275 19276 19277 19278 19279 19280 19281 19282 19283 19284 19285 19286 19287 19288 19289 19290 19291 19292 19293 19294 19295 19296 19297 19298 19299 19300 19301 19302 19303 19304 19305 19306 19307 19308 19309 19310 19311 19312 19313 19314 19315 19316 19317 19318 19319 19320 19321 19322 19323 19324 19325 19326 19327 19328 19329 19330 19331 19332 19333 19334 19335 19336 19337 19338 19339 19340 19341 19342 19343 19344 19345 19346 19347 19348 19349 19350 19351 19352 19353 19354 19355 19356 19357 19358 19359 19360 19361 19362 19363 19364 19365 19366 19367 19368 19369 19370 19371 19372 19373 19374 19375 19376 19377 19378 19379 19380 19381 19382 19383 19384 19385 19386 19387 19388 19389 19390 19391 19392 19393 19394 19395 19396 19397 19398 19399 19400 19401 19402 19403 19404 19405 19406 19407 19408 19409 19410 19411 19412 19413 19414 19415 19416 19417 19418 19419 19420 19421 19422 19423 19424 19425 19426 19427 19428 19429 19430 19431 19432 19433 19434 19435 19436 19437 19438 19439 19440 19441 19442 19443 19444 19445 19446 19447 19448 19449 19450 19451 19452 19453 19454 19455 19456 19457 19458 19459 19460 19461 19462 19463 19464 19465 19466 19467 19468 19469 19470 19471 19472 19473 19474 19475 19476 19477 19478 19479 19480 19481 19482 19483 19484 19485 19486 19487 19488 19489 19490 19491 19492 19493 19494 19495 19496 19497 19498 19499 19500 19501 19502 19503 19504 19505 19506 19507 19508 19509 19510 19511 19512 19513 19514 19515 19516 19517 19518 19519 19520 19521 19522 19523 19524 19525 19526 19527 19528 19529 19530 19531 19532 19533 19534 19535 19536 19537 19538 19539 19540 19541 19542 19543 19544 19545 19546 19547 19548 19549 19550 19551 19552 19553 19554 19555 19556 19557 19558 19559 19560 19561 19562 19563 19564 19565 19566 19567 19568 19569 19570 19571 19572 19573 19574 19575 19576 19577 19578 19579 19580 19581 19582 19583 19584 19585 19586 19587 19588 19589 19590 19591 19592 19593 19594 19595 19596 19597 19598 19599 19600 19601 19602 19603 19604 19605 19606 19607 19608 19609 19610 19611 19612 19613 19614 19615 19616 19617 19618 19619 19620 19621 19622 19623 19624 19625 19626 19627 19628 19629 19630 19631 19632 19633 19634 19635 19636 19637 19638 19639 19640 19641 19642 19643 19644 19645 19646 19647 19648 19649 19650 19651 19652 19653 19654 19655 19656 19657 19658 19659 19660 19661 19662 19663 19664 19665 19666 19667 19668 19669 19670 19671 19672 19673 19674 19675 19676 19677 19678 19679 19680 19681 19682 19683 19684 19685 19686 19687 19688 19689 19690 19691 19692 19693 19694 19695 19696 19697 19698 19699 19700 19701 19702 19703 19704 19705 19706 19707 19708 19709 19710 19711 19712 19713 19714 19715 19716 19717 19718 19719 19720 19721 19722 19723 19724 19725 19726 19727 19728 19729 19730 19731 19732 19733 19734 19735 19736 19737 19738 19739 19740 19741 19742 19743 19744 19745 19746 19747 19748 19749 19750 19751 19752 19753 19754 19755 19756 19757 19758 19759 19760 19761 19762 19763 19764 19765 19766 19767 19768 19769 19770 19771 19772 19773 19774 19775 19776 19777 19778 19779 19780 19781 19782 19783 19784 19785 19786 19787 19788 19789 19790 19791 19792 19793 19794 19795 19796 19797 19798 19799 19800 19801 19802 19803 19804 19805 19806 19807 19808 19809 19810 19811 19812 19813 19814 19815 19816 19817 19818 19819 19820 19821 19822 19823 19824 19825 19826 19827 19828 19829 19830 19831 19832 19833 19834 19835 19836 19837 19838 19839 19840 19841 19842 19843 19844 19845 19846 19847 19848 19849 19850 19851 19852 19853 19854 19855 19856 19857 19858 19859 19860 19861 19862 19863 19864 19865 19866 19867 19868 19869 19870 19871 19872 19873 19874 19875 19876 19877 19878 19879 19880 19881 19882 19883 19884 19885 19886 19887 19888 19889 19890 19891 19892 19893 19894 19895 19896 19897 19898 19899 19900 19901 19902 19903 19904 19905 19906 19907 19908 19909 19910 19911 19912 19913 19914 19915 19916 19917 19918 19919 19920 19921 19922 19923 19924 19925 19926 19927 19928 19929 19930 19931 19932 19933 19934 19935 19936 19937 19938 19939 19940 19941 19942 19943 19944 19945 19946 19947 19948 19949 19950 19951 19952 19953 19954 19955 19956 19957 19958 19959 19960 19961 19962 19963 19964 19965 19966 19967 19968 19969 19970 19971 19972 19973 19974 19975 19976 19977 19978 19979 19980 19981 19982 19983 19984 19985 19986 19987 19988 19989 19990 19991 19992 19993 19994 19995 19996 19997 19998 19999 20000 20001 20002 20003 20004 20005 20006 20007 20008 20009 20010 20011 20012 20013 20014 20015 20016 20017 20018 20019 20020 20021 20022 20023 20024 20025 20026 20027 20028 20029 20030 20031 20032 20033 20034 20035 20036 20037 20038 20039 20040 20041 20042 20043 20044 20045 20046 20047 20048 20049 20050 20051 20052 20053 20054 20055 20056 20057 20058 20059 20060 20061 20062 20063 20064 20065 20066 20067 20068 20069 20070 20071 20072 20073 20074 20075 20076 20077 20078 20079 20080 20081 20082 20083 20084 20085 20086 20087 20088 20089 20090 20091 20092 20093 20094 20095 20096 20097 20098 20099 20100 20101 20102 20103 20104 20105 20106 20107 20108 20109 20110 20111 20112 20113 20114 20115 20116 20117 20118 20119 20120 20121 20122 20123 20124 20125 20126 20127 20128 20129 20130 20131 20132 20133 20134 20135 20136 20137 20138 20139 20140 20141 20142 20143 20144 20145 20146 20147 20148 20149 20150 20151 20152 20153 20154 20155 20156 20157 20158 20159 20160 20161 20162 20163 20164 20165 20166 20167 20168 20169 20170 20171 20172 20173 20174 20175 20176 20177 20178 20179 20180 20181 20182 20183 20184 20185 20186 20187 20188 20189 20190 20191 20192 20193 20194 20195 20196 20197 20198 20199 20200 20201 20202 20203 20204 20205 20206 20207 20208 20209 20210 20211 20212 20213 20214 20215 20216 20217 20218 20219 20220 20221 20222 20223 20224 20225 20226 20227 20228 20229 20230 20231 20232 20233 20234 20235 20236 20237 20238 20239 20240 20241 20242 20243 20244 20245 20246 20247 20248 20249 20250 20251 20252 20253 20254 20255 20256 20257 20258 20259 20260 20261 20262 20263 20264 20265 20266 20267 20268 20269 20270 20271 20272 20273 20274 20275 20276 20277 20278 20279 20280 20281 20282 20283 20284 20285 20286 20287 20288 20289 20290 20291 20292 20293 20294 20295 20296 20297 20298 20299 20300 20301 20302 20303 20304 20305 20306 20307 20308 20309 20310 20311 20312 20313 20314 20315 20316 20317 20318 20319 20320 20321 20322 20323 20324 20325 20326 20327 20328 20329 20330 20331 20332 20333 20334 20335 20336 20337 20338 20339 20340 20341 20342 20343 20344 20345 20346 20347 20348 20349 20350 20351 20352 20353 20354 20355 20356 20357 20358 20359 20360 20361 20362 20363 20364 20365 20366 20367 20368 20369 20370 20371 20372 20373 20374 20375 20376 20377 20378 20379 20380 20381 20382 20383 20384 20385 20386 20387 20388 20389 20390 20391 20392 20393 20394 20395 20396 20397 20398 20399 20400 20401 20402 20403 20404 20405 20406 20407 20408 20409 20410 20411 20412 20413 20414 20415 20416 20417 20418 20419 20420 20421 20422 20423 20424 20425 20426 20427 20428 20429 20430 20431 20432 20433 20434 20435 20436 20437 20438 20439 20440 20441 20442 20443 20444 20445 20446 20447 20448 20449 20450 20451 20452 20453 20454 20455 20456 20457 20458 20459 20460 20461 20462 20463 20464 20465 20466 20467 20468 20469 20470 20471 20472 20473 20474 20475 20476 20477 20478 20479 20480 20481 20482 20483 20484 20485 20486 20487 20488 20489 20490 20491 20492 20493 20494 20495 20496 20497 20498 20499 20500 20501 20502 20503 20504 20505 20506 20507 20508 20509 20510 20511 20512 20513 20514 20515 20516 20517 20518 20519 20520 20521 20522 20523 20524 20525 20526 20527 20528 20529 20530 20531 20532 20533 20534 20535 20536 20537 20538 20539 20540 20541 20542 20543 20544 20545 20546 20547 20548 20549 20550 20551 20552 20553 20554 20555 20556 20557 20558 20559 20560 20561 20562 20563 20564 20565 20566 20567 20568 20569 20570 20571 20572 20573 20574 20575 20576 20577 20578 20579 20580 20581 20582 20583 20584 20585 20586 20587 20588 20589 20590 20591 20592 20593 20594 20595 20596 20597 20598 20599 20600 20601 20602 20603 20604 20605 20606 20607 20608 20609 20610 20611 20612 20613 20614 20615 20616 20617 20618 20619 20620 20621 20622 20623 20624 20625 20626 20627 20628 20629 20630 20631 20632 20633 20634 20635 20636 20637 20638 20639 20640 20641 20642 20643 20644 20645 20646 20647 20648 20649 20650 20651 20652 20653 20654 20655 20656 20657 20658 20659 20660 20661 20662 20663 20664 20665 20666 20667 20668 20669 20670 20671 20672 20673 20674 20675 20676 20677 20678 20679 20680 20681 20682 20683 20684 20685 20686 20687 20688 20689 20690 20691 20692 20693 20694 20695 20696 20697 20698 20699 20700 20701 20702 20703 20704 20705 20706 20707 20708 20709 20710 20711 20712 20713 20714 20715 20716 20717 20718 20719 20720 20721 20722 20723 20724 20725 20726 20727 20728 20729 20730 20731 20732 20733 20734 20735 20736 20737 20738 20739 20740 20741 20742 20743 20744 20745 20746 20747 20748 20749 20750 20751 20752 20753 20754 20755 20756 20757 20758 20759 20760 20761 20762 20763 20764 20765 20766 20767 20768 20769 20770 20771 20772 20773 20774 20775 20776 20777 20778 20779 20780 20781 20782 20783 20784 20785 20786 20787 20788 20789 20790 20791 20792 20793 20794 20795 20796 20797 20798 20799 20800 20801 20802 20803 20804 20805 20806 20807 20808 20809 20810 20811 20812 20813 20814 20815 20816 20817 20818 20819 20820 20821 20822 20823 20824 20825 20826 20827 20828 20829 20830 20831 20832 20833 20834 20835 20836 20837 20838 20839 20840 20841 20842 20843 20844 20845 20846 20847 20848 20849 20850 20851 20852 20853 20854 20855 20856 20857 20858 20859 20860 20861 20862 20863 20864 20865 20866 20867 20868 20869 20870 20871 20872 20873 20874 20875 20876 20877 20878 20879 20880 20881 20882 20883 20884 20885 20886 20887 20888 20889 20890 20891 20892 20893 20894 20895 20896 20897 20898 20899 20900 20901 20902 20903 20904 20905 20906 20907 20908 20909 20910 20911 20912 20913 20914 20915 20916 20917 20918 20919 20920 20921 20922 20923 20924 20925 20926 20927 20928 20929 20930 20931 20932 20933 20934 20935 20936 20937 20938 20939 20940 20941 20942 20943 20944 20945 20946 20947 20948 20949 20950 20951 20952 20953 20954 20955 20956 20957 20958 20959 20960 20961 20962 20963 20964 20965 20966 20967 20968 20969 20970 20971 20972 20973 20974 20975 20976 20977 20978 20979 20980 20981 20982 20983 20984 20985 20986 20987 20988 20989 20990 20991 20992 20993 20994 20995 20996 20997 20998 20999 21000 21001 21002 21003 21004 21005 21006 21007 21008 21009 21010 21011 21012 21013 21014 21015 21016 21017 21018 21019 21020 21021 21022 21023 21024 21025 21026 21027 21028 21029 21030 21031 21032 21033 21034 21035 21036 21037 21038 21039 21040 21041 21042 21043 21044 21045 21046 21047 21048 21049 21050 21051 21052 21053 21054 21055 21056 21057 21058 21059 21060 21061 21062 21063 21064 21065 21066 21067 21068 21069 21070 21071 21072 21073 21074 21075 21076 21077 21078 21079 21080 21081 21082 21083 21084 21085 21086 21087 21088 21089 21090 21091 21092 21093 21094 21095 21096 21097 21098 21099 21100 21101 21102 21103 21104 21105 21106 21107 21108 21109 21110 21111 21112 21113 21114 21115 21116 21117 21118 21119 21120 21121 21122 21123 21124 21125 21126 21127 21128 21129 21130 21131 21132 21133 21134 21135 21136 21137 21138 21139 21140 21141 21142 21143 21144 21145 21146 21147 21148 21149 21150 21151 21152 21153 21154 21155 21156 21157 21158 21159 21160 21161 21162 21163 21164 21165 21166 21167 21168 21169 21170 21171 21172 21173 21174 21175 21176 21177 21178 21179 21180 21181 21182 21183 21184 21185 21186 21187 21188 21189 21190 21191 21192 21193 21194 21195 21196 21197 21198 21199 21200 21201 21202 21203 21204 21205 21206 21207 21208 21209 21210 21211 21212 21213 21214 21215 21216 21217 21218 21219 21220 21221 21222 21223 21224 21225 21226 21227 21228 21229 21230 21231 21232 21233 21234 21235 21236 21237 21238 21239 21240 21241 21242 21243 21244 21245 21246 21247 21248 21249 21250 21251 21252 21253 21254 21255 21256 21257 21258 21259 21260 21261 21262 21263 21264 21265 21266 21267 21268 21269 21270 21271 21272 21273 21274 21275 21276 21277 21278 21279 21280 21281 21282 21283 21284 21285 21286 21287 21288 21289 21290 21291 21292 21293 21294 21295 21296 21297 21298 21299 21300 21301 21302 21303 21304 21305 21306 21307 21308 21309 21310 21311 21312 21313 21314 21315 21316 21317 21318 21319 21320 21321 21322 21323 21324 21325 21326 21327 21328 21329 21330 21331 21332 21333 21334 21335 21336 21337 21338 21339 21340 21341 21342 21343 21344 21345 21346 21347 21348 21349 21350 21351 21352 21353 21354 21355 21356 21357 21358 21359 21360 21361 21362 21363 21364 21365 21366 21367 21368 21369 21370 21371 21372 21373 21374 21375 21376 21377 21378 21379 21380 21381 21382 21383 21384 21385 21386 21387 21388 21389 21390 21391 21392 21393 21394 21395 21396 21397 21398 21399 21400 21401 21402 21403 21404 21405 21406 21407 21408 21409 21410 21411 21412 21413 21414 21415 21416 21417 21418 21419 21420 21421 21422 21423 21424 21425 21426 21427 21428 21429 21430 21431 21432 21433 21434 21435 21436 21437 21438 21439 21440 21441 21442 21443 21444 21445 21446 21447 21448 21449 21450 21451 21452 21453 21454 21455 21456 21457 21458 21459 21460 21461 21462 21463 21464 21465 21466 21467 21468 21469 21470 21471 21472 21473 21474 21475 21476 21477 21478 21479 21480 21481 21482 21483 21484 21485 21486 21487 21488 21489 21490 21491 21492 21493 21494 21495 21496 21497 21498 21499 21500 21501 21502 21503 21504 21505 21506 21507 21508 21509 21510 21511 21512 21513 21514 21515 21516 21517 21518 21519 21520 21521 21522 21523 21524 21525 21526 21527 21528 21529 21530 21531 21532 21533 21534 21535 21536 21537 21538 21539 21540 21541 21542 21543 21544 21545 21546 21547 21548 21549 21550 21551 21552 21553 21554 21555 21556 21557 21558 21559 21560 21561 21562 21563 21564 21565 21566 21567 21568 21569 21570 21571 21572 21573 21574 21575 21576 21577 21578 21579 21580 21581 21582 21583 21584 21585 21586 21587 21588 21589 21590 21591 21592 21593 21594 21595 21596 21597 21598 21599 21600 21601 21602 21603 21604 21605 21606 21607 21608 21609 21610 21611 21612 21613 21614 21615 21616 21617 21618 21619 21620 21621 21622 21623 21624 21625 21626 21627 21628 21629 21630 21631 21632 21633 21634 21635 21636 21637 21638 21639 21640 21641 21642 21643 21644 21645 21646 21647 21648 21649 21650 21651 21652 21653 21654 21655 21656 21657 21658 21659 21660 21661 21662 21663 21664 21665 21666 21667 21668 21669 21670 21671 21672 21673 21674 21675 21676 21677 21678 21679 21680 21681 21682 21683 21684 21685 21686 21687 21688 21689 21690 21691 21692 21693 21694 21695 21696 21697 21698 21699 21700 21701 21702 21703 21704 21705 21706 21707 21708 21709 21710 21711 21712 21713 21714 21715 21716 21717 21718 21719 21720 21721 21722 21723 21724 21725 21726 21727 21728 21729 21730 21731 21732 21733 21734 21735 21736 21737 21738 21739 21740 21741 21742 21743 21744 21745 21746 21747 21748 21749 21750 21751 21752 21753 21754 21755 21756 21757 21758 21759 21760 21761 21762 21763 21764 21765 21766 21767 21768 21769 21770 21771 21772 21773 21774 21775 21776 21777 21778 21779 21780 21781 21782 21783 21784 21785 21786 21787 21788 21789 21790 21791 21792 21793 21794 21795 21796 21797 21798 21799 21800 21801 21802 21803 21804 21805 21806 21807 21808 21809 21810 21811 21812 21813 21814 21815 21816 21817 21818 21819 21820 21821 21822 21823 21824 21825 21826 21827 21828 21829 21830 21831 21832 21833 21834 21835 21836 21837 21838 21839 21840 21841 21842 21843 21844 21845 21846 21847 21848 21849 21850 21851 21852 21853 21854 21855 21856 21857 21858 21859 21860 21861 21862 21863 21864 21865 21866 21867 21868 21869 21870 21871 21872 21873 21874 21875 21876 21877 21878 21879 21880 21881 21882 21883 21884 21885 21886 21887 21888 21889 21890 21891 21892 21893 21894 21895 21896 21897 21898 21899 21900 21901 21902 21903 21904 21905 21906 21907 21908 21909 21910 21911 21912 21913 21914 21915 21916 21917 21918 21919 21920 21921 21922 21923 21924 21925 21926 21927 21928 21929 21930 21931 21932 21933 21934 21935 21936 21937 21938 21939 21940 21941 21942 21943 21944 21945 21946 21947 21948 21949 21950 21951 21952 21953 21954 21955 21956 21957 21958 21959 21960 21961 21962 21963 21964 21965 21966 21967 21968 21969 21970 21971 21972 21973 21974 21975 21976 21977 21978 21979 21980 21981 21982 21983 21984 21985 21986 21987 21988 21989 21990 21991 21992 21993 21994 21995 21996 21997 21998 21999 22000 22001 22002 22003 22004 22005 22006 22007 22008 22009 22010 22011 22012 22013 22014 22015 22016 22017 22018 22019 22020 22021 22022 22023 22024 22025 22026 22027 22028 22029 22030 22031 22032 22033 22034 22035 22036 22037 22038 22039 22040 22041 22042 22043 22044 22045 22046 22047 22048 22049 22050 22051 22052 22053 22054 22055 22056 22057 22058 22059 22060 22061 22062 22063 22064 22065 22066 22067 22068 22069 22070 22071 22072 22073 22074 22075 22076 22077 22078 22079 22080 22081 22082 22083 22084 22085 22086 22087 22088 22089 22090 22091 22092 22093 22094 22095 22096 22097 22098 22099 22100 22101 22102 22103 22104 22105 22106 22107 22108 22109 22110 22111 22112 22113 22114 22115 22116 22117 22118 22119 22120 22121 22122 22123 22124 22125 22126 22127 22128 22129 22130 22131 22132 22133 22134 22135 22136 22137 22138 22139 22140 22141 22142 22143 22144 22145 22146 22147 22148 22149 22150 22151 22152 22153 22154 22155 22156 22157 22158 22159 22160 22161 22162 22163 22164 22165 22166 22167 22168 22169 22170 22171 22172 22173 22174 22175 22176 22177 22178 22179 22180 22181 22182 22183 22184 22185 22186 22187 22188 22189 22190 22191 22192 22193 22194 22195 22196 22197 22198 22199 22200 22201 22202 22203 22204 22205 22206 22207 22208 22209 22210 22211 22212 22213 22214 22215 22216 22217 22218 22219 22220 22221 22222 22223 22224 22225 22226 22227 22228 22229 22230 22231 22232 22233 22234 22235 22236 22237 22238 22239 22240 22241 22242 22243 22244 22245 22246 22247 22248 22249 22250 22251 22252 22253 22254 22255 22256 22257 22258 22259 22260 22261 22262 22263 22264 22265 22266 22267 22268 22269 22270 22271 22272 22273 22274 22275 22276 22277 22278 22279 22280 22281 22282 22283 22284 22285 22286 22287 22288 22289 22290 22291 22292 22293 22294 22295 22296 22297 22298 22299 22300 22301 22302 22303 22304 22305 22306 22307 22308 22309 22310 22311 22312 22313 22314 22315 22316 22317 22318 22319 22320 22321 22322 22323 22324 22325 22326 22327 22328 22329 22330 22331 22332 22333 22334 22335 22336 22337 22338 22339 22340 22341 22342 22343 22344 22345 22346 22347 22348 22349 22350 22351 22352 22353 22354 22355 22356 22357 22358 22359 22360 22361 22362 22363 22364 22365 22366 22367 22368 22369 22370 22371 22372 22373 22374 22375 22376 22377 22378 22379 22380 22381 22382 22383 22384 22385 22386 22387 22388 22389 22390 22391 22392 22393 22394 22395 22396 22397 22398 22399 22400 22401 22402 22403 22404 22405 22406 22407 22408 22409 22410 22411 22412 22413 22414 22415 22416 22417 22418 22419 22420 22421 22422 22423 22424 22425 22426 22427 22428 22429 22430 22431 22432 22433 22434 22435 22436 22437 22438 22439 22440 22441 22442 22443 22444 22445 22446 22447 22448 22449 22450 22451 22452 22453 22454 22455 22456 22457 22458 22459 22460 22461 22462 22463 22464 22465 22466 22467 22468 22469 22470 22471 22472 22473 22474 22475 22476 22477 22478 22479 22480 22481 22482 22483 22484 22485 22486 22487 22488 22489 22490 22491 22492 22493 22494 22495 22496 22497 22498 22499 22500 22501 22502 22503 22504 22505 22506 22507 22508 22509 22510 22511 22512 22513 22514 22515 22516 22517 22518 22519 22520 22521 22522 22523 22524 22525 22526 22527 22528 22529 22530 22531 22532 22533 22534 22535 22536 22537 22538 22539 22540 22541 22542 22543 22544 22545 22546 22547 22548 22549 22550 22551 22552 22553 22554 22555 22556 22557 22558 22559 22560 22561 22562 22563 22564 22565 22566 22567 22568 22569 22570 22571 22572 22573 22574 22575 22576 22577 22578 22579 22580 22581 22582 22583 22584 22585 22586 22587 22588 22589 22590 22591 22592 22593 22594 22595 22596 22597 22598 22599 22600 22601 22602 22603 22604 22605 22606 22607 22608 22609 22610 22611 22612 22613 22614 22615 22616 22617 22618 22619 22620 22621 22622 22623 22624 22625 22626 22627 22628 22629 22630 22631 22632 22633 22634 22635 22636 22637 22638 22639 22640 22641 22642 22643 22644 22645 22646 22647 22648 22649 22650 22651 22652 22653 22654 22655 22656 22657 22658 22659 22660 22661 22662 22663 22664 22665 22666 22667 22668 22669 22670 22671 22672 22673 22674 22675 22676 22677 22678 22679 22680 22681 22682 22683 22684 22685 22686 22687 22688 22689 22690 22691 22692 22693 22694 22695 22696 22697 22698 22699 22700 22701 22702 22703 22704 22705 22706 22707 22708 22709 22710 22711 22712 22713 22714 22715 22716 22717 22718 22719 22720 22721 22722 22723 22724 22725 22726 22727 22728 22729 22730 22731 22732 22733 22734 22735 22736 22737 22738 22739 22740 22741 22742 22743 22744 22745 22746 22747 22748 22749 22750 22751 22752 22753 22754 22755 22756 22757 22758 22759 22760 22761 22762 22763 22764 22765 22766 22767 22768 22769 22770 22771 22772 22773 22774 22775 22776 22777 22778 22779 22780 22781 22782 22783 22784 22785 22786 22787 22788 22789 22790 22791 22792 22793 22794 22795 22796 22797 22798 22799 22800 22801 22802 22803 22804 22805 22806 22807 22808 22809 22810 22811 22812 22813 22814 22815 22816 22817 22818 22819 22820 22821 22822 22823 22824 22825 22826 22827 22828 22829 22830 22831 22832 22833 22834 22835 22836 22837 22838 22839 22840 22841 22842 22843 22844 22845 22846 22847 22848 22849 22850 22851 22852 22853 22854 22855 22856 22857 22858 22859 22860 22861 22862 22863 22864 22865 22866 22867 22868 22869 22870 22871 22872 22873 22874 22875 22876 22877 22878 22879 22880 22881 22882 22883 22884 22885 22886 22887 22888 22889 22890 22891 22892 22893 22894 22895 22896 22897 22898 22899 22900 22901 22902 22903 22904 22905 22906 22907 22908 22909 22910 22911 22912 22913 22914 22915 22916 22917 22918 22919 22920 22921 22922 22923 22924 22925 22926 22927 22928 22929 22930 22931 22932 22933 22934 22935 22936 22937 22938 22939 22940 22941 22942 22943 22944 22945 22946 22947 22948 22949 22950 22951 22952 22953 22954 22955 22956 22957 22958 22959 22960 22961 22962 22963 22964 22965 22966 22967 22968 22969 22970 22971 22972 22973 22974 22975 22976 22977 22978 22979 22980 22981 22982 22983 22984 22985 22986 22987 22988 22989 22990 22991 22992 22993 22994 22995 22996 22997 22998 22999 23000 23001 23002 23003 23004 23005 23006 23007 23008 23009 23010 23011 23012 23013 23014 23015 23016 23017 23018 23019 23020 23021 23022 23023 23024 23025 23026 23027 23028 23029 23030 23031 23032 23033 23034 23035 23036 23037 23038 23039 23040 23041 23042 23043 23044 23045 23046 23047 23048 23049 23050 23051 23052 23053 23054 23055 23056 23057 23058 23059 23060 23061 23062 23063 23064 23065 23066 23067 23068 23069 23070 23071 23072 23073 23074 23075 23076 23077 23078 23079 23080 23081 23082 23083 23084 23085 23086 23087 23088 23089 23090 23091 23092 23093 23094 23095 23096 23097 23098 23099 23100 23101 23102 23103 23104 23105 23106 23107 23108 23109 23110 23111 23112 23113 23114 23115 23116 23117 23118 23119 23120 23121 23122 23123 23124 23125 23126 23127 23128 23129 23130 23131 23132 23133 23134 23135 23136 23137 23138 23139 23140 23141 23142 23143 23144 23145 23146 23147 23148 23149 23150 23151 23152 23153 23154 23155 23156 23157 23158 23159 23160 23161 23162 23163 23164 23165 23166 23167 23168 23169 23170 23171 23172 23173 23174 23175 23176 23177 23178 23179 23180 23181 23182 23183 23184 23185 23186 23187 23188 23189 23190 23191 23192 23193 23194 23195 23196 23197 23198 23199 23200 23201 23202 23203 23204 23205 23206 23207 23208 23209 23210 23211 23212 23213 23214 23215 23216 23217 23218 23219 23220 23221 23222 23223 23224 23225 23226 23227 23228 23229 23230 23231 23232 23233 23234 23235 23236 23237 23238 23239 23240 23241 23242 23243 23244 23245 23246 23247 23248 23249 23250 23251 23252 23253 23254 23255 23256 23257 23258 23259 23260 23261 23262 23263 23264 23265 23266 23267 23268 23269 23270 23271 23272 23273 23274 23275 23276 23277 23278 23279 23280 23281 23282 23283 23284 23285 23286 23287 23288 23289 23290 23291 23292 23293 23294 23295 23296 23297 23298 23299 23300 23301 23302 23303 23304 23305 23306 23307 23308 23309 23310 23311 23312 23313 23314 23315 23316 23317 23318 23319 23320 23321 23322 23323 23324 23325 23326 23327 23328 23329 23330 23331 23332 23333 23334 23335 23336 23337 23338 23339 23340 23341 23342 23343 23344 23345 23346 23347 23348 23349 23350 23351 23352 23353 23354 23355 23356 23357 23358 23359 23360 23361 23362 23363 23364 23365 23366 23367 23368 23369 23370 23371 23372 23373 23374 23375 23376 23377 23378 23379 23380 23381 23382 23383 23384 23385 23386 23387 23388 23389 23390 23391 23392 23393 23394 23395 23396 23397 23398 23399 23400 23401 23402 23403 23404 23405 23406 23407 23408 23409 23410 23411 23412 23413 23414 23415 23416 23417 23418 23419 23420 23421 23422 23423 23424 23425 23426 23427 23428 23429 23430 23431 23432 23433 23434 23435 23436 23437 23438 23439 23440 23441 23442 23443 23444 23445 23446 23447 23448 23449 23450 23451 23452 23453 23454 23455 23456 23457 23458 23459 23460 23461 23462 23463 23464 23465 23466 23467 23468 23469 23470 23471 23472 23473 23474 23475 23476 23477 23478 23479 23480 23481 23482 23483 23484 23485 23486 23487 23488 23489 23490 23491 23492 23493 23494 23495 23496 23497 23498 23499 23500 23501 23502 23503 23504 23505 23506 23507 23508 23509 23510 23511 23512 23513 23514 23515 23516 23517 23518 23519 23520 23521 23522 23523 23524 23525 23526 23527 23528 23529 23530 23531 23532 23533 23534 23535 23536 23537 23538 23539 23540 23541 23542 23543 23544 23545 23546 23547 23548 23549 23550 23551 23552 23553 23554 23555 23556 23557 23558 23559 23560 23561 23562 23563 23564 23565 23566 23567 23568 23569 23570 23571 23572 23573 23574 23575 23576 23577 23578 23579 23580 23581 23582 23583 23584 23585 23586 23587 23588 23589 23590 23591 23592 23593 23594 23595 23596 23597 23598 23599 23600 23601 23602 23603 23604 23605 23606 23607 23608 23609 23610 23611 23612 23613 23614 23615 23616 23617 23618 23619 23620 23621 23622 23623 23624 23625 23626 23627 23628 23629 23630 23631 23632 23633 23634 23635 23636 23637 23638 23639 23640 23641 23642 23643 23644 23645 23646 23647 23648 23649 23650 23651 23652 23653 23654 23655 23656 23657 23658 23659 23660 23661 23662 23663 23664 23665 23666 23667 23668 23669 23670 23671 23672 23673 23674 23675 23676 23677 23678 23679 23680 23681 23682 23683 23684 23685 23686 23687 23688 23689 23690 23691 23692 23693 23694 23695 23696 23697 23698 23699 23700 23701 23702 23703 23704 23705 23706 23707 23708 23709 23710 23711 23712 23713 23714 23715 23716 23717 23718 23719 23720 23721 23722 23723 23724 23725 23726 23727 23728 23729 23730 23731 23732 23733 23734 23735 23736 23737 23738 23739 23740 23741 23742 23743 23744 23745 23746 23747 23748 23749 23750 23751 23752 23753 23754 23755 23756 23757 23758 23759 23760 23761 23762 23763 23764 23765 23766 23767 23768 23769 23770 23771 23772 23773 23774 23775 23776 23777 23778 23779 23780 23781 23782 23783 23784 23785 23786 23787 23788 23789 23790 23791 23792 23793 23794 23795 23796 23797 23798 23799 23800 23801 23802 23803 23804 23805 23806 23807 23808 23809 23810 23811 23812 23813 23814 23815 23816 23817 23818 23819 23820 23821 23822 23823 23824 23825 23826 23827 23828 23829 23830 23831 23832 23833 23834 23835 23836 23837 23838 23839 23840 23841 23842 23843 23844 23845 23846 23847 23848 23849 23850 23851 23852 23853 23854 23855 23856 23857 23858 23859 23860 23861 23862 23863 23864 23865 23866 23867 23868 23869 23870 23871 23872 23873 23874 23875 23876 23877 23878 23879 23880 23881 23882 23883 23884 23885 23886 23887 23888 23889 23890 23891 23892 23893 23894 23895 23896 23897 23898 23899 23900 23901 23902 23903 23904 23905 23906 23907 23908 23909 23910 23911 23912 23913 23914 23915 23916 23917 23918 23919 23920 23921 23922 23923 23924 23925 23926 23927 23928 23929 23930 23931 23932 23933 23934 23935 23936 23937 23938 23939 23940 23941 23942 23943 23944 23945 23946 23947 23948 23949 23950 23951 23952 23953 23954 23955 23956 23957 23958 23959 23960 23961 23962 23963 23964 23965 23966 23967 23968 23969 23970 23971 23972 23973 23974 23975 23976 23977 23978 23979 23980 23981 23982 23983 23984 23985 23986 23987 23988 23989 23990 23991 23992 23993 23994 23995 23996 23997 23998 23999 24000 24001 24002 24003 24004 24005 24006 24007 24008 24009 24010 24011 24012 24013 24014 24015 24016 24017 24018 24019 24020 24021 24022 24023 24024 24025 24026 24027 24028 24029 24030 24031 24032 24033 24034 24035 24036 24037 24038 24039 24040 24041 24042 24043 24044 24045 24046 24047 24048 24049 24050 24051 24052 24053 24054 24055 24056 24057 24058 24059 24060 24061 24062 24063 24064 24065 24066 24067 24068 24069 24070 24071 24072 24073 24074 24075 24076 24077 24078 24079 24080 24081 24082 24083 24084 24085 24086 24087 24088 24089 24090 24091 24092 24093 24094 24095 24096 24097 24098 24099 24100 24101 24102 24103 24104 24105 24106 24107 24108 24109 24110 24111 24112 24113 24114 24115 24116 24117 24118 24119 24120 24121 24122 24123 24124 24125 24126 24127 24128 24129 24130 24131 24132 24133 24134 24135 24136 24137 24138 24139 24140 24141 24142 24143 24144 24145 24146 24147 24148 24149 24150 24151 24152 24153 24154 24155 24156 24157 24158 24159 24160 24161 24162 24163 24164 24165 24166 24167 24168 24169 24170 24171 24172 24173 24174 24175 24176 24177 24178 24179 24180 24181 24182 24183 24184 24185 24186 24187 24188 24189 24190 24191 24192 24193 24194 24195 24196 24197 24198 24199 24200 24201 24202 24203 24204 24205 24206 24207 24208 24209 24210 24211 24212 24213 24214 24215 24216 24217 24218 24219 24220 24221 24222 24223 24224 24225 24226 24227 24228 24229 24230 24231 24232 24233 24234 24235 24236 24237 24238 24239 24240 24241 24242 24243 24244 24245 24246 24247 24248 24249 24250 24251 24252 24253 24254 24255 24256 24257 24258 24259 24260 24261 24262 24263 24264 24265 24266 24267 24268 24269 24270 24271 24272 24273 24274 24275 24276 24277 24278 24279 24280 24281 24282 24283 24284 24285 24286 24287 24288 24289 24290 24291 24292 24293 24294 24295 24296 24297 24298 24299 24300 24301 24302 24303 24304 24305 24306 24307 24308 24309 24310 24311 24312 24313 24314 24315 24316 24317 24318 24319 24320 24321 24322 24323 24324 24325 24326 24327 24328 24329 24330 24331 24332 24333 24334 24335 24336 24337 24338 24339 24340 24341 24342 24343 24344 24345 24346 24347 24348 24349 24350 24351 24352 24353 24354 24355 24356 24357 24358 24359 24360 24361 24362 24363 24364 24365 24366 24367 24368 24369 24370 24371 24372 24373 24374 24375 24376 24377 24378 24379 24380 24381 24382 24383 24384 24385 24386 24387 24388 24389 24390 24391 24392 24393 24394 24395 24396 24397 24398 24399 24400 24401 24402 24403 24404 24405 24406 24407 24408 24409 24410 24411 24412 24413 24414 24415 24416 24417 24418 24419 24420 24421 24422 24423 24424 24425 24426 24427 24428 24429 24430 24431 24432 24433 24434 24435 24436 24437 24438 24439 24440 24441 24442 24443 24444 24445 24446 24447 24448 24449 24450 24451 24452 24453 24454 24455 24456 24457 24458 24459 24460 24461 24462 24463 24464 24465 24466 24467 24468 24469 24470 24471 24472 24473 24474 24475 24476 24477 24478 24479 24480 24481 24482 24483 24484 24485 24486 24487 24488 24489 24490 24491 24492 24493 24494 24495 24496 24497 24498 24499 24500 24501 24502 24503 24504 24505 24506 24507 24508 24509 24510 24511 24512 24513 24514 24515 24516 24517 24518 24519 24520 24521 24522 24523 24524 24525 24526 24527 24528 24529 24530 24531 24532 24533 24534 24535 24536 24537 24538 24539 24540 24541 24542 24543 24544 24545 24546 24547 24548 24549 24550 24551 24552 24553 24554 24555 24556 24557 24558 24559 24560 24561 24562 24563 24564 24565 24566 24567 24568 24569 24570 24571 24572 24573 24574 24575 24576 24577 24578 24579 24580 24581 24582 24583 24584 24585 24586 24587 24588 24589 24590 24591 24592 24593 24594 24595 24596 24597 24598 24599 24600 24601 24602 24603 24604 24605 24606 24607 24608 24609 24610 24611 24612 24613 24614 24615 24616 24617 24618 24619 24620 24621 24622 24623 24624 24625 24626 24627 24628 24629 24630 24631 24632 24633 24634 24635 24636 24637 24638 24639 24640 24641 24642 24643 24644 24645 24646 24647 24648 24649 24650 24651 24652 24653 24654 24655 24656 24657 24658 24659 24660 24661 24662 24663 24664 24665 24666 24667 24668 24669 24670 24671 24672 24673 24674 24675 24676 24677 24678 24679 24680 24681 24682 24683 24684 24685 24686 24687 24688 24689 24690 24691 24692 24693 24694 24695 24696 24697 24698 24699 24700 24701 24702 24703 24704 24705 24706 24707 24708 24709 24710 24711 24712 24713 24714 24715 24716 24717 24718 24719 24720 24721 24722 24723 24724 24725 24726 24727 24728 24729 24730 24731 24732 24733 24734 24735 24736 24737 24738 24739 24740 24741 24742 24743 24744 24745 24746 24747 24748 24749 24750 24751 24752 24753 24754 24755 24756 24757 24758 24759 24760 24761 24762 24763 24764 24765 24766 24767 24768 24769 24770 24771 24772 24773 24774 24775 24776 24777 24778 24779 24780 24781 24782 24783 24784 24785 24786 24787 24788 24789 24790 24791 24792 24793 24794 24795 24796 24797 24798 24799 24800 24801 24802 24803 24804 24805 24806 24807 24808 24809 24810 24811 24812 24813 24814 24815 24816 24817 24818 24819 24820 24821 24822 24823 24824 24825 24826 24827 24828 24829 24830 24831 24832 24833 24834 24835 24836 24837 24838 24839 24840 24841 24842 24843 24844 24845 24846 24847 24848 24849 24850 24851 24852 24853 24854 24855 24856 24857 24858 24859 24860 24861 24862 24863 24864 24865 24866 24867 24868 24869 24870 24871 24872 24873 24874 24875 24876 24877 24878 24879 24880 24881 24882 24883 24884 24885 24886 24887 24888 24889 24890 24891 24892 24893 24894 24895 24896 24897 24898 24899 24900 24901 24902 24903 24904 24905 24906 24907 24908 24909 24910 24911 24912 24913 24914 24915 24916 24917 24918 24919 24920 24921 24922 24923 24924 24925 24926 24927 24928 24929 24930 24931 24932 24933 24934 24935 24936 24937 24938 24939 24940 24941 24942 24943 24944 24945 24946 24947 24948 24949 24950 24951 24952 24953 24954 24955 24956 24957 24958 24959 24960 24961 24962 24963 24964 24965 24966 24967 24968 24969 24970 24971 24972 24973 24974 24975 24976 24977 24978 24979 24980 24981 24982 24983 24984 24985 24986 24987 24988 24989 24990 24991 24992 24993 24994 24995 24996 24997 24998 24999 25000 25001 25002 25003 25004 25005 25006 25007 25008 25009 25010 25011 25012 25013 25014 25015 25016 25017 25018 25019 25020 25021 25022 25023 25024 25025 25026 25027 25028 25029 25030 25031 25032 25033 25034 25035 25036 25037 25038 25039 25040 25041 25042 25043 25044 25045 25046 25047 25048 25049 25050 25051 25052 25053 25054 25055 25056 25057 25058 25059 25060 25061 25062 25063 25064 25065 25066 25067 25068 25069 25070 25071 25072 25073 25074 25075 25076 25077 25078 25079 25080 25081 25082 25083 25084 25085 25086 25087 25088 25089 25090 25091 25092 25093 25094 25095 25096 25097 25098 25099 25100 25101 25102 25103 25104 25105 25106 25107 25108 25109 25110 25111 25112 25113 25114 25115 25116 25117 25118 25119 25120 25121 25122 25123 25124 25125 25126 25127 25128 25129 25130 25131 25132 25133 25134 25135 25136 25137 25138 25139 25140 25141 25142 25143 25144 25145 25146 25147 25148 25149 25150 25151 25152 25153 25154 25155 25156 25157 25158 25159 25160 25161 25162 25163 25164 25165 25166 25167 25168 25169 25170 25171 25172 25173 25174 25175 25176 25177 25178 25179 25180 25181 25182 25183 25184 25185 25186 25187 25188 25189 25190 25191 25192 25193 25194 25195 25196 25197 25198 25199 25200 25201 25202 25203 25204 25205 25206 25207 25208 25209 25210 25211 25212 25213 25214 25215 25216 25217 25218 25219 25220 25221 25222 25223 25224 25225 25226 25227 25228 25229 25230 25231 25232 25233 25234 25235 25236 25237 25238 25239 25240 25241 25242 25243 25244 25245 25246 25247 25248 25249 25250 25251 25252 25253 25254 25255 25256 25257 25258 25259 25260 25261 25262 25263 25264 25265 25266 25267 25268 25269 25270 25271 25272 25273 25274 25275 25276 25277 25278 25279 25280 25281 25282 25283 25284 25285 25286 25287 25288 25289 25290 25291 25292 25293 25294 25295 25296 25297 25298 25299 25300 25301 25302 25303 25304 25305 25306 25307 25308 25309 25310 25311 25312 25313 25314 25315 25316 25317 25318 25319 25320 25321 25322 25323 25324 25325 25326 25327 25328 25329 25330 25331 25332 25333 25334 25335 25336 25337 25338 25339 25340 25341 25342 25343 25344 25345 25346 25347 25348 25349 25350 25351 25352 25353 25354 25355 25356 25357 25358 25359 25360 25361 25362 25363 25364 25365 25366 25367 25368 25369 25370 25371 25372 25373 25374 25375 25376 25377 25378 25379 25380 25381 25382 25383 25384 25385 25386 25387 25388 25389 25390 25391 25392 25393 25394 25395 25396 25397 25398 25399 25400 25401 25402 25403 25404 25405 25406 25407 25408 25409 25410 25411 25412 25413 25414 25415 25416 25417 25418 25419 25420 25421 25422 25423 25424 25425 25426 25427 25428 25429 25430 25431 25432 25433 25434 25435 25436 25437 25438 25439 25440 25441 25442 25443 25444 25445 25446 25447 25448 25449 25450 25451 25452 25453 25454 25455 25456 25457 25458 25459 25460 25461 25462 25463 25464 25465 25466 25467 25468 25469 25470 25471 25472 25473 25474 25475 25476 25477 25478 25479 25480 25481 25482 25483 25484 25485 25486 25487 25488 25489 25490 25491 25492 25493 25494 25495 25496 25497 25498 25499 25500 25501 25502 25503 25504 25505 25506 25507 25508 25509 25510 25511 25512 25513 25514 25515 25516 25517 25518 25519 25520 25521 25522 25523 25524 25525 25526 25527 25528 25529 25530 25531 25532 25533 25534 25535 25536 25537 25538 25539 25540 25541 25542 25543 25544 25545 25546 25547 25548 25549 25550 25551 25552 25553 25554 25555 25556 25557 25558 25559 25560 25561 25562 25563 25564 25565 25566 25567 25568 25569 25570 25571 25572 25573 25574 25575 25576 25577 25578 25579 25580 25581 25582 25583 25584 25585 25586 25587 25588 25589 25590 25591 25592 25593 25594 25595 25596 25597 25598 25599 25600 25601 25602 25603 25604 25605 25606 25607 25608 25609 25610 25611 25612 25613 25614 25615 25616 25617 25618 25619 25620 25621 25622 25623 25624 25625 25626 25627 25628 25629 25630 25631 25632 25633 25634 25635 25636 25637 25638 25639 25640 25641 25642 25643 25644 25645 25646 25647 25648 25649 25650 25651 25652 25653 25654 25655 25656 25657 25658 25659 25660 25661 25662 25663 25664 25665 25666 25667 25668 25669 25670 25671 25672 25673 25674 25675 25676 25677 25678 25679 25680 25681 25682 25683 25684 25685 25686 25687 25688 25689 25690 25691 25692 25693 25694 25695 25696 25697 25698 25699 25700 25701 25702 25703 25704 25705 25706 25707 25708 25709 25710 25711 25712 25713 25714 25715 25716 25717 25718 25719 25720 25721 25722 25723 25724 25725 25726 25727 25728 25729 25730 25731 25732 25733 25734 25735 25736 25737 25738 25739 25740 25741 25742 25743 25744 25745 25746 25747 25748 25749 25750 25751 25752 25753 25754 25755 25756 25757 25758 25759 25760 25761 25762 25763 25764 25765 25766 25767 25768 25769 25770 25771 25772 25773 25774 25775 25776 25777 25778 25779 25780 25781 25782 25783 25784 25785 25786 25787 25788 25789 25790 25791 25792 25793 25794 25795 25796 25797 25798 25799 25800 25801 25802 25803 25804 25805 25806 25807 25808 25809 25810 25811 25812 25813 25814 25815 25816 25817 25818 25819 25820 25821 25822 25823 25824 25825 25826 25827 25828 25829 25830 25831 25832 25833 25834 25835 25836 25837 25838 25839 25840 25841 25842 25843 25844 25845 25846 25847 25848 25849 25850 25851 25852 25853 25854 25855 25856 25857 25858 25859 25860 25861 25862 25863 25864 25865 25866 25867 25868 25869 25870 25871 25872 25873 25874 25875 25876 25877 25878 25879 25880 25881 25882 25883 25884 25885 25886 25887 25888 25889 25890 25891 25892 25893 25894 25895 25896 25897 25898 25899 25900 25901 25902 25903 25904 25905 25906 25907 25908 25909 25910 25911 25912 25913 25914 25915 25916 25917 25918 25919 25920 25921 25922 25923 25924 25925 25926 25927 25928 25929 25930 25931 25932 25933 25934 25935 25936 25937 25938 25939 25940 25941 25942 25943 25944 25945 25946 25947 25948 25949 25950 25951 25952 25953 25954 25955 25956 25957 25958 25959 25960 25961 25962 25963 25964 25965 25966 25967 25968 25969 25970 25971 25972 25973 25974 25975 25976 25977 25978 25979 25980 25981 25982 25983 25984 25985 25986 25987 25988 25989 25990 25991 25992 25993 25994 25995 25996 25997 25998 25999 26000 26001 26002 26003 26004 26005 26006 26007 26008 26009 26010 26011 26012 26013 26014 26015 26016 26017 26018 26019 26020 26021 26022 26023 26024 26025 26026 26027 26028 26029 26030 26031 26032 26033 26034 26035 26036 26037 26038 26039 26040 26041 26042 26043 26044 26045 26046 26047 26048 26049 26050 26051 26052 26053 26054 26055 26056 26057 26058 26059 26060 26061 26062 26063 26064 26065 26066 26067 26068 26069 26070 26071 26072 26073 26074 26075 26076 26077 26078 26079 26080 26081 26082 26083 26084 26085 26086 26087 26088 26089 26090 26091 26092 26093 26094 26095 26096 26097 26098 26099 26100 26101 26102 26103 26104 26105 26106 26107 26108 26109 26110 26111 26112 26113 26114 26115 26116 26117 26118 26119 26120 26121 26122 26123 26124 26125 26126 26127 26128 26129 26130 26131 26132 26133 26134 26135 26136 26137 26138 26139 26140 26141 26142 26143 26144 26145 26146 26147 26148 26149 26150 26151 26152 26153 26154 26155 26156 26157 26158 26159 26160 26161 26162 26163 26164 26165 26166 26167 26168 26169 26170 26171 26172 26173 26174 26175 26176 26177 26178 26179 26180 26181 26182 26183 26184 26185 26186 26187 26188 26189 26190 26191 26192 26193 26194 26195 26196 26197 26198 26199 26200 26201 26202 26203 26204 26205 26206 26207 26208 26209 26210 26211 26212 26213 26214 26215 26216 26217 26218 26219 26220 26221 26222 26223 26224 26225 26226 26227 26228 26229 26230 26231 26232 26233 26234 26235 26236 26237 26238 26239 26240 26241 26242 26243 26244 26245 26246 26247 26248 26249 26250 26251 26252 26253 26254 26255 26256 26257 26258 26259 26260 26261 26262 26263 26264 26265 26266 26267 26268 26269 26270 26271 26272 26273 26274 26275 26276 26277 26278 26279 26280 26281 26282 26283 26284 26285 26286 26287 26288 26289 26290 26291 26292 26293 26294 26295 26296 26297 26298 26299 26300 26301 26302 26303 26304 26305 26306 26307 26308 26309 26310 26311 26312 26313 26314 26315 26316 26317 26318 26319 26320 26321 26322 26323 26324 26325 26326 26327 26328 26329 26330 26331 26332 26333 26334 26335 26336 26337 26338 26339 26340 26341 26342 26343 26344 26345 26346 26347 26348 26349 26350 26351 26352 26353 26354 26355 26356 26357 26358 26359 26360 26361 26362 26363 26364 26365 26366 26367 26368 26369 26370 26371 26372 26373 26374 26375 26376 26377 26378 26379 26380 26381 26382 26383 26384 26385 26386 26387 26388 26389 26390 26391 26392 26393 26394 26395 26396 26397 26398 26399 26400 26401 26402 26403 26404 26405 26406 26407 26408 26409 26410 26411 26412 26413 26414 26415 26416 26417 26418 26419 26420 26421 26422 26423 26424 26425 26426 26427 26428 26429 26430 26431 26432 26433 26434 26435 26436 26437 26438 26439 26440 26441 26442 26443 26444 26445 26446 26447 26448 26449 26450 26451 26452 26453 26454 26455 26456 26457 26458 26459 26460 26461 26462 26463 26464 26465 26466 26467 26468 26469 26470 26471 26472 26473 26474 26475 26476 26477 26478 26479 26480 26481 26482 26483 26484 26485 26486 26487 26488 26489 26490 26491 26492 26493 26494 26495 26496 26497 26498 26499 26500 26501 26502 26503 26504 26505 26506 26507 26508 26509 26510 26511 26512 26513 26514 26515 26516 26517 26518 26519 26520 26521 26522 26523 26524 26525 26526 26527 26528 26529 26530 26531 26532 26533 26534 26535 26536 26537 26538 26539 26540 26541 26542 26543 26544 26545 26546 26547 26548 26549 26550 26551 26552 26553 26554 26555 26556 26557 26558 26559 26560 26561 26562 26563 26564 26565 26566 26567 26568 26569 26570 26571 26572 26573 26574 26575 26576 26577 26578 26579 26580 26581 26582 26583 26584 26585 26586 26587 26588 26589 26590 26591 26592 26593 26594 26595 26596 26597 26598 26599 26600 26601 26602 26603 26604 26605 26606 26607 26608 26609 26610 26611 26612 26613 26614 26615 26616 26617 26618 26619 26620 26621 26622 26623 26624 26625 26626 26627 26628 26629 26630 26631 26632 26633 26634 26635 26636 26637 26638 26639 26640 26641 26642 26643 26644 26645 26646 26647 26648 26649 26650 26651 26652 26653 26654 26655 26656 26657 26658 26659 26660 26661 26662 26663 26664 26665 26666 26667 26668 26669 26670 26671 26672 26673 26674 26675 26676 26677 26678 26679 26680 26681 26682 26683 26684 26685 26686 26687 26688 26689 26690 26691 26692 26693 26694 26695 26696 26697 26698 26699 26700 26701 26702 26703 26704 26705 26706 26707 26708 26709 26710 26711 26712 26713 26714 26715 26716 26717 26718 26719 26720 26721 26722 26723 26724 26725 26726 26727 26728 26729 26730 26731 26732 26733 26734 26735 26736 26737 26738 26739 26740 26741 26742 26743 26744 26745 26746 26747 26748 26749 26750 26751 26752 26753 26754 26755 26756 26757 26758 26759 26760 26761 26762 26763 26764 26765 26766 26767 26768 26769 26770 26771 26772 26773 26774 26775 26776 26777 26778 26779 26780 26781 26782 26783 26784 26785 26786 26787 26788 26789 26790 26791 26792 26793 26794 26795 26796 26797 26798 26799 26800 26801 26802 26803 26804 26805 26806 26807 26808 26809 26810 26811 26812 26813 26814 26815 26816 26817 26818 26819 26820 26821 26822 26823 26824 26825 26826 26827 26828 26829 26830 26831 26832 26833 26834 26835 26836 26837 26838 26839 26840 26841 26842 26843 26844 26845 26846 26847 26848 26849 26850 26851 26852 26853 26854 26855 26856 26857 26858 26859 26860 26861 26862 26863 26864 26865 26866 26867 26868 26869 26870 26871 26872 26873 26874 26875 26876 26877 26878 26879 26880 26881 26882 26883 26884 26885 26886 26887 26888 26889 26890 26891 26892 26893 26894 26895 26896 26897 26898 26899 26900 26901 26902 26903 26904 26905 26906 26907 26908 26909 26910 26911 26912 26913 26914 26915 26916 26917 26918 26919 26920 26921 26922 26923 26924 26925 26926 26927 26928 26929 26930 26931 26932 26933 26934 26935 26936 26937 26938 26939 26940 26941 26942 26943 26944 26945 26946 26947 26948 26949 26950 26951 26952 26953 26954 26955 26956 26957 26958 26959 26960 26961 26962 26963 26964 26965 26966 26967 26968 26969 26970 26971 26972 26973 26974 26975 26976 26977 26978 26979 26980 26981 26982 26983 26984 26985 26986 26987 26988 26989 26990 26991 26992 26993 26994 26995 26996 26997 26998 26999 27000 27001 27002 27003 27004 27005 27006 27007 27008 27009 27010 27011 27012 27013 27014 27015 27016 27017 27018 27019 27020 27021 27022 27023 27024 27025 27026 27027 27028 27029 27030 27031 27032 27033 27034 27035 27036 27037 27038 27039 27040 27041 27042 27043 27044 27045 27046 27047 27048 27049 27050 27051 27052 27053 27054 27055 27056 27057 27058 27059 27060 27061 27062 27063 27064 27065 27066 27067 27068 27069 27070 27071 27072 27073 27074 27075 27076 27077 27078 27079 27080 27081 27082 27083 27084 27085 27086 27087 27088 27089 27090 27091 27092 27093 27094 27095 27096 27097 27098 27099 27100 27101 27102 27103 27104 27105 27106 27107 27108 27109 27110 27111 27112 27113 27114 27115 27116 27117 27118 27119 27120 27121 27122 27123 27124 27125 27126 27127 27128 27129 27130 27131 27132 27133 27134 27135 27136 27137 27138 27139 27140 27141 27142 27143 27144 27145 27146 27147 27148 27149 27150 27151 27152 27153 27154 27155 27156 27157 27158 27159 27160 27161 27162 27163 27164 27165 27166 27167 27168 27169 27170 27171 27172 27173 27174 27175 27176 27177 27178 27179 27180 27181 27182 27183 27184 27185 27186 27187 27188 27189 27190 27191 27192 27193 27194 27195 27196 27197 27198 27199 27200 27201 27202 27203 27204 27205 27206 27207 27208 27209 27210 27211 27212 27213 27214 27215 27216 27217 27218 27219 27220 27221 27222 27223 27224 27225 27226 27227 27228 27229 27230 27231 27232 27233 27234 27235 27236 27237 27238 27239 27240 27241 27242 27243 27244 27245 27246 27247 27248 27249 27250 27251 27252 27253 27254 27255 27256 27257 27258 27259 27260 27261 27262 27263 27264 27265 27266 27267 27268 27269 27270 27271 27272 27273 27274 27275 27276 27277 27278 27279 27280 27281 27282 27283 27284 27285 27286 27287 27288 27289 27290 27291 27292 27293 27294 27295 27296 27297 27298 27299 27300 27301 27302 27303 27304 27305 27306 27307 27308 27309 27310 27311 27312 27313 27314 27315 27316 27317 27318 27319 27320 27321 27322 27323 27324 27325 27326 27327 27328 27329 27330 27331 27332 27333 27334 27335 27336 27337 27338 27339 27340 27341 27342 27343 27344 27345 27346 27347 27348 27349 27350 27351 27352 27353 27354 27355 27356 27357 27358 27359 27360 27361 27362 27363 27364 27365 27366 27367 27368 27369 27370 27371 27372 27373 27374 27375 27376 27377 27378 27379 27380 27381 27382 27383 27384 27385 27386 27387 27388 27389 27390 27391 27392 27393 27394 27395 27396 27397 27398 27399 27400 27401 27402 27403 27404 27405 27406 27407 27408 27409 27410 27411 27412 27413 27414 27415 27416 27417 27418 27419 27420 27421 27422 27423 27424 27425 27426 27427 27428 27429 27430 27431 27432 27433 27434 27435 27436 27437 27438 27439 27440 27441 27442 27443 27444 27445 27446 27447 27448 27449 27450 27451 27452 27453 27454 27455 27456 27457 27458 27459 27460 27461 27462 27463 27464 27465 27466 27467 27468 27469 27470 27471 27472 27473 27474 27475 27476 27477 27478 27479 27480 27481 27482 27483 27484 27485 27486 27487 27488 27489 27490 27491 27492 27493 27494 27495 27496 27497 27498 27499 27500 27501 27502 27503 27504 27505 27506 27507 27508 27509 27510 27511 27512 27513 27514 27515 27516 27517 27518 27519 27520 27521 27522 27523 27524 27525 27526 27527 27528 27529 27530 27531 27532 27533 27534 27535 27536 27537 27538 27539 27540 27541 27542 27543 27544 27545 27546 27547 27548 27549 27550 27551 27552 27553 27554 27555 27556 27557 27558 27559 27560 27561 27562 27563 27564 27565 27566 27567 27568 27569 27570 27571 27572 27573 27574 27575 27576 27577 27578 27579 27580 27581 27582 27583 27584 27585 27586 27587 27588 27589 27590 27591 27592 27593 27594 27595 27596 27597 27598 27599 27600 27601 27602 27603 27604 27605 27606 27607 27608 27609 27610 27611 27612 27613 27614 27615 27616 27617 27618 27619 27620 27621 27622 27623 27624 27625 27626 27627 27628 27629 27630 27631 27632 27633 27634 27635 27636 27637 27638 27639 27640 27641 27642 27643 27644 27645 27646 27647 27648 27649 27650 27651 27652 27653 27654 27655 27656 27657 27658 27659 27660 27661 27662 27663 27664 27665 27666 27667 27668 27669 27670 27671 27672 27673 27674 27675 27676 27677 27678 27679 27680 27681 27682 27683 27684 27685 27686 27687 27688 27689 27690 27691 27692 27693 27694 27695 27696 27697 27698 27699 27700 27701 27702 27703 27704 27705 27706 27707 27708 27709 27710 27711 27712 27713 27714 27715 27716 27717 27718 27719 27720 27721 27722 27723 27724 27725 27726 27727 27728 27729 27730 27731 27732 27733 27734 27735 27736 27737 27738 27739 27740 27741 27742 27743 27744 27745 27746 27747 27748 27749 27750 27751 27752 27753 27754 27755 27756 27757 27758 27759 27760 27761 27762 27763 27764 27765 27766 27767 27768 27769 27770 27771 27772 27773 27774 27775 27776 27777 27778 27779 27780 27781 27782 27783 27784 27785 27786 27787 27788 27789 27790 27791 27792 27793 27794 27795 27796 27797 27798 27799 27800 27801 27802 27803 27804 27805 27806 27807 27808 27809 27810 27811 27812 27813 27814 27815 27816 27817 27818 27819 27820 27821 27822 27823 27824 27825 27826 27827 27828 27829 27830 27831 27832 27833 27834 27835 27836 27837 27838 27839 27840 27841 27842 27843 27844 27845 27846 27847 27848 27849 27850 27851 27852 27853 27854 27855 27856 27857 27858 27859 27860 27861 27862 27863 27864 27865 27866 27867 27868 27869 27870 27871 27872 27873 27874 27875 27876 27877 27878 27879 27880 27881 27882 27883 27884 27885 27886 27887 27888 27889 27890 27891 27892 27893 27894 27895 27896 27897 27898 27899 27900 27901 27902 27903 27904 27905 27906 27907 27908 27909 27910 27911 27912 27913 27914 27915 27916 27917 27918 27919 27920 27921 27922 27923 27924 27925 27926 27927 27928 27929 27930 27931 27932 27933 27934 27935 27936 27937 27938 27939 27940 27941 27942 27943 27944 27945 27946 27947 27948 27949 27950 27951 27952 27953 27954 27955 27956 27957 27958 27959 27960 27961 27962 27963 27964 27965 27966 27967 27968 27969 27970 27971 27972 27973 27974 27975 27976 27977 27978 27979 27980 27981 27982 27983 27984 27985 27986 27987 27988 27989 27990 27991 27992 27993 27994 27995 27996 27997 27998 27999 28000 28001 28002 28003 28004 28005 28006 28007 28008 28009 28010 28011 28012 28013 28014 28015 28016 28017 28018 28019 28020 28021 28022 28023 28024 28025 28026 28027 28028 28029 28030 28031 28032 28033 28034 28035 28036 28037 28038 28039 28040 28041 28042 28043 28044 28045 28046 28047 28048 28049 28050 28051 28052 28053 28054 28055 28056 28057 28058 28059 28060 28061 28062 28063 28064 28065 28066 28067 28068 28069 28070 28071 28072 28073 28074 28075 28076 28077 28078 28079 28080 28081 28082 28083 28084 28085 28086 28087 28088 28089 28090 28091 28092 28093 28094 28095 28096 28097 28098 28099 28100 28101 28102 28103 28104 28105 28106 28107 28108 28109 28110 28111 28112 28113 28114 28115 28116 28117 28118 28119 28120 28121 28122 28123 28124 28125 28126 28127 28128 28129 28130 28131 28132 28133 28134 28135 28136 28137 28138 28139 28140 28141 28142 28143 28144 28145 28146 28147 28148 28149 28150 28151 28152 28153 28154 28155 28156 28157 28158 28159 28160 28161 28162 28163 28164 28165 28166 28167 28168 28169 28170 28171 28172 28173 28174 28175 28176 28177 28178 28179 28180 28181 28182 28183 28184 28185 28186 28187 28188 28189 28190 28191 28192 28193 28194 28195 28196 28197 28198 28199 28200 28201 28202 28203 28204 28205 28206 28207 28208 28209 28210 28211 28212 28213 28214 28215 28216 28217 28218 28219 28220 28221 28222 28223 28224 28225 28226 28227 28228 28229 28230 28231 28232 28233 28234 28235 28236 28237 28238 28239 28240 28241 28242 28243 28244 28245 28246 28247 28248 28249 28250 28251 28252 28253 28254 28255 28256 28257 28258 28259 28260 28261 28262 28263 28264 28265 28266 28267 28268 28269 28270 28271 28272 28273 28274 28275 28276 28277 28278 28279 28280 28281 28282 28283 28284 28285 28286 28287 28288 28289 28290 28291 28292 28293 28294 28295 28296 28297 28298 28299 28300 28301 28302 28303 28304 28305 28306 28307 28308 28309 28310 28311 28312 28313 28314 28315 28316 28317 28318 28319 28320 28321 28322 28323 28324 28325 28326 28327 28328 28329 28330 28331 28332 28333 28334 28335 28336 28337 28338 28339 28340 28341 28342 28343 28344 28345 28346 28347 28348 28349 28350 28351 28352 28353 28354 28355 28356 28357 28358 28359 28360 28361 28362 28363 28364 28365 28366 28367 28368 28369 28370 28371 28372 28373 28374 28375 28376 28377 28378 28379 28380 28381 28382 28383 28384 28385 28386 28387 28388 28389 28390 28391 28392 28393 28394 28395 28396 28397 28398 28399 28400 28401 28402 28403 28404 28405 28406 28407 28408 28409 28410 28411 28412 28413 28414 28415 28416 28417 28418 28419 28420 28421 28422 28423 28424 28425 28426 28427 28428 28429 28430 28431 28432 28433 28434 28435 28436 28437 28438 28439 28440 28441 28442 28443 28444 28445 28446 28447 28448 28449 28450 28451 28452 28453 28454 28455 28456 28457 28458 28459 28460 28461 28462 28463 28464 28465 28466 28467 28468 28469 28470 28471 28472 28473 28474 28475 28476 28477 28478 28479 28480 28481 28482 28483 28484 28485 28486 28487 28488 28489 28490 28491 28492 28493 28494 28495 28496 28497 28498 28499 28500 28501 28502 28503 28504 28505 28506 28507 28508 28509 28510 28511 28512 28513 28514 28515 28516 28517 28518 28519 28520 28521 28522 28523 28524 28525 28526 28527 28528 28529 28530 28531 28532 28533 28534 28535 28536 28537 28538 28539 28540 28541 28542 28543 28544 28545 28546 28547 28548 28549 28550 28551 28552 28553 28554 28555 28556 28557 28558 28559 28560 28561 28562 28563 28564 28565 28566 28567 28568 28569 28570 28571 28572 28573 28574 28575 28576 28577 28578 28579 28580 28581 28582 28583 28584 28585 28586 28587 28588 28589 28590 28591 28592 28593 28594 28595 28596 28597 28598 28599 28600 28601 28602 28603 28604 28605 28606 28607 28608 28609 28610 28611 28612 28613 28614 28615 28616 28617 28618 28619 28620 28621 28622 28623 28624 28625 28626 28627 28628 28629 28630 28631 28632 28633 28634 28635 28636 28637 28638 28639 28640 28641 28642 28643 28644 28645 28646 28647 28648 28649 28650 28651 28652 28653 28654 28655 28656 28657 28658 28659 28660 28661 28662 28663 28664 28665 28666 28667 28668 28669 28670 28671 28672 28673 28674 28675 28676 28677 28678 28679 28680 28681 28682 28683 28684 28685 28686 28687 28688 28689 28690 28691 28692 28693 28694 28695 28696 28697 28698 28699 28700 28701 28702 28703 28704 28705 28706 28707 28708 28709 28710 28711 28712 28713 28714 28715 28716 28717 28718 28719 28720 28721 28722 28723 28724 28725 28726 28727 28728 28729 28730 28731 28732 28733 28734 28735 28736 28737 28738 28739 28740 28741 28742 28743 28744 28745 28746 28747 28748 28749 28750 28751 28752 28753 28754 28755 28756 28757 28758 28759 28760 28761 28762 28763 28764 28765 28766 28767 28768 28769 28770 28771 28772 28773 28774 28775 28776 28777 28778 28779 28780 28781 28782 28783 28784 28785 28786 28787 28788 28789 28790 28791 28792 28793 28794 28795 28796 28797 28798 28799 28800 28801 28802 28803 28804 28805 28806 28807 28808 28809 28810 28811 28812 28813 28814 28815 28816 28817 28818 28819 28820 28821 28822 28823 28824 28825 28826 28827 28828 28829 28830 28831 28832 28833 28834 28835 28836 28837 28838 28839 28840 28841 28842 28843 28844 28845 28846 28847 28848 28849 28850 28851 28852 28853 28854 28855 28856 28857 28858 28859 28860 28861 28862 28863 28864 28865 28866 28867 28868 28869 28870 28871 28872 28873 28874 28875 28876 28877 28878 28879 28880 28881 28882 28883 28884 28885 28886 28887 28888 28889 28890 28891 28892 28893 28894 28895 28896 28897 28898 28899 28900 28901 28902 28903 28904 28905 28906 28907 28908 28909 28910 28911 28912 28913 28914 28915 28916 28917 28918 28919 28920 28921 28922 28923 28924 28925 28926 28927 28928 28929 28930 28931 28932 28933 28934 28935 28936 28937 28938 28939 28940 28941 28942 28943 28944 28945 28946 28947 28948 28949 28950 28951 28952 28953 28954 28955 28956 28957 28958 28959 28960 28961 28962 28963 28964 28965 28966 28967 28968 28969 28970 28971 28972 28973 28974 28975 28976 28977 28978 28979 28980 28981 28982 28983 28984 28985 28986 28987 28988 28989 28990 28991 28992 28993 28994 28995 28996 28997 28998 28999 29000 29001 29002 29003 29004 29005 29006 29007 29008 29009 29010 29011 29012 29013 29014 29015 29016 29017 29018 29019 29020 29021 29022 29023 29024 29025 29026 29027 29028 29029 29030 29031 29032 29033 29034 29035 29036 29037 29038 29039 29040 29041 29042 29043 29044 29045 29046 29047 29048 29049 29050 29051 29052 29053 29054 29055 29056 29057 29058 29059 29060 29061 29062 29063 29064 29065 29066 29067 29068 29069 29070 29071 29072 29073 29074 29075 29076 29077 29078 29079 29080 29081 29082 29083 29084 29085 29086 29087 29088 29089 29090 29091 29092 29093 29094 29095 29096 29097 29098 29099 29100 29101 29102 29103 29104 29105 29106 29107 29108 29109 29110 29111 29112 29113 29114 29115 29116 29117 29118 29119 29120 29121 29122 29123 29124 29125 29126 29127 29128 29129 29130 29131 29132 29133 29134 29135 29136 29137 29138 29139 29140 29141 29142 29143 29144 29145 29146 29147 29148 29149 29150 29151 29152 29153 29154 29155 29156 29157 29158 29159 29160 29161 29162 29163 29164 29165 29166 29167 29168 29169 29170 29171 29172 29173 29174 29175 29176 29177 29178 29179 29180 29181 29182 29183 29184 29185 29186 29187 29188 29189 29190 29191 29192 29193 29194 29195 29196 29197 29198 29199 29200 29201 29202 29203 29204 29205 29206 29207 29208 29209 29210 29211 29212 29213 29214 29215 29216 29217 29218 29219 29220 29221 29222 29223 29224 29225 29226 29227 29228 29229 29230 29231 29232 29233 29234 29235 29236 29237 29238 29239 29240 29241 29242 29243 29244 29245 29246 29247 29248 29249 29250 29251 29252 29253 29254 29255 29256 29257 29258 29259 29260 29261 29262 29263 29264 29265 29266 29267 29268 29269 29270 29271 29272 29273 29274 29275 29276 29277 29278 29279 29280 29281 29282 29283 29284 29285 29286 29287 29288 29289 29290 29291 29292 29293 29294 29295 29296 29297 29298 29299 29300 29301 29302 29303 29304 29305 29306 29307 29308 29309 29310 29311 29312 29313 29314 29315 29316 29317 29318 29319 29320 29321 29322 29323 29324 29325 29326 29327 29328 29329 29330 29331 29332 29333 29334 29335 29336 29337 29338 29339 29340 29341 29342 29343 29344 29345 29346 29347 29348 29349 29350 29351 29352 29353 29354 29355 29356 29357 29358 29359 29360 29361 29362 29363 29364 29365 29366 29367 29368 29369 29370 29371 29372 29373 29374 29375 29376 29377 29378 29379 29380 29381 29382 29383 29384 29385 29386 29387 29388 29389 29390 29391 29392 29393 29394 29395 29396 29397 29398 29399 29400 29401 29402 29403 29404 29405 29406 29407 29408 29409 29410 29411 29412 29413 29414 29415 29416 29417 29418 29419 29420 29421 29422 29423 29424 29425 29426 29427 29428 29429 29430 29431 29432 29433 29434 29435 29436 29437 29438 29439 29440 29441 29442 29443 29444 29445 29446 29447 29448 29449 29450 29451 29452 29453 29454 29455 29456 29457 29458 29459 29460 29461 29462 29463 29464 29465 29466 29467 29468 29469 29470 29471 29472 29473 29474 29475 29476 29477 29478 29479 29480 29481 29482 29483 29484 29485 29486 29487 29488 29489 29490 29491 29492 29493 29494 29495 29496 29497 29498 29499 29500 29501 29502 29503 29504 29505 29506 29507 29508 29509 29510 29511 29512 29513 29514 29515 29516 29517 29518 29519 29520 29521 29522 29523 29524 29525 29526 29527 29528 29529 29530 29531 29532 29533 29534 29535 29536 29537 29538 29539 29540 29541 29542 29543 29544 29545 29546 29547 29548 29549 29550 29551 29552 29553 29554 29555 29556 29557 29558 29559 29560 29561 29562 29563 29564 29565 29566 29567 29568 29569 29570 29571 29572 29573 29574 29575 29576 29577 29578 29579 29580 29581 29582 29583 29584 29585 29586 29587 29588 29589 29590 29591 29592 29593 29594 29595 29596 29597 29598 29599 29600 29601 29602 29603 29604 29605 29606 29607 29608 29609 29610 29611 29612 29613 29614 29615 29616 29617 29618 29619 29620 29621 29622 29623 29624 29625 29626 29627 29628 29629 29630 29631 29632 29633 29634 29635 29636 29637 29638 29639 29640 29641 29642 29643 29644 29645 29646 29647 29648 29649 29650 29651 29652 29653 29654 29655 29656 29657 29658 29659 29660 29661 29662 29663 29664 29665 29666 29667 29668 29669 29670 29671 29672 29673 29674 29675 29676 29677 29678 29679 29680 29681 29682 29683 29684 29685 29686 29687 29688 29689 29690 29691 29692 29693 29694 29695 29696 29697 29698 29699 29700 29701 29702 29703 29704 29705 29706 29707 29708 29709 29710 29711 29712 29713 29714 29715 29716 29717 29718 29719 29720 29721 29722 29723 29724 29725 29726 29727 29728 29729 29730 29731 29732 29733 29734 29735 29736 29737 29738 29739 29740 29741 29742 29743 29744 29745 29746 29747 29748 29749 29750 29751 29752 29753 29754 29755 29756 29757 29758 29759 29760 29761 29762 29763 29764 29765 29766 29767 29768 29769 29770 29771 29772 29773 29774 29775 29776 29777 29778 29779 29780 29781 29782 29783 29784 29785 29786 29787 29788 29789 29790 29791 29792 29793 29794 29795 29796 29797 29798 29799 29800 29801 29802 29803 29804 29805 29806 29807 29808 29809 29810 29811 29812 29813 29814 29815 29816 29817 29818 29819 29820 29821 29822 29823 29824 29825 29826 29827 29828 29829 29830 29831 29832 29833 29834 29835 29836 29837 29838 29839 29840 29841 29842 29843 29844 29845 29846 29847 29848 29849 29850 29851 29852 29853 29854 29855 29856 29857 29858 29859 29860 29861 29862 29863 29864 29865 29866 29867 29868 29869 29870 29871 29872 29873 29874 29875 29876 29877 29878 29879 29880 29881 29882 29883 29884 29885 29886 29887 29888 29889 29890 29891 29892 29893 29894 29895 29896 29897 29898 29899 29900 29901 29902 29903 29904 29905 29906 29907 29908 29909 29910 29911 29912 29913 29914 29915 29916 29917 29918 29919 29920 29921 29922 29923 29924 29925 29926 29927 29928 29929 29930 29931 29932 29933 29934 29935 29936 29937 29938 29939 29940 29941 29942 29943 29944 29945 29946 29947 29948 29949 29950 29951 29952 29953 29954 29955 29956 29957 29958 29959 29960 29961 29962 29963 29964 29965 29966 29967 29968 29969 29970 29971 29972 29973 29974 29975 29976 29977 29978 29979 29980 29981 29982 29983 29984 29985 29986 29987 29988 29989 29990 29991 29992 29993 29994 29995 29996 29997 29998 29999 30000 30001 30002 30003 30004 30005 30006 30007 30008 30009 30010 30011 30012 30013 30014 30015 30016 30017 30018 30019 30020 30021 30022 30023 30024 30025 30026 30027 30028 30029 30030 30031 30032 30033 30034 30035 30036 30037 30038 30039 30040 30041 30042 30043 30044 30045 30046 30047 30048 30049 30050 30051 30052 30053 30054 30055 30056 30057 30058 30059 30060 30061 30062 30063 30064 30065 30066 30067 30068 30069 30070 30071 30072 30073 30074 30075 30076 30077 30078 30079 30080 30081 30082 30083 30084 30085 30086 30087 30088 30089 30090 30091 30092 30093 30094 30095 30096 30097 30098 30099 30100 30101 30102 30103 30104 30105 30106 30107 30108 30109 30110 30111 30112 30113 30114 30115 30116 30117 30118 30119 30120 30121 30122 30123 30124 30125 30126 30127 30128 30129 30130 30131 30132 30133 30134 30135 30136 30137 30138 30139 30140 30141 30142 30143 30144 30145 30146 30147 30148 30149 30150 30151 30152 30153 30154 30155 30156 30157 30158 30159 30160 30161 30162 30163 30164 30165 30166 30167 30168 30169 30170 30171 30172 30173 30174 30175 30176 30177 30178 30179 30180 30181 30182 30183 30184 30185 30186 30187 30188 30189 30190 30191 30192 30193 30194 30195 30196 30197 30198 30199 30200 30201 30202 30203 30204 30205 30206 30207 30208 30209 30210 30211 30212 30213 30214 30215 30216 30217 30218 30219 30220 30221 30222 30223 30224 30225 30226 30227 30228 30229 30230 30231 30232 30233 30234 30235 30236 30237 30238 30239 30240 30241 30242 30243 30244 30245 30246 30247 30248 30249 30250 30251 30252 30253 30254 30255 30256 30257 30258 30259 30260 30261 30262 30263 30264 30265 30266 30267 30268 30269 30270 30271 30272 30273 30274 30275 30276 30277 30278 30279 30280 30281 30282 30283 30284 30285 30286 30287 30288 30289 30290 30291 30292 30293 30294 30295 30296 30297 30298 30299 30300 30301 30302 30303 30304 30305 30306 30307 30308 30309 30310 30311 30312 30313 30314 30315 30316 30317 30318 30319 30320 30321 30322 30323 30324 30325 30326 30327 30328 30329 30330 30331 30332 30333 30334 30335 30336 30337 30338 30339 30340 30341 30342 30343 30344 30345 30346 30347 30348 30349 30350 30351 30352 30353 30354 30355 30356 30357 30358 30359 30360 30361 30362 30363 30364 30365 30366 30367 30368 30369 30370 30371 30372 30373 30374 30375 30376 30377 30378 30379 30380 30381 30382 30383 30384 30385 30386 30387 30388 30389 30390 30391 30392 30393 30394 30395 30396 30397 30398 30399 30400 30401 30402 30403 30404 30405 30406 30407 30408 30409 30410 30411 30412 30413 30414 30415 30416 30417 30418 30419 30420 30421 30422 30423 30424 30425 30426 30427 30428 30429 30430 30431 30432 30433 30434 30435 30436 30437 30438 30439 30440 30441 30442 30443 30444 30445 30446 30447 30448 30449 30450 30451 30452 30453 30454 30455 30456 30457 30458 30459 30460 30461 30462 30463 30464 30465 30466 30467 30468 30469 30470 30471 30472 30473 30474 30475 30476 30477 30478 30479 30480 30481 30482 30483 30484 30485 30486 30487 30488 30489 30490 30491 30492 30493 30494 30495 30496 30497 30498 30499 30500 30501 30502 30503 30504 30505 30506 30507 30508 30509 30510 30511 30512 30513 30514 30515 30516 30517 30518 30519 30520 30521 30522 30523 30524 30525 30526 30527 30528 30529 30530 30531 30532 30533 30534 30535 30536 30537 30538 30539 30540 30541 30542 30543 30544 30545 30546 30547 30548 30549 30550 30551 30552 30553 30554 30555 30556 30557 30558 30559 30560 30561 30562 30563 30564 30565 30566 30567 30568 30569 30570 30571 30572 30573 30574 30575 30576 30577 30578 30579 30580 30581 30582 30583 30584 30585 30586 30587 30588 30589 30590 30591 30592 30593 30594 30595 30596 30597 30598 30599 30600 30601 30602 30603 30604 30605 30606 30607 30608 30609 30610 30611 30612 30613 30614 30615 30616 30617 
</DataArray>
<DataArray type="UInt32" Name="offsets" format="ascii">
2 5 8 11 14 17 20 23 26 28 31 34 37 39 42 45 48 51 54 57 60 63 66 69 72 75 78 81 84 86 89 92 94 97 100 103 105 108 111 114 116 119 122 125 128 131 134 137 140 142 145 148 151 154 157 160 162 165 168 171 174 177 180 183 186 189 191 194 197 199 202 205 208 210 213 215 218 220 222 225 228 231 234 237 240 243 246 249 251 254 256 259 262 264 267 270 273 276 279 282 285 288 291 294 297 300 303 306 309 311 314 317 320 323 325 328 331 333 335 338 341 343 346 349 352 354 356 358 361 363 366 369 372 375 378 381 384 387 390 392 394 397 400 403 406 409 412 414 417 420 423 426 429 431 433 436 439 441 444 447 449 451 454 456 458 461 464 467 470 473 476 479 482 485 488 491 494 496 499 502 504 507 510 513 516 519 522 525 528 531 534 537 540 543 546 549 552 555 558 561 564 566 569 572 575 578 581 584 587 590 593 596 599 602 605 608 611 613 616 619 621 624 627 630 633 635 637 640 643 646 649 652 655 658 661 664 667 670 673 676 679 682 684 687 690 693 695 698 701 704 707 710 713 716 719 721 723 726 729 732 735 738 741 744 747 750 752 755 758 761 764 767 769 772 774 777 780 783 786 789 791 793 796 799 802 804 807 809 812 815 818 820 823 825 828 831 833 836 839 842 844 847 850 853 856 859 861 863 866 869 871 874 876 878 881 884 886 889 891 894 897 900 903 905 908 910 913 916 918 920 922 925 927 930 932 934 937 940 943 946 949 952 955 958 961 963 966 969 972 975 978 981 984 987 990 993 996 999 1002 1005 1008 1011 1014 1017 1020 1023 1026 1029 1032 1035 1037 1040 1042 1045 1048 1051 1054 1057 1059 1062 1064 1067 1070 1072 1075 1078 1081 1084 1086 1089 1091 1094 1097 1100 1103 1106 1109 1112 1115 1118 1121 1124 1127 1130 1132 1135 1138 1140 1143 1146 1149 1152 1155 1158 1161 1164 1167 1170 1173 1176 1179 1182 1185 1188 1191 1193 1196 1199 1202 1205 1208 1211 1214 1217 1220 1223 1225 1228 1231 1234 1236 1238 1241 1244 1247 1250 1253 1256 1259 1262 1265 1268 1271 1274 1277 1280 1283 1286 1289 1292 1295 1298 1301 1304 1307 1309 1312 1315 1317 1320 1323 1325 1328 1330 1333 1336 1339 1341 1344 1346 1348 1351 1354 1357 1360 1363 1366 1369 1372 1375 1378 1380 1383 1386 1389 1392 1395 1398 1401 1404 1407 1410 1413 1416 1419 1422 1425 1428 1431 1434 1437 1440 1443 1446 1449 1452 1455 1458 1461 1464 1467 1470 1473 1476 1478 1481 1484 1487 1490 1492 1495 1498 1501 1504 1507 1510 1513 1515 1518 1521 1524 1527 1530 1533 1536 1539 1542 1544 1547 1549 1551 1554 1557 1559 1562 1564 1567 1570 1573 1576 1579 1582 1585 1588 1590 1593 1596 1599 1602 1605 1607 1610 1613 1616 1619 1622 1625 1627 1630 1633 1636 1639 1642 1645 1648 1651 1653 1656 1658 1661 1664 1667 1670 1673 1675 1678 1680 1683 1686 1689 1692 1695 1698 1700 1703 1706 1709 1712 1715 1718 1721 1724 1727 1730 1732 1734 1737 1740 1743 1746 1748 1751 1754 1757 1760 1763 1766 1769 1772 1775 1778 1781 1784 1786 1789 1792 1794 1797 1800 1803 1806 1809 1812 1815 1818 1821 1824 1826 1828 1831 1834 1837 1840 1843 1846 1849 1852 1855 1858 1860 1863 1865 1868 1871 1874 1877 1880 1883 1886 1889 1892 1895 1898 1901 1904 1907 1910 1913 1916 1919 1922 1925 1928 1931 1934 1937 1940 1943 1946 1949 1952 1955 1958 1961 1964 1967 1970 1973 1976 1979 1982 1984 1987 1990 1993 1995 1998 2000 2003 2005 2008 2011 2013 2016 2018 2021 2023 2026 2029 2031 2034 2037 2040 2043 2046 2049 2052 2055 2057 2060 2063 2065 2068 2071 2074 2077 2079 2082 2085 2088 2091 2094 2097 2100 2103 2106 2109 2111 2114 2116 2119 2121 2124 2126 2129 2131 2134 2137 2140 2142 2145 2147 2150 2153 2156 2159 2162 2165 2168 2171 2174 2177 2180 2183 2185 2188 2191 2193 2195 2198 2201 2204 2206 2209 2212 2214 2217 2220 2222 2225 2228 2231 2233 2236 2239 2242 2245 2248 2250 2253 2256 2258 2260 2263 2266 2269 2271 2273 2275 2278 2281 2283 2286 2289 2291 2294 2297 2300 2303 2306 2309 2311 2314 2317 2319 2322 2325 2327 2330 2333 2336 2339 2342 2345 2348 2351 2353 2356 2359 2362 2365 2368 2370 2372 2374 2377 2380 2383 2386 2389 2392 2395 2398 2401 2404 2407 2409 2412 2415 2418 2421 2423 2426 2429 2432 2435 2438 2441 2444 2446 2449 2452 2455 2457 2460 2462 2465 2467 2470 2472 2475 2478 2481 2484 2487 2490 2493 2496 2499 2502 2504 2507 2510 2513 2516 2519 2522 2525 2528 2530 2533 2536 2538 2541 2544 2547 2550 2552 2555 2558 2561 2564 2567 2570 2572 2575 2577 2580 2583 2586 2589 2592 2595 2597 2599 2602 2605 2608 2611 2613 2616 2618 2621 2624 2627 2629 2632 2635 2638 2641 2644 2647 2650 2652 2654 2657 2660 2662 2665 2667 2669 2671 2674 2677 2680 2683 2686 2689 2692 2694 2697 2700 2703 2706 2709 2712 2715 2718 2721 2724 2727 2730 2733 2735 2738 2741 2744 2747 2750 2753 2756 2759 2762 2765 2767 2770 2773 2775 2778 2781 2784 2787 2790 2792 2795 2798 2801 2804 2807 2810 2813 2816 2818 2821 2823 2826 2829 2831 2834 2837 2839 2842 2845 2848 2851 2853 2856 2859 2862 2865 2868 2870 2873 2876 2879 2882 2885 2888 2891 2894 2897 2899 2902 2905 2907 2909 2912 2915 2918 2921 2923 2926 2928 2931 2934 2936 2938 2941 2943 2946 2948 2951 2954 2957 2960 2963 2965 2968 2971 2974 2976 2979 2982 2985 2987 2990 2993 2996 2999 3002 3005 3008 3011 3014 3017 3019 3022 3025 3028 3031 3034 3037 3040 3043 3046 3049 3052 3055 3058 3061 3064 3067 3070 3073 3075 3078 3081 3083 3086 3089 3092 3095 3097 3100 3103 3106 3109 3112 3115 3118 3121 3124 3127 3130 3133 3136 3139 3142 3145 3148 3151 3154 3157 3160 3163 3166 3169 3172 3175 3178 3181 3184 3187 3190 3193 3196 3199 3202 3205 3208 3211 3214 3217 3220 3223 3226 3229 3232 3235 3238 3241 3244 3247 3250 3253 3256 3259 3262 3265 3268 3271 3273 3276 3279 3282 3285 3288 3291 3294 3297 3300 3303 3306 3309 3312 3315 3318 3321 3324 3327 3330 3332 3335 3338 3341 3344 3346 3349 3352 3355 3358 3361 3364 3367 3370 3373 3376 3379 3382 3385 3388 3391 3394 3397 3400 3402 3405 3408 3411 3414 3416 3419 3422 3425 3428 3431 3433 3435 3438 3441 3444 3447 3450 3453 3456 3459 3462 3465 3468 3471 3474 3477 3480 3483 3486 3489 3491 3494 3497 3500 3502 3505 3507 3510 3513 3516 3519 3522 3525 3528 3531 3534 3536 3539 3542 3545 3548 3550 3552 3555 3558 3561 3564 3567 3570 3573 3576 3579 3582 3585 3588 3591 3594 3597 3600 3603 3606 3609 3611 3614 3617 3620 3623 3626 3629 3632 3635 3638 3641 3644 3647 3650 3652 3655 3658 3661 3664 3667 3670 3673 3676 3679 3682 3685 3688 3691 3694 3697 3700 3703 3706 3709 3712 3715 3718 3720 3723 3726 3729 3732 3735 3738 3741 3743 3746 3749 3752 3754 3757 3760 3763 3766 3769 3772 3775 3778 3781 3784 3787 3790 3793 3796 3799 3802 3805 3808 3811 3814 3817 3820 3823 3826 3828 3831 3833 3836 3839 3842 3845 3847 3850 3852 3855 3858 3861 3864 3867 3870 3873 3875 3878 3881 3884 3887 3889 3892 3895 3898 3901 3904 3907 3910 3913 3916 3919 3922 3924 3927 3930 3933 3936 3939 3942 3944 3947 3949 3952 3955 3958 3961 3964 3966 3969 3972 3974 3977 3980 3982 3985 3988 3991 3994 3997 4000 4003 4006 4009 4012 4015 4018 4021 4024 4027 4030 4033 4036 4039 4042 4045 4048 4051 4054 4057 4060 4063 4065 4068 4071 4074 4076 4079 4081 4084 4087 4089 4091 4094 4097 4100 4102 4105 4108 4111 4114 4116 4119 4121 4124 4127 4129 4132 4135 4138 4141 4144 4146 4149 4152 4155 4158 4161 4163 4166 4169 4172 4175 4178 4181 4184 4187 4190 4193 4196 4199 4202 4205 4208 4211 4214 4217 4220 4223 4226 4229 4232 4235 4238 4241 4244 4247 4250 4253 4256 4259 4262 4265 4268 4271 4274 4277 4280 4283 4286 4289 4292 4294 4296 4299 4302 4305 4308 4311 4314 4317 4320 4323 4326 4329 4332 4335 4338 4341 4344 4347 4350 4353 4356 4359 4362 4365 4368 4371 4374 4377 4380 4382 4385 4388 4391 4394 4396 4399 4402 4405 4408 4410 4413 4416 4419 4422 4425 4428 4431 4433 4436 4438 4441 4444 4447 4450 4453 4455 4458 4461 4464 4467 4470 4473 4476 4479 4482 4485 4487 4490 4493 4496 4499 4502 4505 4508 4511 4514 4517 4520 4523 4526 4529 4532 4535 4538 4541 4544 4547 4550 4553 4556 4559 4562 4564 4567 4570 4573 4576 4578 4581 4583 4586 4589 4591 4594 4596 4599 4602 4605 4608 4611 4614 4616 4619 4622 4625 4627 4630 4633 4636 4639 4642 4645 4648 4651 4654 4657 4660 4663 4666 4669 4672 4675 4678 4680 4683 4685 4688 4691 4694 4697 4700 4702 4705 4707 4710 4713 4716 4719 4722 4725 4728 4731 4733 4736 4739 4742 4745 4748 4751 4754 4757 4760 4763 4766 4769 4772 4775 4778 4781 4784 4787 4790 4793 4796 4799 4802 4804 4807 4809 4812 4815 4818 4821 4824 4827 4830 4833 4836 4839 4842 4845 4847 4850 4853 4856 4859 4862 4865 4868 4871 4874 4877 4880 4883 4886 4889 4892 4895 4898 4901 4904 4907 4910 4913 4916 4919 4922 4925 4928 4930 4933 4936 4939 4941 4944 4946 4948 4951 4954 4957 4960 4963 4965 4968 4971 4974 4977 4980 4983 4986 4989 4992 4995 4998 5001 5004 5007 5010 5013 5016 5019 5022 5025 5028 5031 5034 5037 5039 5042 5045 5047 5050 5053 5056 5059 5062 5065 5068 5071 5073 5075 5078 5081 5084 5087 5090 5093 5096 5099 5102 5105 5107 5110 5113 5115 5117 5120 5122 5125 5128 5131 5134 5137 5139 5142 5144 5146 5148 5151 5154 5157 5160 5163 5166 5168 5171 5174 5177 5180 5183 5186 5189 5192 5195 5197 5200 5202 5205 5208 5210 5213 5216 5219 5222 5225 5228 5231 5234 5237 5240 5243 5246 5249 5252 5255 5258 5261 5264 5267 5270 5273 5276 5279 5282 5285 5288 5290 5292 5295 5298 5301 5304 5307 5310 5313 5316 5319 5322 5325 5328 5331 5334 5337 5340 5343 5346 5349 5352 5355 5358 5361 5364 5367 5370 5373 5376 5379 5382 5385 5388 5391 5394 5397 5400 5403 5406 5409 5412 5415 5418 5421 5424 5427 5430 5433 5436 5439 5442 5445 5448 5451 5454 5457 5460 5462 5465 5468 5471 5474 5477 5480 5483 5486 5489 5491 5493 5496 5499 5502 5504 5507 5510 5513 5516 5519 5522 5525 5528 5531 5534 5537 5540 5543 5546 5549 5552 5555 5558 5561 5564 5567 5570 5573 5576 5579 5582 5585 5588 5591 5594 5596 5599 5602 5605 5608 5611 5614 5617 5619 5622 5625 5628 5631 5634 5637 5640 5642 5645 5648 5650 5653 5656 5659 5662 5665 5668 5671 5674 5677 5679 5682 5685 5687 5689 5692 5695 5698 5700 5703 5706 5709 5712 5715 5718 5721 5724 5727 5730 5733 5735 5738 5741 5744 5747 5749 5752 5754 5757 5760 5762 5765 5768 5770 5772 5775 5778 5781 5784 5787 5790 5793 5796 5799 5802 5804 5806 5809 5812 5815 5818 5821 5824 5826 5829 5832 5835 5838 5841 5844 5846 5849 5851 5854 5857 5860 5863 5866 5868 5870 5873 5876 5879 5882 5885 5888 5891 5894 5897 5900 5903 5906 5909 5912 5915 5918 5921 5924 5927 5929 5931 5934 5937 5939 5942 5945 5948 5951 5954 5957 5960 5963 5966 5969 5972 5974 5977 5980 5983 5986 5989 5992 5995 5998 6001 6004 6007 6010 6013 6016 6019 6022 6025 6028 6031 6034 6037 6040 6043 6046 6049 6052 6055 6058 6060 6063 6066 6069 6072 6074 6076 6079 6082 6085 6088 6091 6094 6097 6099 6102 6104 6107 6110 6113 6116 6119 6122 6125 6128 6131 6134 6137 6140 6143 6146 6149 6152 6155 6158 6161 6164 6166 6168 6171 6173 6176 6179 6182 6185 6188 6190 6193 6196 6199 6202 6205 6208 6211 6214 6217 6220 6223 6226 6229 6232 6235 6238 6241 6243 6246 6249 6252 6255 6258 6261 6264 6267 6270 6273 6276 6278 6281 6284 6287 6290 6293 6296 6299 6302 6305 6308 6310 6313 6316 6319 6322 6325 6328 6331 6334 6337 6339 6342 6345 6348 6351 6353 6356 6359 6362 6364 6367 6370 6373 6376 6378 6381 6384 6387 6390 6393 6396 6399 6402 6405 6407 6410 6413 6416 6419 6421 6424 6427 6430 6433 6436 6439 6442 6445 6447 6450 6452 6454 6457 6459 6461 6464 6467 6470 6472 6475 6478 6481 6483 6486 6488 6491 6494 6497 6500 6503 6505 6508 6511 6514 6516 6519 6522 6525 6528 6531 6534 6536 6538 6541 6544 6547 6550 6553 6556 6559 6562 6565 6568 6571 6573 6576 6578 6580 6583 6586 6589 6592 6595 6597 6599 6602 6605 6607 6610 6613 6616 6619 6621 6624 6627 6630 6633 6636 6638 6641 6644 6647 6650 6652 6654 6657 6660 6662 6665 6667 6669 6672 6675 6678 6681 6684 6687 6690 6693 6696 6699 6702 6705 6708 6711 6714 6717 6720 6723 6726 6729 6732 6734 6737 6740 6742 6745 6747 6750 6753 6756 6758 6761 6764 6767 6770 6773 6776 6778 6780 6783 6786 6789 6792 6795 6798 6800 6803 6806 6808 6811 6814 6817 6820 6823 6826 6828 6831 6834 6837 6839 6842 6845 6848 6851 6854 6857 6859 6862 6865 6868 6871 6874 6877 6880 6883 6886 6889 6892 6895 6898 6900 6903 6905 6908 6911 6914 6917 6920 6923 6926 6929 6932 6934 6937 6940 6943 6945 6948 6951 6954 6957 6960 6963 6966 6969 6972 6975 6977 6980 6983 6986 6989 6992 6995 6998 7001 7004 7007 7010 7013 7016 7019 7022 7025 7028 7031 7034 7037 7040 7043 7046 7049 7052 7054 7057 7060 7063 7065 7068 7071 7073 7076 7079 7082 7085 7088 7090 7093 7096 7099 7101 7104 7107 7110 7113 7116 7119 7122 7124 7127 7130 7133 7136 7139 7142 7145 7148 7151 7154 7157 7160 7163 7166 7169 7172 7175 7177 7180 7182 7185 7188 7191 7194 7197 7200 7203 7206 7209 7211 7214 7216 7219 7221 7224 7226 7228 7231 7234 7237 7240 7242 7245 7248 7251 7254 7256 7259 7262 7265 7268 7271 7273 7276 7278 7281 7284 7286 7289 7292 7295 7298 7301 7304 7307 7310 7313 7316 7319 7322 7325 7328 7331 7334 7337 7339 7342 7345 7348 7351 7354 7357 7359 7362 7365 7368 7371 7374 7376 7379 7382 7385 7388 7391 7394 7397 7399 7402 7405 7407 7410 7413 7416 7419 7422 7425 7427 7430 7433 7436 7438 7441 7444 7447 7450 7453 7456 7459 7462 7465 7468 7471 7474 7477 7480 7483 7486 7489 7491 7494 7497 7500 7503 7506 7508 7510 7513 7516 7519 7522 7525 7527 7530 7532 7535 7537 7540 7542 7544 7547 7550 7553 7555 7557 7560 7563 7566 7569 7572 7575 7578 7581 7584 7587 7590 7593 7596 7599 7602 7605 7608 7611 7614 7617 7620 7623 7626 7629 7632 7635 7638 7641 7644 7647 7650 7653 7656 7659 7662 7665 7668 7671 7673 7676 7679 7682 7685 7688 7691 7694 7696 7699 7701 7704 7707 7710 7713 7716 7719 7721 7724 7727 7730 7732 7735 7738 7741 7743 7745 7748 7750 7753 7756 7759 7762 7765 7768 7770 7773 7776 7778 7781 7784 7787 7790 7793 7796 7799 7802 7805 7808 7811 7814 7816 7818 7820 7823 7826 7829 7831 7834 7837 7840 7843 7846 7849 7852 7855 7858 7861 7864 7867 7870 7873 7876 7879 7882 7885 7888 7891 7894 7897 7899 7902 7905 7908 7911 7913 7916 7919 7922 7925 7928 7931 7934 7936 7939 7942 7945 7948 7951 7953 7956 7959 7962 7965 7968 7970 7973 7976 7979 7982 7985 7988 7991 7994 7997 7999 8002 8005 8008 8011 8013 8016 8019 8022 8025 8028 8031 8034 8037 8040 8043 8045 8048 8051 8053 8056 8059 8062 8065 8068 8071 8074 8077 8080 8083 8086 8089 8092 8095 8098 8101 8104 8107 8110 8113 8115 8118 8121 8124 8127 8129 8132 8135 8138 8141 8144 8147 8150 8153 8155 8158 8161 8164 8167 8170 8172 8175 8178 8180 8183 8186 8189 8192 8195 8198 8201 8204 8207 8210 8213 8216 8218 8221 8224 8227 8230 8233 8236 8239 8242 8245 8248 8251 8254 8257 8260 8263 8266 8269 8272 8275 8278 8281 8284 8287 8290 8293 8296 8299 8302 8304 8307 8310 8313 8316 8319 8322 8325 8328 8331 8334 8337 8340 8343 8346 8348 8351 8354 8357 8360 8363 8366 8369 8372 8375 8378 8381 8384 8387 8390 8393 8396 8399 8402 8405 8407 8410 8413 8416 8419 8422 8425 8428 8430 8433 8436 8439 8442 8445 8448 8451 8454 8457 8460 8463 8466 8469 8472 8475 8478 8481 8484 8487 8490 8493 8496 8499 8502 8504 8507 8510 8513 8516 8519 8521 8524 8527 8530 8533 8536 8539 8542 8545 8548 8551 8553 8556 8559 8561 8564 8566 8569 8572 8575 8578 8581 8584 8587 8589 8592 8594 8597 8599 8602 8605 8608 8611 8614 8617 8620 8623 8626 8629 8632 8635 8638 8641 8644 8647 8650 8653 8656 8659 8662 8665 8668 8671 8674 8677 8680 8683 8686 8689 8692 8695 8698 8701 8704 8707 8709 8712 8715 8718 8721 8724 8727 8730 8733 8736 8739 8742 8745 8748 8751 8754 8757 8760 8763 8766 8769 8772 8775 8778 8781 8784 8787 8790 8793 8796 8799 8802 8804 8807 8810 8813 8816 8819 8822 8824 8826 8829 8832 8835 8838 8841 8844 8847 8850 8853 8856 8859 8862 8865 8867 8870 8873 8876 8879 8882 8885 8888 8891 8894 8897 8899 8901 8904 8906 8909 8912 8915 8917 8920 8922 8924 8927 8929 8932 8935 8938 8941 8944 8947 8950 8952 8954 8957 8960 8963 8966 8968 8971 8974 8977 8980 8982 8985 8987 8990 8992 8994 8997 8999 9002 9005 9008 9011 9014 9016 9019 9021 9023 9025 9027 9030 9033 9036 9039 9042 9044 9047 9050 9052 9054 9057 9060 9063 9065 9068 9071 9073 9076 9079 9082 9085 9087 9090 9093 9095 9098 9101 9103 9106 9109 9112 9115 9118 9121 9124 9127 9130 9133 9136 9139 9142 9145 9147 9150 9152 9155 9158 9161 9164 9167 9169 9172 9175 9177 9180 9183 9186 9189 9192 9194 9197 9200 9203 9206 9209 9212 9215 9218 9221 9224 9226 9229 9232 9235 9238 9241 9244 9247 9250 9253 9256 9259 9261 9264 9267 9270 9273 9276 9279 9281 9284 9287 9290 9293 9296 9299 9302 9305 9308 9311 9314 9317 9320 9323 9325 9328 9331 9334 9336 9339 9342 9345 9348 9351 9354 9357 9359 9362 9364 9367 9370 9373 9376 9379 9382 9385 9388 9391 9394 9397 9400 9403 9406 9409 9412 9415 9418 9421 9424 9427 9430 9433 9436 9439 9442 9445 9448 9451 9454 9457 9460 9463 9466 9469 9472 9474 9477 9479 9482 9485 9487 9490 9492 9495 9498 9501 9504 9507 9510 9512 9515 9518 9520 9522 9525 9528 9531 9534 9537 9540 9542 9545 9548 9551 9554 9557 9560 9563 9565 9568 9571 9574 9577 9580 9583 9586 9589 9592 9595 9598 9601 9604 9607 9610 9613 9616 9619 9622 9624 9627 9630 9633 9635 9638 9640 9643 9645 9648 9651 9654 9657 9659 9662 9665 9668 9671 9674 9677 9679 9682 9685 9688 9691 9694 9697 9699 9702 9705 9707 9710 9713 9716 9719 9722 9725 9727 9730 9733 9736 9739 9742 9745 9748 9751 9754 9756 9759 9761 9764 9767 9770 9773 9776 9778 9780 9783 9786 9789 9791 9793 9796 9799 9802 9805 9808 9811 9813 9816 9819 9821 9823 9826 9829 9831 9834 9837 9839 9842 9845 9848 9851 9853 9856 9859 9862 9865 9868 9871 9873 9876 9879 9882 9885 9888 9891 9894 9897 9900 9903 9905 9908 9911 9914 9916 9918 9921 9924 9927 9930 9933 9936 9939 9942 9945 9947 9950 9953 9956 9959 9962 9965 9968 9971 9974 9977 9980 9982 9984 9987 9990 9993 9996 9998 10001 10004 10007 10010 10012 10015 10018 10021 10024 10026 10029 10032 10035 10037 10040 10043 10046 10049 10051 10054 10057 10060 10063 10066 10068 10071 10074 10077 10080 10082 10085 10088 10091 10094 10097 10100 10103 10106 10109 10112 10115 10118 10121 10124 10127 10130 10133 10136 10139 10142 10145 10148 10151 10154 10157 10160 10163 10166 10169 10172 10175 10178 10180 10183 10186 10189 10192 10194 10197 10200 10203 10206 10209 10212 10214 10217 10220 10223 10225 10228 10230 10233 10236 10239 10242 10245 10248 10251 10254 10257 10260 10263 10266 10269 10272 10275 10278 10281 10284 10287 10290 10293 10296 10299 10301 10304 10306 10309 10312 10315 10317 10320 10323 10326 10329 10332 10335 10338 10341 10344 10347 10350 10353 10356 10358 10361 10364 10366 10369 10372 10374 10376 10379 10381 10384 10387 10390 10393 10396 10399 10402 10405 10408 10411 10414 10417 10420 10423 10426 10429 10432 10434 10437 10440 10443 10446 10449 10451 10454 10457 10460 10463 10466 10469 10472 10474 10477 10480 10483 10486 10489 10492 10495 10497 10500 10503 10506 10509 10512 10515 10518 10521 10524 10527 10530 10533 10536 10539 10542 10544 10547 10550 10553 10555 10558 10561 10564 10567 10570 10573 10576 10579 10582 10585 10588 10590 10593 10596 10599 10602 10605 10608 10610 10613 10616 10618 10621 10623 10626 10629 10632 10634 10637 10640 10643 10646 10649 10652 10655 10658 10661 10664 10667 10669 10672 10675 10678 10681 10684 10686 10689 10692 10695 10697 10700 10703 10706 10708 10711 10714 10717 10720 10723 10725 10728 10730 10733 10736 10739 10742 10745 10748 10751 10754 10756 10759 10761 10764 10767 10769 10772 10774 10777 10779 10782 10785 10788 10791 10794 10797 10800 10803 10806 10809 10811 10814 10816 10819 10822 10825 10828 10830 10833 10836 10839 10841 10843 10846 10849 10852 10854 10857 10859 10861 10864 10867 10869 10871 10874 10876 10878 10881 10884 10886 10888 10891 10894 10896 10899 10902 10904 10907 10909 10912 10915 10917 10920 10923 10925 10928 10930 10933 10936 10939 10941 10944 10946 10949 10952 10954 10956 10959 10962 10965 10967 10969 10972 10974 10977 10980 10983 10986 10989 10992 10995 10998 11000 11003 11006 11008 11010 11013 11015 11018 11020 11022 11025 11028 11031 11033 11036 11039 11041 11044 11047 11050 11053 11056 11059 11061 11063 11066 11069 11072 11075 11078 11081 11084 11086 11088 11091 11094 11097 11100 11102 11105 11108 11111 11113 11116 11119 11121 11124 11127 11130 11133 11136 11138 11141 11144 11146 11149 11152 11155 11157 11159 11162 11165 11167 11170 11173 11176 11178 11181 11184 11187 11189 11191 11194 11197 11199 11202 11205 11208 11211 11213 11215 11218 11221 11223 11225 11228 11230 11232 11235 11238 11241 11244 11247 11250 11252 11255 11258 11261 11264 11267 11270 11273 11276 11279 11282 11284 11286 11289 11292 11295 11298 11301 11304 11307 11309 11312 11315 11318 11321 11324 11327 11330 11333 11336 11338 11341 11344 11346 11349 11352 11354 11357 11360 11363 11366 11369 11372 11375 11378 11381 11384 11387 11390 11393 11396 11399 11402 11405 11408 11410 11412 11415 11418 11421 11424 11426 11429 11432 11434 11437 11440 11443 11446 11449 11452 11455 11458 11461 11463 11466 11469 11471 11474 11477 11480 11483 11486 11489 11492 11495 11498 11501 11504 11506 11509 11511 11514 11517 11520 11523 11526 11529 11532 11535 11538 11541 11543 11546 11549 11552 11555 11558 11561 11564 11567 11570 11573 11576 11579 11582 11585 11588 11591 11594 11597 11600 11603 11606 11609 11612 11615 11618 11621 11624 11627 11630 11633 11636 11639 11642 11645 11648 11651 11654 11657 11660 11662 11665 11668 11671 11674 11677 11680 11683 11686 11689 11691 11694 11697 11699 11702 11705 11708 11711 11714 11717 11720 11723 11726 11729 11732 11735 11738 11741 11744 11747 11749 11752 11754 11757 11760 11762 11765 11768 11771 11773 11775 11778 11780 11782 11785 11787 11790 11793 11795 11798 11801 11803 11806 11809 11812 11815 11818 11821 11824 11827 11830 11833 11836 11839 11842 11845 11848 11851 11854 11857 11860 11863 11866 11868 11871 11874 11877 11880 11883 11886 11889 11892 11895 11898 11901 11904 11907 11910 11913 11916 11919 11922 11925 11927 11930 11933 11936 11939 11942 11944 11947 11950 11953 11956 11959 11962 11965 11968 11971 11974 11977 11980 11983 11986 11989 11992 11995 11998 12001 12004 12007 12010 12013 12016 12018 12021 12024 12027 12030 12033 12036 12038 12041 12044 12047 12050 12053 12056 12059 12062 12065 12068 12071 12074 12077 12080 12083 12085 12088 12091 12094 12096 12098 12101 12104 12107 12109 12112 12115 12118 12121 12124 12127 12130 12133 12135 12138 12141 12144 12147 12149 12152 12155 12158 12161 12164 12167 12170 12173 12176 12179 12182 12185 12188 12190 12193 12196 12199 12202 12205 12208 12211 12214 12217 12220 12223 12226 12229 12232 12235 12238 12241 12244 12247 12250 12253 12256 12259 12262 12265 12268 12271 12273 12276 12279 12282 12285 12288 12291 12294 12297 12300 12303 12306 12309 12312 12315 12318 12320 12322 12325 12328 12331 12333 12336 12339 12342 12345 12348 12351 12354 12357 12360 12363 12366 12369 12372 12375 12378 12381 12384 12387 12390 12393 12396 12399 12402 12405 12408 12411 12414 12417 12420 12423 12425 12428 12431 12434 12437 12440 12443 12446 12449 12452 12455 12458 12461 12464 12467 12470 12473 12476 12479 12482 12485 12488 12491 12494 12497 12500 12502 12505 12508 12511 12514 12517 12520 12523 12525 12528 12531 12534 12536 12539 12542 12544 12547 12550 12553 12556 12559 12562 12565 12568 12570 12572 12575 12578 12581 12584 12587 12589 12592 12595 12598 12601 12604 12607 12610 12613 12616 12619 12622 12625 12628 12631 12634 12637 12640 12643 12646 12648 12651 12653 12656 12658 12661 12664 12667 12669 12672 12674 12677 12680 12683 12686 12689 12692 12695 12698 12701 12704 12707 12710 12712 12715 12718 12721 12724 12726 12729 12732 12734 12737 12739 12742 12745 12747 12750 12753 12756 12758 12761 12764 12767 12770 12773 12776 12779 12782 12785 12787 12790 12793 12796 12799 12801 12804 12807 12810 12813 12815 12818 12821 12824 12827 12830 12833 12835 12838 12840 12843 12845 12848 12851 12854 12856 12859 12862 12865 12868 12871 12874 12876 12878 12881 12884 12887 12890 12893 12895 12898 12901 12904 12907 12910 12913 12916 12919 12922 12925 12928 12931 12934 12937 12940 12943 12946 12949 12952 12954 12957 12960 12963 12966 12969 12972 12975 12978 12981 12983 12986 12988 12991 12993 12996 12999 13002 13005 13008 13011 13014 13017 13020 13023 13026 13029 13031 13034 13037 13039 13042 13045 13048 13051 13054 13057 13060 13063 13066 13068 13071 13073 13076 13079 13082 13085 13088 13091 13093 13096 13099 13102 13105 13108 13111 13114 13117 13120 13123 13126 13129 13132 13135 13138 13141 13144 13147 13150 13153 13156 13159 13162 13165 13168 13171 13174 13177 13180 13183 13186 13189 13192 13195 13198 13201 13204 13207 13210 13213 13216 13218 13221 13224 13226 13229 13231 13234 13237 13240 13242 13244 13247 13250 13252 13255 13258 13261 13264 13267 13270 13273 13276 13279 13282 13285 13288 13290 13293 13296 13299 13302 13305 13308 13311 13314 13317 13320 13323 13326 13328 13331 13334 13337 13340 13343 13346 13349 13352 13355 13358 13361 13364 13367 13370 13373 13375 13378 13381 13384 13387 13390 13392 13395 13398 13401 13404 13407 13410 13413 13416 13419 13421 13424 13427 13430 13433 13435 13438 13441 13444 13447 13450 13453 13456 13459 13462 13465 13468 13470 13473 13475 13478 13480 13483 13486 13489 13491 13494 13497 13500 13503 13506 13509 13512 13515 13518 13521 13524 13527 13530 13533 13536 13539 13542 13545 13548 13551 13553 13556 13559 13562 13565 13568 13571 13574 13577 13580 13583 13586 13589 13592 13595 13598 13601 13604 13607 13609 13612 13615 13618 13621 13624 13626 13629 13632 13635 13638 13641 13644 13647 13650 13652 13655 13658 13660 13663 13666 13669 13672 13675 13678 13681 13683 13686 13689 13692 13695 13698 13701 13704 13707 13710 13712 13715 13718 13721 13724 13727 13730 13733 13736 13739 13742 13745 13748 13751 13754 13757 13760 13763 13766 13769 13772 13775 13778 13781 13784 13786 13789 13791 13794 13797 13799 13802 13805 13808 13811 13814 13817 13820 13823 13825 13828 13831 13834 13837 13840 13843 13845 13848 13851 13854 13857 13860 13863 13866 13869 13872 13875 13878 13881 13883 13886 13889 13892 13895 13898 13901 13904 13907 13910 13913 13916 13919 13922 13925 13927 13930 13933 13936 13938 13941 13944 13947 13950 13952 13955 13958 13961 13964 13967 13970 13973 13976 13979 13982 13985 13988 13991 13994 13997 14000 14003 14006 14009 14012 14015 14018 14021 14024 14027 14030 14032 14035 14038 14040 14043 14046 14049 14052 14055 14058 14061 14064 14067 14069 14072 14075 14077 14080 14083 14085 14088 14091 14094 14097 14100 14103 14106 14109 14112 14115 14118 14121 14124 14127 14130 14133 14136 14139 14142 14145 14148 14151 14154 14157 14160 14163 14166 14169 14172 14175 14178 14181 14184 14187 14190 14193 14196 14199 14202 14205 14208 14211 14214 14217 14220 14223 14226 14229 14232 14235 14238 14241 14244 14247 14250 14253 14256 14259 14262 14265 14268 14271 14274 14276 14279 14282 14285 14288 14291 14294 14296 14299 14302 14305 14308 14311 14314 14317 14320 14323 14326 14329 14331 14333 14336 14339 14341 14344 14346 14349 14352 14354 14357 14360 14362 14365 14368 14371 14374 14377 14380 14383 14386 14388 14391 14394 14397 14400 14403 14406 14409 14412 14415 14417 14420 14423 14426 14429 14431 14434 14437 14440 14443 14446 14449 14452 14455 14458 14461 14464 14467 14470 14473 14476 14478 14481 14484 14487 14490 14492 14495 14497 14500 14503 14506 14508 14511 14514 14516 14519 14522 14525 14528 14531 14534 14537 14540 14543 14546 14549 14551 14554 14557 14559 14562 14565 14568 14570 14573 14576 14578 14580 14583 14586 14588 14591 14594 14597 14600 14603 14606 14609 14612 14614 14617 14620 14623 14626 14628 14631 14633 14636 14638 14641 14644 14647 14650 14652 14655 14658 14661 14663 14666 14669 14672 14675 14678 14681 14684 14687 14690 14693 14696 14699 14702 14705 14708 14711 14714 14717 14719 14722 14725 14728 14731 14734 14737 14740 14743 14746 14749 14752 14755 14758 14761 14764 14767 14770 14773 14776 14779 14782 14785 14788 14791 14794 14797 14800 14803 14806 14809 14812 14815 14818 14821 14824 14827 14830 14833 14836 14839 14841 14844 14847 14850 14853 14856 14858 14861 14864 14867 14870 14873 14876 14879 14882 14885 14888 14891 14894 14897 14899 14902 14905 14907 14910 14913 14916 14918 14921 14923 14926 14929 14932 14935 14937 14940 14943 14946 14949 14952 14955 14958 14961 14964 14966 14969 14972 14974 14976 14979 14981 14984 14987 14990 14993 14996 14999 15002 15005 15008 15011 15014 15017 15020 15023 15026 15029 15032 15035 15038 15041 15044 15047 15050 15052 15055 15058 15061 15063 15066 15069 15072 15075 15078 15081 15084 15086 15089 15092 15095 15098 15101 15104 15107 15110 15113 15116 15119 15122 15125 15128 15131 15134 15137 15140 15143 15146 15149 15152 15155 15157 15160 15163 15166 15169 15172 15174 15177 15179 15181 15184 15187 15190 15192 15195 15198 15200 15203 15206 15209 15212 15215 15218 15221 15224 15227 15230 15233 15235 15238 15241 15244 15246 15249 15251 15254 15257 15260 15263 15266 15268 15271 15273 15276 15278 15281 15284 15287 15290 15293 15296 15299 15302 15304 15306 15308 15311 15314 15316 15319 15322 15325 15328 15331 15334 15337 15340 15343 15346 15349 15352 15355 15358 15361 15364 15367 15370 15373 15376 15379 15382 15385 15388 15391 15394 15397 15400 15403 15406 15409 15412 15415 15418 15421 15424 15427 15429 15432 15435 15438 15441 15444 15447 15450 15452 15455 15458 15460 15463 15466 15469 15472 15475 15478 15481 15484 15487 15490 15493 15496 15499 15502 15505 15508 15511 15514 15517 15520 15523 15526 15529 15531 15534 15537 15540 15543 15546 15549 15552 15555 15558 15561 15563 15566 15569 15572 15575 15577 15580 15583 15586 15589 15591 15594 15596 15598 15601 15604 15607 15610 15612 15615 15618 15620 15623 15626 15628 15630 15633 15636 15639 15642 15645 15648 15651 15653 15656 15659 15662 15665 15668 15671 15674 15677 15680 15683 15686 15689 15692 15694 15697 15700 15703 15706 15709 15712 15715 15717 15719 15722 15724 15727 15729 15732 15735 15738 15740 15743 15746 15749 15752 15755 15757 15760 15763 15765 15768 15771 15774 15777 15780 15783 15786 15788 15791 15794 15797 15800 15803 15806 15809 15812 15814 15817 15820 15823 15825 15828 15831 15834 15837 15840 15842 15844 15847 15850 15852 15855 15858 15861 15864 15867 15870 15873 15876 15879 15882 15885 15888 15891 15894 15896 15899 15902 15904 15907 15909 15912 15915 15918 15921 15923 15926 15929 15932 15935 15938 15940 15943 15946 15948 15950 15953 15956 15959 15962 15964 15967 15970 15973 15976 15979 15982 15985 15988 15990 15993 15995 15998 16001 16004 16007 16010 16013 16016 16019 16021 16024 16027 16030 16033 16035 16038 16041 16044 16047 16050 16053 16056 16059 16062 16065 16068 16071 16074 16077 16080 16083 16086 16089 16092 16095 16098 16101 16104 16107 16110 16113 16116 16119 16122 16125 16128 16131 16134 16136 16139 16142 16145 16148 16151 16154 16157 16159 16162 16165 16168 16171 16174 16177 16180 16183 16186 16189 16192 16195 16197 16200 16203 16206 16209 16211 16214 16217 16220 16223 16226 16229 16232 16235 16238 16241 16244 16247 16250 16252 16255 16258 16260 16263 16266 16269 16272 16274 16277 16280 16283 16286 16289 16292 16295 16298 16301 16304 16307 16309 16312 16314 16317 16320 16322 16325 16328 16331 16334 16336 16339 16342 16345 16348 16351 16354 16357 16360 16363 16366 16369 16372 16375 16378 16381 16384 16387 16390 16393 16396 16399 16402 16405 16408 16411 16414 16417 16420 16422 16425 16428 16431 16434 16436 16439 16442 16445 16448 16451 16454 16457 16460 16463 16465 16468 16471 16474 16476 16479 16482 16485 16488 16491 16494 16496 16499 16501 16504 16506 16509 16512 16515 16518 16521 16524 16527 16530 16533 16536 16539 16542 16545 16548 16551 16554 16557 16560 16563 16566 16569 16572 16575 16578 16581 16584 16587 16590 16593 16596 16599 16602 16605 16608 16611 16613 16616 16618 16621 16624 16627 16630 16633 16636 16639 16642 16644 16647 16650 16653 16656 16659 16662 16665 16668 16671 16674 16677 16680 16682 16685 16688 16691 16694 16697 16700 16703 16706 16709 16712 16715 16718 16721 16723 16726 16729 16731 16734 16737 16740 16743 16745 16748 16751 16754 16757 16759 16762 16765 16768 16771 16774 16776 16778 16781 16783 16786 16789 16791 16794 16797 16800 16803 16805 16808 16810 16813 16816 16819 16822 16825 16828 16831 16834 16836 16839 16842 16845 16848 16850 16853 16856 16859 16862 16865 16868 16871 16874 16877 16880 16883 16886 16889 16892 16895 16898 16901 16904 16907 16910 16913 16916 16918 16921 16924 16927 16930 16933 16936 16939 16942 16945 16948 16951 16954 16957 16960 16963 16966 16969 16972 16975 16978 16981 16983 16986 16989 16992 16995 16998 17001 17004 17006 17009 17011 17014 17017 17020 17023 17026 17029 17032 17035 17038 17041 17044 17047 17050 17053 17056 17059 17062 17065 17068 17071 17074 17077 17080 17083 17086 17089 17091 17094 17097 17100 17103 17106 17108 17111 17113 17116 17119 17122 17125 17127 17129 17131 17134 17136 17139 17142 17145 17147 17150 17153 17156 17159 17161 17164 17166 17169 17172 17175 17178 17180 17183 17186 17189 17191 17193 17195 17198 17200 17203 17205 17208 17211 17213 17216 17219 17222 17225 17228 17231 17234 17237 17240 17243 17245 17248 17250 17253 17255 17258 17261 17264 17267 17269 17272 17275 17278 17281 17283 17286 17289 17292 17295 17298 17301 17304 17307 17310 17313 17315 17318 17320 17323 17326 17328 17331 17334 17336 17339 17342 17345 17348 17351 17353 17356 17359 17362 17365 17368 17371 17374 17377 17380 17383 17386 17389 17391 17394 17397 17400 17402 17405 17408 17411 17414 17417 17419 17422 17425 17428 17431 17434 17437 17440 17443 17446 17449 17452 17455 17458 17461 17464 17467 17470 17473 17476 17479 17482 17484 17487 17490 17493 17496 17498 17501 17504 17507 17509 17512 17514 17517 17520 17522 17525 17527 17530 17533 17536 17539 17542 17545 17547 17550 17553 17556 17559 17561 17564 17566 17569 17572 17575 17578 17581 17584 17587 17589 17592 17595 17598 17601 17604 17607 17610 17612 17615 17618 17621 17624 17627 17630 17633 17636 17639 17642 17645 17648 17651 17654 17657 17660 17663 17665 17668 17671 17674 17676 17679 17682 17685 17688 17691 17694 17697 17700 17703 17706 17709 17712 17715 17718 17720 17723 17726 17729 17732 17735 17738 17741 17744 17747 17750 17753 17756 17759 17762 17765 17768 17771 17774 17777 17780 17783 17786 17789 17792 17795 17798 17801 17803 17806 17808 17811 17814 17817 17819 17822 17825 17828 17830 17833 17836 17838 17840 17843 17846 17849 17852 17855 17858 17861 17864 17866 17869 17872 17874 17877 17880 17883 17886 17888 17891 17893 17896 17899 17902 17904 17907 17910 17913 17916 17919 17922 17925 17928 17931 17934 17936 17939 17942 17944 17947 17950 17952 17955 17958 17961 17964 17967 17970 17973 17975 17978 17981 17983 17985 17988 17991 17994 17996 17999 18002 18005 18008 18011 18014 18016 18019 18022 18025 18028 18030 18033 18036 18039 18041 18044 18047 18050 18053 18055 18058 18061 18063 18066 18069 18072 18075 18078 18081 18084 18087 18090 18093 18096 18098 18101 18104 18107 18110 18112 18115 18117 18120 18122 18125 18127 18130 18133 18136 18139 18142 18145 18148 18151 18154 18157 18160 18162 18164 18167 18170 18173 18176 18179 18182 18184 18187 18190 18192 18195 18198 18201 18204 18207 18210 18212 18215 18218 18221 18223 18226 18228 18231 18234 18237 18239 18242 18245 18248 18251 18254 18257 18259 18262 18265 18268 18271 18274 18277 18279 18282 18284 18287 18290 18293 18295 18298 18301 18304 18307 18309 18312 18315 18318 18321 18324 18327 18330 18332 18335 18337 18340 18342 18345 18348 18351 18353 18355 18358 18361 18363 18366 18369 18372 18375 18378 18380 18383 18385 18387 18389 18391 18394 18397 18400 18403 18406 18408 18410 18413 18416 18418 18421 18424 18427 18429 18432 18435 18438 18441 18444 18447 18450 18453 18456 18458 18461 18464 18467 18469 18472 18475 18478 18481 18484 18487 18490 18492 18495 18497 18500 18503 18506 18509 18511 18514 18516 18519 18522 18525 18528 18530 18533 18536 18539 18542 18545 18548 18551 18554 18557 18559 18562 18565 18568 18571 18574 18577 18580 18583 18586 18589 18592 18595 18598 18601 18604 18607 18610 18613 18616 18619 18622 18624 18627 18630 18633 18636 18638 18641 18644 18647 18650 18653 18655 18658 18660 18663 18666 18669 18672 18675 18678 18681 18684 18687 18690 18693 18695 18698 18700 18703 18705 18707 18710 18712 18715 18717 18720 18723 18726 18728 18731 18734 18737 18739 18742 18745 18748 18751 18753 18756 18758 18761 18764 18767 18770 18773 18776 18779 18782 18784 18787 18790 18793 18796 18799 18802 18805 18808 18810 18813 18816 18819 18822 18825 18828 18831 18834 18837 18839 18842 18845 18847 18850 18853 18856 18858 18861 18864 18867 18870 18873 18876 18879 18882 18885 18888 18891 18894 18896 18899 18902 18905 18908 18910 18913 18916 18919 18922 18925 18928 18930 18933 18936 18939 18942 18944 18947 18949 18952 18955 18958 18961 18964 18967 18970 18972 18975 18978 18981 18983 18985 18988 18991 18994 18997 18999 19002 19004 19007 19010 19012 19015 19018 19021 19024 19027 19030 19033 19036 19039 19042 19045 19048 19051 19054 19057 19060 19063 19066 19069 19072 19075 19078 19081 19084 19087 19090 19093 19096 19099 19102 19105 19108 19111 19114 19117 19119 19122 19125 19128 19130 19133 19136 19139 19142 19145 19148 19151 19154 19157 19160 19163 19166 19169 19171 19174 19176 19179 19182 19185 19188 19191 19194 19197 19200 19203 19206 19209 19212 19215 19217 19220 19223 19225 19228 19231 19234 19237 19240 19242 19245 19248 19251 19254 19257 19260 19263 19266 19269 19272 19275 19278 19281 19284 19287 19290 19293 19296 19299 19301 19303 19306 19309 19311 19314 19317 19319 19322 19325 19328 19331 19334 19337 19340 19342 19345 19348 19351 19354 19356 19359 19362 19365 19368 19371 19374 19377 19380 19383 19386 19389 19392 19395 19398 19400 19403 19406 19408 19411 19414 19417 19420 19423 19426 19429 19431 19433 19436 19439 19442 19445 19448 19451 19454 19457 19460 19463 19466 19469 19472 19475 19478 19481 19483 19486 19489 19492 19495 19497 19500 19503 19505 19508 19511 19513 19516 19519 19522 19525 19528 19531 19534 19537 19540 19543 19546 19549 19551 19554 19557 19560 19563 19565 19568 19571 19574 19577 19580 19583 19586 19589 19592 19594 19596 19598 19601 19604 19607 19609 19612 19615 19617 19619 19622 19624 19627 19630 19633 19635 19638 19641 19644 19647 19650 19653 19656 19659 19662 19665 19668 19671 19674 19677 19680 19683 19686 19689 19692 19695 19698 19701 19704 19707 19710 19713 19716 19719 19722 19725 19728 19731 19734 19737 19740 19743 19746 19749 19752 19755 19758 19761 19764 19767 19770 19773 19776 19779 19781 19784 19786 19789 19792 19795 19798 19801 19804 19807 19810 19813 19815 19818 19821 19824 19827 19830 19833 19835 19838 19841 19844 19847 19850 19852 19855 19858 19861 19864 19867 19870 19873 19876 19879 19882 19885 19888 19891 19894 19897 19899 19902 19905 19908 19911 19914 19917 19920 19922 19925 19928 19931 19934 19937 19939 19941 19944 19947 19950 19953 19955 19958 19961 19964 19967 19970 19973 19976 19979 19982 19985 19988 19991 19994 19997 20000 20003 20006 20009 20012 20015 20018 20020 20023 20026 20029 20032 20035 20038 20040 20043 20046 20049 20051 20054 20057 20060 20063 20066 20069 20072 20075 20078 20081 20084 20087 20090 20093 20096 20099 20102 20105 20107 20110 20112 20115 20118 20121 20124 20127 20129 20131 20134 20137 20140 20142 20145 20148 20151 20154 20157 20160 20162 20165 20168 20171 20174 20177 20179 20182 20184 20187 20190 20192 20195 20198 20201 20204 20206 20209 20212 20215 20218 20220 20223 20226 20229 20232 20234 20237 20240 20243 20246 20249 20252 20255 20258 20261 20264 20267 20270 20273 20275 20278 20281 20284 20287 20290 20293 20296 20299 20302 20305 20308 20311 20314 20317 20320 20323 20325 20328 20331 20334 20337 20339 20342 20345 20348 20351 20353 20356 20359 20362 20365 20368 20371 20374 20377 20380 20383 20385 20388 20391 20394 20397 20399 20402 20405 20408 20411 20414 20417 20420 20423 20426 20429 20432 20435 20438 20441 20444 20446 20449 20452 20455 20457 20460 20463 20466 20469 20472 20475 20478 20481 20484 20487 20490 20493 20496 20499 20501 20504 20507 20510 20513 20516 20519 20522 20525 20528 20531 20534 20536 20539 20542 20544 20547 20550 20553 20556 20559 20562 20564 20566 20569 20572 20575 20578 20580 20583 20585 20588 20591 20594 20596 20599 20602 20604 20607 20610 20613 20616 20619 20622 20625 20628 20631 20634 20637 20640 20643 20646 20649 20652 20654 20657 20660 20663 20666 20669 20672 20675 20678 20680 20682 20685 20688 20691 20693 20695 20698 20700 20703 20705 20708 20711 20714 20717 20719 20722 20725 20728 20731 20734 20737 20740 20743 20746 20749 20752 20755 20758 20760 20763 20765 20768 20771 20774 20777 20780 20783 20786 20789 20791 20793 20796 20799 20801 20803 20805 20808 20811 20814 20817 20820 20823 20825 20828 20831 20833 20836 20839 20841 20843 20845 20847 20850 20853 20856 20859 20862 20865 20868 20871 20874 20877 20880 20883 20886 20888 20891 20894 20896 20899 20901 20904 20907 20910 20913 20916 20919 20922 20924 20926 20929 20932 20934 20937 20940 20942 20945 20948 20951 20954 20956 20958 20960 20962 20965 20968 20971 20974 20977 20980 20983 20986 20989 20992 20995 20998 21001 21004 21006 21009 21012 21014 21017 21020 21023 21026 21028 21031 21034 21037 21039 21042 21045 21047 21050 21053 21055 21058 21061 21063 21065 21068 21070 21073 21076 21079 21082 21085 21088 21090 21093 21096 21099 21102 21104 21107 21110 21113 21116 21119 21121 21124 21127 21129 21132 21134 21136 21139 21142 21145 21147 21150 21153 21156 21159 21162 21164 21167 21170 21173 21175 21178 21181 21184 21186 21189 21192 21195 21198 21201 21204 21207 21209 21212 21215 21218 21221 21224 21226 21229 21232 21235 21238 21241 21244 21247 21249 21252 21254 21256 21259 21262 21264 21267 21270 21273 21276 21279 21282 21284 21287 21290 21293 21296 21299 21302 21304 21307 21310 21313 21316 21319 21322 21324 21327 21329 21332 21334 21337 21340 21342 21345 21348 21351 21354 21356 21358 21360 21362 21365 21368 21371 21374 21377 21380 21383 21386 21388 21391 21394 21397 21399 21402 21404 21407 21410 21413 21416 21419 21422 21425 21428 21431 21434 21437 21440 21443 21446 21449 21452 21454 21457 21459 21462 21465 21468 21471 21474 21477 21480 21483 21485 21488 21491 21494 21497 21500 21502 21505 21508 21510 21513 21516 21519 21522 21525 21528 21530 21532 21535 21538 21540 21543 21546 21549 21552 21555 21558 21561 21564 21567 21570 21573 21575 21577 21580 21583 21586 21589 21591 21594 21597 21600 21603 21606 21609 21612 21615 21617 21620 21623 21626 21629 21631 21634 21637 21640 21643 21646 21649 21651 21654 21656 21659 21661 21664 21667 21670 21673 21676 21679 21682 21685 21688 21691 21694 21697 21700 21703 21706 21709 21712 21715 21717 21720 21723 21726 21729 21732 21735 21738 21741 21744 21747 21750 21753 21756 21759 21762 21765 21768 21770 21772 21775 21778 21781 21784 21787 21790 21793 21796 21799 21802 21805 21808 21811 21814 21817 21820 21823 21826 21829 21832 21835 21838 21841 21844 21847 21850 21853 21856 21859 21862 21865 21868 21871 21874 21877 21880 21883 21886 21889 21892 21895 21898 21901 21904 21907 21909 21912 21914 21917 21920 21923 21926 21929 21932 21935 21937 21940 21943 21946 21948 21951 21953 21955 21957 21960 21962 21964 21967 21970 21972 21974 21976 21979 21982 21985 21988 21991 21993 21996 21998 22000 22003 22006 22009 22012 22015 22018 22021 22023 22026 22029 22031 22034 22037 22039 22041 22044 22047 22050 22053 22056 22059 22061 22064 22067 22069 22071 22074 22077 22079 22082 22085 22088 22090 22093 22096 22099 22102 22104 22107 22110 22113 22115 22118 22121 22123 22126 22129 22132 22135 22138 22141 22144 22147 22150 22153 22156 22159 22162 22165 22168 22171 22174 22177 22180 22182 22184 22187 22190 22193 22195 22198 22201 22204 22207 22209 22212 22215 22218 22221 22224 22226 22228 22231 22234 22237 22240 22243 22246 22249 22252 22255 22257 22260 22263 22266 22269 22272 22275 22278 22281 22284 22287 22290 22293 22296 22299 22302 22305 22308 22311 22314 22317 22320 22323 22326 22329 22332 22335 22338 22340 22343 22345 22347 22350 22353 22356 22359 22362 22365 22368 22371 22374 22377 22380 22383 22386 22389 22392 22395 22398 22401 22404 22407 22410 22413 22416 22419 22422 22425 22428 22430 22433 22436 22438 22441 22444 22446 22449 22452 22454 22457 22459 22462 22465 22468 22471 22474 22477 22480 22482 22485 22488 22491 22494 22497 22500 22503 22506 22509 22512 22515 22518 22520 22523 22525 22528 22530 22533 22536 22539 22542 22545 22547 22550 22553 22556 22559 22561 22564 22567 22569 22572 22575 22578 22581 22584 22587 22590 22593 22595 22598 22601 22604 22607 22610 22613 22615 22618 22621 22624 22627 22629 22632 22635 22638 22640 22643 22646 22649 22652 22655 22658 22661 22664 22667 22670 22673 22676 22679 22682 22685 22688 22691 22694 22696 22699 22701 22704 22707 22710 22712 22715 22718 22721 22724 22727 22730 22733 22736 22739 22742 22745 22748 22751 22754 22757 22760 22763 22766 22769 22771 22774 22777 22780 22782 22785 22788 22791 22793 22796 22799 22802 22805 22808 22811 22814 22817 22820 22823 22826 22829 22832 22835 22838 22840 22843 22846 22849 22852 22854 22857 22860 22862 22865 22868 22871 22874 22877 22880 22882 22885 22887 22890 22892 22894 22896 22899 22902 22905 22907 22909 22912 22915 22918 22921 22924 22927 22930 22932 22935 22938 22941 22943 22946 22948 22951 22954 22957 22960 22963 22966 22969 22972 22975 22977 22980 22983 22986 22989 22992 22995 22998 23001 23003 23006 23009 23012 23015 23017 23020 23023 23026 23029 23032 23035 23038 23041 23044 23047 23050 23053 23056 23059 23062 23065 23068 23071 23074 23077 23080 23082 23084 23087 23090 23093 23096 23099 23102 23105 23108 23110 23113 23116 23119 23122 23125 23128 23131 23134 23137 23140 23142 23145 23148 23151 23154 23157 23160 23162 23165 23168 23171 23174 23177 23179 23182 23184 23187 23190 23192 23194 23197 23200 23203 23206 23209 23212 23215 23218 23221 23224 23227 23230 23233 23236 23239 23242 23245 23248 23251 23254 23257 23260 23263 23266 23269 23272 23275 23278 23281 23284 23287 23290 23293 23296 23299 23302 23305 23308 23311 23314 23317 23320 23323 23326 23329 23332 23335 23338 23340 23342 23345 23348 23350 23353 23356 23359 23362 23365 23367 23369 23372 23375 23377 23379 23382 23385 23388 23391 23394 23397 23400 23403 23406 23409 23411 23414 23417 23420 23423 23426 23429 23432 23435 23438 23441 23444 23447 23450 23453 23456 23458 23461 23464 23467 23470 23473 23476 23479 23482 23485 23488 23491 23494 23497 23499 23502 23504 23506 23508 23511 23514 23517 23520 23523 23526 23529 23532 23534 23536 23539 23542 23545 23548 23550 23553 23556 23559 23562 23565 23568 23571 23574 23576 23579 23582 23585 23588 23591 23594 23597 23600 23603 23606 23609 23612 23615 23618 23621 23624 23627 23629 23632 23635 23638 23641 23644 23647 23649 23652 23655 23657 23660 23663 23666 23669 23672 23675 23678 23681 23684 23687 23690 23693 23696 23699 23702 23705 23708 23711 23713 23716 23719 23722 23724 23727 23730 23732 23735 23737 23739 23742 23745 23747 23750 23753 23756 23758 23761 23764 23766 23769 23771 23773 23776 23779 23782 23785 23787 23790 23793 23796 23799 23802 23805 23807 23810 23812 23815 23818 23821 23823 23826 23829 23832 23835 23837 23840 23842 23844 23847 23850 23853 23856 23859 23861 23864 23866 23869 23871 23874 23876 23878 23881 23884 23887 23890 23893 23896 23899 23901 23904 23906 23909 23912 23914 23917 23920 23922 23925 23928 23931 23934 23937 23940 23943 23946 23949 23952 23955 23958 23961 23964 23967 23970 23973 23976 23979 23982 23985 23988 23991 23994 23997 24000 24003 24006 24009 24012 24015 24017 24020 24023 24026 24029 24032 24035 24038 24041 24044 24047 24050 24053 24056 24059 24062 24065 24068 24071 24074 24077 24080 24083 24086 24088 24091 24094 24097 24100 24103 24105 24107 24110 24113 24116 24119 24122 24125 24128 24131 24134 24137 24140 24143 24146 24149 24152 24155 24158 24161 24164 24167 24170 24172 24175 24178 24181 24184 24187 24190 24193 24196 24199 24202 24205 24208 24211 24213 24216 24218 24221 24224 24227 24229 24232 24235 24238 24241 24244 24247 24250 24253 24255 24258 24260 24263 24266 24269 24272 24275 24277 24280 24283 24286 24289 24292 24295 24298 24301 24304 24307 24310 24312 24315 24318 24321 24324 24327 24330 24333 24336 24339 24342 24345 24347 24350 24353 24356 24359 24362 24365 24368 24371 24373 24376 24379 24382 24385 24388 24391 24394 24397 24400 24403 24406 24409 24412 24415 24418 24421 24424 24427 24430 24433 24436 24439 24442 24445 24448 24451 24453 24456 24459 24461 24464 24467 24470 24473 24476 24479 24482 24485 24488 24491 24494 24497 24500 24503 24506 24509 24512 24515 24518 24521 24524 24527 24530 24533 24536 24539 24542 24545 24547 24550 24552 24555 24557 24560 24563 24566 24569 24572 24574 24577 24580 24583 24586 24588 24591 24594 24597 24599 24602 24605 24608 24611 24614 24617 24620 24623 24626 24629 24632 24635 24638 24641 24644 24647 24650 24653 24655 24657 24659 24662 24665 24668 24671 24674 24677 24680 24683 24686 24689 24692 24695 24698 24700 24703 24706 24709 24712 24715 24718 24721 24724 24727 24730 24733 24736 24738 24741 24744 24746 24749 24752 24755 24758 24761 24764 24767 24770 24773 24776 24779 24782 24785 24788 24791 24794 24797 24800 24803 24806 24809 24811 24813 24816 24819 24822 24825 24828 24831 24834 24837 24840 24843 24846 24849 24852 24855 24857 24860 24863 24865 24868 24871 24874 24877 24879 24882 24885 24888 24891 24894 24897 24899 24902 24905 24908 24911 24914 24917 24920 24923 24926 24929 24932 24935 24938 24941 24944 24947 24950 24953 24955 24958 24961 24964 24967 24970 24972 24975 24978 24981 24984 24987 24990 24993 24996 24999 25002 25005 25008 25011 25014 25017 25020 25023 25026 25029 25032 25035 25038 25041 25044 25047 25050 25053 25056 25058 25061 25063 25066 25069 25072 25075 25077 25079 25082 25085 25088 25091 25094 25097 25100 25103 25106 25109 25112 25115 25118 25121 25124 25127 25130 25133 25136 25139 25142 25145 25148 25151 25154 25157 25160 25163 25166 25169 25172 25175 25178 25181 25184 25186 25189 25192 25195 25198 25200 25203 25206 25209 25212 25215 25218 25221 25224 25227 25230 25233 25235 25238 25241 25244 25247 25250 25253 25256 25259 25262 25265 25268 25271 25274 25277 25280 25283 25286 25288 25290 25293 25295 25298 25301 25304 25307 25310 25313 25316 25319 25322 25325 25327 25330 25333 25336 25339 25342 25345 25348 25351 25354 25357 25360 25363 25366 25369 25372 25375 25378 25380 25383 25386 25389 25392 25394 25397 25400 25403 25406 25409 25412 25415 25418 25421 25424 25427 25430 25433 25436 25439 25442 25445 25448 25451 25454 25457 25460 25463 25466 25469 25472 25475 25478 25481 25484 25487 25490 25493 25496 25499 25502 25505 25508 25511 25514 25517 25520 25523 25526 25529 25532 25535 25538 25541 25544 25547 25550 25553 25556 25559 25562 25565 25568 25571 25574 25577 25580 25583 25586 25589 25592 25595 25598 25601 25604 25607 25610 25613 25616 25619 25622 25625 25628 25631 25634 25637 25639 25642 25645 25648 25651 25654 25657 25660 25662 25665 25668 25670 25673 25676 25679 25682 25685 25688 25691 25694 25697 25700 25703 25706 25708 25711 25713 25716 25718 25721 25724 25727 25730 25733 25736 25739 25742 25744 25747 25750 25753 25756 25759 25762 25765 25768 25771 25773 25776 25779 25782 25785 25788 25791 25794 25797 25800 25803 25806 25809 25812 25815 25818 25821 25824 25827 25830 25833 25836 25838 25841 25844 25847 25850 25853 25856 25859 25862 25865 25868 25871 25874 25876 25879 25882 25885 25888 25891 25893 25896 25899 25901 25904 25907 25910 25913 25915 25917 25920 25923 25925 25928 25931 25934 25937 25940 25943 25946 25948 25950 25953 25956 25959 25962 25965 25968 25971 25974 25977 25980 25983 25986 25988 25991 25994 25997 26000 26002 26005 26008 26011 26014 26017 26020 26023 26026 26028 26031 26034 26037 26040 26042 26045 26048 26051 26054 26056 26059 26062 26065 26068 26071 26074 26077 26079 26082 26085 26088 26091 26094 26096 26099 26102 26105 26107 26110 26113 26116 26119 26122 26124 26127 26130 26133 26136 26139 26142 26145 26148 26151 26154 26157 26160 26163 26166 26168 26171 26174 26176 26179 26182 26185 26188 26191 26194 26197 26200 26203 26206 26209 26212 26215 26218 26221 26224 26227 26230 26233 26236 26239 26241 26244 26247 26249 26252 26255 26257 26260 26263 26266 26269 26272 26275 26278 26281 26284 26287 26290 26293 26296 26299 26302 26305 26308 26311 26314 26317 26320 26323 26326 26329 26332 26335 26338 26341 26344 26347 26349 26352 26355 26358 26361 26363 26366 26369 26371 26374 26376 26379 26382 26385 26388 26390 26393 26395 26398 26401 26403 26406 26408 26411 26413 26415 26418 26421 26423 26426 26428 26431 26433 26436 26439 26441 26444 26447 26450 26453 26456 26459 26461 26464 26466 26469 26472 26474 26476 26479 26482 26484 26487 26489 26492 26495 26497 26500 26503 26505 26508 26511 26513 26515 26517 26520 26522 26525 26528 26531 26534 26537 26540 26543 26546 26548 26551 26554 26557 26560 26563 26566 26569 26571 26574 26577 26580 26583 26586 26589 26592 26595 26598 26601 26604 26607 26610 26613 26615 26618 26621 26624 26627 26630 26633 26636 26639 26642 26645 26648 26651 26654 26657 26660 26663 26666 26669 26672 26674 26677 26680 26683 26686 26689 26692 26695 26698 26701 26704 26707 26710 26713 26716 26719 26722 26725 26728 26731 26734 26737 26740 26743 26746 26749 26752 26755 26758 26761 26764 26767 26769 26772 26775 26778 26780 26783 26785 26787 26790 26792 26795 26798 26801 26803 26806 26809 26812 26815 26817 26819 26821 26824 26827 26830 26833 26836 26839 26842 26845 26848 26851 26854 26857 26860 26863 26866 26869 26872 26874 26877 26880 26883 26886 26889 26892 26895 26898 26901 26903 26906 26909 26912 26914 26917 26920 26923 26926 26929 26932 26935 26938 26941 26944 26947 26950 26952 26955 26958 26960 26963 26966 26969 26972 26975 26978 26981 26984 26987 26990 26993 26996 26999 27002 27005 27008 27011 27014 27017 27020 27023 27026 27028 27031 27034 27037 27040 27043 27046 27049 27052 27055 27058 27061 27064 27067 27070 27073 27076 27079 27082 27084 27087 27090 27093 27096 27099 27102 27105 27107 27110 27113 27116 27119 27121 27124 27127 27130 27133 27136 27139 27142 27145 27148 27151 27154 27157 27160 27163 27166 27169 27172 27175 27178 27181 27184 27187 27190 27193 27196 27199 27202 27205 27208 27211 27214 27217 27220 27223 27226 27228 27230 27233 27236 27239 27242 27244 27247 27249 27252 27255 27258 27261 27264 27266 27269 27272 27275 27278 27281 27284 27287 27290 27292 27294 27297 27300 27303 27306 27308 27311 27314 27317 27320 27323 27326 27329 27332 27335 27338 27341 27344 27347 27350 27353 27356 27359 27362 27365 27368 27371 27373 27376 27379 27382 27385 27388 27391 27393 27396 27399 27401 27404 27407 27410 27413 27416 27419 27422 27425 27428 27430 27433 27436 27439 27442 27445 27448 27451 27454 27456 27459 27462 27465 27468 27471 27474 27477 27480 27483 27486 27489 27492 27495 27498 27501 27504 27507 27509 27512 27515 27517 27520 27523 27526 27529 27532 27535 27538 27541 27544 27547 27550 27553 27556 27559 27562 27565 27568 27571 27574 27577 27580 27583 27586 27589 27592 27595 27598 27601 27604 27606 27609 27611 27614 27617 27620 27623 27626 27629 27632 27635 27638 27641 27644 27647 27650 27653 27656 27659 27662 27665 27668 27671 27674 27677 27679 27682 27685 27688 27690 27693 27696 27699 27702 27705 27708 27711 27714 27717 27720 27723 27726 27728 27731 27734 27737 27739 27741 27744 27747 27749 27752 27755 27758 27761 27764 27767 27770 27773 27776 27778 27781 27784 27787 27790 27793 27796 27799 27802 27805 27808 27811 27814 27817 27819 27822 27824 27827 27830 27833 27836 27839 27842 27845 27848 27851 27854 27857 27860 27863 27866 27869 27872 27875 27878 27881 27884 27887 27890 27893 27896 27899 27902 27905 27908 27911 27913 27916 27919 27922 27925 27928 27931 27933 27936 27939 27942 27945 27948 27951 27954 27957 27960 27963 27966 27969 27972 27975 27978 27981 27983 27986 27988 27991 27994 27997 28000 28003 28006 28009 28011 28014 28017 28020 28022 28025 28028 28031 28034 28036 28039 28042 28045 28048 28051 28054 28056 28059 28062 28065 28068 28070 28073 28075 28078 28081 28084 28087 28090 28093 28096 28099 28101 28103 28106 28109 28112 28114 28116 28119 28122 28125 28128 28131 28134 28137 28139 28141 28144 28146 28148 28151 28154 28157 28160 28162 28165 28167 28170 28173 28176 28179 28182 28185 28187 28190 28193 28196 28199 28201 28204 28207 28210 28213 28215 28218 28221 28224 28227 28230 28232 28235 28238 28240 28243 28246 28249 28252 28254 28257 28260 28263 28266 28269 28272 28275 28278 28281 28283 28285 28288 28291 28294 28297 28300 28303 28306 28309 28312 28315 28318 28321 28324 28326 28329 28331 28334 28337 28340 28343 28346 28349 28352 28355 28358 28361 28364 28367 28370 28373 28376 28379 28382 28385 28388 28391 28394 28396 28399 28402 28405 28408 28411 28414 28417 28420 28423 28426 28429 28432 28435 28438 28441 28444 28447 28450 28453 28456 28459 28462 28465 28468 28471 28474 28476 28479 28482 28485 28488 28491 28494 28497 28500 28502 28505 28507 28510 28513 28516 28519 28522 28525 28527 28530 28533 28536 28539 28542 28545 28548 28551 28554 28557 28560 28563 28566 28569 28572 28575 28578 28581 28584 28587 28590 28593 28596 28599 28602 28605 28607 28610 28613 28616 28619 28622 28625 28628 28631 28633 28636 28639 28641 28644 28647 28649 28652 28655 28658 28661 28664 28666 28669 28672 28675 28678 28681 28684 28687 28690 28693 28695 28698 28701 28704 28707 28710 28713 28716 28719 28722 28725 28728 28731 28734 28737 28740 28742 28745 28748 28751 28754 28757 28760 28763 28766 28768 28771 28774 28777 28780 28783 28786 28789 28792 28795 28798 28801 28804 28807 28810 28813 28816 28819 28822 28824 28827 28829 28832 28834 28837 28840 28842 28844 28847 28850 28853 28856 28859 28862 28865 28868 28871 28874 28877 28880 28883 28886 28888 28891 28894 28897 28900 28903 28906 28908 28911 28914 28917 28919 28922 28925 28928 28931 28934 28937 28940 28943 28946 28949 28952 28955 28957 28960 28963 28966 28969 28971 28973 28975 28978 28981 28984 28987 28990 28993 28996 28998 29001 29004 29006 29009 29011 29014 29016 29019 29022 29025 29028 29031 29033 29036 29039 29042 29045 29048 29051 29054 29057 29060 29063 29066 29069 29072 29075 29078 29081 29084 29087 29090 29093 29095 29098 29101 29104 29106 29109 29111 29113 29115 29118 29121 29124 29127 29130 29132 29135 29138 29141 29144 29147 29150 29153 29156 29159 29162 29165 29168 29171 29174 29177 29180 29183 29186 29189 29192 29195 29198 29201 29204 29207 29210 29212 29215 29218 29220 29223 29226 29229 29232 29235 29238 29241 29244 29246 29249 29251 29254 29257 29260 29263 29266 29269 29272 29275 29277 29280 29283 29286 29289 29291 29294 29297 29299 29302 29305 29307 29310 29313 29316 29318 29321 29324 29327 29330 29333 29336 29339 29342 29345 29348 29351 29354 29357 29360 29363 29366 29369 29372 29375 29378 29380 29383 29386 29389 29392 29395 29398 29400 29403 29406 29409 29412 29415 29417 29420 29423 29426 29429 29432 29434 29437 29439 29441 29444 29447 29450 29453 29456 29459 29462 29465 29468 29471 29474 29477 29479 29482 29485 29488 29491 29493 29496 29498 29500 29503 29506 29509 29511 29514 29517 29520 29523 29526 29529 29532 29535 29538 29541 29544 29547 29550 29553 29556 29559 29562 29565 29568 29571 29574 29577 29579 29582 29584 29587 29590 29592 29595 29598 29600 29603 29606 29608 29611 29614 29617 29619 29621 29624 29627 29630 29633 29636 29639 29642 29644 29647 29650 29653 29656 29659 29662 29665 29668 29670 29673 29676 29679 29682 29685 29688 29691 29693 29696 29699 29702 29704 29707 29709 29711 29714 29717 29720 29722 29725 29728 29731 29734 29737 29740 29743 29746 29749 29752 29755 29758 29761 29764 29767 29770 29773 29776 29779 29782 29785 29788 29790 29793 29796 29798 29801 29804 29807 29809 29812 29815 29818 29821 29824 29827 29830 29832 29834 29837 29840 29842 29845 29848 29851 29854 29857 29860 29863 29866 29869 29872 29875 29878 29881 29884 29887 29890 29893 29896 29899 29902 29905 29908 29911 29914 29917 29920 29923 29926 29929 29932 29935 29938 29941 29944 29947 29949 29952 29955 29958 29961 29964 29967 29970 29972 29975 29978 29980 29983 29986 29988 29991 29994 29997 30000 30003 30006 30009 30012 30015 30018 30021 30024 30027 30030 30033 30036 30039 30042 30045 30047 30050 30053 30056 30059 30061 30064 30067 30070 30073 30076 30079 30082 30085 30088 30091 30093 30096 30099 30102 30105 30107 30110 30113 30116 30119 30121 30123 30126 30128 30131 30134 30137 30140 30143 30146 30149 30152 30155 30158 30161 30164 30167 30170 30172 30175 30178 30181 30184 30187 30190 30193 30196 30199 30201 30204 30207 30210 30213 30216 30219 30222 30225 30228 30231 30234 30237 30240 30243 30246 30249 30252 30255 30258 30261 30264 30267 30270 30273 30276 30279 30282 30285 30288 30291 30294 30297 30300 30303 30306 30309 30312 30315 30318 30321 30324 30326 30329 30332 30335 30338 30340 30343 30346 30348 30351 30354 30357 30360 30363 30366 30368 30370 30373 30376 30379 30382 30384 30387 30390 30393 30396 30399 30402 30405 30408 30411 30414 30417 30420 30423 30426 30429 30432 30435 30438 30441 30444 30447 30450 30453 30456 30459 30462 30465 30468 30471 30474 30477 30480 30483 30486 30489 30492 30495 30498 30501 30504 30507 30510 30513 30516 30519 30522 30525 30528 30531 30534 30537 30540 30543 30546 30549 30552 30555 30558 30561 30564 30567 30569 30572 30575 30578 30581 30584 30586 30589 30591 30594 30597 30600 30603 30606 30609 30612 30615 30618 
</DataArray>
<DataArray type="UInt32" Name="types" format="ascii">
3 5 5 5 5 5 5 5 5 3 5 5 5 3 5 5 5 5 5 5 5 5 5 5 5 5 5 5 5 3 5 5 3 5 5 5 3 5 5 5 3 5 5 5 5 5 5 5 5 3 5 5 5 5 5 5 3 5 5 5 5 5 5 5 5 5 3 5 5 3 5 5 5 3 5 3 5 3 3 5 5 5 5 5 5 5 5 5 3 5 3 5 5 3 5 5 5 5 5 5 5 5 5 5 5 5 5 5 5 3 5 5 5 5 3 5 5 3 3 5 5 3 5 5 5 3 3 3 5 3 5 5 5 5 5 5 5 5 5 3 3 5 5 5 5 5 5 3 5 5 5 5 5 3 3 5 5 3 5 5 3 3 5 3 3 5 5 5 5 5 5 5 5 5 5 5 5 3 5 5 3 5 5 5 5 5 5 5 5 5 5 5 5 5 5 5 5 5 5 5 5 3 5 5 5 5 5 5 5 5 5 5 5 5 5 5 5 3 5 5 3 5 5 5 5 3 3 5 5 5 5 5 5 5 5 5 5 5 5 5 5 5 3 5 5 5 3 5 5 5 5 5 5 5 5 3 3 5 5 5 5 5 5 5 5 5 3 5 5 5 5 5 3 5 3 5 5 5 5 5 3 3 5 5 5 3 5 3 5 5 5 3 5 3 5 5 3 5 5 5 3 5 5 5 5 5 3 3 5 5 3 5 3 3 5 5 3 5 3 5 5 5 5 3 5 3 5 5 3 3 3 5 3 5 3 3 5 5 5 5 5 5 5 5 5 3 5 5 5 5 5 5 5 5 5 5 5 5 5 5 5 5 5 5 5 5 5 5 5 5 3 5 3 5 5 5 5 5 3 5 3 5 5 3 5 5 5 5 3 5 3 5 5 5 5 5 5 5 5 5 5 5 5 5 3 5 5 3 5 5 5 5 5 5 5 5 5 5 5 5 5 5 5 5 5 3 5 5 5 5 5 5 5 5 5 5 3 5 5 5 3 3 5 5 5 5 5 5 5 5 5 5 5 5 5 5 5 5 5 5 5 5 5 5 5 3 5 5 3 5 5 3 5 3 5 5 5 3 5 3 3 5 5 5 5 5 5 5 5 5 5 3 5 5 5 5 5 5 5 5 5 5 5 5 5 5 5 5 5 5 5 5 5 5 5 5 5 5 5 5 5 5 5 5 3 5 5 5 5 3 5 5 5 5 5 5 5 3 5 5 5 5 5 5 5 5 5 3 5 3 3 5 5 3 5 3 5 5 5 5 5 5 5 5 3 5 5 5 5 5 3 5 5 5 5 5 5 3 5 5 5 5 5 5 5 5 3 5 3 5 5 5 5 5 3 5 3 5 5 5 5 5 5 3 5 5 5 5 5 5 5 5 5 5 3 3 5 5 5 5 3 5 5 5 5 5 5 5 5 5 5 5 5 3 5 5 3 5 5 5 5 5 5 5 5 5 5 3 3 5 5 5 5 5 5 5 5 5 5 3 5 3 5 5 5 5 5 5 5 5 5 5 5 5 5 5 5 5 5 5 5 5 5 5 5 5 5 5 5 5 5 5 5 5 5 5 5 5 5 5 5 3 5 5 5 3 5 3 5 3 5 5 3 5 3 5 3 5 5 3 5 5 5 5 5 5 5 5 3 5 5 3 5 5 5 5 3 5 5 5 5 5 5 5 5 5 5 3 5 3 5 3 5 3 5 3 5 5 5 3 5 3 5 5 5 5 5 5 5 5 5 5 5 5 3 5 5 3 3 5 5 5 3 5 5 3 5 5 3 5 5 5 3 5 5 5 5 5 3 5 5 3 3 5 5 5 3 3 3 5 5 3 5 5 3 5 5 5 5 5 5 3 5 5 3 5 5 3 5 5 5 5 5 5 5 5 3 5 5 5 5 5 3 3 3 5 5 5 5 5 5 5 5 5 5 5 3 5 5 5 5 3 5 5 5 5 5 5 5 3 5 5 5 3 5 3 5 3 5 3 5 5 5 5 5 5 5 5 5 5 3 5 5 5 5 5 5 5 5 3 5 5 3 5 5 5 5 3 5 5 5 5 5 5 3 5 3 5 5 5 5 5 5 3 3 5 5 5 5 3 5 3 5 5 5 3 5 5 5 5 5 5 5 3 3 5 5 3 5 3 3 3 5 5 5 5 5 5 5 3 5 5 5 5 5 5 5 5 5 5 5 5 5 3 5 5 5 5 5 5 5 5 5 5 3 5 5 3 5 5 5 5 5 3 5 5 5 5 5 5 5 5 3 5 3 5 5 3 5 5 3 5 5 5 5 3 5 5 5 5 5 3 5 5 5 5 5 5 5 5 5 3 5 5 3 3 5 5 5 5 3 5 3 5 5 3 3 5 3 5 3 5 5 5 5 5 3 5 5 5 3 5 5 5 3 5 5 5 5 5 5 5 5 5 5 3 5 5 5 5 5 5 5 5 5 5 5 5 5 5 5 5 5 5 3 5 5 3 5 5 5 5 3 5 5 5 5 5 5 5 5 5 5 5 5 5 5 5 5 5 5 5 5 5 5 5 5 5 5 5 5 5 5 5 5 5 5 5 5 5 5 5 5 5 5 5 5 5 5 5 5 5 5 5 5 5 5 5 5 5 5 3 5 5 5 5 5 5 5 5 5 5 5 5 5 5 5 5 5 5 5 3 5 5 5 5 3 5 5 5 5 5 5 5 5 5 5 5 5 5 5 5 5 5 5 3 5 5 5 5 3 5 5 5 5 5 3 3 5 5 5 5 5 5 5 5 5 5 5 5 5 5 5 5 5 5 3 5 5 5 3 5 3 5 5 5 5 5 5 5 5 5 3 5 5 5 5 3 3 5 5 5 5 5 5 5 5 5 5 5 5 5 5 5 5 5 5 5 3 5 5 5 5 5 5 5 5 5 5 5 5 5 3 5 5 5 5 5 5 5 5 5 5 5 5 5 5 5 5 5 5 5 5 5 5 3 5 5 5 5 5 5 5 3 5 5 5 3 5 5 5 5 5 5 5 5 5 5 5 5 5 5 5 5 5 5 5 5 5 5 5 5 3 5 3 5 5 5 5 3 5 3 5 5 5 5 5 5 5 3 5 5 5 5 3 5 5 5 5 5 5 5 5 5 5 5 3 5 5 5 5 5 5 3 5 3 5 5 5 5 5 3 5 5 3 5 5 3 5 5 5 5 5 5 5 5 5 5 5 5 5 5 5 5 5 5 5 5 5 5 5 5 5 5 5 3 5 5 5 3 5 3 5 5 3 3 5 5 5 3 5 5 5 5 3 5 3 5 5 3 5 5 5 5 5 3 5 5 5 5 5 3 5 5 5 5 5 5 5 5 5 5 5 5 5 5 5 5 5 5 5 5 5 5 5 5 5 5 5 5 5 5 5 5 5 5 5 5 5 5 5 5 5 5 5 3 3 5 5 5 5 5 5 5 5 5 5 5 5 5 5 5 5 5 5 5 5 5 5 5 5 5 5 5 5 3 5 5 5 5 3 5 5 5 5 3 5 5 5 5 5 5 5 3 5 3 5 5 5 5 5 3 5 5 5 5 5 5 5 5 5 5 3 5 5 5 5 5 5 5 5 5 5 5 5 5 5 5 5 5 5 5 5 5 5 5 5 5 3 5 5 5 5 3 5 3 5 5 3 5 3 5 5 5 5 5 5 3 5 5 5 3 5 5 5 5 5 5 5 5 5 5 5 5 5 5 5 5 5 3 5 3 5 5 5 5 5 3 5 3 5 5 5 5 5 5 5 5 3 5 5 5 5 5 5 5 5 5 5 5 5 5 5 5 5 5 5 5 5 5 5 5 3 5 3 5 5 5 5 5 5 5 5 5 5 5 5 3 5 5 5 5 5 5 5 5 5 5 5 5 5 5 5 5 5 5 5 5 5 5 5 5 5 5 5 3 5 5 5 3 5 3 3 5 5 5 5 5 3 5 5 5 5 5 5 5 5 5 5 5 5 5 5 5 5 5 5 5 5 5 5 5 5 3 5 5 3 5 5 5 5 5 5 5 5 3 3 5 5 5 5 5 5 5 5 5 5 3 5 5 3 3 5 3 5 5 5 5 5 3 5 3 3 3 5 5 5 5 5 5 3 5 5 5 5 5 5 5 5 5 3 5 3 5 5 3 5 5 5 5 5 5 5 5 5 5 5 5 5 5 5 5 5 5 5 5 5 5 5 5 5 5 3 3 5 5 5 5 5 5 5 5 5 5 5 5 5 5 5 5 5 5 5 5 5 5 5 5 5 5 5 5 5 5 5 5 5 5 5 5 5 5 5 5 5 5 5 5 5 5 5 5 5 5 5 5 5 5 5 5 3 5 5 5 5 5 5 5 5 5 3 3 5 5 5 3 5 5 5 5 5 5 5 5 5 5 5 5 5 5 5 5 5 5 5 5 5 5 5 5 5 5 5 5 5 5 3 5 5 5 5 5 5 5 3 5 5 5 5 5 5 5 3 5 5 3 5 5 5 5 5 5 5 5 5 3 5 5 3 3 5 5 5 3 5 5 5 5 5 5 5 5 5 5 5 3 5 5 5 5 3 5 3 5 5 3 5 5 3 3 5 5 5 5 5 5 5 5 5 5 3 3 5 5 5 5 5 5 3 5 5 5 5 5 5 3 5 3 5 5 5 5 5 3 3 5 5 5 5 5 5 5 5 5 5 5 5 5 5 5 5 5 5 5 3 3 5 5 3 5 5 5 5 5 5 5 5 5 5 5 3 5 5 5 5 5 5 5 5 5 5 5 5 5 5 5 5 5 5 5 5 5 5 5 5 5 5 5 5 3 5 5 5 5 3 3 5 5 5 5 5 5 5 3 5 3 5 5 5 5 5 5 5 5 5 5 5 5 5 5 5 5 5 5 5 5 3 3 5 3 5 5 5 5 5 3 5 5 5 5 5 5 5 5 5 5 5 5 5 5 5 5 5 3 5 5 5 5 5 5 5 5 5 5 5 3 5 5 5 5 5 5 5 5 5 5 3 5 5 5 5 5 5 5 5 5 3 5 5 5 5 3 5 5 5 3 5 5 5 5 3 5 5 5 5 5 5 5 5 5 3 5 5 5 5 3 5 5 5 5 5 5 5 5 3 5 3 3 5 3 3 5 5 5 3 5 5 5 3 5 3 5 5 5 5 5 3 5 5 5 3 5 5 5 5 5 5 3 3 5 5 5 5 5 5 5 5 5 5 5 3 5 3 3 5 5 5 5 5 3 3 5 5 3 5 5 5 5 3 5 5 5 5 5 3 5 5 5 5 3 3 5 5 3 5 3 3 5 5 5 5 5 5 5 5 5 5 5 5 5 5 5 5 5 5 5 5 5 3 5 5 3 5 3 5 5 5 3 5 5 5 5 5 5 3 3 5 5 5 5 5 5 3 5 5 3 5 5 5 5 5 5 3 5 5 5 3 5 5 5 5 5 5 3 5 5 5 5 5 5 5 5 5 5 5 5 5 3 5 3 5 5 5 5 5 5 5 5 5 3 5 5 5 3 5 5 5 5 5 5 5 5 5 5 3 5 5 5 5 5 5 5 5 5 5 5 5 5 5 5 5 5 5 5 5 5 5 5 5 5 3 5 5 5 3 5 5 3 5 5 5 5 5 3 5 5 5 3 5 5 5 5 5 5 5 3 5 5 5 5 5 5 5 5 5 5 5 5 5 5 5 5 5 3 5 3 5 5 5 5 5 5 5 5 5 3 5 3 5 3 5 3 3 5 5 5 5 3 5 5 5 5 3 5 5 5 5 5 3 5 3 5 5 3 5 5 5 5 5 5 5 5 5 5 5 5 5 5 5 5 5 3 5 5 5 5 5 5 3 5 5 5 5 5 3 5 5 5 5 5 5 5 3 5 5 3 5 5 5 5 5 5 3 5 5 5 3 5 5 5 5 5 5 5 5 5 5 5 5 5 5 5 5 5 3 5 5 5 5 5 3 3 5 5 5 5 5 3 5 3 5 3 5 3 3 5 5 5 3 3 5 5 5 5 5 5 5 5 5 5 5 5 5 5 5 5 5 5 5 5 5 5 5 5 5 5 5 5 5 5 5 5 5 5 5 5 5 5 3 5 5 5 5 5 5 5 3 5 3 5 5 5 5 5 5 3 5 5 5 3 5 5 5 3 3 5 3 5 5 5 5 5 5 3 5 5 3 5 5 5 5 5 5 5 5 5 5 5 5 3 3 3 5 5 5 3 5 5 5 5 5 5 5 5 5 5 5 5 5 5 5 5 5 5 5 5 5 5 3 5 5 5 5 3 5 5 5 5 5 5 5 3 5 5 5 5 5 3 5 5 5 5 5 3 5 5 5 5 5 5 5 5 5 3 5 5 5 5 3 5 5 5 5 5 5 5 5 5 5 3 5 5 3 5 5 5 5 5 5 5 5 5 5 5 5 5 5 5 5 5 5 5 5 3 5 5 5 5 3 5 5 5 5 5 5 5 5 3 5 5 5 5 5 3 5 5 3 5 5 5 5 5 5 5 5 5 5 5 5 3 5 5 5 5 5 5 5 5 5 5 5 5 5 5 5 5 5 5 5 5 5 5 5 5 5 5 5 5 3 5 5 5 5 5 5 5 5 5 5 5 5 5 5 3 5 5 5 5 5 5 5 5 5 5 5 5 5 5 5 5 5 5 5 3 5 5 5 5 5 5 5 3 5 5 5 5 5 5 5 5 5 5 5 5 5 5 5 5 5 5 5 5 5 5 5 5 3 5 5 5 5 5 3 5 5 5 5 5 5 5 5 5 5 3 5 5 3 5 3 5 5 5 5 5 5 5 3 5 3 5 3 5 5 5 5 5 5 5 5 5 5 5 5 5 5 5 5 5 5 5 5 5 5 5 5 5 5 5 5 5 5 5 5 5 5 5 5 3 5 5 5 5 5 5 5 5 5 5 5 5 5 5 5 5 5 5 5 5 5 5 5 5 5 5 5 5 5 5 5 3 5 5 5 5 5 5 3 3 5 5 5 5 5 5 5 5 5 5 5 5 5 3 5 5 5 5 5 5 5 5 5 5 3 3 5 3 5 5 5 3 5 3 3 5 3 5 5 5 5 5 5 5 3 3 5 5 5 5 3 5 5 5 5 3 5 3 5 3 3 5 3 5 5 5 5 5 3 5 3 3 3 3 5 5 5 5 5 3 5 5 3 3 5 5 5 3 5 5 3 5 5 5 5 3 5 5 3 5 5 3 5 5 5 5 5 5 5 5 5 5 5 5 5 5 3 5 3 5 5 5 5 5 3 5 5 3 5 5 5 5 5 3 5 5 5 5 5 5 5 5 5 5 3 5 5 5 5 5 5 5 5 5 5 5 3 5 5 5 5 5 5 3 5 5 5 5 5 5 5 5 5 5 5 5 5 5 3 5 5 5 3 5 5 5 5 5 5 5 3 5 3 5 5 5 5 5 5 5 5 5 5 5 5 5 5 5 5 5 5 5 5 5 5 5 5 5 5 5 5 5 5 5 5 5 5 5 5 3 5 3 5 5 3 5 3 5 5 5 5 5 5 3 5 5 3 3 5 5 5 5 5 5 3 5 5 5 5 5 5 5 3 5 5 5 5 5 5 5 5 5 5 5 5 5 5 5 5 5 5 5 3 5 5 5 3 5 3 5 3 5 5 5 5 3 5 5 5 5 5 5 3 5 5 5 5 5 5 3 5 5 3 5 5 5 5 5 5 3 5 5 5 5 5 5 5 5 5 3 5 3 5 5 5 5 5 3 3 5 5 5 3 3 5 5 5 5 5 5 3 5 5 3 3 5 5 3 5 5 3 5 5 5 5 3 5 5 5 5 5 5 3 5 5 5 5 5 5 5 5 5 5 3 5 5 5 3 3 5 5 5 5 5 5 5 5 5 3 5 5 5 5 5 5 5 5 5 5 5 3 3 5 5 5 5 3 5 5 5 5 3 5 5 5 5 3 5 5 5 3 5 5 5 5 3 5 5 5 5 5 3 5 5 5 5 3 5 5 5 5 5 5 5 5 5 5 5 5 5 5 5 5 5 5 5 5 5 5 5 5 5 5 5 5 5 5 5 5 3 5 5 5 5 3 5 5 5 5 5 5 3 5 5 5 3 5 3 5 5 5 5 5 5 5 5 5 5 5 5 5 5 5 5 5 5 5 5 5 5 5 3 5 3 5 5 5 3 5 5 5 5 5 5 5 5 5 5 5 5 5 3 5 5 3 5 5 3 3 5 3 5 5 5 5 5 5 5 5 5 5 5 5 5 5 5 5 5 3 5 5 5 5 5 3 5 5 5 5 5 5 5 3 5 5 5 5 5 5 5 3 5 5 5 5 5 5 5 5 5 5 5 5 5 5 5 3 5 5 5 3 5 5 5 5 5 5 5 5 5 5 5 3 5 5 5 5 5 5 3 5 5 3 5 3 5 5 5 3 5 5 5 5 5 5 5 5 5 5 5 3 5 5 5 5 5 3 5 5 5 3 5 5 5 3 5 5 5 5 5 3 5 3 5 5 5 5 5 5 5 5 3 5 3 5 5 3 5 3 5 3 5 5 5 5 5 5 5 5 5 5 3 5 3 5 5 5 5 3 5 5 5 3 3 5 5 5 3 5 3 3 5 5 3 3 5 3 3 5 5 3 3 5 5 3 5 5 3 5 3 5 5 3 5 5 3 5 3 5 5 5 3 5 3 5 5 3 3 5 5 5 3 3 5 3 5 5 5 5 5 5 5 5 3 5 5 3 3 5 3 5 3 3 5 5 5 3 5 5 3 5 5 5 5 5 5 3 3 5 5 5 5 5 5 5 3 3 5 5 5 5 3 5 5 5 3 5 5 3 5 5 5 5 5 3 5 5 3 5 5 5 3 3 5 5 3 5 5 5 3 5 5 5 3 3 5 5 3 5 5 5 5 3 3 5 5 3 3 5 3 3 5 5 5 5 5 5 3 5 5 5 5 5 5 5 5 5 5 3 3 5 5 5 5 5 5 5 3 5 5 5 5 5 5 5 5 5 3 5 5 3 5 5 3 5 5 5 5 5 5 5 5 5 5 5 5 5 5 5 5 5 5 3 3 5 5 5 5 3 5 5 3 5 5 5 5 5 5 5 5 5 3 5 5 3 5 5 5 5 5 5 5 5 5 5 5 3 5 3 5 5 5 5 5 5 5 5 5 5 3 5 5 5 5 5 5 5 5 5 5 5 5 5 5 5 5 5 5 5 5 5 5 5 5 5 5 5 5 5 5 5 5 5 5 5 5 5 5 5 3 5 5 5 5 5 5 5 5 5 3 5 5 3 5 5 5 5 5 5 5 5 5 5 5 5 5 5 5 5 3 5 3 5 5 3 5 5 5 3 3 5 3 3 5 3 5 5 3 5 5 3 5 5 5 5 5 5 5 5 5 5 5 5 5 5 5 5 5 5 5 5 5 3 5 5 5 5 5 5 5 5 5 5 5 5 5 5 5 5 5 5 5 3 5 5 5 5 5 3 5 5 5 5 5 5 5 5 5 5 5 5 5 5 5 5 5 5 5 5 5 5 5 5 3 5 5 5 5 5 5 3 5 5 5 5 5 5 5 5 5 5 5 5 5 5 5 3 5 5 5 3 3 5 5 5 3 5 5 5 5 5 5 5 5 3 5 5 5 5 3 5 5 5 5 5 5 5 5 5 5 5 5 5 3 5 5 5 5 5 5 5 5 5 5 5 5 5 5 5 5 5 5 5 5 5 5 5 5 5 5 5 3 5 5 5 5 5 5 5 5 5 5 5 5 5 5 5 3 3 5 5 5 3 5 5 5 5 5 5 5 5 5 5 5 5 5 5 5 5 5 5 5 5 5 5 5 5 5 5 5 5 5 5 3 5 5 5 5 5 5 5 5 5 5 5 5 5 5 5 5 5 5 5 5 5 5 5 5 5 3 5 5 5 5 5 5 5 3 5 5 5 3 5 5 3 5 5 5 5 5 5 5 5 3 3 5 5 5 5 5 3 5 5 5 5 5 5 5 5 5 5 5 5 5 5 5 5 5 5 5 3 5 3 5 3 5 5 5 3 5 3 5 5 5 5 5 5 5 5 5 5 5 5 3 5 5 5 5 3 5 5 3 5 3 5 5 3 5 5 5 3 5 5 5 5 5 5 5 5 5 3 5 5 5 5 3 5 5 5 5 3 5 5 5 5 5 5 3 5 3 5 3 5 5 5 3 5 5 5 5 5 5 3 3 5 5 5 5 5 3 5 5 5 5 5 5 5 5 5 5 5 5 5 5 5 5 5 5 5 3 5 5 5 5 5 5 5 5 5 3 5 3 5 3 5 5 5 5 5 5 5 5 5 5 5 5 3 5 5 3 5 5 5 5 5 5 5 5 5 3 5 3 5 5 5 5 5 5 3 5 5 5 5 5 5 5 5 5 5 5 5 5 5 5 5 5 5 5 5 5 5 5 5 5 5 5 5 5 5 5 5 5 5 5 5 5 5 5 5 5 3 5 5 3 5 3 5 5 5 3 3 5 5 3 5 5 5 5 5 5 5 5 5 5 5 5 3 5 5 5 5 5 5 5 5 5 5 5 5 3 5 5 5 5 5 5 5 5 5 5 5 5 5 5 5 3 5 5 5 5 5 3 5 5 5 5 5 5 5 5 5 3 5 5 5 5 3 5 5 5 5 5 5 5 5 5 5 5 3 5 3 5 3 5 5 5 3 5 5 5 5 5 5 5 5 5 5 5 5 5 5 5 5 5 5 5 5 3 5 5 5 5 5 5 5 5 5 5 5 5 5 5 5 5 5 5 3 5 5 5 5 5 3 5 5 5 5 5 5 5 5 3 5 5 3 5 5 5 5 5 5 5 3 5 5 5 5 5 5 5 5 5 3 5 5 5 5 5 5 5 5 5 5 5 5 5 5 5 5 5 5 5 5 5 5 5 5 3 5 3 5 5 3 5 5 5 5 5 5 5 5 3 5 5 5 5 5 5 3 5 5 5 5 5 5 5 5 5 5 5 5 3 5 5 5 5 5 5 5 5 5 5 5 5 5 5 3 5 5 5 3 5 5 5 5 3 5 5 5 5 5 5 5 5 5 5 5 5 5 5 5 5 5 5 5 5 5 5 5 5 5 5 3 5 5 3 5 5 5 5 5 5 5 5 5 3 5 5 3 5 5 3 5 5 5 5 5 5 5 5 5 5 5 5 5 5 5 5 5 5 5 5 5 5 5 5 5 5 5 5 5 5 5 5 5 5 5 5 5 5 5 5 5 5 5 5 5 5 5 5 5 5 5 5 5 5 5 5 5 5 5 5 5 5 5 3 5 5 5 5 5 5 3 5 5 5 5 5 5 5 5 5 5 5 3 3 5 5 3 5 3 5 5 3 5 5 3 5 5 5 5 5 5 5 5 3 5 5 5 5 5 5 5 5 5 3 5 5 5 5 3 5 5 5 5 5 5 5 5 5 5 5 5 5 5 5 3 5 5 5 5 3 5 3 5 5 5 3 5 5 3 5 5 5 5 5 5 5 5 5 5 5 3 5 5 3 5 5 5 3 5 5 3 3 5 5 3 5 5 5 5 5 5 5 5 3 5 5 5 5 3 5 3 5 3 5 5 5 5 3 5 5 5 3 5 5 5 5 5 5 5 5 5 5 5 5 5 5 5 5 5 5 3 5 5 5 5 5 5 5 5 5 5 5 5 5 5 5 5 5 5 5 5 5 5 5 5 5 5 5 5 5 5 5 5 5 5 5 5 5 5 5 5 3 5 5 5 5 5 3 5 5 5 5 5 5 5 5 5 5 5 5 5 3 5 5 3 5 5 5 3 5 3 5 5 5 5 3 5 5 5 5 5 5 5 5 5 3 5 5 3 3 5 3 5 5 5 5 5 5 5 5 5 5 5 5 5 5 5 5 5 5 5 5 5 5 5 3 5 5 5 3 5 5 5 5 5 5 5 3 5 5 5 5 5 5 5 5 5 5 5 5 5 5 5 5 5 5 5 5 5 5 5 3 5 5 5 5 5 3 5 3 3 5 5 5 3 5 5 3 5 5 5 5 5 5 5 5 5 5 5 3 5 5 5 3 5 3 5 5 5 5 5 3 5 3 5 3 5 5 5 5 5 5 5 5 3 3 3 5 5 3 5 5 5 5 5 5 5 5 5 5 5 5 5 5 5 5 5 5 5 5 5 5 5 5 5 5 5 5 5 5 5 5 5 5 5 5 5 3 5 5 5 5 5 5 5 3 5 5 3 5 5 5 5 5 5 5 5 5 5 5 5 5 5 5 5 5 5 5 5 5 5 5 3 5 5 5 5 5 5 5 5 5 5 3 5 5 5 5 3 5 5 5 5 3 5 3 3 5 5 5 5 3 5 5 3 5 5 3 3 5 5 5 5 5 5 5 3 5 5 5 5 5 5 5 5 5 5 5 5 5 3 5 5 5 5 5 5 5 3 3 5 3 5 3 5 5 5 3 5 5 5 5 5 3 5 5 3 5 5 5 5 5 5 5 3 5 5 5 5 5 5 5 5 3 5 5 5 3 5 5 5 5 5 3 3 5 5 3 5 5 5 5 5 5 5 5 5 5 5 5 5 5 3 5 5 3 5 3 5 5 5 5 3 5 5 5 5 5 3 5 5 3 3 5 5 5 5 3 5 5 5 5 5 5 5 5 3 5 3 5 5 5 5 5 5 5 5 3 5 5 5 5 3 5 5 5 5 5 5 5 5 5 5 5 5 5 5 5 5 5 5 5 5 5 5 5 5 5 5 5 5 5 5 5 5 5 3 5 5 5 5 5 5 5 3 5 5 5 5 5 5 5 5 5 5 5 5 3 5 5 5 5 3 5 5 5 5 5 5 5 5 5 5 5 5 5 3 5 5 3 5 5 5 5 3 5 5 5 5 5 5 5 5 5 5 5 3 5 3 5 5 3 5 5 5 5 3 5 5 5 5 5 5 5 5 5 5 5 5 5 5 5 5 5 5 5 5 5 5 5 5 5 5 5 5 3 5 5 5 5 3 5 5 5 5 5 5 5 5 5 3 5 5 5 3 5 5 5 5 5 5 3 5 3 5 3 5 5 5 5 5 5 5 5 5 5 5 5 5 5 5 5 5 5 5 5 5 5 5 5 5 5 5 5 5 5 5 5 5 5 5 3 5 3 5 5 5 5 5 5 5 5 3 5 5 5 5 5 5 5 5 5 5 5 5 3 5 5 5 5 5 5 5 5 5 5 5 5 5 3 5 5 3 5 5 5 5 3 5 5 5 5 3 5 5 5 5 5 3 3 5 3 5 5 3 5 5 5 5 3 5 3 5 5 5 5 5 5 5 5 3 5 5 5 5 3 5 5 5 5 5 5 5 5 5 5 5 5 5 5 5 5 5 5 5 5 5 5 3 5 5 5 5 5 5 5 5 5 5 5 5 5 5 5 5 5 5 5 5 5 3 5 5 5 5 5 5 5 3 5 3 5 5 5 5 5 5 5 5 5 5 5 5 5 5 5 5 5 5 5 5 5 5 5 5 5 5 3 5 5 5 5 5 3 5 3 5 5 5 5 3 3 3 5 3 5 5 5 3 5 5 5 5 3 5 3 5 5 5 5 3 5 5 5 3 3 3 5 3 5 3 5 5 3 5 5 5 5 5 5 5 5 5 5 3 5 3 5 3 5 5 5 5 3 5 5 5 5 3 5 5 5 5 5 5 5 5 5 5 3 5 3 5 5 3 5 5 3 5 5 5 5 5 3 5 5 5 5 5 5 5 5 5 5 5 5 3 5 5 5 3 5 5 5 5 5 3 5 5 5 5 5 5 5 5 5 5 5 5 5 5 5 5 5 5 5 5 5 3 5 5 5 5 3 5 5 5 3 5 3 5 5 3 5 3 5 5 5 5 5 5 3 5 5 5 5 3 5 3 5 5 5 5 5 5 5 3 5 5 5 5 5 5 5 3 5 5 5 5 5 5 5 5 5 5 5 5 5 5 5 5 5 3 5 5 5 3 5 5 5 5 5 5 5 5 5 5 5 5 5 5 3 5 5 5 5 5 5 5 5 5 5 5 5 5 5 5 5 5 5 5 5 5 5 5 5 5 5 5 3 5 3 5 5 5 3 5 5 5 3 5 5 3 3 5 5 5 5 5 5 5 5 3 5 5 3 5 5 5 5 3 5 3 5 5 5 3 5 5 5 5 5 5 5 5 5 5 3 5 5 3 5 5 3 5 5 5 5 5 5 5 3 5 5 3 3 5 5 5 3 5 5 5 5 5 5 3 5 5 5 5 3 5 5 5 3 5 5 5 5 3 5 5 3 5 5 5 5 5 5 5 5 5 5 5 3 5 5 5 5 3 5 3 5 3 5 3 5 5 5 5 5 5 5 5 5 5 5 3 3 5 5 5 5 5 5 3 5 5 3 5 5 5 5 5 5 3 5 5 5 3 5 3 5 5 5 3 5 5 5 5 5 5 3 5 5 5 5 5 5 3 5 3 5 5 5 3 5 5 5 5 3 5 5 5 5 5 5 5 3 5 3 5 3 5 5 5 3 3 5 5 3 5 5 5 5 5 3 5 3 3 3 3 5 5 5 5 5 3 3 5 5 3 5 5 5 3 5 5 5 5 5 5 5 5 5 3 5 5 5 3 5 5 5 5 5 5 5 3 5 3 5 5 5 5 3 5 3 5 5 5 5 3 5 5 5 5 5 5 5 5 5 3 5 5 5 5 5 5 5 5 5 5 5 5 5 5 5 5 5 5 5 5 5 3 5 5 5 5 3 5 5 5 5 5 3 5 3 5 5 5 5 5 5 5 5 5 5 5 3 5 3 5 3 3 5 3 5 3 5 5 5 3 5 5 5 3 5 5 5 5 3 5 3 5 5 5 5 5 5 5 5 3 5 5 5 5 5 5 5 5 3 5 5 5 5 5 5 5 5 5 3 5 5 3 5 5 5 3 5 5 5 5 5 5 5 5 5 5 5 5 3 5 5 5 5 3 5 5 5 5 5 5 3 5 5 5 5 3 5 3 5 5 5 5 5 5 5 3 5 5 5 3 3 5 5 5 5 3 5 3 5 5 3 5 5 5 5 5 5 5 5 5 5 5 5 5 5 5 5 5 5 5 5 5 5 5 5 5 5 5 5 5 5 5 5 5 5 5 3 5 5 5 3 5 5 5 5 5 5 5 5 5 5 5 5 5 3 5 3 5 5 5 5 5 5 5 5 5 5 5 5 5 3 5 5 3 5 5 5 5 5 3 5 5 5 5 5 5 5 5 5 5 5 5 5 5 5 5 5 5 5 3 3 5 5 3 5 5 3 5 5 5 5 5 5 5 3 5 5 5 5 3 5 5 5 5 5 5 5 5 5 5 5 5 5 5 3 5 5 3 5 5 5 5 5 5 5 3 3 5 5 5 5 5 5 5 5 5 5 5 5 5 5 5 5 3 5 5 5 5 3 5 5 3 5 5 3 5 5 5 5 5 5 5 5 5 5 5 5 3 5 5 5 5 3 5 5 5 5 5 5 5 5 5 3 3 3 5 5 5 3 5 5 3 3 5 3 5 5 5 3 5 5 5 5 5 5 5 5 5 5 5 5 5 5 5 5 5 5 5 5 5 5 5 5 5 5 5 5 5 5 5 5 5 5 5 5 5 5 5 5 5 5 5 5 5 5 5 5 3 5 3 5 5 5 5 5 5 5 5 5 3 5 5 5 5 5 5 3 5 5 5 5 5 3 5 5 5 5 5 5 5 5 5 5 5 5 5 5 5 3 5 5 5 5 5 5 5 3 5 5 5 5 5 3 3 5 5 5 5 3 5 5 5 5 5 5 5 5 5 5 5 5 5 5 5 5 5 5 5 5 5 3 5 5 5 5 5 5 3 5 5 5 3 5 5 5 5 5 5 5 5 5 5 5 5 5 5 5 5 5 5 3 5 3 5 5 5 5 5 3 3 5 5 5 3 5 5 5 5 5 5 3 5 5 5 5 5 3 5 3 5 5 3 5 5 5 5 3 5 5 5 5 3 5 5 5 5 3 5 5 5 5 5 5 5 5 5 5 5 5 5 3 5 5 5 5 5 5 5 5 5 5 5 5 5 5 5 5 3 5 5 5 5 3 5 5 5 5 3 5 5 5 5 5 5 5 5 5 5 3 5 5 5 5 3 5 5 5 5 5 5 5 5 5 5 5 5 5 5 5 3 5 5 5 3 5 5 5 5 5 5 5 5 5 5 5 5 5 5 3 5 5 5 5 5 5 5 5 5 5 5 3 5 5 3 5 5 5 5 5 5 3 3 5 5 5 5 3 5 3 5 5 5 3 5 5 3 5 5 5 5 5 5 5 5 5 5 5 5 5 5 5 5 3 5 5 5 5 5 5 5 5 3 3 5 5 5 3 3 5 3 5 3 5 5 5 5 3 5 5 5 5 5 5 5 5 5 5 5 5 5 3 5 3 5 5 5 5 5 5 5 5 3 3 5 5 3 3 3 5 5 5 5 5 5 3 5 5 3 5 5 3 3 3 3 5 5 5 5 5 5 5 5 5 5 5 5 5 3 5 5 3 5 3 5 5 5 5 5 5 5 3 3 5 5 3 5 5 3 5 5 5 5 3 3 3 3 5 5 5 5 5 5 5 5 5 5 5 5 5 5 3 5 5 3 5 5 5 5 3 5 5 5 3 5 5 3 5 5 3 5 5 3 3 5 3 5 5 5 5 5 5 3 5 5 5 5 3 5 5 5 5 5 3 5 5 3 5 3 3 5 5 5 3 5 5 5 5 5 3 5 5 5 3 5 5 5 3 5 5 5 5 5 5 5 3 5 5 5 5 5 3 5 5 5 5 5 5 5 3 5 3 3 5 5 3 5 5 5 5 5 5 3 5 5 5 5 5 5 3 5 5 5 5 5 5 3 5 3 5 3 5 5 3 5 5 5 5 3 3 3 3 5 5 5 5 5 5 5 5 3 5 5 5 3 5 3 5 5 5 5 5 5 5 5 5 5 5 5 5 5 5 5 3 5 3 5 5 5 5 5 5 5 5 3 5 5 5 5 5 3 5 5 3 5 5 5 5 5 5 3 3 5 5 3 5 5 5 5 5 5 5 5 5 5 5 3 3 5 5 5 5 3 5 5 5 5 5 5 5 5 3 5 5 5 5 3 5 5 5 5 5 5 3 5 3 5 3 5 5 5 5 5 5 5 5 5 5 5 5 5 5 5 5 5 5 3 5 5 5 5 5 5 5 5 5 5 5 5 5 5 5 5 5 3 3 5 5 5 5 5 5 5 5 5 5 5 5 5 5 5 5 5 5 5 5 5 5 5 5 5 5 5 5 5 5 5 5 5 5 5 5 5 5 5 5 5 5 5 5 5 3 5 3 5 5 5 5 5 5 5 3 5 5 5 3 5 3 3 3 5 3 3 5 5 3 3 3 5 5 5 5 5 3 5 3 3 5 5 5 5 5 5 5 3 5 5 3 5 5 3 3 5 5 5 5 5 5 3 5 5 3 3 5 5 3 5 5 5 3 5 5 5 5 3 5 5 5 3 5 5 3 5 5 5 5 5 5 5 5 5 5 5 5 5 5 5 5 5 5 5 3 3 5 5 5 3 5 5 5 5 3 5 5 5 5 5 3 3 5 5 5 5 5 5 5 5 5 3 5 5 5 5 5 5 5 5 5 5 5 5 5 5 5 5 5 5 5 5 5 5 5 5 5 5 5 3 5 3 3 5 5 5 5 5 5 5 5 5 5 5 5 5 5 5 5 5 5 5 5 5 5 5 5 5 5 5 3 5 5 3 5 5 3 5 5 3 5 3 5 5 5 5 5 5 5 3 5 5 5 5 5 5 5 5 5 5 5 5 3 5 3 5 3 5 5 5 5 5 3 5 5 5 5 3 5 5 3 5 5 5 5 5 5 5 5 3 5 5 5 5 5 5 3 5 5 5 5 3 5 5 5 3 5 5 5 5 5 5 5 5 5 5 5 5 5 5 5 5 5 5 3 5 3 5 5 5 3 5 5 5 5 5 5 5 5 5 5 5 5 5 5 5 5 5 5 5 3 5 5 5 3 5 5 5 3 5 5 5 5 5 5 5 5 5 5 5 5 5 5 5 3 5 5 5 5 3 5 5 3 5 5 5 5 5 5 3 5 3 5 3 3 3 5 5 5 3 3 5 5 5 5 5 5 5 3 5 5 5 3 5 3 5 5 5 5 5 5 5 5 5 3 5 5 5 5 5 5 5 5 3 5 5 5 5 3 5 5 5 5 5 5 5 5 5 5 5 5 5 5 5 5 5 5 5 5 5 3 3 5 5 5 5 5 5 5 5 3 5 5 5 5 5 5 5 5 5 5 3 5 5 5 5 5 5 3 5 5 5 5 5 3 5 3 5 5 3 3 5 5 5 5 5 5 5 5 5 5 5 5 5 5 5 5 5 5 5 5 5 5 5 5 5 5 5 5 5 5 5 5 5 5 5 5 5 5 5 5 5 5 5 5 5 5 5 5 3 3 5 5 3 5 5 5 5 5 3 3 5 5 3 3 5 5 5 5 5 5 5 5 5 5 3 5 5 5 5 5 5 5 5 5 5 5 5 5 5 5 3 5 5 5 5 5 5 5 5 5 5 5 5 5 3 5 3 3 3 5 5 5 5 5 5 5 5 3 3 5 5 5 5 3 5 5 5 5 5 5 5 5 3 5 5 5 5 5 5 5 5 5 5 5 5 5 5 5 5 5 3 5 5 5 5 5 5 3 5 5 3 5 5 5 5 5 5 5 5 5 5 5 5 5 5 5 5 5 5 3 5 5 5 3 5 5 3 5 3 3 5 5 3 5 5 5 3 5 5 3 5 3 3 5 5 5 5 3 5 5 5 5 5 5 3 5 3 5 5 5 3 5 5 5 5 3 5 3 3 5 5 5 5 5 3 5 3 5 3 5 3 3 5 5 5 5 5 5 5 3 5 3 5 5 3 5 5 3 5 5 5 5 5 5 5 5 5 5 5 5 5 5 5 5 5 5 5 5 5 5 5 5 5 5 5 5 5 5 5 3 5 5 5 5 5 5 5 5 5 5 5 5 5 5 5 5 5 5 5 5 5 5 5 3 5 5 5 5 5 3 3 5 5 5 5 5 5 5 5 5 5 5 5 5 5 5 5 5 5 5 5 5 3 5 5 5 5 5 5 5 5 5 5 5 5 5 3 5 3 5 5 5 3 5 5 5 5 5 5 5 5 3 5 3 5 5 5 5 5 3 5 5 5 5 5 5 5 5 5 5 5 3 5 5 5 5 5 5 5 5 5 5 5 3 5 5 5 5 5 5 5 5 3 5 5 5 5 5 5 5 5 5 5 5 5 5 5 5 5 5 5 5 5 5 5 5 5 5 5 3 5 5 3 5 5 5 5 5 5 5 5 5 5 5 5 5 5 5 5 5 5 5 5 5 5 5 5 5 5 5 5 3 5 3 5 3 5 5 5 5 5 3 5 5 5 5 3 5 5 5 3 5 5 5 5 5 5 5 5 5 5 5 5 5 5 5 5 5 5 3 3 3 5 5 5 5 5 5 5 5 5 5 5 5 5 3 5 5 5 5 5 5 5 5 5 5 5 5 3 5 5 3 5 5 5 5 5 5 5 5 5 5 5 5 5 5 5 5 5 5 5 5 5 3 3 5 5 5 5 5 5 5 5 5 5 5 5 5 5 3 5 5 3 5 5 5 5 3 5 5 5 5 5 5 3 5 5 5 5 5 5 5 5 5 5 5 5 5 5 5 5 5 5 3 5 5 5 5 5 3 5 5 5 5 5 5 5 5 5 5 5 5 5 5 5 5 5 5 5 5 5 5 5 5 5 5 5 5 3 5 3 5 5 5 5 3 3 5 5 5 5 5 5 5 5 5 5 5 5 5 5 5 5 5 5 5 5 5 5 5 5 5 5 5 5 5 5 5 5 5 5 5 3 5 5 5 5 3 5 5 5 5 5 5 5 5 5 5 5 3 5 5 5 5 5 5 5 5 5 5 5 5 5 5 5 5 5 3 3 5 3 5 5 5 5 5 5 5 5 5 5 3 5 5 5 5 5 5 5 5 5 5 5 5 5 5 5 5 5 3 5 5 5 5 3 5 5 5 5 5 5 5 5 5 5 5 5 5 5 5 5 5 5 5 5 5 5 5 5 5 5 5 5 5 5 5 5 5 5 5 5 5 5 5 5 5 5 5 5 5 5 5 5 5 5 5 5 5 5 5 5 5 5 5 5 5 5 5 5 5 5 5 5 5 5 5 5 5 5 5 5 5 5 5 5 5 3 5 5 5 5 5 5 5 3 5 5 3 5 5 5 5 5 5 5 5 5 5 5 5 3 5 3 5 3 5 5 5 5 5 5 5 5 3 5 5 5 5 5 5 5 5 5 3 5 5 5 5 5 5 5 5 5 5 5 5 5 5 5 5 5 5 5 5 5 3 5 5 5 5 5 5 5 5 5 5 5 5 3 5 5 5 5 5 3 5 5 3 5 5 5 5 3 3 5 5 3 5 5 5 5 5 5 5 3 3 5 5 5 5 5 5 5 5 5 5 5 5 3 5 5 5 5 3 5 5 5 5 5 5 5 5 3 5 5 5 5 3 5 5 5 5 3 5 5 5 5 5 5 5 3 5 5 5 5 5 3 5 5 5 3 5 5 5 5 5 3 5 5 5 5 5 5 5 5 5 5 5 5 5 5 3 5 5 3 5 5 5 5 5 5 5 5 5 5 5 5 5 5 5 5 5 5 5 5 5 3 5 5 3 5 5 3 5 5 5 5 5 5 5 5 5 5 5 5 5 5 5 5 5 5 5 5 5 5 5 5 5 5 5 5 5 5 3 5 5 5 5 3 5 5 3 5 3 5 5 5 5 3 5 3 5 5 3 5 3 5 3 3 5 5 3 5 3 5 3 5 5 3 5 5 5 5 5 5 3 5 3 5 5 3 3 5 5 3 5 3 5 5 3 5 5 3 5 5 3 3 3 5 3 5 5 5 5 5 5 5 5 3 5 5 5 5 5 5 5 3 5 5 5 5 5 5 5 5 5 5 5 5 5 5 3 5 5 5 5 5 5 5 5 5 5 5 5 5 5 5 5 5 5 5 3 5 5 5 5 5 5 5 5 5 5 5 5 5 5 5 5 5 5 5 5 5 5 5 5 5 5 5 5 5 5 5 3 5 5 5 3 5 3 3 5 3 5 5 5 3 5 5 5 5 3 3 3 5 5 5 5 5 5 5 5 5 5 5 5 5 5 5 5 5 3 5 5 5 5 5 5 5 5 5 3 5 5 5 3 5 5 5 5 5 5 5 5 5 5 5 5 3 5 5 3 5 5 5 5 5 5 5 5 5 5 5 5 5 5 5 5 5 5 5 5 5 5 3 5 5 5 5 5 5 5 5 5 5 5 5 5 5 5 5 5 5 3 5 5 5 5 5 5 5 3 5 5 5 5 3 5 5 5 5 5 5 5 5 5 5 5 5 5 5 5 5 5 5 5 5 5 5 5 5 5 5 5 5 5 5 5 5 5 5 5 3 3 5 5 5 5 3 5 3 5 5 5 5 5 3 5 5 5 5 5 5 5 5 3 3 5 5 5 5 3 5 5 5 5 5 5 5 5 5 5 5 5 5 5 5 5 5 5 5 5 5 3 5 5 5 5 5 5 3 5 5 3 5 5 5 5 5 5 5 5 5 3 5 5 5 5 5 5 5 5 3 5 5 5 5 5 5 5 5 5 5 5 5 5 5 5 5 5 3 5 5 3 5 5 5 5 5 5 5 5 5 5 5 5 5 5 5 5 5 5 5 5 5 5 5 5 5 5 5 5 5 3 5 3 5 5 5 5 5 5 5 5 5 5 5 5 5 5 5 5 5 5 5 5 5 5 3 5 5 5 3 5 5 5 5 5 5 5 5 5 5 5 5 3 5 5 5 3 3 5 5 3 5 5 5 5 5 5 5 5 5 3 5 5 5 5 5 5 5 5 5 5 5 5 5 3 5 3 5 5 5 5 5 5 5 5 5 5 5 5 5 5 5 5 5 5 5 5 5 5 5 5 5 5 5 5 5 3 5 5 5 5 5 5 3 5 5 5 5 5 5 5 5 5 5 5 5 5 5 5 5 3 5 3 5 5 5 5 5 5 5 3 5 5 5 3 5 5 5 5 3 5 5 5 5 5 5 3 5 5 5 5 3 5 3 5 5 5 5 5 5 5 5 3 3 5 5 5 3 3 5 5 5 5 5 5 5 3 3 5 3 3 5 5 5 5 3 5 3 5 5 5 5 5 5 3 5 5 5 5 3 5 5 5 5 3 5 5 5 5 5 3 5 5 3 5 5 5 5 3 5 5 5 5 5 5 5 5 5 3 3 5 5 5 5 5 5 5 5 5 5 5 5 5 3 5 3 5 5 5 5 5 5 5 5 5 5 5 5 5 5 5 5 5 5 5 5 5 3 5 5 5 5 5 5 5 5 5 5 5 5 5 5 5 5 5 5 5 5 5 5 5 5 5 5 3 5 5 5 5 5 5 5 5 3 5 3 5 5 5 5 5 5 3 5 5 5 5 5 5 5 5 5 5 5 5 5 5 5 5 5 5 5 5 5 5 5 5 5 5 3 5 5 5 5 5 5 5 5 3 5 5 3 5 5 3 5 5 5 5 5 3 5 5 5 5 5 5 5 5 5 3 5 5 5 5 5 5 5 5 5 5 5 5 5 5 5 3 5 5 5 5 5 5 5 5 3 5 5 5 5 5 5 5 5 5 5 5 5 5 5 5 5 5 5 3 5 3 5 3 5 5 3 3 5 5 5 5 5 5 5 5 5 5 5 5 5 5 3 5 5 5 5 5 5 3 5 5 5 3 5 5 5 5 5 5 5 5 5 5 5 5 3 5 5 5 5 3 3 3 5 5 5 5 5 5 5 3 5 5 3 5 3 5 3 5 5 5 5 5 3 5 5 5 5 5 5 5 5 5 5 5 5 5 5 5 5 5 5 5 5 3 5 5 5 3 5 3 3 3 5 5 5 5 5 3 5 5 5 5 5 5 5 5 5 5 5 5 5 5 5 5 5 5 5 5 5 5 5 5 5 5 3 5 5 3 5 5 5 5 5 5 5 5 3 5 3 5 5 5 5 5 5 5 5 3 5 5 5 5 3 5 5 3 5 5 3 5 5 5 3 5 5 5 5 5 5 5 5 5 5 5 5 5 5 5 5 5 5 5 5 3 5 5 5 5 5 5 3 5 5 5 5 5 3 5 5 5 5 5 3 5 3 3 5 5 5 5 5 5 5 5 5 5 5 5 3 5 5 5 5 3 5 3 3 5 5 5 3 5 5 5 5 5 5 5 5 5 5 5 5 5 5 5 5 5 5 5 5 5 5 3 5 3 5 5 3 5 5 3 5 5 3 5 5 5 3 3 5 5 5 5 5 5 5 3 5 5 5 5 5 5 5 5 3 5 5 5 5 5 5 5 3 5 5 5 3 5 3 3 5 5 5 3 5 5 5 5 5 5 5 5 5 5 5 5 5 5 5 5 5 5 5 5 5 5 3 5 5 3 5 5 5 3 5 5 5 5 5 5 5 3 3 5 5 3 5 5 5 5 5 5 5 5 5 5 5 5 5 5 5 5 5 5 5 5 5 5 5 5 5 5 5 5 5 5 5 5 5 5 5 3 5 5 5 5 5 5 5 3 5 5 3 5 5 3 5 5 5 5 5 5 5 5 5 5 5 5 5 5 5 5 5 5 5 3 5 5 5 5 3 5 5 5 5 5 5 5 5 5 5 3 5 5 5 5 3 5 5 5 5 3 3 5 3 5 5 5 5 5 5 5 5 5 5 5 5 5 5 3 5 5 5 5 5 5 5 5 5 3 5 5 5 5 5 5 5 5 5 5 5 5 5 5 5 5 5 5 5 5 5 5 5 5 5 5 5 5 5 5 5 5 5 5 5 5 5 5 5 5 5 3 5 5 5 5 3 5 5 3 5 5 5 5 5 5 3 3 5 5 5 5 3 5 5 5 5 5 5 5 5 5 5 5 5 5 5 5 5 5 5 5 5 5 5 5 5 5 5 5 5 5 5 5 5 5 5 5 5 5 5 5 5 5 5 5 5 5 5 5 5 5 5 5 5 5 5 5 5 5 5 5 5 5 3 5 5 5 5 5 3 5 3 5 5 5 5 5 5 5 5 5 
</DataArray>
</Cells>
<PointData Scalars="" Vectors="displacement," Tensors="">
<DataArray type="Float64" Name="displacement" NumberOfComponents="3" format="ascii">
-5.9199987064608887e-08 -0.014999764449421858 0 -4.2075134213277759e-05 -0.014363307077602179 0 9.7658091514121565e-11 -0.014999767768342514 0 -3.9574689666874344e-10 -0.014999962847951784 0 -9.8179679443602917e-08 -0.014206256691637803 0 -3.9574689666874344e-10 -0.014999962847951784 0 -9.8179679443602917e-08 -0.014206256691637803 0 -2.5669380174632212e-09 -0.013244949122730418 0 -4.05930102031367e-08 -0.014999790527961214 0 -5.0104011190341155e-05 -0.014530017274655995 0 -3.1416453021570126e-05 -0.014800209175053912 0 -4.05930102031367e-08 -0.014999790527961214 0 -4.771180489147911e-08 -0.014999663082210134 0 -3.1416453021570126e-05 -0.014800209175053912 0 -5.0104011190341155e-05 -0.014530017274655995 0 -3.8920909161439879e-05 -0.014703000727998908 0 -3.1416453021570126e-05 -0.014800209175053912 0 -3.8920909161439879e-05 -0.014703000727998908 0 -4.771180489147911e-08 -0.014999663082210134 0 -3.1416453021570126e-05 -0.014800209175053912 0 -0.00019879231369373859 -0.014402466235968428 0 -2.7842269144547384e-07 -0.014999631422722707 0 -0.0001325498525976759 -0.014721637451156505 0 -3.8920909161439879e-05 -0.014703000727998908 0 -4.771180489147911e-08 -0.014999663082210134 0 1.6359149290567624e-08 -0.015000031198030707 0 -0.00011402598775471952 -0.014537203595316593 0 3.3806649382356497e-09 -0.014999818061027155 0 -0.00019879231369373859 -0.014402466235968428 0 -0.0001325498525976759 -0.014721637451156505 0 -0.00019382487619194126 -0.014437546946290304 0 -0.00019556237314801285 -0.01460995799754977 0 -0.0001325498525976759 -0.014721637451156505 0 -0.00019382487619194126 -0.014437546946290304 0 -0.00019556237314801285 -0.01460995799754977 0 -5.4432485542229135e-09 -0.014999473452761451 0 -0.0001325498525976759 -0.014721637451156505 0 -0.00013209525934959916 -0.014762294434365095 0 -8.0296841973197922e-08 -0.014999884485256654 0 -2.7842269144547384e-07 -0.014999631422722707 0 -5.4432485542229135e-09 -0.014999473452761451 0 -0.0001325498525976759 -0.014721637451156505 0 -0.00011278198076873339 -0.014264129300612612 0 -0.00012985367071300784 -0.01463266677705626 0 -3.4017761757062115e-05 -0.014474688251642128 0 -0.00011278198076873339 -0.014264129300612612 0 8.5941609861737048e-06 -0.014281052799094947 0 -3.4017761757062115e-05 -0.014474688251642128 0 -0.00011278198076873339 -0.014264129300612612 0 -0.00019382487619194126 -0.014437546946290304 0 -0.00015576976319176753 -0.014230292366843972 0 -0.00011278198076873339 -0.014264129300612612 0 -0.00019382487619194126 -0.014437546946290304 0 -0.00012985367071300784 -0.01463266677705626 0 -0.00019556237314801285 -0.01460995799754977 0 -0.00019382487619194126 -0.014437546946290304 0 -0.00012985367071300784 -0.01463266677705626 0 -0.00019879231369373859 -0.014402466235968428 0 -0.00019382487619194126 -0.014437546946290304 0 -0.00015654994949448141 -0.014169178557333491 0 -0.00019382487619194126 -0.014437546946290304 0 -0.00015576976319176753 -0.014230292366843972 0 -0.00015654994949448141 -0.014169178557333491 0 -0.00011278198076873339 -0.014264129300612612 0 -0.00013970385681173295 -0.013889373262857135 0 -4.1116688515430776e-05 -0.013779409009433179 0 -0.00011278198076873339 -0.014264129300612612 0 -0.00015576976319176753 -0.014230292366843972 0 -0.00013970385681173295 -0.013889373262857135 0 -0.00015576976319176753 -0.014230292366843972 0 -0.00015654994949448141 -0.014169178557333491 0 -0.00013970385681173295 -0.013889373262857135 0 -9.8179679443602917e-08 -0.014206256691637803 0 -2.5669380174632212e-09 -0.013244949122730418 0 4.0747590439254573e-07 -0.013410609522170205 0 -0.00013970385681173295 -0.013889373262857135 0 -0.00016335208087174901 -0.013752476885267206 0 -0.00016400030241770858 -0.013568287356289425 0 -0.00013970385681173295 -0.013889373262857135 0 -0.00013056934106178776 -0.014031935225431409 0 -0.00016335208087174901 -0.013752476885267206 0 -0.00015654994949448141 -0.014169178557333491 0 -0.00013970385681173295 -0.013889373262857135 0 -0.00013056934106178776 -0.014031935225431409 0 -0.00011402598775471952 -0.014537203595316593 0 -0.00012776011321227829 -0.014123512746476696 0 -5.0104011190341155e-05 -0.014530017274655995 0 -3.8920909161439879e-05 -0.014703000727998908 0 -0.00013056934106178776 -0.014031935225431409 0 -0.00019879231369373859 -0.014402466235968428 0 -0.00015654994949448141 -0.014169178557333491 0 -0.00013056934106178776 -0.014031935225431409 0 -4.2075134213277759e-05 -0.014363307077602179 0 -8.1158519178191837e-05 -0.013669741316504329 0 -5.0104011190341155e-05 -0.014530017274655995 0 -0.00013056934106178776 -0.014031935225431409 0 -0.00014995141923120715 -0.013938333264595128 0 -0.00013056934106178776 -0.014031935225431409 0 -0.00016335208087174901 -0.013752476885267206 0 -0.00014995141923120715 -0.013938333264595128 0 -2.5669380174632212e-09 -0.013244949122730418 0 -8.6018689138811692e-06 -0.012615547155365565 0 -1.1752465882782661e-07 -0.011897659727196955 0 -8.1158519178191837e-05 -0.013669741316504329 0 -7.9393971519361084e-05 -0.012852815633286326 0 -0.00016335208087174901 -0.013752476885267206 0 -0.0001848501568786428 -0.013147552369325952 0 -0.00016400030241770858 -0.013568287356289425 0 -2.5669380174632212e-09 -0.013244949122730418 0 4.0747590439254573e-07 -0.013410609522170205 0 -8.6018689138811692e-06 -0.012615547155365565 0 -0.00016335208087174901 -0.013752476885267206 0 -0.00014995141923120715 -0.013938333264595128 0 -0.0001848501568786428 -0.013147552369325952 0 -7.9393971519361084e-05 -0.012852815633286326 0 3.1838272977042692e-05 -0.012143651466996808 0 -0.0001848501568786428 -0.013147552369325952 0 -9.8004896751978751e-05 -0.012818861254227383 0 8.3909714447953275e-06 -0.011978147075404266 0 -0.0001848501568786428 -0.013147552369325952 0 -9.8004896751978751e-05 -0.012818861254227383 0 -0.00013381338492274381 -0.013377203536690705 0 -9.8004896751978751e-05 -0.012818861254227383 0 -0.00013381338492274381 -0.013377203536690705 0 8.4029359973242896e-05 -0.012760207840266484 0 -0.00013970385681173295 -0.013889373262857135 0 -0.00013381338492274381 -0.013377203536690705 0 -0.00016400030241770858 -0.013568287356289425 0 -0.0001848501568786428 -0.013147552369325952 0 -0.00013381338492274381 -0.013377203536690705 0 -0.00016400030241770858 -0.013568287356289425 0 -1.1752465882782661e-07 -0.011897659727196955 0 8.3909714447953275e-06 -0.011978147075404266 0 9.7455161234566125e-05 -0.011545893895305123 0 -8.6018689138811692e-06 -0.012615547155365565 0 -1.1752465882782661e-07 -0.011897659727196955 0 8.3909714447953275e-06 -0.011978147075404266 0 -9.8004896751978751e-05 -0.012818861254227383 0 8.3909714447953275e-06 -0.011978147075404266 0 8.4029359973242896e-05 -0.012760207840266484 0 3.5339270009911492e-05 -0.012628996600990572 0 0.00042707455963387922 -0.012233984978941381 0 8.3909714447953275e-06 -0.011978147075404266 0 8.4029359973242896e-05 -0.012760207840266484 0 9.7455161234566125e-05 -0.011545893895305123 0 8.4029359973242896e-05 -0.012760207840266484 0 0.00056542999251527179 -0.013106806398744975 0 0.00084463728649469046 -0.012586785545154165 0 0.00056542999251527179 -0.013106806398744975 0 -3.6947377400649445e-05 -0.013427715721176486 0 0.00045334736841494704 -0.013612972986143114 0 8.4029359973242896e-05 -0.012760207840266484 0 0.00056542999251527179 -0.013106806398744975 0 -3.6947377400649445e-05 -0.013427715721176486 0 -3.6947377400649445e-05 -0.013427715721176486 0 1.653498920979637e-05 -0.013718310711299571 0 0.00045334736841494704 -0.013612972986143114 0 -0.00035808328062861711 -0.011899282097246017 0 -4.7706296540398865e-05 -0.011794274642881767 0 -0.00029897415824950554 -0.011976568584864285 0 -0.00020423823366589743 -0.012748455915177037 0 0.00022920251694063897 -0.012867100319237674 0 -0.00013970385681173295 -0.013889373262857135 0 -0.00013381338492274381 -0.013377203536690705 0 -4.1116688515430776e-05 -0.013779409009433179 0 -0.00013381338492274381 -0.013377203536690705 0 8.4029359973242896e-05 -0.012760207840266484 0 -3.6947377400649445e-05 -0.013427715721176486 0 -0.00013381338492274381 -0.013377203536690705 0 -3.6947377400649445e-05 -0.013427715721176486 0 -4.1116688515430776e-05 -0.013779409009433179 0 -3.6947377400649445e-05 -0.013427715721176486 0 -4.1116688515430776e-05 -0.013779409009433179 0 -7.3610059472722789e-05 -0.013674026455305755 0 -3.6947377400649445e-05 -0.013427715721176486 0 1.653498920979637e-05 -0.013718310711299571 0 -7.3610059472722789e-05 -0.013674026455305755 0 1.653498920979637e-05 -0.013718310711299571 0 -7.3610059472722789e-05 -0.013674026455305755 0 -7.3436725728396655e-05 -0.013661902274864839 0 -0.00011278198076873339 -0.014264129300612612 0 -4.1116688515430776e-05 -0.013779409009433179 0 8.5941609861737048e-06 -0.014281052799094947 0 -4.1116688515430776e-05 -0.013779409009433179 0 8.5941609861737048e-06 -0.014281052799094947 0 0.00026038813599504472 -0.014584999555119781 0 -4.1116688515430776e-05 -0.013779409009433179 0 -7.3610059472722789e-05 -0.013674026455305755 0 -6.6768886827892868e-05 -0.013655672685444787 0 1.0874415495193958e-05 -0.013916823737176707 0 -2.4423989500633587e-05 -0.013892649772600192 0 8.5941609861737048e-06 -0.014281052799094947 0 0.00010964793157187245 -0.014612112382670643 0 -3.4017761757062115e-05 -0.014474688251642128 0 8.5941609861737048e-06 -0.014281052799094947 0 0.00010964793157187245 -0.014612112382670643 0 0.00026038813599504472 -0.014584999555119781 0 7.8911264675232564e-06 -0.014070114188455151 0 -2.4423989500633587e-05 -0.013892649772600192 0 0.00010964793157187245 -0.014612112382670643 0 0.00016693172228871979 -0.014677924602419059 0 6.8486837391492812e-05 -0.014733247671243956 0 0.00010964793157187245 -0.014612112382670643 0 0.00016693172228871979 -0.014677924602419059 0 0.00017192668362075219 -0.01459380725530348 0 -0.00076956884377506901 -0.012130947921905093 0 -0.0007196203485515274 -0.01201032414360597 0 -0.00061222241752556918 -0.012172803275455292 0 -9.0987594082481019e-05 -0.013668202949617458 0 -6.7047217180302453e-05 -0.013442414468831694 0 -0.00015663211776266624 -0.013675564672726731 0 -0.00013706681535113435 -0.013628932027651953 0 -0.00015575893319680565 -0.013634112948864976 0 -9.0987594082481019e-05 -0.013668202949617458 0 -2.4423989500633587e-05 -0.013892649772600192 0 -7.3610059472722789e-05 -0.013674026455305755 0 -7.3436725728396655e-05 -0.013661902274864839 0 -6.6768886827892868e-05 -0.013655672685444787 0 -6.7047217180302453e-05 -0.013442414468831694 0 -2.4423989500633587e-05 -0.013892649772600192 0 -0.00020423823366589743 -0.012748455915177037 0 -6.7047217180302453e-05 -0.013442414468831694 0 -0.00035808328062861711 -0.011899282097246017 0 -0.0007196203485515274 -0.01201032414360597 0 -0.00050600430835529865 -0.012081304467082526 0 -0.00035808328062861711 -0.011899282097246017 0 -0.00050600430835529865 -0.012081304467082526 0 -0.00037486365068398512 -0.012064537853457197 0 -0.00050600430835529865 -0.012081304467082526 0 -0.00061222241752556918 -0.012172803275455292 0 -0.00046633668014722275 -0.012263708581237064 0 -0.00050600430835529865 -0.012081304467082526 0 -0.00046633668014722275 -0.012263708581237064 0 -0.00037486365068398512 -0.012064537853457197 0 -0.0007196203485515274 -0.01201032414360597 0 -0.00050600430835529865 -0.012081304467082526 0 -0.00061222241752556918 -0.012172803275455292 0 -0.00046633668014722275 -0.012263708581237064 0 -0.00062944367286090028 -0.01232431090644171 0 -0.00051457844621772793 -0.012536496878367555 0 -0.00046633668014722275 -0.012263708581237064 0 -0.00033144352231195487 -0.012467453683841095 0 -0.00051457844621772793 -0.012536496878367555 0 -0.00061222241752556918 -0.012172803275455292 0 -0.00046633668014722275 -0.012263708581237064 0 -0.00062944367286090028 -0.01232431090644171 0 0.00016693172228871979 -0.014677924602419059 0 6.8486837391492812e-05 -0.014733247671243956 0 5.2086851604675629e-05 -0.014891154258092669 0 -9.0987594082481019e-05 -0.013668202949617458 0 4.0998649108303711e-05 -0.014805601121285273 0 0.00016480265477108736 -0.014124419403826513 0 3.4289310687914336e-05 -0.014475193896799767 0 0.00015920759797187394 -0.014503248164470827 0 -9.0987594082481019e-05 -0.013668202949617458 0 -0.00033098551860392456 -0.013390645717251173 0 -0.00076956884377506901 -0.012130947921905093 0 -0.00062944367286090028 -0.01232431090644171 0 -0.00078142587610894015 -0.012522033091807754 0 -0.00076956884377506901 -0.012130947921905093 0 -0.00061222241752556918 -0.012172803275455292 0 -0.00062944367286090028 -0.01232431090644171 0 -9.6734893288780378e-06 -0.012398874877512319 0 -0.00040359925178774255 -0.010873381749169509 0 -0.00029897415824950554 -0.011976568584864285 0 -0.00015502578608545504 -0.012223038849045072 0 6.1324997636675105e-05 -0.012199020194131103 0 -4.378872286246129e-05 -0.011958264880204338 0 -0.00029897415824950554 -0.011976568584864285 0 2.7565140984537187e-05 -0.012136840411949953 0 -4.7706296540398865e-05 -0.011794274642881767 0 -4.378872286246129e-05 -0.011958264880204338 0 -0.00029897415824950554 -0.011976568584864285 0 -4.378872286246129e-05 -0.011958264880204338 0 2.7565140984537187e-05 -0.012136840411949953 0 0.00014351051060298249 -0.011922468522694631 0 -4.7706296540398865e-05 -0.011794274642881767 0 -4.378872286246129e-05 -0.011958264880204338 0 0.00014351051060298249 -0.011922468522694631 0 -0.00029897415824950554 -0.011976568584864285 0 -0.0003198732232725609 -0.012168158969913282 0 -0.00015502578608545504 -0.012223038849045072 0 -0.00035808328062861711 -0.011899282097246017 0 -0.00029897415824950554 -0.011976568584864285 0 -0.00037486365068398512 -0.012064537853457197 0 -0.00029897415824950554 -0.011976568584864285 0 -0.00037486365068398512 -0.012064537853457197 0 -0.0003198732232725609 -0.012168158969913282 0 -0.00046633668014722275 -0.012263708581237064 0 -0.00037486365068398512 -0.012064537853457197 0 -0.0003198732232725609 -0.012168158969913282 0 -0.0002180014613168994 -0.012431410298648051 0 -0.00015502578608545504 -0.012223038849045072 0 -5.6535387179848004e-05 -0.012518868477610556 0 -0.00046633668014722275 -0.012263708581237064 0 -0.0003198732232725609 -0.012168158969913282 0 -0.00029822459948168888 -0.012310331021646276 0 -0.00046633668014722275 -0.012263708581237064 0 -0.00029822459948168888 -0.012310331021646276 0 -0.00033144352231195487 -0.012467453683841095 0 -0.00029822459948168888 -0.012310331021646276 0 -0.0002180014613168994 -0.012431410298648051 0 -0.00033144352231195487 -0.012467453683841095 0 -0.00029822459948168888 -0.012310331021646276 0 -0.0002180014613168994 -0.012431410298648051 0 -0.00015502578608545504 -0.012223038849045072 0 -0.0003198732232725609 -0.012168158969913282 0 -0.00029822459948168888 -0.012310331021646276 0 -0.00015502578608545504 -0.012223038849045072 0 -0.00010498280251338381 -0.012374625398323869 0 -0.00035055815078617039 -0.012166441399524499 0 -0.00015502578608545504 -0.012223038849045072 0 -1.3843324043810786e-05 -0.012327332163297261 0 -7.7183535004368033e-05 -0.01244758715044573 0 -0.00015502578608545504 -0.012223038849045072 0 -1.0577140141355657e-05 -0.012245620253469446 0 6.1324997636675105e-05 -0.012199020194131103 0 -0.00015502578608545504 -0.012223038849045072 0 -1.2385824082478746e-05 -0.012291754582054556 0 -1.0577140141355657e-05 -0.012245620253469446 0 -0.00015502578608545504 -0.012223038849045072 0 -1.2385824082478746e-05 -0.012291754582054556 0 -1.3843324043810786e-05 -0.012327332163297261 0 -0.00046017502090996712 -0.011387500652444335 0 -0.00047588568961494653 -0.01174880004844671 0 -1.2385824082478746e-05 -0.012291754582054556 0 1.4478394850762512e-05 -0.012272208942906732 0 -1.4073821119211298e-05 -0.012323735763396371 0 -0.00082300702431001044 -0.011298380988019196 0 -0.00079220651520862191 -0.01123738657725915 0 -0.0010280641011626982 -0.011103280029937527 0 -0.0004483617133644794 -0.011868238637338649 0 -0.00047588568961494653 -0.01174880004844671 0 -0.00046017502090996712 -0.011387500652444335 0 -0.00040359925178774255 -0.010873381749169509 0 1.9477416426752375e-05 -0.012272943497024293 0 -1.0577140141355657e-05 -0.012245620253469446 0 6.1324997636675105e-05 -0.012199020194131103 0 -1.2385824082478746e-05 -0.012291754582054556 0 1.4478394850762512e-05 -0.012272208942906732 0 -1.0577140141355657e-05 -0.012245620253469446 0 -0.00046017502090996712 -0.011387500652444335 0 -0.00030283237493981059 -0.011568215647218605 0 -0.00066250262393746293 -0.011909485217127728 0 -0.00066505583472928635 -0.011465537049318851 0 -0.00055932035047293895 -0.011703029698809351 0 -0.00053353857710587737 -0.011910341473660735 0 -0.00056942247916662932 -0.011826189140861913 0 -0.00065822466469701499 -0.011997012220881559 0 -0.00079220651520862191 -0.01123738657725915 0 -0.000792805765602552 -0.010946112233897 0 -0.0010280641011626982 -0.011103280029937527 0 -0.00047588568961494653 -0.01174880004844671 0 -0.00093753210485005944 -0.01124755272236118 0 -0.00047588568961494653 -0.01174880004844671 0 -0.00035055815078617039 -0.012166441399524499 0 -0.00093753210485005944 -0.01124755272236118 0 -0.00035055815078617039 -0.012166441399524499 0 -5.6535387179848004e-05 -0.012518868477610556 0 -0.00023831857388117848 -0.012630213158112982 0 -0.00023378183605745804 -0.012858938143050591 0 -0.00035055815078617039 -0.012166441399524499 0 -0.00063395116825539605 -0.012217654134443015 0 -0.0002180014613168994 -0.012431410298648051 0 -0.00023831857388117848 -0.012630213158112982 0 -0.00033144352231195487 -0.012467453683841095 0 -0.0002180014613168994 -0.012431410298648051 0 -5.6535387179848004e-05 -0.012518868477610556 0 -0.00023831857388117848 -0.012630213158112982 0 -0.00023831857388117848 -0.012630213158112982 0 -0.00033144352231195487 -0.012467453683841095 0 -0.00035507430030575106 -0.012606157419656875 0 -0.00033144352231195487 -0.012467453683841095 0 -0.00035507430030575106 -0.012606157419656875 0 -0.00051457844621772793 -0.012536496878367555 0 -0.00035507430030575106 -0.012606157419656875 0 -0.00030778900485362856 -0.012761707164201084 0 -0.00042352775001093502 -0.01272437377457932 0 -0.00023831857388117848 -0.012630213158112982 0 -0.00035507430030575106 -0.012606157419656875 0 -0.00030778900485362856 -0.012761707164201084 0 -0.00040193622891673912 -0.012861868160893856 0 -0.00035596344412386853 -0.012856585024613863 0 -0.00042352775001093502 -0.01272437377457932 0 -0.00035596344412386853 -0.012856585024613863 0 -0.00028164337169307642 -0.012883065735591242 0 -0.00042352775001093502 -0.01272437377457932 0 -0.00030778900485362856 -0.012761707164201084 0 -0.00026627473941132909 -0.012880055626222313 0 -0.00042352775001093502 -0.01272437377457932 0 -0.00057820461213510044 -0.012326615479570447 0 -0.00027365850648753022 -0.012837461745973611 0 -0.00057820461213510044 -0.012326615479570447 0 -0.00085258749935643687 -0.012287148878685169 0 -0.0003355296052471407 -0.012937938467328686 0 -0.0002836528441702012 -0.012881984542998905 0 -0.00032877947980295964 -0.012998319939623436 0 -0.00040193622891673912 -0.012861868160893856 0 -0.00035596344412386853 -0.012856585024613863 0 -0.00036129316796158588 -0.012905251687932119 0 -0.00040193622891673912 -0.012861868160893856 0 -0.00039789253116958868 -0.012942877738473029 0 -0.00036129316796158588 -0.012905251687932119 0 -0.00039789253116958868 -0.012942877738473029 0 -0.00036129316796158588 -0.012905251687932119 0 -0.0003355296052471407 -0.012937938467328686 0 -0.00036129316796158588 -0.012905251687932119 0 -0.0003355296052471407 -0.012937938467328686 0 -0.00031187054689914187 -0.012901362067757927 0 -0.0003355296052471407 -0.012937938467328686 0 -0.00031187054689914187 -0.012901362067757927 0 -0.0002836528441702012 -0.012881984542998905 0 -0.00057417859629541566 -0.012362889199880996 0 -0.00057820461213510044 -0.012326615479570447 0 -0.00035596344412386853 -0.012856585024613863 0 -0.00031187054689914187 -0.012901362067757927 0 -0.00028164337169307642 -0.012883065735591242 0 -0.00035596344412386853 -0.012856585024613863 0 -0.00036129316796158588 -0.012905251687932119 0 -0.00031187054689914187 -0.012901362067757927 0 -0.00078567058022681769 -0.011989530725087745 0 -0.00071154021779130635 -0.012065263481850956 0 -0.0008401714613437409 -0.012142510609060301 0 -0.0011169810234597807 -0.011543836925815442 0 -0.001084256788925265 -0.011633663662524822 0 -0.00087478715088672436 -0.011504079942634101 0 -0.0011169810234597807 -0.011543836925815442 0 -0.0011496085981523301 -0.011567104399879532 0 -0.001084256788925265 -0.011633663662524822 0 -0.00063395116825539605 -0.012217654134443015 0 -0.00057820461213510044 -0.012326615479570447 0 -0.00057820461213510044 -0.012326615479570447 0 -0.0011040534218949476 -0.011720288458503439 0 -0.00023831857388117848 -0.012630213158112982 0 -0.00030778900485362856 -0.012761707164201084 0 -0.00023378183605745804 -0.012858938143050591 0 -0.00030778900485362856 -0.012761707164201084 0 -0.00023378183605745804 -0.012858938143050591 0 -0.00026627473941132909 -0.012880055626222313 0 -0.00093753210485005944 -0.01124755272236118 0 -0.00063395116825539605 -0.012217654134443015 0 -0.0011169810234597807 -0.011543836925815442 0 -0.00087478715088672436 -0.011504079942634101 0 -0.000873997843083007 -0.011432924935058824 0 -0.00087356448205174614 -0.011371307021547683 0 -0.0011169810234597807 -0.011543836925815442 0 -0.000873997843083007 -0.011432924935058824 0 -0.0011040534218949476 -0.011720288458503439 0 -0.0016131051374961671 -0.010536403539530224 0 -0.0016131051374961671 -0.010536403539530224 0 -0.0022411389902688718 -0.0098025481953777777 0 -0.0024622854529334289 -0.0094240430488767308 0 -0.0024632104620123576 -0.009424581884699074 0 -0.0024673962420077421 -0.0094326364433046893 0 -0.0016131051374961671 -0.010536403539530224 0 -0.0012448925823842921 -0.010935160197005656 0 -0.00093753210485005944 -0.01124755272236118 0 -0.0012448925823842921 -0.010935160197005656 0 6.5384844554759185e-05 -0.014644799843899095 0 3.4289310687914336e-05 -0.014475193896799767 0 0.00015920759797187394 -0.014503248164470827 0 -0.00062944367286090028 -0.01232431090644171 0 -0.00078142587610894015 -0.012522033091807754 0 -0.00051457844621772793 -0.012536496878367555 0 -0.00078142587610894015 -0.012522033091807754 0 -0.00051457844621772793 -0.012536496878367555 0 -0.00059931136904450778 -0.012760319165649583 0 -0.00051457844621772793 -0.012536496878367555 0 -0.00059931136904450778 -0.012760319165649583 0 -0.00042352775001093502 -0.01272437377457932 0 -0.00035507430030575106 -0.012606157419656875 0 -0.00051457844621772793 -0.012536496878367555 0 -0.00042352775001093502 -0.01272437377457932 0 -0.00040193622891673912 -0.012861868160893856 0 -0.00042352775001093502 -0.01272437377457932 0 -0.00047630269443720821 -0.012852749074840993 0 -0.00059931136904450778 -0.012760319165649583 0 -0.00042352775001093502 -0.01272437377457932 0 -0.00047630269443720821 -0.012852749074840993 0 -0.00040193622891673912 -0.012861868160893856 0 -0.00039789253116958868 -0.012942877738473029 0 -0.00047630269443720821 -0.012852749074840993 0 -0.00059931136904450778 -0.012760319165649583 0 -0.00047630269443720821 -0.012852749074840993 0 -0.00060964550449406167 -0.013009606997116499 0 -0.00059931136904450778 -0.012760319165649583 0 -0.00079666226888411469 -0.012934846596715842 0 -0.00060964550449406167 -0.013009606997116499 0 6.5384844554759185e-05 -0.014644799843899095 0 0.00012529173725379361 -0.014787720175969497 0 -3.0021245482068239e-05 -0.014753814681661561 0 -0.00078142587610894015 -0.012522033091807754 0 -0.00059931136904450778 -0.012760319165649583 0 -0.00079666226888411469 -0.012934846596715842 0 -0.00033098551860392456 -0.013390645717251173 0 -0.00032821656026048573 -0.013920272497465065 0 6.5384844554759185e-05 -0.014644799843899095 0 0.00015920759797187394 -0.014503248164470827 0 0.00012529173725379361 -0.014787720175969497 0 0.00012529173725379361 -0.014787720175969497 0 -3.0021245482068239e-05 -0.014753814681661561 0 3.444628284215113e-05 -0.014899676930900732 0 4.0998649108303711e-05 -0.014805601121285273 0 -9.4000866005899158e-06 -0.014825741144163891 0 5.2086851604675629e-05 -0.014891154258092669 0 -1.197328327010182e-05 -0.014959028361440901 0 -1.2312539635589535e-05 -0.01490944216876954 0 -1.197328327010182e-05 -0.014959028361440901 0 -1.2312539635589535e-05 -0.01490944216876954 0 -3.7104942724973683e-05 -0.014939134523966941 0 6.5384844554759185e-05 -0.014644799843899095 0 3.4289310687914336e-05 -0.014475193896799767 0 -3.0021245482068239e-05 -0.014753814681661561 0 -1.2312539635589535e-05 -0.01490944216876954 0 -1.4266798212809306e-05 -0.01485054961612421 0 -4.9508909205310399e-05 -0.01487683538827652 0 5.2086851604675629e-05 -0.014891154258092669 0 -1.2312539635589535e-05 -0.01490944216876954 0 -1.4266798212809306e-05 -0.01485054961612421 0 -3.7104942724973683e-05 -0.014939134523966941 0 -5.6694937068061889e-05 -0.014918652214314312 0 -4.9508909205310399e-05 -0.01487683538827652 0 -1.2312539635589535e-05 -0.01490944216876954 0 -3.7104942724973683e-05 -0.014939134523966941 0 -4.9508909205310399e-05 -0.01487683538827652 0 -1.197328327010182e-05 -0.014959028361440901 0 -3.7104942724973683e-05 -0.014939134523966941 0 -2.7434645415762927e-05 -0.014962498431487795 0 -3.7104942724973683e-05 -0.014939134523966941 0 -3.6392728986783888e-05 -0.01496134332223654 0 -2.7434645415762927e-05 -0.014962498431487795 0 -3.6392728986783888e-05 -0.01496134332223654 0 -2.2596807867071354e-05 -0.014975104001079768 0 -2.7434645415762927e-05 -0.014962498431487795 0 -3.6392728986783888e-05 -0.01496134332223654 0 -4.0561379394432863e-08 -0.014999950042023496 0 -2.2596807867071354e-05 -0.014975104001079768 0 -4.0561379394432863e-08 -0.014999950042023496 0 -4.058236588308142e-05 -0.014952193536933726 0 -4.8525850776474658e-08 -0.01499984913012713 0 -3.6392728986783888e-05 -0.01496134332223654 0 -4.0561379394432863e-08 -0.014999950042023496 0 -4.058236588308142e-05 -0.014952193536933726 0 -3.7104942724973683e-05 -0.014939134523966941 0 -3.6392728986783888e-05 -0.01496134332223654 0 -5.6694937068061889e-05 -0.014918652214314312 0 -3.6392728986783888e-05 -0.01496134332223654 0 -4.058236588308142e-05 -0.014952193536933726 0 -5.6694937068061889e-05 -0.014918652214314312 0 -4.058236588308142e-05 -0.014952193536933726 0 -5.6694937068061889e-05 -0.014918652214314312 0 -8.608003470222749e-05 -0.014864068099291423 0 -4.058236588308142e-05 -0.014952193536933726 0 -8.608003470222749e-05 -0.014864068099291423 0 -4.8525850776474658e-08 -0.01499984913012713 0 -6.7318352749402654e-05 -0.014898769249934867 0 -2.7901641961791666e-08 -0.014999969065742932 0 -4.8525850776474658e-08 -0.01499984913012713 0 -6.7318352749402654e-05 -0.014898769249934867 0 -8.608003470222749e-05 -0.014864068099291423 0 -4.8525850776474658e-08 -0.01499984913012713 0 -6.7318352749402654e-05 -0.014898769249934867 0 -8.608003470222749e-05 -0.014864068099291423 0 -0.00012985367071300784 -0.01463266677705626 0 -0.00013209525934959916 -0.014762294434365095 0 -0.00011567268394052638 -0.014661805559759405 0 -8.608003470222749e-05 -0.014864068099291423 0 -0.00012985367071300784 -0.01463266677705626 0 -5.9573739816875933e-05 -0.014774082827001794 0 -0.00012985367071300784 -0.01463266677705626 0 -3.4017761757062115e-05 -0.014474688251642128 0 -1.457598855913295e-05 -0.01466671225920624 0 0.00010964793157187245 -0.014612112382670643 0 -3.4017761757062115e-05 -0.014474688251642128 0 -1.457598855913295e-05 -0.01466671225920624 0 0.00010964793157187245 -0.014612112382670643 0 6.8486837391492812e-05 -0.014733247671243956 0 -1.457598855913295e-05 -0.01466671225920624 0 -0.00012985367071300784 -0.01463266677705626 0 -1.457598855913295e-05 -0.01466671225920624 0 -5.9573739816875933e-05 -0.014774082827001794 0 -5.9573739816875933e-05 -0.014774082827001794 0 1.2804302405002447e-05 -0.014778160747160809 0 -1.4266798212809306e-05 -0.01485054961612421 0 6.8486837391492812e-05 -0.014733247671243956 0 5.2086851604675629e-05 -0.014891154258092669 0 1.2804302405002447e-05 -0.014778160747160809 0 -1.457598855913295e-05 -0.01466671225920624 0 -5.9573739816875933e-05 -0.014774082827001794 0 1.2804302405002447e-05 -0.014778160747160809 0 6.8486837391492812e-05 -0.014733247671243956 0 -1.457598855913295e-05 -0.01466671225920624 0 1.2804302405002447e-05 -0.014778160747160809 0 5.2086851604675629e-05 -0.014891154258092669 0 1.2804302405002447e-05 -0.014778160747160809 0 -1.4266798212809306e-05 -0.01485054961612421 0 -5.9573739816875933e-05 -0.014774082827001794 0 -1.4266798212809306e-05 -0.01485054961612421 0 -4.9508909205310399e-05 -0.01487683538827652 0 -8.608003470222749e-05 -0.014864068099291423 0 -5.9573739816875933e-05 -0.014774082827001794 0 -4.9508909205310399e-05 -0.01487683538827652 0 -5.6694937068061889e-05 -0.014918652214314312 0 -8.608003470222749e-05 -0.014864068099291423 0 -4.9508909205310399e-05 -0.01487683538827652 0 -0.0016938723659568151 -0.0059829222563546778 0 -0.0014541439538617925 -0.00624648756631924 0 -0.0012302492253122937 -0.0056722218359624606 0 -0.0016938723659568151 -0.0059829222563546778 0 -0.0014541439538617925 -0.00624648756631924 0 -0.0017734064335843368 -0.0063731394482463019 0 -0.0012579740897578555 -0.006552861197791417 0 -0.0016754178078488776 -0.006845744194170336 0 -0.00081631096135835804 -0.0072489436407542889 0 -0.00081738200032429069 -0.0072253334118214871 0 -0.0010647110970981473 -0.0073813588999673786 0 -0.00081631096135835804 -0.0072489436407542889 0 -0.0010632336677189615 -0.0074286624204963243 0 -0.0010647110970981473 -0.0073813588999673786 0 -0.00042760271597542485 -0.0077716741321554716 0 -0.00057624590900509057 -0.0077970472705113326 0 -0.0016938723659568151 -0.0059829222563546778 0 -0.0021778072487424827 -0.0062997720372684855 0 -0.0017734064335843368 -0.0063731394482463019 0 -0.00011225249935070091 -0.0082179675578988309 0 -7.6681655840711444e-05 -0.0082460079607378431 0 -0.00011044853231614382 -0.0080959228668360909 0 -0.00011225249935070091 -0.0082179675578988309 0 -7.6681655840711444e-05 -0.0082460079607378431 0 -9.9622009174075104e-05 -0.0082716428437465163 0 -0.00081631096135835804 -0.0072489436407542889 0 -0.00081738200032429069 -0.0072253334118214871 0 -0.00057290768370756831 -0.0070771519711042095 0 -0.0012579740897578555 -0.006552861197791417 0 -0.0005859673466483158 -0.0070874633495819394 0 -0.00042760271597542485 -0.0077716741321554716 0 -0.0005859673466483158 -0.0070874633495819394 0 -7.6681655840711444e-05 -0.0082460079607378431 0 -0.00011044853231614382 -0.0080959228668360909 0 3.7003777173692085e-05 -0.0081554249524326255 0 -0.00011044853231614382 -0.0080959228668360909 0 -1.5739193783037993e-05 -0.0078153705489530309 0 3.7003777173692085e-05 -0.0081554249524326255 0 -0.00011044853231614382 -0.0080959228668360909 0 -6.0232638813219975e-05 -0.0079545439211950834 0 -1.5739193783037993e-05 -0.0078153705489530309 0 -6.0232638813219975e-05 -0.0079545439211950834 0 -4.7305378455707068e-08 -0.0075453926182407205 0 -3.3815950890714293e-07 -0.0083852863746560358 0 -6.0232638813219975e-05 -0.0079545439211950834 0 -4.7305378455707068e-08 -0.0075453926182407205 0 -1.5739193783037993e-05 -0.0078153705489530309 0 -0.00011044853231614382 -0.0080959228668360909 0 -3.3815950890714293e-07 -0.0083852863746560358 0 -6.0009430533307675e-05 -0.0084296619717020172 0 -0.00011044853231614382 -0.0080959228668360909 0 -6.0232638813219975e-05 -0.0079545439211950834 0 -3.3815950890714293e-07 -0.0083852863746560358 0 -0.00011225249935070091 -0.0082179675578988309 0 -0.00011044853231614382 -0.0080959228668360909 0 -6.0009430533307675e-05 -0.0084296619717020172 0 -0.00011225249935070091 -0.0082179675578988309 0 -3.4836821536116238e-05 -0.0082970252956525471 0 -6.0009430533307675e-05 -0.0084296619717020172 0 -3.4836821536116238e-05 -0.0082970252956525471 0 -6.0009430533307675e-05 -0.0084296619717020172 0 1.8070271585550034e-05 -0.0085180698102842612 0 -3.3815950890714293e-07 -0.0083852863746560358 0 1.6458561102652466e-07 -0.0092258846099290866 0 1.3968649476634446e-05 -0.0089047149739419438 0 -3.3815950890714293e-07 -0.0083852863746560358 0 -6.0009430533307675e-05 -0.0084296619717020172 0 1.3968649476634446e-05 -0.0089047149739419438 0 -6.0009430533307675e-05 -0.0084296619717020172 0 1.3968649476634446e-05 -0.0089047149739419438 0 1.8070271585550034e-05 -0.0085180698102842612 0 1.3968649476634446e-05 -0.0089047149739419438 0 0.00018620277140287913 -0.0084915637617615954 0 0.00040581833077805155 -0.0086977172188926807 0 1.3968649476634446e-05 -0.0089047149739419438 0 0.00018620277140287913 -0.0084915637617615954 0 1.8070271585550034e-05 -0.0085180698102842612 0 -1.025130213641283e-05 -0.0090094401960168803 0 0.00011715191144976204 -0.0090841527229317751 0 1.6458561102652466e-07 -0.0092258846099290866 0 1.3968649476634446e-05 -0.0089047149739419438 0 -3.4958373139790184e-05 -0.0097043200288043571 0 -3.4836821536116238e-05 -0.0082970252956525471 0 0.00018620277140287913 -0.0084915637617615954 0 0.0003108608608136783 -0.008302738198608604 0 -3.4836821536116238e-05 -0.0082970252956525471 0 0.00018620277140287913 -0.0084915637617615954 0 1.8070271585550034e-05 -0.0085180698102842612 0 -3.2644923908428429e-05 -0.0082946855095057948 0 2.7552265664016451e-05 -0.0083113256452153998 0 -3.4836821536116238e-05 -0.0082970252956525471 0 -7.0363647668215883e-05 -0.0083178383463210059 0 -0.00021568908246048145 -0.0082654108726938503 0 -7.0363647668215883e-05 -0.0083178383463210059 0 -0.00020836999724888446 -0.0084782141407218903 0 -0.00021568908246048145 -0.0082654108726938503 0 -0.00011225249935070091 -0.0082179675578988309 0 -8.2136813775344773e-05 -0.0082680346061752789 0 -9.9622009174075104e-05 -0.0082716428437465163 0 -0.00011225249935070091 -0.0082179675578988309 0 -3.4836821536116238e-05 -0.0082970252956525471 0 -8.2136813775344773e-05 -0.0082680346061752789 0 -3.4836821536116238e-05 -0.0082970252956525471 0 -7.0363647668215883e-05 -0.0083178383463210059 0 -8.2136813775344773e-05 -0.0082680346061752789 0 -7.0363647668215883e-05 -0.0083178383463210059 0 -9.9622009174075104e-05 -0.0082716428437465163 0 -7.0611539616730984e-05 -0.0082567528368585833 0 -0.0010632336677189615 -0.0074286624204963243 0 -0.0010647110970981473 -0.0073813588999673786 0 -0.001316947433306907 -0.0075384283051881931 0 -7.0363647668215883e-05 -0.0083178383463210059 0 -8.2136813775344773e-05 -0.0082680346061752789 0 -9.9622009174075104e-05 -0.0082716428437465163 0 -0.00057624590900509057 -0.0077970472705113326 0 -0.00062284462603175183 -0.0082058945408397289 0 4.6214912912156821e-05 -0.0084391468021309569 0 -0.00062284462603175183 -0.0082058945408397289 0 -7.0363647668215883e-05 -0.0083178383463210059 0 -0.00020836999724888446 -0.0084782141407218903 0 -1.781507156449772e-05 -0.0086714221398938064 0 -0.00020836999724888446 -0.0084782141407218903 0 -0.00039981200628928066 -0.0085151155720365312 0 -0.00021568908246048145 -0.0082654108726938503 0 -0.00020836999724888446 -0.0084782141407218903 0 -0.00039981200628928066 -0.0085151155720365312 0 -0.00032075223265501 -0.0086751294918984128 0 -0.00039981200628928066 -0.0085151155720365312 0 -0.0005370494995153521 -0.0083602517377666108 0 -0.00063875851653312585 -0.0086181563570290366 0 -0.00039981200628928066 -0.0085151155720365312 0 -0.00063875851653312585 -0.0086181563570290366 0 -0.00047724914391736876 -0.0086716238984063491 0 0.00056635916856486715 -0.0083131814388909195 0 0.00058492010469131817 -0.0084612687382730738 0 0.0006782756207201942 -0.0084292658766258136 0 0.00056635916856486715 -0.0083131814388909195 0 0.00047089006995082938 -0.0084753655258791825 0 0.00058492010469131817 -0.0084612687382730738 0 -0.00039981200628928066 -0.0085151155720365312 0 -0.0005370494995153521 -0.0083602517377666108 0 -0.00021568908246048145 -0.0082654108726938503 0 0.00056635916856486715 -0.0083131814388909195 0 0.0003108608608136783 -0.008302738198608604 0 0.00047089006995082938 -0.0084753655258791825 0 2.2667274620887027e-05 -0.0081354097105727739 0 2.7552265664016451e-05 -0.0083113256452153998 0 0.00034254858712255405 -0.0084847002954661042 0 0.00040581833077805155 -0.0086977172188926807 0 0.00047089006995082938 -0.0084753655258791825 0 0.00018620277140287913 -0.0084915637617615954 0 0.0003108608608136783 -0.008302738198608604 0 0.00034254858712255405 -0.0084847002954661042 0 0.0003108608608136783 -0.008302738198608604 0 0.00034254858712255405 -0.0084847002954661042 0 0.00047089006995082938 -0.0084753655258791825 0 0.00018620277140287913 -0.0084915637617615954 0 0.00034254858712255405 -0.0084847002954661042 0 0.00040581833077805155 -0.0086977172188926807 0 1.6458561102652466e-07 -0.0092258846099290866 0 -3.4958373139790184e-05 -0.0097043200288043571 0 8.7898502392280818e-11 -0.010065723511518127 0 0.00011715191144976204 -0.0090841527229317751 0 0.00069579024264498706 -0.010519864386948156 0 -3.4958373139790184e-05 -0.0097043200288043571 0 8.7898502392280818e-11 -0.010065723511518127 0 0.00010614067847923906 -0.0098722662988442091 0 1.09878990586599e-07 -0.010066606782455498 0 0.00069579024264498706 -0.010519864386948156 0 0.00061716571098590983 -0.0086130753631016611 0 0.00047089006995082938 -0.0084753655258791825 0 0.00058492010469131817 -0.0084612687382730738 0 0.00040581833077805155 -0.0086977172188926807 0 0.00061716571098590983 -0.0086130753631016611 0 0.00047089006995082938 -0.0084753655258791825 0 0.00061716571098590983 -0.0086130753631016611 0 0.00058492010469131817 -0.0084612687382730738 0 0.0006782756207201942 -0.0084292658766258136 0 8.5319732843376873e-07 -0.010067824813347094 0 0.00010817149532024527 -0.010689561456562021 0 9.7455161234566125e-05 -0.011545893895305123 0 0.001586916347784219 -0.01238307271318052 0 0.00084463728649469046 -0.012586785545154165 0 0.0013249392880727963 -0.01292240096883091 0 0.00069579024264498706 -0.010519864386948156 0 0.0010651271189271309 -0.010676288941746458 0 0.00069579024264498706 -0.010519864386948156 0 0.00042707455963387922 -0.012233984978941381 0 -1.1752465882782661e-07 -0.011897659727196955 0 8.5319732843376873e-07 -0.010067824813347094 0 9.7455161234566125e-05 -0.011545893895305123 0 0.00056542999251527179 -0.013106806398744975 0 0.00084463728649469046 -0.012586785545154165 0 0.0013249392880727963 -0.01292240096883091 0 0.00056542999251527179 -0.013106806398744975 0 0.0013249392880727963 -0.01292240096883091 0 0.0010506440347034355 -0.013442726477523089 0 2.2667274620887027e-05 -0.0081354097105727739 0 0.00021455141141178271 -0.010487735180735253 0 0.00056635916856486715 -0.0083131814388909195 0 0.0006782756207201942 -0.0084292658766258136 0 0.00073353359379682321 -0.0083105005687918992 0 0.0010651271189271309 -0.010676288941746458 0 0.00021455141141178271 -0.010487735180735253 0 -0.0005370494995153521 -0.0083602517377666108 0 -0.00063875851653312585 -0.0086181563570290366 0 -0.00085026063114377454 -0.0084683713421195086 0 -0.00063875851653312585 -0.0086181563570290366 0 -0.00085026063114377454 -0.0084683713421195086 0 -0.00080867223980511649 -0.0086517117938505975 0 -0.00085026063114377454 -0.0084683713421195086 0 -0.00096477241176010228 -0.0086920393266201774 0 -0.00080867223980511649 -0.0086517117938505975 0 0.00021455141141178271 -0.010487735180735253 0 -0.00038338700376848499 -0.010247378125324119 0 -4.7706296540398865e-05 -0.011794274642881767 0 0.00026172709426641445 -0.011688104179960836 0 0.00014351051060298249 -0.011922468522694631 0 0.00022920251694063897 -0.012867100319237674 0 0.00021455141141178271 -0.010487735180735253 0 0.00056542999251527179 -0.013106806398744975 0 0.00045334736841494704 -0.013612972986143114 0 0.0010506440347034355 -0.013442726477523089 0 -0.0010755529891778258 -0.008919674880907575 0 -0.00096477241176010228 -0.0086920393266201774 0 -0.00078123281266225897 -0.008830576805278231 0 -0.00040359925178774255 -0.010873381749169509 0 -0.00038338700376848499 -0.010247378125324119 0 -0.00096477241176010228 -0.0086920393266201774 0 -0.00080867223980511649 -0.0086517117938505975 0 -0.00078123281266225897 -0.008830576805278231 0 -0.00063875851653312585 -0.0086181563570290366 0 -0.00078123281266225897 -0.008830576805278231 0 -0.0005544334887884198 -0.0088765945528703084 0 -0.00063875851653312585 -0.0086181563570290366 0 -0.00080867223980511649 -0.0086517117938505975 0 -0.00078123281266225897 -0.008830576805278231 0 -0.0011226605702595413 -0.0094759261533061707 0 -0.0005358098024674969 -0.0088118509019936234 0 -0.00078123281266225897 -0.008830576805278231 0 -0.00081097012915739522 -0.0090710771202390534 0 -0.0005544334887884198 -0.0088765945528703084 0 -0.00098903181316863575 -0.009103815962936284 0 -0.00083449724323543626 -0.0091951647537268852 0 -0.00064592775536898071 -0.0088713563407072839 0 -0.0004887127154907247 -0.010845379776897854 0 -0.0013451956263232079 -0.010323435962994731 0 -0.00096129001467113384 -0.01006345895090985 0 -0.00037421160809106584 -0.01062147222367844 0 -0.0004887127154907247 -0.010845379776897854 0 -0.00096129001467113384 -0.01006345895090985 0 -0.0010755529891778258 -0.008919674880907575 0 -0.00078123281266225897 -0.008830576805278231 0 -0.00081097012915739522 -0.0090710771202390534 0 -0.00040359925178774255 -0.010873381749169509 0 -0.0011226605702595413 -0.0094759261533061707 0 -0.00046017502090996712 -0.011387500652444335 0 -0.0012810444039881483 -0.010349639340368644 0 -0.0015847015239531265 -0.01041504755868959 0 -0.0015851882848800548 -0.01044033509548627 0 -0.001440028810245383 -0.010376343875647551 0 -0.0015847015239531265 -0.01041504755868959 0 -0.0014803336128235167 -0.010338603429601549 0 -0.001440028810245383 -0.010376343875647551 0 -0.0011226605702595413 -0.0094759261533061707 0 -0.0012810444039881483 -0.010349639340368644 0 -0.0014753424817491414 -0.0096298982820637678 0 -0.001562434037040769 -0.009691631856779204 0 -0.0015030654163189622 -0.009747379719758361 0 -0.0012810444039881483 -0.010349639340368644 0 -0.0019597605762493183 -0.009718713333591731 0 -0.00093753210485005944 -0.01124755272236118 0 -0.0012810444039881483 -0.010349639340368644 0 -0.0015855633134017378 -0.010469973811110405 0 -0.0015851882848800548 -0.01044033509548627 0 -0.001440028810245383 -0.010376343875647551 0 -0.0024622854529334289 -0.0094240430488767308 0 -0.0024483034723442733 -0.0094194889148370951 0 -0.0024632104620123576 -0.009424581884699074 0 -0.0024989245735953054 -0.0094451379699589787 0 -0.0023408535362418287 -0.009341256122013376 0 -0.0024483034723442733 -0.0094194889148370951 0 -0.0024632104620123576 -0.009424581884699074 0 -0.0024445219479810212 -0.0094223411126214494 0 -0.0016131051374961671 -0.010536403539530224 0 -0.0019597605762493183 -0.009718713333591731 0 -0.0024632104620123576 -0.009424581884699074 0 -0.0024285279536826287 -0.0093711117984836226 0 -0.0024485125199913246 -0.0094204335245970956 0 -0.0024246898279541907 -0.00940537419042352 0 -0.0024285279536826287 -0.0093711117984836226 0 -0.0024485125199913246 -0.0094204335245970956 0 -0.0024246898279541907 -0.00940537419042352 0 -0.0024285279536826287 -0.0093711117984836226 0 -0.0023833360903733098 -0.0093892218546613709 0 -0.0024777732929730056 -0.0092261099813498552 0 -0.002407001146170758 -0.0092412356780470356 0 -0.0023906931963820289 -0.0093136095192453087 0 -0.0023408535362418287 -0.009341256122013376 0 -0.0023993671169590647 -0.0093404538916888099 0 -0.0024777732929730056 -0.0092261099813498552 0 -0.0024024337899707575 -0.0091727902310654308 0 -0.002407001146170758 -0.0092412356780470356 0 -0.0023408535362418287 -0.009341256122013376 0 -0.0020273623360856376 -0.0087607964078876381 0 -0.0019583587285858179 -0.0093297459000255337 0 -0.0019025275754682165 -0.0091658571887636847 0 -0.0018061590286574669 -0.0092229882930475442 0 -0.0020423332266960087 -0.0092507547015425497 0 -0.0019583587285858179 -0.0093297459000255337 0 -0.0019025275754682165 -0.0091658571887636847 0 -0.0019597605762493183 -0.009718713333591731 0 -0.0023408535362418287 -0.009341256122013376 0 -0.0011226605702595413 -0.0094759261533061707 0 -0.0013993345756425476 -0.0091704617894274153 0 -0.0019597605762493183 -0.009718713333591731 0 -0.0013993345756425476 -0.0091704617894274153 0 -0.0014753424817491414 -0.0096298982820637678 0 -0.0015030654163189622 -0.009747379719758361 0 -0.0013915120275260458 -0.0096788458921461575 0 -0.0013993345756425476 -0.0091704617894274153 0 -0.0020273623360856376 -0.0087607964078876381 0 -0.0021848892251819922 -0.0082484361590602125 0 -0.0019937328658439332 -0.0083556798504069163 0 -0.0020296388520683103 -0.0082954994932329714 0 -0.0020273623360856376 -0.0087607964078876381 0 -0.0015243362435950012 -0.0083460228191652719 0 -0.0020273623360856376 -0.0087607964078876381 0 -0.002180289911517818 -0.0089586420838358993 0 -0.0021848892251819922 -0.0082484361590602125 0 -0.0020153746328664419 -0.0082372921740622509 0 -0.0019689292318224544 -0.0080908850468015565 0 -0.0017632616801898635 -0.0087646120463300056 0 -0.0016114495555068727 -0.0088552569997964563 0 -0.0012652739555266354 -0.0084606026087793145 0 -0.0021848892251819922 -0.0082484361590602125 0 -0.0020296388520683103 -0.0082954994932329714 0 -0.0020153746328664419 -0.0082372921740622509 0 -0.0024024337899707575 -0.0091727902310654308 0 -0.002407001146170758 -0.0092412356780470356 0 -0.0023567277223073692 -0.0092524085845570349 0 -0.0024024337899707575 -0.0091727902310654308 0 -0.0023567277223073692 -0.0092524085845570349 0 -0.0022828486645956312 -0.0092432795807457727 0 -0.002407001146170758 -0.0092412356780470356 0 -0.0023567277223073692 -0.0092524085845570349 0 -0.0023906931963820289 -0.0093136095192453087 0 -0.0023567277223073692 -0.0092524085845570349 0 -0.0023115920734412382 -0.0092728014271632759 0 -0.0022828486645956312 -0.0092432795807457727 0 -0.0023567277223073692 -0.0092524085845570349 0 -0.0023207283598745618 -0.0093067821524437204 0 -0.0023906931963820289 -0.0093136095192453087 0 -0.0023567277223073692 -0.0092524085845570349 0 -0.0023207283598745618 -0.0093067821524437204 0 -0.0023115920734412382 -0.0092728014271632759 0 -0.002180289911517818 -0.0089586420838358993 0 -0.0021736893911987643 -0.0093506111359072039 0 -0.0022828486645956312 -0.0092432795807457727 0 -0.0021649451288426971 -0.0093141884446703311 0 -0.0022099987443707845 -0.0093062789045827449 0 -0.002259418938126409 -0.009290954488910045 0 -0.0022828486645956312 -0.0092432795807457727 0 -0.0022099987443707845 -0.0093062789045827449 0 -0.002259418938126409 -0.009290954488910045 0 -0.0022099987443707845 -0.0093062789045827449 0 -0.0022588857385165964 -0.0093258185792651441 0 -0.002259418938126409 -0.009290954488910045 0 -0.0022834204362763323 -0.0092876800697894307 0 -0.0022588857385165964 -0.0093258185792651441 0 -0.0023207283598745618 -0.0093067821524437204 0 -0.0022834204362763323 -0.0092876800697894307 0 -0.0022588857385165964 -0.0093258185792651441 0 -0.0023207283598745618 -0.0093067821524437204 0 -0.0023115920734412382 -0.0092728014271632759 0 -0.0022834204362763323 -0.0092876800697894307 0 -0.002259418938126409 -0.009290954488910045 0 -0.0022834204362763323 -0.0092876800697894307 0 -0.0022828486645956312 -0.0092432795807457727 0 -0.0023115920734412382 -0.0092728014271632759 0 -0.0022834204362763323 -0.0092876800697894307 0 -0.0022828486645956312 -0.0092432795807457727 0 -0.0019805786111415586 -0.0083303179835637585 0 -0.0019937328658439332 -0.0083556798504069163 0 -0.0020296388520683103 -0.0082954994932329714 0 -0.0019805786111415586 -0.0083303179835637585 0 -0.0019101319249315517 -0.008343779202443443 0 -0.0019710618983468757 -0.0082955059708412805 0 -0.0019805786111415586 -0.0083303179835637585 0 -0.0019058767509667297 -0.0083724976543651103 0 -0.0019101319249315517 -0.008343779202443443 0 -0.0019805786111415586 -0.0083303179835637585 0 -0.0019937328658439332 -0.0083556798504069163 0 -0.0019058767509667297 -0.0083724976543651103 0 -0.0019101319249315517 -0.008343779202443443 0 -0.0019202288053794306 -0.0083008953665746048 0 -0.0018509973017218719 -0.0083421331646426344 0 -0.0019202288053794306 -0.0083008953665746048 0 -0.0019289884041343913 -0.0082467366999485689 0 -0.0019710618983468757 -0.0082955059708412805 0 -0.0019101319249315517 -0.008343779202443443 0 -0.0019202288053794306 -0.0083008953665746048 0 -0.0019710618983468757 -0.0082955059708412805 0 -0.0019202288053794306 -0.0083008953665746048 0 -0.0019289884041343913 -0.0082467366999485689 0 -0.0018692385342389437 -0.0082845633767502785 0 -0.0019289884041343913 -0.0082467366999485689 0 -0.0019710618983468757 -0.0082955059708412805 0 -0.0020153746328664419 -0.0082372921740622509 0 -0.0019805786111415586 -0.0083303179835637585 0 -0.0020296388520683103 -0.0082954994932329714 0 -0.0019710618983468757 -0.0082955059708412805 0 -0.0020296388520683103 -0.0082954994932329714 0 -0.0019710618983468757 -0.0082955059708412805 0 -0.0020153746328664419 -0.0082372921740622509 0 -0.0019289884041343913 -0.0082467366999485689 0 -0.0020153746328664419 -0.0082372921740622509 0 -0.0019689292318224544 -0.0080908850468015565 0 -0.0019289884041343913 -0.0082467366999485689 0 -0.0019689292318224544 -0.0080908850468015565 0 -0.0018512438619062114 -0.0082260245930265586 0 -0.0012652739555266354 -0.0084606026087793145 0 -0.0011879907248196922 -0.0085571448409318095 0 -0.00076742597093805572 -0.0082594230199634147 0 -0.0016114495555068727 -0.0088552569997964563 0 -0.0012652739555266354 -0.0084606026087793145 0 -0.0011879907248196922 -0.0085571448409318095 0 -0.00083449724323543626 -0.0091951647537268852 0 -0.00038146572251662188 -0.0089179548320710393 0 -0.00064592775536898071 -0.0088713563407072839 0 -0.0013993345756425476 -0.0091704617894274153 0 -0.00076105314907425536 -0.0086804429862444767 0 -0.00038146572251662188 -0.0089179548320710393 0 -0.00064592775536898071 -0.0088713563407072839 0 -0.00032075223265501 -0.0086751294918984128 0 -0.0005358098024674969 -0.0088118509019936234 0 -0.00037089076797792222 -0.0087139693752356293 0 -0.0005544334887884198 -0.0088765945528703084 0 -0.00047724914391736876 -0.0086716238984063491 0 -0.00032075223265501 -0.0086751294918984128 0 -0.00063875851653312585 -0.0086181563570290366 0 -0.0005544334887884198 -0.0088765945528703084 0 -0.00047724914391736876 -0.0086716238984063491 0 -0.00039981200628928066 -0.0085151155720365312 0 -0.00047724914391736876 -0.0086716238984063491 0 -0.00032075223265501 -0.0086751294918984128 0 -0.00038146572251662188 -0.0089179548320710393 0 -0.00032075223265501 -0.0086751294918984128 0 -1.781507156449772e-05 -0.0086714221398938064 0 -0.00020836999724888446 -0.0084782141407218903 0 -0.00032075223265501 -0.0086751294918984128 0 -1.781507156449772e-05 -0.0086714221398938064 0 -0.00076105314907425536 -0.0086804429862444767 0 -0.00062284462603175183 -0.0082058945408397289 0 -0.0012652739555266354 -0.0084606026087793145 0 -0.00076742597093805572 -0.0082594230199634147 0 -0.00077046000175523045 -0.0081573390226351607 0 -0.0015024448179944121 -0.0076108401790720695 0 -0.00062284462603175183 -0.0082058945408397289 0 -0.0021778072487424827 -0.0062997720372684855 0 -0.002682177242076777 -0.0066403005930990907 0 -0.0022807498793757709 -0.0069322568088159174 0 -0.0010632336677189615 -0.0074286624204963243 0 -0.0013150732155408544 -0.0076095259556141692 0 -0.001316947433306907 -0.0075384283051881931 0 -0.0016754178078488776 -0.006845744194170336 0 -0.0015024448179944121 -0.0076108401790720695 0 -0.002682177242076777 -0.0066403005930990907 0 -0.0024880868451072633 -0.0071354217316268896 0 -0.0026684556299169655 -0.0073495625687659358 0 -0.002682177242076777 -0.0066403005930990907 0 -0.0022807498793757709 -0.0069322568088159174 0 -0.0024880868451072633 -0.0071354217316268896 0 -0.0022807498793757709 -0.0069322568088159174 0 -0.0023720854472823378 -0.0072090040628204378 0 -0.0024880868451072633 -0.0071354217316268896 0 -0.0022807498793757709 -0.0069322568088159174 0 -0.0023720854472823378 -0.0072090040628204378 0 -0.0021825991462545743 -0.0072496016616792223 0 -0.0015024448179944121 -0.0076108401790720695 0 -0.0022920977503572948 -0.0076113066508214826 0 -0.0019689292318224544 -0.0080908850468015565 0 -0.0017460590547881062 -0.0079309520436279327 0 -0.0017422040194559915 -0.0081980587757559641 0 -0.0015243362435950012 -0.0083460228191652719 0 -0.0015024448179944121 -0.0076108401790720695 0 -0.0019689292318224544 -0.0080908850468015565 0 -0.0018512438619062114 -0.0082260245930265586 0 -0.0017422040194559915 -0.0081980587757559641 0 -0.0017422040194559915 -0.0081980587757559641 0 -0.0017893825523440394 -0.0082820175939237409 0 -0.0017392671253222546 -0.0084605223796091009 0 -0.0018512438619062114 -0.0082260245930265586 0 -0.0017422040194559915 -0.0081980587757559641 0 -0.0017893825523440394 -0.0082820175939237409 0 -0.0019289884041343913 -0.0082467366999485689 0 -0.0018512438619062114 -0.0082260245930265586 0 -0.0018692385342389437 -0.0082845633767502785 0 -0.0018512438619062114 -0.0082260245930265586 0 -0.0018279409271269378 -0.0082702537117778068 0 -0.0018692385342389437 -0.0082845633767502785 0 -0.0018512438619062114 -0.0082260245930265586 0 -0.0017893825523440394 -0.0082820175939237409 0 -0.0018279409271269378 -0.0082702537117778068 0 -0.0018279409271269378 -0.0082702537117778068 0 -0.0018692385342389437 -0.0082845633767502785 0 -0.0018165736885026947 -0.0083213089274530513 0 -0.0017893825523440394 -0.0082820175939237409 0 -0.0018279409271269378 -0.0082702537117778068 0 -0.0018165736885026947 -0.0083213089274530513 0 -0.0018692385342389437 -0.0082845633767502785 0 -0.0018509973017218719 -0.0083421331646426344 0 -0.0018165736885026947 -0.0083213089274530513 0 -0.0019202288053794306 -0.0083008953665746048 0 -0.0018692385342389437 -0.0082845633767502785 0 -0.0018509973017218719 -0.0083421331646426344 0 -0.0019101319249315517 -0.008343779202443443 0 -0.0018509973017218719 -0.0083421331646426344 0 -0.0017392671253222546 -0.0084605223796091009 0 -0.0019058767509667297 -0.0083724976543651103 0 -0.0019101319249315517 -0.008343779202443443 0 -0.0017392671253222546 -0.0084605223796091009 0 -0.0017893825523440394 -0.0082820175939237409 0 -0.0018165736885026947 -0.0083213089274530513 0 -0.0017392671253222546 -0.0084605223796091009 0 -0.0022920977503572948 -0.0076113066508214826 0 -0.0021045194373545146 -0.0086338055889367878 0 -0.0019937328658439332 -0.0083556798504069163 0 -0.0019058767509667297 -0.0083724976543651103 0 -0.0017392671253222546 -0.0084605223796091009 0 -0.0022881865448194918 -0.0092231231991181384 0 -0.0021159174239199193 -0.0093076951976859452 0 -0.0021649451288426971 -0.0093141884446703311 0 -0.002180289911517818 -0.0089586420838358993 0 -0.0021045194373545146 -0.0086338055889367878 0 -0.0018509973017218719 -0.0083421331646426344 0 -0.0018165736885026947 -0.0083213089274530513 0 -0.0017392671253222546 -0.0084605223796091009 0 -0.0026684556299169655 -0.0073495625687659358 0 -0.0026436981264785532 -0.0079391434546861542 0 -0.0024987292849956836 -0.0076977313240737663 0 -0.0026436981264785532 -0.0079391434546861542 0 -0.0023712690092147657 -0.007861885846156158 0 -0.0023288361428834034 -0.0080548161090864961 0 -0.0026436981264785532 -0.0079391434546861542 0 -0.0023712690092147657 -0.007861885846156158 0 -0.0024987292849956836 -0.0076977313240737663 0 -0.0024987292849956836 -0.0076977313240737663 0 -0.0023839790983735021 -0.0075810867254486542 0 -0.0022653693061958323 -0.0077116214055912465 0 -0.0023712690092147657 -0.007861885846156158 0 -0.0024987292849956836 -0.0076977313240737663 0 -0.0022653693061958323 -0.0077116214055912465 0 -0.0023839790983735021 -0.0075810867254486542 0 -0.0022300849262566649 -0.0075749907364509117 0 -0.0022653693061958323 -0.0077116214055912465 0 -0.0023839790983735021 -0.0075810867254486542 0 -0.0025226928094625543 -0.0074130425748399637 0 -0.0022300849262566649 -0.0075749907364509117 0 -0.0024987292849956836 -0.0076977313240737663 0 -0.0023839790983735021 -0.0075810867254486542 0 -0.0025142776934294455 -0.0075108628550224635 0 -0.0026684556299169655 -0.0073495625687659358 0 -0.0024987292849956836 -0.0076977313240737663 0 -0.0025142776934294455 -0.0075108628550224635 0 -0.0023839790983735021 -0.0075810867254486542 0 -0.0025142776934294455 -0.0075108628550224635 0 -0.0025226928094625543 -0.0074130425748399637 0 -0.0023720854472823378 -0.0072090040628204378 0 -0.0024880868451072633 -0.0071354217316268896 0 -0.0025226928094625543 -0.0074130425748399637 0 -0.0024880868451072633 -0.0071354217316268896 0 -0.0026684556299169655 -0.0073495625687659358 0 -0.0025226928094625543 -0.0074130425748399637 0 -0.0026684556299169655 -0.0073495625687659358 0 -0.0025142776934294455 -0.0075108628550224635 0 -0.0025226928094625543 -0.0074130425748399637 0 -0.0023720854472823378 -0.0072090040628204378 0 -0.0025226928094625543 -0.0074130425748399637 0 -0.0021825991462545743 -0.0072496016616792223 0 -0.0021825991462545743 -0.0072496016616792223 0 -0.0017324550683721167 -0.0073912975628205573 0 -0.0018587035858894083 -0.0071792699813438381 0 -0.0025226928094625543 -0.0074130425748399637 0 -0.0021825991462545743 -0.0072496016616792223 0 -0.0017324550683721167 -0.0073912975628205573 0 -0.0024871058348176541 -0.0074078774235201497 0 -0.0018751489718227502 -0.0074596453933457969 0 -0.0025226928094625543 -0.0074130425748399637 0 -0.0022300849262566649 -0.0075749907364509117 0 -0.001965275681308973 -0.0074782267952176202 0 -0.0022300849262566649 -0.0075749907364509117 0 -0.0020142730494306727 -0.0076897929648304993 0 -0.001965275681308973 -0.0074782267952176202 0 -0.0022300849262566649 -0.0075749907364509117 0 -0.0022653693061958323 -0.0077116214055912465 0 -0.0020142730494306727 -0.0076897929648304993 0 -0.0022653693061958323 -0.0077116214055912465 0 -0.0020142730494306727 -0.0076897929648304993 0 -0.0021387661669279917 -0.0079014059627572041 0 -0.0020142730494306727 -0.0076897929648304993 0 -0.0021387661669279917 -0.0079014059627572041 0 -0.0018599511667632058 -0.0078724789645532832 0 -0.0023712690092147657 -0.007861885846156158 0 -0.0021387661669279917 -0.0079014059627572041 0 -0.0023288361428834034 -0.0080548161090864961 0 -0.0023712690092147657 -0.007861885846156158 0 -0.0022653693061958323 -0.0077116214055912465 0 -0.0021387661669279917 -0.0079014059627572041 0 -0.0019680237581293312 -0.0080267036308868112 0 -0.0016751807707302588 -0.0075864924840858047 0 -0.0014715983962066814 -0.0080473191181497771 0 -0.0019680237581293312 -0.0080267036308868112 0 -0.001717060009580872 -0.0083205356394261392 0 -0.0014715983962066814 -0.0080473191181497771 0 -0.0020142730494306727 -0.0076897929648304993 0 -0.0018599511667632058 -0.0078724789645532832 0 -0.0016751807707302588 -0.0075864924840858047 0 -0.001885977625879541 -0.0079157599611673849 0 -0.0017163226305779314 -0.0076391492237112887 0 -0.0016751807707302588 -0.0075864924840858047 0 -0.001965275681308973 -0.0074782267952176202 0 -0.0012865213961950068 -0.0075107788837942011 0 -0.0014171892594649349 -0.0072966081745904467 0 -0.0017324550683721167 -0.0073912975628205573 0 -0.0018587035858894083 -0.0071792699813438381 0 -0.0014171892594649349 -0.0072966081745904467 0 -0.0017324550683721167 -0.0073912975628205573 0 -0.00098173511062798406 -0.0074057193506898086 0 -0.0014255621411274622 -0.0072728441459441271 0 -0.0018121706325473256 -0.0071849485612883362 0 -0.0018751489718227502 -0.0074596453933457969 0 -0.0010585282240107041 -0.0072720228130096582 0 -0.0020142730494306727 -0.0076897929648304993 0 -0.0016751807707302588 -0.0075864924840858047 0 -0.001965275681308973 -0.0074782267952176202 0 -0.0014363363209975888 -0.0072481388091817766 0 -0.0015633370416246314 -0.0069451569724207317 0 -0.0018587035858894083 -0.0071792699813438381 0 -0.0014363363209975888 -0.0072481388091817766 0 -0.0015633370416246314 -0.0069451569724207317 0 -0.0011591464789843795 -0.006924940379257778 0 -0.0015633370416246314 -0.0069451569724207317 0 -0.0014919403556076973 -0.0066028812708946571 0 -0.0011591464789843795 -0.006924940379257778 0 -0.0015633370416246314 -0.0069451569724207317 0 -0.0018884646367501165 -0.0067662599860107333 0 -0.0014919403556076973 -0.0066028812708946571 0 -0.0018587035858894083 -0.0071792699813438381 0 -0.0020580804147833473 -0.0070369181529553529 0 -0.0018884646367501165 -0.0067662599860107333 0 -0.0021825991462545743 -0.0072496016616792223 0 -0.0018587035858894083 -0.0071792699813438381 0 -0.0020580804147833473 -0.0070369181529553529 0 -0.0022807498793757709 -0.0069322568088159174 0 -0.0021825991462545743 -0.0072496016616792223 0 -0.0020580804147833473 -0.0070369181529553529 0 -0.0022807498793757709 -0.0069322568088159174 0 -0.0020580804147833473 -0.0070369181529553529 0 -0.0018884646367501165 -0.0067662599860107333 0 -0.0015633370416246314 -0.0069451569724207317 0 -0.0018587035858894083 -0.0071792699813438381 0 -0.0018884646367501165 -0.0067662599860107333 0 -0.0021778072487424827 -0.0062997720372684855 0 -0.0018884646367501165 -0.0067662599860107333 0 -0.0017734064335843368 -0.0063731394482463019 0 -0.0021778072487424827 -0.0062997720372684855 0 -0.0022807498793757709 -0.0069322568088159174 0 -0.0018884646367501165 -0.0067662599860107333 0 -0.0014541439538617925 -0.00624648756631924 0 -0.0017734064335843368 -0.0063731394482463019 0 -0.0014919403556076973 -0.0066028812708946571 0 -0.0018884646367501165 -0.0067662599860107333 0 -0.0017734064335843368 -0.0063731394482463019 0 -0.0014919403556076973 -0.0066028812708946571 0 -0.0015700119003266609 -0.0095201920611698177 0 -0.0016660114864104163 -0.0098128634579742035 0 -0.0014161448004427564 -0.0097120700814399899 0 -0.0015700119003266609 -0.0095201920611698177 0 -0.0018608550520993212 -0.0097092155947239196 0 -0.0018104976602933602 -0.0094625139992404791 0 -0.0015700119003266609 -0.0095201920611698177 0 -0.0018608550520993212 -0.0097092155947239196 0 -0.0016660114864104163 -0.0098128634579742035 0 -0.0018608550520993212 -0.0097092155947239196 0 -0.0018104976602933602 -0.0094625139992404791 0 -0.0020380810377353602 -0.0095783010061849094 0 -0.0018104976602933602 -0.0094625139992404791 0 -0.0015994027964272258 -0.0092227989118455356 0 -0.0019081931103012136 -0.0091842638614489831 0 -0.0015700119003266609 -0.0095201920611698177 0 -0.0018104976602933602 -0.0094625139992404791 0 -0.0015994027964272258 -0.0092227989118455356 0 -0.0015700119003266609 -0.0095201920611698177 0 -0.0015994027964272258 -0.0092227989118455356 0 -0.0013184066589698854 -0.0092076192942477843 0 -0.0015994027964272258 -0.0092227989118455356 0 -0.0014033888665453275 -0.0089530579340260444 0 -0.0013184066589698854 -0.0092076192942477843 0 -0.0015994027964272258 -0.0092227989118455356 0 -0.0017314185757093667 -0.0088355018097566636 0 -0.0014033888665453275 -0.0089530579340260444 0 -0.0018998600710176791 -0.0086878102143939859 0 -0.0015339047497278191 -0.0088310719784483547 0 -0.0019680237581293312 -0.0080267036308868112 0 -0.001717060009580872 -0.0083205356394261392 0 -0.0022242960755409751 -0.0084709122364617206 0 -0.001717060009580872 -0.0083205356394261392 0 -0.0022242960755409751 -0.0084709122364617206 0 -0.0016593743763755801 -0.0087172312440896866 0 -0.001885977625879541 -0.0079157599611673849 0 -0.0018998600710176791 -0.0086878102143939859 0 -0.0017743738616884865 -0.0091472388791525028 0 -0.0019114359916357225 -0.009391077322233897 0 -0.0019555282821494555 -0.0090744164759452572 0 -0.0021387661669279917 -0.0079014059627572041 0 -0.0020286270809190521 -0.0081765973029095333 0 -0.0023288361428834034 -0.0080548161090864961 0 -0.0018998600710176791 -0.0086878102143939859 0 -0.0021917960050615855 -0.0085477252948597798 0 -0.0021387661669279917 -0.0079014059627572041 0 -0.0018599511667632058 -0.0078724789645532832 0 -0.0020286270809190521 -0.0081765973029095333 0 -0.0018998600710176791 -0.0086878102143939859 0 -0.0019098782231422207 -0.0093353007938118196 0 -0.0015994027964272258 -0.0092227989118455356 0 -0.0017314185757093667 -0.0088355018097566636 0 -0.0019081931103012136 -0.0091842638614489831 0 -0.0019114359916357225 -0.009391077322233897 0 -0.0021234387874645403 -0.0092786404473191308 0 -0.0020976220191908181 -0.0095435405873953421 0 -0.0019114359916357225 -0.009391077322233897 0 -0.0019555282821494555 -0.0090744164759452572 0 -0.0021234387874645403 -0.0092786404473191308 0 -0.002117035929924078 -0.0094751238918413371 0 -0.0021034053757885518 -0.0094872456130987385 0 -0.0021374740418049118 -0.0089981084828391535 0 -0.0019555282821494555 -0.0090744164759452572 0 -0.0021234387874645403 -0.0092786404473191308 0 -0.0021045194373545146 -0.0086338055889367878 0 -0.0021917960050615855 -0.0085477252948597798 0 -0.0021045194373545146 -0.0086338055889367878 0 -0.002117035929924078 -0.0094751238918413371 0 -0.0021159174239199193 -0.0093076951976859452 0 -0.0021992865526092873 -0.0094088093176270659 0 -0.0021171581167766739 -0.0094499369766347652 0 -0.0021649451288426971 -0.0093141884446703311 0 -0.0021992865526092873 -0.0094088093176270659 0 -0.0022154075753442722 -0.0093531356094364339 0 -0.0021649451288426971 -0.0093141884446703311 0 -0.0022099987443707845 -0.0093062789045827449 0 -0.0022154075753442722 -0.0093531356094364339 0 -0.0021159174239199193 -0.0093076951976859452 0 -0.0021649451288426971 -0.0093141884446703311 0 -0.0021992865526092873 -0.0094088093176270659 0 -0.0021992865526092873 -0.0094088093176270659 0 -0.0021171581167766739 -0.0094499369766347652 0 -0.0022094948296861087 -0.0094941479358681396 0 -0.0021171581167766739 -0.0094499369766347652 0 -0.0021491169081859392 -0.0095141249098448961 0 -0.0022094948296861087 -0.0094941479358681396 0 -0.0021171581167766739 -0.0094499369766347652 0 -0.0021491169081859392 -0.0095141249098448961 0 -0.0020976220191908181 -0.0095435405873953421 0 -0.0021817403459385453 -0.0095787485137718131 0 -0.0021491169081859392 -0.0095141249098448961 0 -0.0022094948296861087 -0.0094941479358681396 0 -0.0021817403459385453 -0.0095787485137718131 0 -0.0021491169081859392 -0.0095141249098448961 0 -0.0020976220191908181 -0.0095435405873953421 0 -0.0021817403459385453 -0.0095787485137718131 0 -0.0020976220191908181 -0.0095435405873953421 0 -0.002108857690919366 -0.0096121092692140961 0 -0.0019098782231422207 -0.0093353007938118196 0 -0.0020244133415922173 -0.0095321423153345748 0 -0.0019114359916357225 -0.009391077322233897 0 -0.0020976220191908181 -0.0095435405873953421 0 -0.0020380810377353602 -0.0095783010061849094 0 -0.0018104976602933602 -0.0094625139992404791 0 -0.0019081931103012136 -0.0091842638614489831 0 -0.0020380810377353602 -0.0095783010061849094 0 -0.0020976220191908181 -0.0095435405873953421 0 -0.0020380810377353602 -0.0095783010061849094 0 -0.002108857690919366 -0.0096121092692140961 0 -0.0020380810377353602 -0.0095783010061849094 0 -0.0020503824135234467 -0.0097034873957257215 0 -0.002108857690919366 -0.0096121092692140961 0 -0.0018608550520993212 -0.0097092155947239196 0 -0.0020380810377353602 -0.0095783010061849094 0 -0.0020503824135234467 -0.0097034873957257215 0 -0.0020503824135234467 -0.0097034873957257215 0 -0.0021574453746679898 -0.0096789948942560509 0 -0.0021180874760094739 -0.0097858354287773067 0 -0.0021574453746679898 -0.0096789948942560509 0 -0.0022077994464845502 -0.009758396449579005 0 -0.0021180874760094739 -0.0097858354287773067 0 -0.0021574453746679898 -0.0096789948942560509 0 -0.0022603982502641061 -0.0096685738407263216 0 -0.0022077994464845502 -0.009758396449579005 0 -0.0021817403459385453 -0.0095787485137718131 0 -0.0021574453746679898 -0.0096789948942560509 0 -0.0022603982502641061 -0.0096685738407263216 0 -0.0021817403459385453 -0.0095787485137718131 0 -0.0021574453746679898 -0.0096789948942560509 0 -0.002108857690919366 -0.0096121092692140961 0 -0.0020503824135234467 -0.0097034873957257215 0 -0.0021574453746679898 -0.0096789948942560509 0 -0.002108857690919366 -0.0096121092692140961 0 -0.0022603982502641061 -0.0096685738407263216 0 -0.0023175306734947382 -0.0098067164245037707 0 -0.0022077994464845502 -0.009758396449579005 0 -0.0022603982502641061 -0.0096685738407263216 0 -0.0023577772815853867 -0.009691595200005558 0 -0.0023175306734947382 -0.0098067164245037707 0 -0.0022603982502641061 -0.0096685738407263216 0 -0.0023577772815853867 -0.009691595200005558 0 -0.002296055634461865 -0.0095766292143330978 0 -0.0023577772815853867 -0.009691595200005558 0 -0.0024499327342557913 -0.0096317683942591138 0 -0.0024325135999400047 -0.0098086160503567336 0 -0.0023577772815853867 -0.009691595200005558 0 -0.0023716321761260164 -0.0096072891160917506 0 -0.0024499327342557913 -0.0096317683942591138 0 -0.0023577772815853867 -0.009691595200005558 0 -0.0023716321761260164 -0.0096072891160917506 0 -0.002296055634461865 -0.0095766292143330978 0 -0.0023716321761260164 -0.0096072891160917506 0 -0.0023810552411425738 -0.0095299941201178635 0 -0.0024499327342557913 -0.0096317683942591138 0 -0.002296055634461865 -0.0095766292143330978 0 -0.0022996008944449258 -0.0094910011149007788 0 -0.0023810552411425738 -0.0095299941201178635 0 -0.0023716321761260164 -0.0096072891160917506 0 -0.002296055634461865 -0.0095766292143330978 0 -0.0023810552411425738 -0.0095299941201178635 0 -0.0021817403459385453 -0.0095787485137718131 0 -0.002296055634461865 -0.0095766292143330978 0 -0.0022094948296861087 -0.0094941479358681396 0 -0.0021817403459385453 -0.0095787485137718131 0 -0.0022603982502641061 -0.0096685738407263216 0 -0.002296055634461865 -0.0095766292143330978 0 -0.002296055634461865 -0.0095766292143330978 0 -0.0022094948296861087 -0.0094941479358681396 0 -0.0022996008944449258 -0.0094910011149007788 0 -0.0021992865526092873 -0.0094088093176270659 0 -0.0022996008944449258 -0.0094910011149007788 0 -0.0022997761415511956 -0.0094127472017076601 0 -0.0021992865526092873 -0.0094088093176270659 0 -0.0022094948296861087 -0.0094941479358681396 0 -0.0022996008944449258 -0.0094910011149007788 0 -0.0021992865526092873 -0.0094088093176270659 0 -0.0022997761415511956 -0.0094127472017076601 0 -0.0022154075753442722 -0.0093531356094364339 0 -0.0023207283598745618 -0.0093067821524437204 0 -0.0022997761415511956 -0.0094127472017076601 0 -0.0022588857385165964 -0.0093258185792651441 0 -0.0022997761415511956 -0.0094127472017076601 0 -0.0022588857385165964 -0.0093258185792651441 0 -0.0022154075753442722 -0.0093531356094364339 0 -0.0022099987443707845 -0.0093062789045827449 0 -0.0022588857385165964 -0.0093258185792651441 0 -0.0022154075753442722 -0.0093531356094364339 0 -0.0023833360903733098 -0.0093892218546613709 0 -0.0022997761415511956 -0.0094127472017076601 0 -0.0023740664439029263 -0.0094446305325505027 0 -0.0023833360903733098 -0.0093892218546613709 0 -0.0023740664439029263 -0.0094446305325505027 0 -0.0024140562647098824 -0.0094252722825602236 0 -0.0023207283598745618 -0.0093067821524437204 0 -0.0023906931963820289 -0.0093136095192453087 0 -0.0022997761415511956 -0.0094127472017076601 0 -0.0023993671169590647 -0.0093404538916888099 0 -0.0023019323460755159 -0.0094165684143494507 0 -0.0022996008944449258 -0.0094910011149007788 0 -0.0022997761415511956 -0.0094127472017076601 0 -0.0023740664439029263 -0.0094446305325505027 0 -0.0022996008944449258 -0.0094910011149007788 0 -0.0023740664439029263 -0.0094446305325505027 0 -0.0023810552411425738 -0.0095299941201178635 0 -0.0023810552411425738 -0.0095299941201178635 0 -0.0024505239341710821 -0.0095357036823706231 0 -0.0024441582216488235 -0.0094648349259526428 0 -0.0024505239341710821 -0.0095357036823706231 0 -0.0024441582216488235 -0.0094648349259526428 0 -0.0025317148846763118 -0.0095206296096722147 0 -0.0024094980060785811 -0.0094769285391818059 0 -0.0024272506863387655 -0.0097702313654702069 0 -0.0024441582216488235 -0.0094648349259526428 0 -0.0024423274109005681 -0.0094368639819646712 0 -0.0024521178485515378 -0.0094591692482491746 0 -0.0023740664439029263 -0.0094446305325505027 0 -0.0023810552411425738 -0.0095299941201178635 0 -0.0024441582216488235 -0.0094648349259526428 0 -0.0023740664439029263 -0.0094446305325505027 0 -0.0024441582216488235 -0.0094648349259526428 0 -0.0024140562647098824 -0.0094252722825602236 0 -0.0024441582216488235 -0.0094648349259526428 0 -0.0024140562647098824 -0.0094252722825602236 0 -0.0024423274109005681 -0.0094368639819646712 0 -0.0024246898279541907 -0.00940537419042352 0 -0.0024140562647098824 -0.0094252722825602236 0 -0.0024423274109005681 -0.0094368639819646712 0 -0.0024246898279541907 -0.00940537419042352 0 -0.0024423274109005681 -0.0094368639819646712 0 -0.0024485125199913246 -0.0094204335245970956 0 -0.0024246898279541907 -0.00940537419042352 0 -0.0023833360903733098 -0.0093892218546613709 0 -0.0024140562647098824 -0.0094252722825602236 0 -0.0021859962920123509 -0.010132341997749823 0 -0.0022411389902688718 -0.0098025481953777777 0 -0.0024561809720211564 -0.0094450673002598653 0 -0.0024628855025564771 -0.0094663837570120694 0 -0.0024673962420077421 -0.0094326364433046893 0 -0.0024485125199913246 -0.0094204335245970956 0 -0.0024561809720211564 -0.0094450673002598653 0 -0.0024673962420077421 -0.0094326364433046893 0 -0.0024632104620123576 -0.009424581884699074 0 -0.0024485125199913246 -0.0094204335245970956 0 -0.0024673962420077421 -0.0094326364433046893 0 -0.0024423274109005681 -0.0094368639819646712 0 -0.0024561809720211564 -0.0094450673002598653 0 -0.0024521178485515378 -0.0094591692482491746 0 -0.0024423274109005681 -0.0094368639819646712 0 -0.0024485125199913246 -0.0094204335245970956 0 -0.0024561809720211564 -0.0094450673002598653 0 -0.0024441582216488235 -0.0094648349259526428 0 -0.0024521178485515378 -0.0094591692482491746 0 -0.0024548206076492858 -0.0094731823412110665 0 -0.0024561809720211564 -0.0094450673002598653 0 -0.0024628855025564771 -0.0094663837570120694 0 -0.0024521178485515378 -0.0094591692482491746 0 -0.0024628855025564771 -0.0094663837570120694 0 -0.0024521178485515378 -0.0094591692482491746 0 -0.0024548206076492858 -0.0094731823412110665 0 -0.0025239654539275279 -0.0095895696235959223 0 -0.0025327772312863329 -0.0095975337593563366 0 -0.0025255168539060754 -0.00960513875337329 0 -0.0024272506863387655 -0.0097702313654702069 0 -0.0023357904330530395 -0.010108028579458609 0 -0.0019677858300162126 -0.01087443636587361 0 -0.0020051038141377926 -0.010757832629248194 0 -0.0018834554725745351 -0.01081172775253297 0 -0.0021859962920123509 -0.010132341997749823 0 -0.0023357904330530395 -0.010108028579458609 0 -0.0021859962920123509 -0.010132341997749823 0 -0.0024272506863387655 -0.0097702313654702069 0 -0.0022169250990190076 -0.010058763230458775 0 -0.0023390061738729371 -0.0099343840201042387 0 -0.0022726150359878078 -0.0098850326668165917 0 -0.0025327772312863329 -0.0095975337593563366 0 -0.0025338971137527934 -0.0096132722767663208 0 -0.002567833465779417 -0.0096250542304550518 0 -0.0023357904330530395 -0.010108028579458609 0 -0.0020502499069515643 -0.010692157868702994 0 -0.0020051038141377926 -0.010757832629248194 0 -0.0018834554725745351 -0.01081172775253297 0 -0.0018614113281472087 -0.010653905030232664 0 -0.0024693418849700078 -0.010423188569098466 0 -0.0020502499069515643 -0.010692157868702994 0 -0.0025338971137527934 -0.0096132722767663208 0 -0.002527271888265124 -0.0096365423376402488 0 -0.002567833465779417 -0.0096250542304550518 0 -0.002527271888265124 -0.0096365423376402488 0 -0.0025113016809182234 -0.0096948101277544701 0 -0.002567833465779417 -0.0096250542304550518 0 -0.0025056394736084112 -0.0096418928100541271 0 -0.002527271888265124 -0.0096365423376402488 0 -0.0025113016809182234 -0.0096948101277544701 0 -0.0025056394736084112 -0.0096418928100541271 0 -0.002527271888265124 -0.0096365423376402488 0 -0.0025118323400852298 -0.0096196999007941639 0 -0.0025239654539275279 -0.0095895696235959223 0 -0.0025118323400852298 -0.0096196999007941639 0 -0.0025255168539060754 -0.00960513875337329 0 -0.0025338971137527934 -0.0096132722767663208 0 -0.0025118323400852298 -0.0096196999007941639 0 -0.0025255168539060754 -0.00960513875337329 0 -0.0025338971137527934 -0.0096132722767663208 0 -0.002527271888265124 -0.0096365423376402488 0 -0.0025118323400852298 -0.0096196999007941639 0 -0.0025327772312863329 -0.0095975337593563366 0 -0.0025338971137527934 -0.0096132722767663208 0 -0.0025255168539060754 -0.00960513875337329 0 -0.0024272506863387655 -0.0097702313654702069 0 -0.0025067681589781006 -0.0095583582046023449 0 -0.0024505239341710821 -0.0095357036823706231 0 -0.0025317148846763118 -0.0095206296096722147 0 -0.0024499327342557913 -0.0096317683942591138 0 -0.0025239654539275279 -0.0095895696235959223 0 -0.0025118323400852298 -0.0096196999007941639 0 -0.0024499327342557913 -0.0096317683942591138 0 -0.0023810552411425738 -0.0095299941201178635 0 -0.0024505239341710821 -0.0095357036823706231 0 -0.0024499327342557913 -0.0096317683942591138 0 -0.0025056394736084112 -0.0096418928100541271 0 -0.0025118323400852298 -0.0096196999007941639 0 -0.0024499327342557913 -0.0096317683942591138 0 -0.0024499327342557913 -0.0096317683942591138 0 -0.0025113016809182234 -0.0096948101277544701 0 -0.0024325135999400047 -0.0098086160503567336 0 -0.0024693418849700078 -0.010423188569098466 0 -0.0024113678724578536 -0.010490573301266157 0 -0.0025056394736084112 -0.0096418928100541271 0 -0.0024499327342557913 -0.0096317683942591138 0 -0.0025113016809182234 -0.0096948101277544701 0 -0.0022162468119740833 -0.011273463894645615 0 -0.0023032586501614328 -0.011247526950137497 0 -0.0022497429637249816 -0.011183851784428203 0 -0.0022162468119740833 -0.011273463894645615 0 -0.0023032586501614328 -0.011247526950137497 0 -0.0021835540638794459 -0.011355262706482757 0 -0.0022162468119740833 -0.011273463894645615 0 -0.0022497429637249816 -0.011183851784428203 0 -0.0021508391342213973 -0.011200970343383826 0 -0.0022497429637249816 -0.011183851784428203 0 -0.0023175174647507113 -0.01114019089893371 0 -0.0022530430809572571 -0.011071702256802629 0 -0.0023032586501614328 -0.011247526950137497 0 -0.0022497429637249816 -0.011183851784428203 0 -0.0023175174647507113 -0.01114019089893371 0 -0.0021033272234198233 -0.01128525341681297 0 -0.0015982230302570969 -0.011960291956350297 0 -0.0022497429637249816 -0.011183851784428203 0 -0.0022530430809572571 -0.011071702256802629 0 -0.0021508391342213973 -0.011200970343383826 0 -0.0023175174647507113 -0.01114019089893371 0 -0.0023585458627919677 -0.011056149594625114 0 -0.0022530430809572571 -0.011071702256802629 0 -0.0023032586501614328 -0.011247526950137497 0 -0.0023175174647507113 -0.01114019089893371 0 -0.0024225393257440173 -0.011140234534572128 0 -0.0023175174647507113 -0.01114019089893371 0 -0.0023585458627919677 -0.011056149594625114 0 -0.0024225393257440173 -0.011140234534572128 0 -0.0023585458627919677 -0.011056149594625114 0 -0.0023559442055282663 -0.010944470475182473 0 -0.0024355734717702812 -0.011001035309395338 0 -0.0023585458627919677 -0.011056149594625114 0 -0.0022530430809572571 -0.011071702256802629 0 -0.0023559442055282663 -0.010944470475182473 0 -0.0023585458627919677 -0.011056149594625114 0 -0.0024355734717702812 -0.011001035309395338 0 -0.0024225393257440173 -0.011140234534572128 0 -0.0018502304912003263 -0.011636591130321595 0 -0.0018682146191951394 -0.011307897333069136 0 -0.0021645859697122837 -0.011212797793093362 0 -0.0021033272234198233 -0.01128525341681297 0 -0.0022469228784384606 -0.011089593112888487 0 -0.0018502304912003263 -0.011636591130321595 0 -0.0018682146191951394 -0.011307897333069136 0 -0.0015221998667869149 -0.011335151360422872 0 -0.0017207494417940316 -0.011561494439480038 0 -0.0012398295480597053 -0.012321440534786168 0 -0.0018682146191951394 -0.011307897333069136 0 -0.0019174255115053877 -0.011023580031753738 0 -0.0015221998667869149 -0.011335151360422872 0 -0.0018682146191951394 -0.011307897333069136 0 -0.0019174255115053877 -0.011023580031753738 0 -0.0021645859697122837 -0.011212797793093362 0 -0.0013434617206634792 -0.012321915388956883 0 -0.0013788975979130288 -0.012341137430548979 0 -0.00134117336034685 -0.012370030891779229 0 -0.0022958588090458772 -0.010737858303546007 0 -0.0021645859697122837 -0.011212797793093362 0 -0.0024234708536343416 -0.010812492854203075 0 -0.0019174255115053877 -0.011023580031753738 0 -0.0022958588090458772 -0.010737858303546007 0 -0.0021645859697122837 -0.011212797793093362 0 -0.0017207494417940316 -0.011561494439480038 0 -0.0017033443521759358 -0.011785606500547774 0 -0.0013434617206634792 -0.012321915388956883 0 -0.0013103295117401108 -0.012349027592939483 0 -0.00134117336034685 -0.012370030891779229 0 -0.0022469228784384606 -0.011089593112888487 0 -0.002421336369113211 -0.01082840061428648 0 -0.0023559442055282663 -0.010944470475182473 0 -0.0024313559817639606 -0.010905423366699673 0 -0.0024234708536343416 -0.010812492854203075 0 -0.0023559442055282663 -0.010944470475182473 0 -0.0024313559817639606 -0.010905423366699673 0 -0.0024355734717702812 -0.011001035309395338 0 -0.0025212082083220853 -0.010943054157102295 0 -0.0024313559817639606 -0.010905423366699673 0 -0.0024355734717702812 -0.011001035309395338 0 -0.0025212082083220853 -0.010943054157102295 0 -0.0024878383739381925 -0.010888833941966285 0 -0.0025384197453476266 -0.010846923572955317 0 -0.0025212082083220853 -0.010943054157102295 0 -0.0024878383739381925 -0.010888833941966285 0 -0.0024313559817639606 -0.010905423366699673 0 -0.0024878383739381925 -0.010888833941966285 0 -0.0024313559817639606 -0.010905423366699673 0 -0.0024851360222270984 -0.010858524139173369 0 -0.0017033443521759358 -0.011785606500547774 0 -0.0027103168226104784 -0.010834691978939695 0 -0.0022958588090458772 -0.010737858303546007 0 -0.0025511483478101323 -0.010857682770834307 0 -0.0024234708536343416 -0.010812492854203075 0 -0.0024313559817639606 -0.010905423366699673 0 -0.0024851360222270984 -0.010858524139173369 0 -0.0024234708536343416 -0.010812492854203075 0 -0.0024851360222270984 -0.010858524139173369 0 -0.0025511483478101323 -0.010857682770834307 0 -0.0024234708536343416 -0.010812492854203075 0 -0.0024878383739381925 -0.010888833941966285 0 -0.0024851360222270984 -0.010858524139173369 0 -0.0025384197453476266 -0.010846923572955317 0 -0.0024851360222270984 -0.010858524139173369 0 -0.0025384197453476266 -0.010846923572955317 0 -0.0025511483478101323 -0.010857682770834307 0 -0.0024471446177347527 -0.010859125550120313 0 -0.0023206416815446432 -0.010900229179775669 0 -0.0024361647033070964 -0.010979168332001708 0 -0.0025511483478101323 -0.010857682770834307 0 -0.0024471446177347527 -0.010859125550120313 0 -0.0024361647033070964 -0.010979168332001708 0 -0.0025384197453476266 -0.010846923572955317 0 -0.0025511483478101323 -0.010857682770834307 0 -0.0024471446177347527 -0.010859125550120313 0 -0.0025384197453476266 -0.010846923572955317 0 -0.0024471446177347527 -0.010859125550120313 0 -0.002350973764162728 -0.010709569045703251 0 -0.0025212082083220853 -0.010943054157102295 0 -0.0025470287284315818 -0.011033246512022062 0 -0.0026759919769814753 -0.010916760971295819 0 -0.0025962092799929918 -0.010887906277656996 0 -0.0023881676511865002 -0.010615100840653308 0 -0.0024486164731529103 -0.010484150821377403 0 -0.0023881676511865002 -0.010615100840653308 0 -0.0025212082083220853 -0.010943054157102295 0 -0.0025384197453476266 -0.010846923572955317 0 -0.0026759919769814753 -0.010916760971295819 0 -0.0023272671950898302 -0.0099679519593799878 0 -0.0021736465320349296 -0.0099126857740238147 0 -0.0021825576193362883 -0.010141687346268543 0 -0.0025470287284315818 -0.011033246512022062 0 -0.0024355734717702812 -0.011001035309395338 0 -0.0024225393257440173 -0.011140234534572128 0 -0.0025212082083220853 -0.010943054157102295 0 -0.0025470287284315818 -0.011033246512022062 0 -0.0024355734717702812 -0.011001035309395338 0 -0.0024486164731529103 -0.010484150821377403 0 -0.0024113678724578536 -0.010490573301266157 0 -0.0023577772815853867 -0.009691595200005558 0 -0.0024325135999400047 -0.0098086160503567336 0 -0.0023175306734947382 -0.0098067164245037707 0 -0.0023272671950898302 -0.0099679519593799878 0 -0.0024325135999400047 -0.0098086160503567336 0 -0.0023175306734947382 -0.0098067164245037707 0 -0.0023175306734947382 -0.0098067164245037707 0 -0.0022077994464845502 -0.009758396449579005 0 -0.0021736465320349296 -0.0099126857740238147 0 -0.0023272671950898302 -0.0099679519593799878 0 -0.0023175306734947382 -0.0098067164245037707 0 -0.0021736465320349296 -0.0099126857740238147 0 -0.0021180874760094739 -0.0097858354287773067 0 -0.0020105518831856233 -0.0098596589831216972 0 -0.0021736465320349296 -0.0099126857740238147 0 -0.0022077994464845502 -0.009758396449579005 0 -0.0021180874760094739 -0.0097858354287773067 0 -0.0021736465320349296 -0.0099126857740238147 0 -0.0018608550520993212 -0.0097092155947239196 0 -0.0020503824135234467 -0.0097034873957257215 0 -0.0020105518831856233 -0.0098596589831216972 0 -0.0020503824135234467 -0.0097034873957257215 0 -0.0021180874760094739 -0.0097858354287773067 0 -0.0020105518831856233 -0.0098596589831216972 0 -0.0018608550520993212 -0.0097092155947239196 0 -0.0020105518831856233 -0.0098596589831216972 0 -0.0018543866423817112 -0.0098806405382719006 0 -0.0020105518831856233 -0.0098596589831216972 0 -0.0019999191737725473 -0.010080277545352293 0 -0.0021736465320349296 -0.0099126857740238147 0 -0.0020105518831856233 -0.0098596589831216972 0 -0.0019999191737725473 -0.010080277545352293 0 -0.0018543866423817112 -0.0098806405382719006 0 -0.0019999191737725473 -0.010080277545352293 0 -0.0021736465320349296 -0.0099126857740238147 0 -0.0021825576193362883 -0.010141687346268543 0 -0.0020379841344767145 -0.010192418009037887 0 -0.0023881676511865002 -0.010615100840653308 0 -0.0021284302410365208 -0.010355509119927534 0 -0.0024840689763907624 -0.010521867176519388 0 -0.0021473995697847315 -0.010827997669128 0 -0.002350973764162728 -0.010709569045703251 0 -0.0023206416815446432 -0.010900229179775669 0 -0.0021473995697847315 -0.010827997669128 0 -0.0023881676511865002 -0.010615100840653308 0 -0.0021744080791893019 -0.010816387099801341 0 -0.0023206416815446432 -0.010900229179775669 0 -0.0021473995697847315 -0.010827997669128 0 -0.0022544330423027244 -0.011090275332315153 0 -0.0024471446177347527 -0.010859125550120313 0 -0.002350973764162728 -0.010709569045703251 0 -0.0023206416815446432 -0.010900229179775669 0 -0.0021284302410365208 -0.010355509119927534 0 -0.0021473995697847315 -0.010827997669128 0 -0.0017757720074066965 -0.010633422030283888 0 -0.0021284302410365208 -0.010355509119927534 0 -0.0017757720074066965 -0.010633422030283888 0 -0.0018111182312014426 -0.010181384266455354 0 -0.0021473995697847315 -0.010827997669128 0 -0.0017757720074066965 -0.010633422030283888 0 -0.0019132387383435047 -0.010978748053880195 0 -0.0017757720074066965 -0.010633422030283888 0 -0.0016133458666846112 -0.010942977742585467 0 -0.0019132387383435047 -0.010978748053880195 0 -0.0017757720074066965 -0.010633422030283888 0 -0.0016133458666846112 -0.010942977742585467 0 -0.0013267043824594753 -0.010756657428271872 0 -0.0017757720074066965 -0.010633422030283888 0 -0.0014549816476741215 -0.010338894221997666 0 -0.0013267043824594753 -0.010756657428271872 0 -0.0017757720074066965 -0.010633422030283888 0 -0.0014549816476741215 -0.010338894221997666 0 -0.0018111182312014426 -0.010181384266455354 0 -0.0014549816476741215 -0.010338894221997666 0 -0.0018111182312014426 -0.010181384266455354 0 -0.0014801084943761272 -0.0099834911504163119 0 -0.0017860192743885494 -0.010105499550490815 0 -0.001500051074119133 -0.0099876957593446614 0 -0.0020379841344767145 -0.010192418009037887 0 -0.0017860192743885494 -0.010105499550490815 0 -0.0019999191737725473 -0.010080277545352293 0 -0.0017756934678661554 -0.010032531344136614 0 -0.0018543866423817112 -0.0098806405382719006 0 -0.0017756934678661554 -0.010032531344136614 0 -0.0018543866423817112 -0.0098806405382719006 0 -0.0016660114864104163 -0.0098128634579742035 0 -0.0018608550520993212 -0.0097092155947239196 0 -0.0018543866423817112 -0.0098806405382719006 0 -0.0016660114864104163 -0.0098128634579742035 0 -0.0017756934678661554 -0.010032531344136614 0 -0.0016660114864104163 -0.0098128634579742035 0 -0.0014801084943761272 -0.0099834911504163119 0 -0.0016660114864104163 -0.0098128634579742035 0 -0.0014801084943761272 -0.0099834911504163119 0 -0.0014161448004427564 -0.0097120700814399899 0 -1.9489619045740453e-05 -0.01498142847505333 0 -2.0187145821365696e-05 -0.014985562774361158 0 -1.7877030584183777e-05 -0.014984071775645712 0 -1.9489619045740453e-05 -0.01498142847505333 0 -2.0187145821365696e-05 -0.014985562774361158 0 -1.9489633331882607e-05 -0.014965781959386837 0 -1.9489619045740453e-05 -0.01498142847505333 0 -1.7877030584183777e-05 -0.014984071775645712 0 -1.5576015975700043e-05 -0.014986167416107653 0 -1.9489619045740453e-05 -0.01498142847505333 0 -1.5576015975700043e-05 -0.014986167416107653 0 -2.0037975182372596e-05 -0.014977231697117432 0 2.6903487134194846e-05 -0.014974435625044366 0 -1.9489633331882607e-05 -0.014965781959386837 0 2.1343098919744322e-05 -0.014968055358691843 0 6.3210014943740797e-05 -0.015079101929458967 0 -4.3393720456833653e-05 -0.014922249485355241 0 2.6903487134194846e-05 -0.014974435625044366 0 2.1343098919744322e-05 -0.014968055358691843 0 2.8395546127991942e-05 -0.014972134412774231 0 6.3210014943740797e-05 -0.015079101929458967 0 -0.00028673285230609451 -0.014507111084887446 0 -2.0187145821365696e-05 -0.014985562774361158 0 -2.0687450292506943e-05 -0.01497774832755212 0 -2.7768474747506006e-05 -0.014973123798869123 0 -2.0187145821365696e-05 -0.014985562774361158 0 -3.6885721531683769e-05 -0.014972489145694183 0 -2.7768474747506006e-05 -0.014973123798869123 0 -2.0687450292506943e-05 -0.01497774832755212 0 -1.7877030584183777e-05 -0.014984071775645712 0 -1.1892472208527059e-05 -0.014985128535420014 0 -1.7877030584183777e-05 -0.014984071775645712 0 -1.1892472208527059e-05 -0.014985128535420014 0 -1.5576015975700043e-05 -0.014986167416107653 0 -2.0187145821365696e-05 -0.014985562774361158 0 -2.0687450292506943e-05 -0.01497774832755212 0 -1.7877030584183777e-05 -0.014984071775645712 0 -1.1892472208527059e-05 -0.014985128535420014 0 -8.1441594880701609e-06 -0.014991427668773595 0 -1.5576015975700043e-05 -0.014986167416107653 0 -1.1892472208527059e-05 -0.014985128535420014 0 -8.1441594880701609e-06 -0.014991427668773595 0 -2.6282715313966622e-06 -0.01499624456838442 0 -8.1441594880701609e-06 -0.014991427668773595 0 -2.6282715313966622e-06 -0.01499624456838442 0 -9.3514643317651513e-09 -0.014999983327894118 0 -2.6282715313966622e-06 -0.01499624456838442 0 -9.3514643317651513e-09 -0.014999983327894118 0 -2.5719808579423503e-09 -0.014999990389930641 0 -9.3514643317651513e-09 -0.014999983327894118 0 -9.8090176191242929e-06 -0.01499065741991793 0 -9.021200821314568e-09 -0.014999974934246022 0 -8.1441594880701609e-06 -0.014991427668773595 0 -9.3514643317651513e-09 -0.014999983327894118 0 -9.8090176191242929e-06 -0.01499065741991793 0 -9.8090176191242929e-06 -0.01499065741991793 0 -1.5576015975700043e-05 -0.014986167416107653 0 -1.7856464920718975e-05 -0.014982024119212494 0 -1.5576015975700043e-05 -0.014986167416107653 0 -1.7856464920718975e-05 -0.014982024119212494 0 -2.0037975182372596e-05 -0.014977231697117432 0 -8.1441594880701609e-06 -0.014991427668773595 0 -9.8090176191242929e-06 -0.01499065741991793 0 -1.5576015975700043e-05 -0.014986167416107653 0 -1.7856464920718975e-05 -0.014982024119212494 0 -2.2596807867071354e-05 -0.014975104001079768 0 -2.3848979087011294e-05 -0.014965110913037587 0 -1.7856464920718975e-05 -0.014982024119212494 0 -2.3848979087011294e-05 -0.014965110913037587 0 -2.0037975182372596e-05 -0.014977231697117432 0 -9.8090176191242929e-06 -0.01499065741991793 0 -1.7856464920718975e-05 -0.014982024119212494 0 -9.021200821314568e-09 -0.014999974934246022 0 -1.7856464920718975e-05 -0.014982024119212494 0 -9.021200821314568e-09 -0.014999974934246022 0 -2.2596807867071354e-05 -0.014975104001079768 0 -4.0561379394432863e-08 -0.014999950042023496 0 -9.021200821314568e-09 -0.014999974934246022 0 -2.2596807867071354e-05 -0.014975104001079768 0 -2.2596807867071354e-05 -0.014975104001079768 0 -2.7434645415762927e-05 -0.014962498431487795 0 -2.3848979087011294e-05 -0.014965110913037587 0 -1.197328327010182e-05 -0.014959028361440901 0 -2.7434645415762927e-05 -0.014962498431487795 0 -2.8657117345609558e-05 -0.014946364966796003 0 -2.7434645415762927e-05 -0.014962498431487795 0 -2.8657117345609558e-05 -0.014946364966796003 0 -2.3848979087011294e-05 -0.014965110913037587 0 -2.3848979087011294e-05 -0.014965110913037587 0 -1.9489633331882607e-05 -0.014965781959386837 0 -2.0037975182372596e-05 -0.014977231697117432 0 -2.8657117345609558e-05 -0.014946364966796003 0 -1.9489633331882607e-05 -0.014965781959386837 0 -9.361395141676112e-07 -0.01495691734087785 0 -2.8657117345609558e-05 -0.014946364966796003 0 -2.3848979087011294e-05 -0.014965110913037587 0 -1.9489633331882607e-05 -0.014965781959386837 0 -1.9489619045740453e-05 -0.01498142847505333 0 -1.9489633331882607e-05 -0.014965781959386837 0 -2.0037975182372596e-05 -0.014977231697117432 0 2.8984297423240129e-05 -0.014959961353557243 0 2.1343098919744322e-05 -0.014968055358691843 0 4.0093410091110874e-05 -0.014960394268023857 0 2.1343098919744322e-05 -0.014968055358691843 0 -9.361395141676112e-07 -0.01495691734087785 0 1.8190032739759139e-05 -0.014957014288425042 0 2.8984297423240129e-05 -0.014959961353557243 0 2.1343098919744322e-05 -0.014968055358691843 0 1.8190032739759139e-05 -0.014957014288425042 0 2.8984297423240129e-05 -0.014959961353557243 0 1.8190032739759139e-05 -0.014957014288425042 0 3.5837298338206416e-05 -0.014951683228702634 0 -1.9489633331882607e-05 -0.014965781959386837 0 2.1343098919744322e-05 -0.014968055358691843 0 -9.361395141676112e-07 -0.01495691734087785 0 -2.8657117345609558e-05 -0.014946364966796003 0 -9.361395141676112e-07 -0.01495691734087785 0 9.083953863774697e-06 -0.014936600090885901 0 -9.361395141676112e-07 -0.01495691734087785 0 1.9536738808833628e-05 -0.014944959857624221 0 9.083953863774697e-06 -0.014936600090885901 0 1.9536738808833628e-05 -0.014944959857624221 0 9.083953863774697e-06 -0.014936600090885901 0 3.3269215934718182e-05 -0.014934154016783734 0 -9.361395141676112e-07 -0.01495691734087785 0 1.9536738808833628e-05 -0.014944959857624221 0 1.8190032739759139e-05 -0.014957014288425042 0 1.9536738808833628e-05 -0.014944959857624221 0 1.8190032739759139e-05 -0.014957014288425042 0 3.5837298338206416e-05 -0.014951683228702634 0 1.9536738808833628e-05 -0.014944959857624221 0 3.5837298338206416e-05 -0.014951683228702634 0 3.3269215934718182e-05 -0.014934154016783734 0 9.083953863774697e-06 -0.014936600090885901 0 3.3269215934718182e-05 -0.014934154016783734 0 3.444628284215113e-05 -0.014899676930900732 0 -3.0021245482068239e-05 -0.014753814681661561 0 -2.8657117345609558e-05 -0.014946364966796003 0 3.444628284215113e-05 -0.014899676930900732 0 -9.4000866005899158e-06 -0.014825741144163891 0 -3.4131101516705438e-05 -0.014944274344239124 0 -2.8657117345609558e-05 -0.014946364966796003 0 9.083953863774697e-06 -0.014936600090885901 0 3.444628284215113e-05 -0.014899676930900732 0 -0.00079666226888411469 -0.012934846596715842 0 -0.00060964550449406167 -0.013009606997116499 0 -0.00080454098740565905 -0.013375914200487417 0 0.00012529173725379361 -0.014787720175969497 0 3.444628284215113e-05 -0.014899676930900732 0 7.1131497857050596e-05 -0.014947448694140948 0 -0.00032821656026048573 -0.013920272497465065 0 -0.00044634183343577184 -0.013968727208371962 0 3.3269215934718182e-05 -0.014934154016783734 0 3.444628284215113e-05 -0.014899676930900732 0 5.1841965424051751e-05 -0.014941802346536066 0 -0.00094566965531542454 -0.012786194683796057 0 -0.00085258749935643687 -0.012287148878685169 0 -0.00060964550449406167 -0.013009606997116499 0 -0.00048482756000855961 -0.013179230158927828 0 -0.00080454098740565905 -0.013375914200487417 0 -0.00047769888311442261 -0.012905727608524206 0 -0.0005353145505939687 -0.013072168547146656 0 -0.00039789253116958868 -0.012942877738473029 0 -0.00047630269443720821 -0.012852749074840993 0 -0.00048735960064512802 -0.013091867802450361 0 -0.00047630269443720821 -0.012852749074840993 0 -0.00060964550449406167 -0.013009606997116499 0 -0.00048482756000855961 -0.013179230158927828 0 -0.0005353145505939687 -0.013072168547146656 0 -0.00044634183343577184 -0.013968727208371962 0 -0.00087404636761405981 -0.012631288869852103 0 -0.00088724651779305145 -0.012841855232625266 0 -0.00073752720711800122 -0.012548945206692324 0 -0.0005353145505939687 -0.013072168547146656 0 -0.00085258749935643687 -0.012287148878685169 0 -0.00040195452416272667 -0.013335041693747926 0 -0.00041516487517675142 -0.013564661117067807 0 -0.00062837028975003446 -0.013474740112831195 0 -0.0005353145505939687 -0.013072168547146656 0 -0.00094566965531542454 -0.012786194683796057 0 -0.00041516487517675142 -0.013564661117067807 0 -0.00062837028975003446 -0.013474740112831195 0 -0.0006310917226073139 -0.013738756846508739 0 4.0093410091110874e-05 -0.014960394268023857 0 7.1131497857050596e-05 -0.014947448694140948 0 2.8395546127991942e-05 -0.014972134412774231 0 -0.00044634183343577184 -0.013968727208371962 0 -0.00028700783300216983 -0.014482141045667201 0 2.8984297423240129e-05 -0.014959961353557243 0 3.5837298338206416e-05 -0.014951683228702634 0 4.0093410091110874e-05 -0.014960394268023857 0 3.5837298338206416e-05 -0.014951683228702634 0 4.0093410091110874e-05 -0.014960394268023857 0 4.8885369170923164e-05 -0.014950799878491712 0 4.0093410091110874e-05 -0.014960394268023857 0 4.8885369170923164e-05 -0.014950799878491712 0 7.1131497857050596e-05 -0.014947448694140948 0 3.444628284215113e-05 -0.014899676930900732 0 5.1841965424051751e-05 -0.014941802346536066 0 7.1131497857050596e-05 -0.014947448694140948 0 4.8885369170923164e-05 -0.014950799878491712 0 5.1841965424051751e-05 -0.014941802346536066 0 7.1131497857050596e-05 -0.014947448694140948 0 3.5837298338206416e-05 -0.014951683228702634 0 4.8885369170923164e-05 -0.014950799878491712 0 5.1841965424051751e-05 -0.014941802346536066 0 3.5837298338206416e-05 -0.014951683228702634 0 3.3269215934718182e-05 -0.014934154016783734 0 5.1841965424051751e-05 -0.014941802346536066 0 -0.001825062103955127 -0.010647894234962874 0 -0.0018276712519607065 -0.010386242016886447 0 -0.0019130645349453431 -0.010443398176568185 0 -0.0016131051374961671 -0.010536403539530224 0 -0.0015634115241249177 -0.011174313194678671 0 -0.0019866964456745901 -0.010227321615138582 0 -0.0018276712519607065 -0.010386242016886447 0 -0.0019130645349453431 -0.010443398176568185 0 -0.0014877122355827579 -0.01113361335528428 0 -0.0014329400483584971 -0.011097434061114761 0 -0.0014341396540053215 -0.011189176830433325 0 -0.0011040534218949476 -0.011720288458503439 0 -0.0015634115241249177 -0.011174313194678671 0 -0.0012570347156857791 -0.011816659495725496 0 -0.0011670595696894274 -0.011908207690532321 0 -0.0012453596264989681 -0.011894456843896581 0 -0.0011670595696894274 -0.011908207690532321 0 -0.0012453596264989681 -0.011894456843896581 0 -0.0012841413645173804 -0.011960022232663752 0 -0.0012453596264989681 -0.011894456843896581 0 -0.0013068059521034487 -0.011847154897384523 0 -0.0012841413645173804 -0.011960022232663752 0 -0.0012570347156857791 -0.011816659495725496 0 -0.0012453596264989681 -0.011894456843896581 0 -0.0013068059521034487 -0.011847154897384523 0 -0.0011040534218949476 -0.011720288458503439 0 -0.00085258749935643687 -0.012287148878685169 0 -0.00039789253116958868 -0.012942877738473029 0 -0.00048735960064512802 -0.013091867802450361 0 -0.00032877947980295964 -0.012998319939623436 0 -0.00039789253116958868 -0.012942877738473029 0 -0.0003355296052471407 -0.012937938467328686 0 -0.00032877947980295964 -0.012998319939623436 0 -0.0014012548698976591 -0.012029194974939952 0 -0.0013068059521034487 -0.011847154897384523 0 -0.0012841413645173804 -0.011960022232663752 0 -0.0014012548698976591 -0.012029194974939952 0 -0.0012850944192439448 -0.012032460746217841 0 -0.0013161680249862864 -0.01209036108233546 0 -0.0014012548698976591 -0.012029194974939952 0 -0.0012850944192439448 -0.012032460746217841 0 -0.0012841413645173804 -0.011960022232663752 0 -0.0012850944192439448 -0.012032460746217841 0 -0.0012841413645173804 -0.011960022232663752 0 -0.0012081113098472021 -0.012038008508400396 0 -0.0012850944192439448 -0.012032460746217841 0 -0.0012081113098472021 -0.012038008508400396 0 -0.0012621834346984865 -0.012077653703412886 0 -0.0011670595696894274 -0.011908207690532321 0 -0.0012841413645173804 -0.011960022232663752 0 -0.0012081113098472021 -0.012038008508400396 0 -0.0017908890721996093 -0.011053928053799409 0 -0.0018834554725745351 -0.01081172775253297 0 -0.0017916739314416019 -0.010719158638505644 0 -0.0019677858300162126 -0.01087443636587361 0 -0.0017908890721996093 -0.011053928053799409 0 -0.0018834554725745351 -0.01081172775253297 0 -0.0015634115241249177 -0.011174313194678671 0 -0.0015143289723364079 -0.011493614876303888 0 -0.0011670595696894274 -0.011908207690532321 0 -0.0012081113098472021 -0.012038008508400396 0 -0.0011689064361152331 -0.012074253600843627 0 -0.0021859962920123509 -0.010132341997749823 0 -0.0015634115241249177 -0.011174313194678671 0 -0.0022162468119740833 -0.011273463894645615 0 -0.002151847202380118 -0.011332931138687084 0 -0.0021835540638794459 -0.011355262706482757 0 -0.0017380479141630581 -0.011487536077575035 0 -0.0020502499069515643 -0.010692157868702994 0 -0.001684433527607264 -0.011153878800781718 0 -0.0016894062993958177 -0.011156726157353783 0 -0.00168340409064125 -0.011162287485286745 0 -0.0017380479141630581 -0.011487536077575035 0 -0.0015143289723364079 -0.011493614876303888 0 -0.0018834554725745351 -0.01081172775253297 0 -0.0018614113281472087 -0.010653905030232664 0 -0.0017916739314416019 -0.010719158638505644 0 -0.0020502499069515643 -0.010692157868702994 0 -0.0015143289723364079 -0.011493614876303888 0 -0.0012081113098472021 -0.012038008508400396 0 -0.001163044031977728 -0.01207928641464082 0 -0.0012215187568090707 -0.01210180308764644 0 -0.0012081113098472021 -0.012038008508400396 0 -0.0012215187568090707 -0.01210180308764644 0 -0.0012621834346984865 -0.012077653703412886 0 -0.0011635395852288887 -0.012141353814205457 0 -0.001163044031977728 -0.01207928641464082 0 -0.0012215187568090707 -0.01210180308764644 0 -0.0011580430079668788 -0.011935398157089694 0 -0.0015143289723364079 -0.011493614876303888 0 -0.0011635395852288887 -0.012141353814205457 0 -0.0012215187568090707 -0.01210180308764644 0 -0.0012367185468041739 -0.012147600887536096 0 -0.0017380479141630581 -0.011487536077575035 0 -0.0012199522937899707 -0.01226542442513788 0 -0.0011635395852288887 -0.012141353814205457 0 -0.0012367185468041739 -0.012147600887536096 0 -0.0012387466460526692 -0.012202096899809228 0 -0.0012578870482015914 -0.012177334333088414 0 -0.0012802281525627894 -0.01212611704675468 0 -0.0013211248086841391 -0.012189645708372636 0 -0.0012578870482015914 -0.012177334333088414 0 -0.0012367185468041739 -0.012147600887536096 0 -0.0012387466460526692 -0.012202096899809228 0 -0.0012578870482015914 -0.012177334333088414 0 -0.0012802281525627894 -0.01212611704675468 0 -0.0012367185468041739 -0.012147600887536096 0 -0.0012215187568090707 -0.01210180308764644 0 -0.0012802281525627894 -0.01212611704675468 0 -0.0012367185468041739 -0.012147600887536096 0 -0.0012215187568090707 -0.01210180308764644 0 -0.0012802281525627894 -0.01212611704675468 0 -0.0012621834346984865 -0.012077653703412886 0 -0.0012850944192439448 -0.012032460746217841 0 -0.0012621834346984865 -0.012077653703412886 0 -0.0013161680249862864 -0.01209036108233546 0 -0.0012802281525627894 -0.01212611704675468 0 -0.0012621834346984865 -0.012077653703412886 0 -0.0013161680249862864 -0.01209036108233546 0 -0.0012802281525627894 -0.01212611704675468 0 -0.0013161680249862864 -0.01209036108233546 0 -0.0013211248086841391 -0.012189645708372636 0 -0.0013161680249862864 -0.01209036108233546 0 -0.0013211248086841391 -0.012189645708372636 0 -0.0014140914579981335 -0.012187945226703748 0 -0.0013211248086841391 -0.012189645708372636 0 -0.0012359291277202677 -0.012205525360716675 0 -0.0014223092578407807 -0.012355251833252499 0 -0.0010490908975733665 -0.0128392606722169 0 -0.00099233366066748619 -0.012795076622564419 0 -0.0010180173082266651 -0.01280422274697399 0 -0.0012199522937899707 -0.01226542442513788 0 -0.0011460693163056806 -0.012736657725336975 0 -0.0010490908975733665 -0.0128392606722169 0 -0.0010437895855098193 -0.0128002092737842 0 -0.0010180173082266651 -0.01280422274697399 0 -0.0012578870482015914 -0.012177334333088414 0 -0.0013211248086841391 -0.012189645708372636 0 -0.0012359291277202677 -0.012205525360716675 0 -0.0012413846983357123 -0.012231542297035278 0 -0.0012199522937899707 -0.01226542442513788 0 -0.0017380479141630581 -0.011487536077575035 0 -0.0015982230302570969 -0.011960291956350297 0 -0.0022162468119740833 -0.011273463894645615 0 -0.002151847202380118 -0.011332931138687084 0 -0.0021508391342213973 -0.011200970343383826 0 -0.001535641676049908 -0.011836248448143266 0 -0.0016030894517283637 -0.011888898880484347 0 -0.0015366971522497172 -0.011975308888546286 0 -0.0010490908975733665 -0.0128392606722169 0 -0.0010857085867202174 -0.012804840102426203 0 -0.0010437895855098193 -0.0128002092737842 0 -0.0012199522937899707 -0.01226542442513788 0 -0.0015982230302570969 -0.011960291956350297 0 2.1343098919744322e-05 -0.014968055358691843 0 4.0093410091110874e-05 -0.014960394268023857 0 2.8395546127991942e-05 -0.014972134412774231 0 -0.0014012548698976591 -0.012029194974939952 0 -0.0013161680249862864 -0.01209036108233546 0 -0.0014140914579981335 -0.012187945226703748 0 -0.00094566965531542454 -0.012786194683796057 0 -0.00076074036208064702 -0.01334267965949716 0 -0.00041516487517675142 -0.013564661117067807 0 -0.0006310917226073139 -0.013738756846508739 0 -0.00052463743291481576 -0.013783789315461672 0 -0.00099697180585639911 -0.012911339334718131 0 -0.0010005859258987227 -0.012914538103122063 0 -0.00099981837509740558 -0.012915520372855116 0 -0.00094566965531542454 -0.012786194683796057 0 -0.0012187018477121487 -0.01247548613916934 0 -0.0010005859258987227 -0.012914538103122063 0 -0.00099981837509740558 -0.012915520372855116 0 -0.00099949856868973932 -0.012913981525339584 0 -0.0013211248086841391 -0.012189645708372636 0 -0.0014140914579981335 -0.012187945226703748 0 -0.0014223092578407807 -0.012355251833252499 0 -0.0010005859258987227 -0.012914538103122063 0 -0.0010004014285201741 -0.012910984995364203 0 -0.0010025759709510931 -0.012908544035478304 0 -0.0012187018477121487 -0.01247548613916934 0 -0.0011460693163056806 -0.012736657725336975 0 -0.0010005859258987227 -0.012914538103122063 0 -0.00099949856868973932 -0.012913981525339584 0 -0.0010004014285201741 -0.012910984995364203 0 2.6903487134194846e-05 -0.014974435625044366 0 1.7913880519634791e-05 -0.014950414930051158 0 2.0396448018453692e-05 -0.014944185303695002 0 2.6903487134194846e-05 -0.014974435625044366 0 2.8395546127991942e-05 -0.014972134412774231 0 1.7913880519634791e-05 -0.014950414930051158 0 -0.0010004014285201741 -0.012910984995364203 0 -0.00099694228459544162 -0.012914352560407554 0 -0.00099997096315910475 -0.012905624519724886 0 -0.00099949856868973932 -0.012913981525339584 0 -0.0010004014285201741 -0.012910984995364203 0 -0.00099694228459544162 -0.012914352560407554 0 -0.00028700783300216983 -0.014482141045667201 0 -0.00047271324184046095 -0.014005142399057551 0 -0.00099981837509740558 -0.012915520372855116 0 -0.00099949856868973932 -0.012913981525339584 0 -0.00099694228459544162 -0.012914352560407554 0 -0.0006310917226073139 -0.013738756846508739 0 -0.00052463743291481576 -0.013783789315461672 0 -0.0006334967214907416 -0.013999894638376515 0 -0.00076074036208064702 -0.01334267965949716 0 -0.00047271324184046095 -0.014005142399057551 0 -0.00047271324184046095 -0.014005142399057551 0 -0.00028673285230609451 -0.014507111084887446 0 -0.0005292995028054249 -0.014094444965481645 0 -0.00052517231625822476 -0.014101518210950304 0 -0.00054804267179562455 -0.014126382454732654 0 -0.00051501483394438062 -0.0141344252368768 0 -0.00051602716868481163 -0.014134198213015403 0 -0.00051724002270028694 -0.01413345093125856 0 -0.00099882526487437922 -0.012907326459703668 0 -0.00099997096315910475 -0.012905624519724886 0 -0.00099680406846626218 -0.012912315655126638 0 -0.00028673285230609451 -0.014507111084887446 0 -0.00063039591803894398 -0.013782329431227003 0 -0.00028673285230609451 -0.014507111084887446 0 -0.00029117490103075966 -0.014544896005781599 0 -0.00047271324184046095 -0.014005142399057551 0 -0.00063039591803894398 -0.013782329431227003 0 -0.0010004014285201741 -0.012910984995364203 0 -0.00099882526487437922 -0.012907326459703668 0 -0.00099997096315910475 -0.012905624519724886 0 -0.0010004014285201741 -0.012910984995364203 0 -0.00099882526487437922 -0.012907326459703668 0 -0.0010025759709510931 -0.012908544035478304 0 -0.0011460693163056806 -0.012736657725336975 0 -0.0010026984896454362 -0.012937971644053022 0 -0.00099882526487437922 -0.012907326459703668 0 -0.00099667809727554328 -0.012904777786896063 0 -0.00099680406846626218 -0.012912315655126638 0 -0.00099233366066748619 -0.012795076622564419 0 -0.00098522956942708405 -0.012808548991312575 0 -0.00099680406846626218 -0.012912315655126638 0 -0.0010711550867895877 -0.012811618393017896 0 -0.0011460693163056806 -0.012736657725336975 0 -0.00099233366066748619 -0.012795076622564419 0 -0.00098522956942708405 -0.012808548991312575 0 -0.0010180173082266651 -0.01280422274697399 0 -0.00098522956942708405 -0.012808548991312575 0 -0.00099680406846626218 -0.012912315655126638 0 -0.00095724899294153407 -0.012878855978020352 0 -0.00099997096315910475 -0.012905624519724886 0 -0.00099680406846626218 -0.012912315655126638 0 -0.00099631167427522913 -0.012924861008291893 0 -0.00094997621090425516 -0.012905352856846179 0 -0.00099631167427522913 -0.012924861008291893 0 -0.00090198333906503102 -0.012965124653816924 0 -0.00099680406846626218 -0.012912315655126638 0 -0.00094997621090425516 -0.012905352856846179 0 -0.00095724899294153407 -0.012878855978020352 0 -0.00099680406846626218 -0.012912315655126638 0 -0.00094997621090425516 -0.012905352856846179 0 -0.00099631167427522913 -0.012924861008291893 0 -0.00063039591803894398 -0.013782329431227003 0 -0.0005096411663904211 -0.014259727173177712 0 -0.0005262429171303993 -0.01404567668775591 0 -0.00046718174087587465 -0.014151809388192155 0 -0.00052525184267033728 -0.014149664144151206 0 -0.00052517231625822476 -0.014101518210950304 0 -0.00052525184267033728 -0.014149664144151206 0 -0.00054804267179562455 -0.014126382454732654 0 -0.00063039591803894398 -0.013782329431227003 0 -0.00076980409674805132 -0.013466477305163975 0 -0.0018502304912003263 -0.011636591130321595 0 -0.0015275454110018855 -0.012051760549139846 0 -0.0015251484465501758 -0.011693465410608006 0 -0.0010857085867202174 -0.012804840102426203 0 -0.0010924419364893017 -0.012750972364911939 0 -0.0010551698216957912 -0.012772890289621431 0 -0.0015982230302570969 -0.011960291956350297 0 -0.0013137892523739554 -0.01224517717277092 0 -0.0010857085867202174 -0.012804840102426203 0 -0.0010551698216957912 -0.012772890289621431 0 -0.0010437895855098193 -0.0128002092737842 0 -0.0010924419364893017 -0.012750972364911939 0 -0.0010551698216957912 -0.012772890289621431 0 -0.0010324433979741331 -0.012738026350657499 0 -0.0010551698216957912 -0.012772890289621431 0 -0.0010246924100265451 -0.012785360597751531 0 -0.0010324433979741331 -0.012738026350657499 0 -0.0010551698216957912 -0.012772890289621431 0 -0.0010437895855098193 -0.0128002092737842 0 -0.0010246924100265451 -0.012785360597751531 0 -0.0010437895855098193 -0.0128002092737842 0 -0.0010180173082266651 -0.01280422274697399 0 -0.0010246924100265451 -0.012785360597751531 0 -0.00098522956942708405 -0.012808548991312575 0 -0.0010180173082266651 -0.01280422274697399 0 -0.0010246924100265451 -0.012785360597751531 0 -0.00098522956942708405 -0.012808548991312575 0 -0.00095724899294153407 -0.012878855978020352 0 -0.00089300376294819525 -0.012886258231026928 0 -0.00098522956942708405 -0.012808548991312575 0 -0.0010246924100265451 -0.012785360597751531 0 -0.0010324433979741331 -0.012738026350657499 0 -0.0010129081639711976 -0.012781573856465733 0 -0.00088715620239205109 -0.012883296089869505 0 -0.00089300376294819525 -0.012886258231026928 0 -0.00080161618378330726 -0.012950491600616702 0 -0.00090198333906503102 -0.012965124653816924 0 -0.00094997621090425516 -0.012905352856846179 0 -0.00095724899294153407 -0.012878855978020352 0 -0.00089300376294819525 -0.012886258231026928 0 -0.00094997621090425516 -0.012905352856846179 0 -0.00089300376294819525 -0.012886258231026928 0 -0.00090198333906503102 -0.012965124653816924 0 -0.0018502304912003263 -0.011636591130321595 0 -0.0015251484465501758 -0.011693465410608006 0 -0.0015221998667869149 -0.011335151360422872 0 -0.0010924419364893017 -0.012750972364911939 0 -0.0010324433979741331 -0.012738026350657499 0 -0.0010944145792436378 -0.012682393236729017 0 -0.0013137892523739554 -0.01224517717277092 0 -0.0012398295480597053 -0.012321440534786168 0 -0.00088715620239205109 -0.012883296089869505 0 -0.0012398295480597053 -0.012321440534786168 0 -0.0012398295480597053 -0.012321440534786168 0 -0.0010882735363162319 -0.012714582630519911 0 -0.00080161618378330726 -0.012950491600616702 0 -0.00085241425511300604 -0.013022934566508998 0 -0.00079583855339122986 -0.013091423610825787 0 -0.0013434617206634792 -0.012321915388956883 0 -0.0013785143575506178 -0.012293236371808425 0 -0.0013788975979130288 -0.012341137430548979 0 -0.00080161618378330726 -0.012950491600616702 0 -0.00085241425511300604 -0.013022934566508998 0 -0.00090198333906503102 -0.012965124653816924 0 -0.00085241425511300604 -0.013022934566508998 0 -0.00090198333906503102 -0.012965124653816924 0 -0.00091101820701397344 -0.013087195077799971 0 -0.00099631167427522913 -0.012924861008291893 0 -0.00090198333906503102 -0.012965124653816924 0 -0.00091101820701397344 -0.013087195077799971 0 -0.00085241425511300604 -0.013022934566508998 0 -0.00091101820701397344 -0.013087195077799971 0 -0.00079583855339122986 -0.013091423610825787 0 -0.00043405889683743805 -0.014235363998462154 0 -0.00046146122278125664 -0.014250277564297463 0 -0.0004429643151581214 -0.01425941942204513 0 -0.00091101820701397344 -0.013087195077799971 0 -0.00079583855339122986 -0.013091423610825787 0 -0.00081449578991181785 -0.013247013015910556 0 -0.00052525184267033728 -0.014149664144151206 0 -0.00052594532183343641 -0.014205456148366567 0 -0.0005715720930102924 -0.014165456488976099 0 -0.00052525184267033728 -0.014149664144151206 0 -0.00052594532183343641 -0.014205456148366567 0 -0.00047499964525612992 -0.014201760646667868 0 -0.00046718174087587465 -0.014151809388192155 0 -0.00052525184267033728 -0.014149664144151206 0 -0.00047499964525612992 -0.014201760646667868 0 -0.00076980409674805132 -0.013466477305163975 0 -0.00064424840963457619 -0.013705638756768602 0 -0.00046718174087587465 -0.014151809388192155 0 -0.00043405889683743805 -0.014235363998462154 0 -0.00047499964525612992 -0.014201760646667868 0 -0.00052594532183343641 -0.014205456148366567 0 -0.00047499964525612992 -0.014201760646667868 0 -0.00046146122278125664 -0.014250277564297463 0 -0.00046146122278125664 -0.014250277564297463 0 -0.00045999583320724901 -0.01426123432884136 0 -0.00045608882532240379 -0.014263548953088193 0 -0.00043405889683743805 -0.014235363998462154 0 -0.00047499964525612992 -0.014201760646667868 0 -0.00046146122278125664 -0.014250277564297463 0 -0.00055719596393527602 -0.014175134591988707 0 -0.00043857397504150662 -0.014271409720655426 0 -0.00046100403101497991 -0.014265296215218479 0 -0.00046146122278125664 -0.014250277564297463 0 -0.00045999583320724901 -0.01426123432884136 0 -0.00046100403101497991 -0.014265296215218479 0 -0.00045999583320724901 -0.01426123432884136 0 -0.00045915258632468699 -0.014266418750658772 0 -0.00045999583320724901 -0.01426123432884136 0 -0.00045998806131460019 -0.014266191058237458 0 -0.00045915258632468699 -0.014266418750658772 0 -0.00045999583320724901 -0.01426123432884136 0 -0.00045998806131460019 -0.014266191058237458 0 -0.00045931366972837149 -0.014267542133673055 0 -0.00045998806131460019 -0.014266191058237458 0 -0.00045795678272577089 -0.014268176489759808 0 -0.00045915258632468699 -0.014266418750658772 0 -0.00045998806131460019 -0.014266191058237458 0 -0.00046013464790780424 -0.014268731339033752 0 -0.00045795678272577089 -0.014268176489759808 0 -5.4789377696421265e-05 -0.01488740358150731 0 -7.3119644601849371e-05 -0.014927424626274832 0 -1.7446872442843174e-05 -0.014943282427668958 0 -0.00022232938592812421 -0.014647655250587128 0 -0.00026240031071778362 -0.014595711718289474 0 -7.3119644601849371e-05 -0.014927424626274832 0 -4.5341942057362903e-05 -0.014964364738149069 0 -1.7446872442843174e-05 -0.014943282427668958 0 -7.3119644601849371e-05 -0.014927424626274832 0 -4.5341942057362903e-05 -0.014964364738149069 0 -9.0197722037028884e-05 -0.014964099099807089 0 -0.00046100403101497991 -0.014265296215218479 0 -0.00045915258632468699 -0.014266418750658772 0 -0.00045739355931217427 -0.014271891509538687 0 -0.00055719596393527602 -0.014175134591988707 0 -0.00025851831254602634 -0.014598533383169594 0 -0.00045795678272577089 -0.014268176489759808 0 -0.00045915258632468699 -0.014266418750658772 0 -0.00045739355931217427 -0.014271891509538687 0 -0.00026240031071778362 -0.014595711718289474 0 -0.00025851831254602634 -0.014598533383169594 0 -0.00052525184267033728 -0.014149664144151206 0 -0.0005715720930102924 -0.014165456488976099 0 -0.00054804267179562455 -0.014126382454732654 0 -0.00025851831254602634 -0.014598533383169594 0 -0.00029117490103075966 -0.014544896005781599 0 -2.9144110143046201e-05 -0.01494794299487368 0 -3.3884140096174424e-05 -0.01496187640443724 0 -2.4707438543634965e-05 -0.014966375566145501 0 -0.00025851831254602634 -0.014598533383169594 0 3.5663756369623455e-05 -0.015054033553169883 0 -2.9144110143046201e-05 -0.01494794299487368 0 -2.4707438543634965e-05 -0.014966375566145501 0 -1.2044187315917467e-05 -0.014968429527772746 0 -4.5341942057362903e-05 -0.014964364738149069 0 -9.0197722037028884e-05 -0.014964099099807089 0 -2.9183017018770878e-05 -0.015001478069791787 0 -2.0687450292506943e-05 -0.01497774832755212 0 -2.4707438543634965e-05 -0.014966375566145501 0 -1.2044187315917467e-05 -0.014968429527772746 0 -2.0687450292506943e-05 -0.01497774832755212 0 -1.1892472208527059e-05 -0.014985128535420014 0 -1.2044187315917467e-05 -0.014968429527772746 0 -2.0687450292506943e-05 -0.01497774832755212 0 -2.7768474747506006e-05 -0.014973123798869123 0 -2.4707438543634965e-05 -0.014966375566145501 0 -3.6885721531683769e-05 -0.014972489145694183 0 -3.3884140096174424e-05 -0.01496187640443724 0 -2.7768474747506006e-05 -0.014973123798869123 0 -3.3884140096174424e-05 -0.01496187640443724 0 -2.7768474747506006e-05 -0.014973123798869123 0 -2.4707438543634965e-05 -0.014966375566145501 0 -2.6282715313966622e-06 -0.01499624456838442 0 -7.8218939871636873e-06 -0.014997665060514654 0 -2.5719808579423503e-09 -0.014999990389930641 0 -2.6282715313966622e-06 -0.01499624456838442 0 -7.8218939871636873e-06 -0.014997665060514654 0 -2.9183017018770878e-05 -0.015001478069791787 0 -1.1892472208527059e-05 -0.014985128535420014 0 -2.6282715313966622e-06 -0.01499624456838442 0 -1.2044187315917467e-05 -0.014968429527772746 0 -3.1910080876713771e-05 -0.014967844638560351 0 3.5663756369623455e-05 -0.015054033553169883 0 -4.5341942057362903e-05 -0.014964364738149069 0 -2.9183017018770878e-05 -0.015001478069791787 0 -1.9648650110676029e-05 -0.014978854123837874 0 -7.8218939871636873e-06 -0.014997665060514654 0 -2.9183017018770878e-05 -0.015001478069791787 0 -1.9648650110676029e-05 -0.014978854123837874 0 -1.9648650110676029e-05 -0.014978854123837874 0 -1.8750993846425905e-06 -0.014995143848387855 0 -1.7446872442843174e-05 -0.014943282427668958 0 -7.8218939871636873e-06 -0.014997665060514654 0 -1.9648650110676029e-05 -0.014978854123837874 0 -1.8750993846425905e-06 -0.014995143848387855 0 -2.5719808579423503e-09 -0.014999990389930641 0 -1.8750993846425905e-06 -0.014995143848387855 0 -3.1374176139115374e-09 -0.014999996520594817 0 -7.8218939871636873e-06 -0.014997665060514654 0 -2.5719808579423503e-09 -0.014999990389930641 0 -1.8750993846425905e-06 -0.014995143848387855 0 -1.8750993846425905e-06 -0.014995143848387855 0 -3.1374176139115374e-09 -0.014999996520594817 0 -8.2570848736662301e-06 -0.015001375414938069 0 -3.1374176139115374e-09 -0.014999996520594817 0 -8.2570848736662301e-06 -0.015001375414938069 0 -6.2305070502298956e-06 -0.01499639895574956 0 -2.0419864636789225e-05 -0.01496764193302645 0 2.821205862654389e-05 -0.015032925376688202 0 -4.5341942057362903e-05 -0.014964364738149069 0 -1.9648650110676029e-05 -0.014978854123837874 0 -1.7446872442843174e-05 -0.014943282427668958 0 -2.8548921578459624e-05 -0.01498880037594141 0 -6.2305070502298956e-06 -0.01499639895574956 0 -1.0774998704872615e-05 -0.01498310110509889 0 -0.00022232938592812421 -0.014647655250587128 0 2.821205862654389e-05 -0.015032925376688202 0 -2.8548921578459624e-05 -0.01498880037594141 0 -8.2570848736662301e-06 -0.015001375414938069 0 -6.2305070502298956e-06 -0.01499639895574956 0 -3.1374176139115374e-09 -0.014999996520594817 0 -6.2305070502298956e-06 -0.01499639895574956 0 1.0526772852012124e-06 -0.014996926318639118 0 -3.1374176139115374e-09 -0.014999996520594817 0 1.0526772852012124e-06 -0.014996926318639118 0 1.6014399724006377e-09 -0.014999987938705954 0 -6.2305070502298956e-06 -0.01499639895574956 0 1.0526772852012124e-06 -0.014996926318639118 0 -1.0774998704872615e-05 -0.01498310110509889 0 -3.089371810907927e-06 -0.014976304686966422 0 1.4252644556886024e-05 -0.015027950749031379 0 1.0526772852012124e-06 -0.014996926318639118 0 -1.0774998704872615e-05 -0.01498310110509889 0 2.6185900917355134e-06 -0.014961502503229937 0 1.0526772852012124e-06 -0.014996926318639118 0 1.6014399724006377e-09 -0.014999987938705954 0 2.41133250379525e-07 -0.015000298267692763 0 -1.0774998704872615e-05 -0.01498310110509889 0 -2.2454928946486054e-05 -0.014961747987457317 0 2.6185900917355134e-06 -0.014961502503229937 0 -2.8548921578459624e-05 -0.01498880037594141 0 -1.0774998704872615e-05 -0.01498310110509889 0 -2.2454928946486054e-05 -0.014961747987457317 0 -2.2454928946486054e-05 -0.014961747987457317 0 2.6185900917355134e-06 -0.014961502503229937 0 -6.529293562069768e-06 -0.014921589659177788 0 -0.00036618415478539357 -0.014330778029382178 0 -0.00037518576926870651 -0.014300245537641313 0 -0.0003469678278183635 -0.01429174007793922 0 -0.00019885591447357931 -0.014632402614531895 0 -8.6477907246673775e-05 -0.014740312255680222 0 1.6014399724006377e-09 -0.014999987938705954 0 2.41133250379525e-07 -0.015000298267692763 0 1.2297991207588997e-10 -0.01500000277487514 0 1.4252644556886024e-05 -0.015027950749031379 0 -8.6477907246673775e-05 -0.014740312255680222 0 2.41133250379525e-07 -0.015000298267692763 0 1.2297991207588997e-10 -0.01500000277487514 0 -3.6135602496795392e-07 -0.014998859426630592 0 -0.00045998806131460019 -0.014266191058237458 0 -0.00046013464790780424 -0.014268731339033752 0 -0.00046365609631708989 -0.01427067976050975 0 -0.00045998806131460019 -0.014266191058237458 0 -0.00045931366972837149 -0.014267542133673055 0 -0.00046365609631708989 -0.01427067976050975 0 -0.00045931366972837149 -0.014267542133673055 0 -0.00046365609631708989 -0.01427067976050975 0 -0.0004560638915185584 -0.014274029398049684 0 -0.00038873450931597005 -0.014385139269849991 0 -0.00041936527031705275 -0.014344375881248992 0 -0.00039313885418246279 -0.014328503633082893 0 -0.00038873450931597005 -0.014385139269849991 0 -0.00036618415478539357 -0.014330778029382178 0 -0.00039313885418246279 -0.014328503633082893 0 -0.00022232938592812421 -0.014647655250587128 0 -0.00019885591447357931 -0.014632402614531895 0 -0.00022232938592812421 -0.014647655250587128 0 -0.00048379074722470724 -0.014247867996874953 0 -0.00039313885418246279 -0.014328503633082893 0 -0.00041513930360389698 -0.014304865140868371 0 -0.00037518576926870651 -0.014300245537641313 0 -0.00036618415478539357 -0.014330778029382178 0 -0.00039313885418246279 -0.014328503633082893 0 -0.00037518576926870651 -0.014300245537641313 0 -0.00041936527031705275 -0.014344375881248992 0 -0.00039313885418246279 -0.014328503633082893 0 -0.00041513930360389698 -0.014304865140868371 0 -0.00041513930360389698 -0.014304865140868371 0 -0.0004496301380993416 -0.01428985573343248 0 -0.0004606463084210953 -0.014277975336162025 0 -0.00045108327783165912 -0.014289105690381061 0 -0.00036905152112120729 -0.014342723452577267 0 -0.00041936527031705275 -0.014344375881248992 0 -0.00041513930360389698 -0.014304865140868371 0 -0.0004496301380993416 -0.01428985573343248 0 -0.00048379074722470724 -0.014247867996874953 0 -0.00043322059205050319 -0.014313902854381944 0 -0.00046365609631708989 -0.01427067976050975 0 -0.0004496301380993416 -0.01428985573343248 0 -0.0004560638915185584 -0.014274029398049684 0 -0.00041513930360389698 -0.014304865140868371 0 -0.00040186079703009809 -0.014282664415443201 0 -0.00043997107414309362 -0.014297183125035274 0 -3.9890945498441665e-05 -0.0149286567114845 0 -0.00016000920836194333 -0.014867478084498424 0 -0.0001574438237847886 -0.015004720714608531 0 -0.00022350947865712638 -0.014624181955161998 0 -0.00036905152112120729 -0.014342723452577267 0 -0.00041513930360389698 -0.014304865140868371 0 -0.00040186079703009809 -0.014282664415443201 0 -0.00037518576926870651 -0.014300245537641313 0 -3.9890945498441665e-05 -0.0149286567114845 0 -1.1265517450201355e-05 -0.014885287717338842 0 -2.7181552903971101e-05 -0.014870792487499082 0 -3.9890945498441665e-05 -0.0149286567114845 0 -2.7181552903971101e-05 -0.014870792487499082 0 -7.0388790869817109e-05 -0.014833007863889075 0 -3.9890945498441665e-05 -0.0149286567114845 0 -7.0388790869817109e-05 -0.014833007863889075 0 -0.00016000920836194333 -0.014867478084498424 0 1.2297991207588997e-10 -0.01500000277487514 0 -3.6135602496795392e-07 -0.014998859426630592 0 -1.8041765112287822e-07 -0.014999599816820589 0 -0.00040186079703009809 -0.014282664415443201 0 -0.00037518576926870651 -0.014300245537641313 0 -0.00035183191865773933 -0.014269700879178737 0 -0.00037518576926870651 -0.014300245537641313 0 -0.0003469678278183635 -0.01429174007793922 0 -0.00035183191865773933 -0.014269700879178737 0 -8.6477907246673775e-05 -0.014740312255680222 0 -0.00013772895405431243 -0.01474410875245912 0 -0.00022350947865712638 -0.014624181955161998 0 -0.00013772895405431243 -0.01474410875245912 0 1.2297991207588997e-10 -0.01500000277487514 0 -1.8041765112287822e-07 -0.014999599816820589 0 -5.6858035180505991e-10 -0.014999996352464816 0 -6.4575537201052425e-05 -0.014768496467045408 0 -4.9221316248440143e-05 -0.014832395089276801 0 -0.00010971338785020611 -0.01485824992385096 0 -8.6477907246673775e-05 -0.014740312255680222 0 -3.6627263895872243e-05 -0.014958727227659627 0 -2.4567206498464575e-05 -0.015004756606972732 0 4.5427116748610407e-06 -0.01498392664352383 0 -1.9447985723572017e-06 -0.014959697221858336 0 -0.00013772895405431243 -0.01474410875245912 0 -3.6627263895872243e-05 -0.014958727227659627 0 -3.6627263895872243e-05 -0.014958727227659627 0 -2.3411413828367123e-08 -0.014999950540072162 0 -3.6627263895872243e-05 -0.014958727227659627 0 -8.7173861672240174e-09 -0.015000001089238636 0 -1.7646908302028408e-07 -0.014999880748245082 0 -4.0174501677420409e-10 -0.014999999751012004 0 1.8582467875352412e-10 -0.014999999961121051 0 4.5427116748610407e-06 -0.01498392664352383 0 -1.9447985723572017e-06 -0.014959697221858336 0 2.2505011911777815e-08 -0.014999842647191947 0 -1.9447985723572017e-06 -0.014959697221858336 0 2.2505011911777815e-08 -0.014999842647191947 0 -5.4364075035792739e-06 -0.014942171848321093 0 2.2505011911777815e-08 -0.014999842647191947 0 -5.4364075035792739e-06 -0.014942171848321093 0 -2.0512960833261876e-08 -0.014999908777203549 0 -5.4364075035792739e-06 -0.014942171848321093 0 -1.2752692851819021e-05 -0.014874014448564791 0 -8.447053582451563e-06 -0.014960997350002038 0 -5.4364075035792739e-06 -0.014942171848321093 0 -1.2752692851819021e-05 -0.014874014448564791 0 -2.2652141082371059e-05 -0.014896719727783959 0 -1.2752692851819021e-05 -0.014874014448564791 0 -2.2652141082371059e-05 -0.014896719727783959 0 -4.3297713908106224e-05 -0.014836891531963166 0 -0.00013772895405431243 -0.01474410875245912 0 1.4348606664805413e-05 -0.014989731954821095 0 -1.1265517450201355e-05 -0.014885287717338842 0 -2.2652141082371059e-05 -0.014896719727783959 0 -2.7181552903971101e-05 -0.014870792487499082 0 -2.4567206498464575e-05 -0.015004756606972732 0 -1.9447985723572017e-06 -0.014959697221858336 0 -2.2652141082371059e-05 -0.014896719727783959 0 -1.9447985723572017e-06 -0.014959697221858336 0 -5.4364075035792739e-06 -0.014942171848321093 0 -2.2652141082371059e-05 -0.014896719727783959 0 -2.2652141082371059e-05 -0.014896719727783959 0 -2.7181552903971101e-05 -0.014870792487499082 0 -4.3297713908106224e-05 -0.014836891531963166 0 -2.7181552903971101e-05 -0.014870792487499082 0 -7.0388790869817109e-05 -0.014833007863889075 0 -4.3297713908106224e-05 -0.014836891531963166 0 -7.0388790869817109e-05 -0.014833007863889075 0 -8.5369207380226261e-05 -0.014752240464641542 0 -4.3297713908106224e-05 -0.014836891531963166 0 -7.0388790869817109e-05 -0.014833007863889075 0 -8.5369207380226261e-05 -0.014752240464641542 0 -0.00013315911902107524 -0.014636333352614177 0 -8.5369207380226261e-05 -0.014752240464641542 0 -4.3297713908106224e-05 -0.014836891531963166 0 -7.1750374313217557e-05 -0.01478636100599957 0 -1.2752692851819021e-05 -0.014874014448564791 0 -4.3297713908106224e-05 -0.014836891531963166 0 -7.1750374313217557e-05 -0.01478636100599957 0 -1.2752692851819021e-05 -0.014874014448564791 0 -6.5577610114755225e-05 -0.014754395565138939 0 -7.1750374313217557e-05 -0.01478636100599957 0 -6.5577610114755225e-05 -0.014754395565138939 0 -7.1750374313217557e-05 -0.01478636100599957 0 -9.956180090664804e-05 -0.014743809178843751 0 -8.5369207380226261e-05 -0.014752240464641542 0 -7.1750374313217557e-05 -0.01478636100599957 0 -9.956180090664804e-05 -0.014743809178843751 0 -8.5369207380226261e-05 -0.014752240464641542 0 -9.956180090664804e-05 -0.014743809178843751 0 -0.00013315911902107524 -0.014636333352614177 0 -8.2961054232139552e-05 -0.014547401584343552 0 -8.2917965112363974e-05 -0.014533684093050106 0 -4.8743335843704298e-05 -0.014337347380474414 0 -0.00011483651975638616 -0.014356517801495591 0 -0.00010460540245188942 -0.014302354463839753 0 -6.5577610114755225e-05 -0.014754395565138939 0 -9.956180090664804e-05 -0.014743809178843751 0 -7.7607019186154406e-05 -0.014698929593983893 0 -6.5577610114755225e-05 -0.014754395565138939 0 -5.1165984827027771e-05 -0.014715342044569152 0 -7.7607019186154406e-05 -0.014698929593983893 0 -1.3250815186323988e-05 -0.014723705629487873 0 -5.1165984827027771e-05 -0.014715342044569152 0 -4.7390404838534778e-05 -0.014692284284298359 0 -6.5577610114755225e-05 -0.014754395565138939 0 -1.3250815186323988e-05 -0.014723705629487873 0 -5.1165984827027771e-05 -0.014715342044569152 0 9.1292107809278987e-06 -0.014997048034388661 0 -6.968834760348781e-09 -0.015000000834449051 0 -8.447053582451563e-06 -0.014960997350002038 0 -6.968834760348781e-09 -0.015000000834449051 0 -2.0512960833261876e-08 -0.014999908777203549 0 -8.447053582451563e-06 -0.014960997350002038 0 -5.4364075035792739e-06 -0.014942171848321093 0 -2.0512960833261876e-08 -0.014999908777203549 0 -8.447053582451563e-06 -0.014960997350002038 0 -1.2752692851819021e-05 -0.014874014448564791 0 -6.5577610114755225e-05 -0.014754395565138939 0 -1.3250815186323988e-05 -0.014723705629487873 0 -1.2752692851819021e-05 -0.014874014448564791 0 9.1292107809278987e-06 -0.014997048034388661 0 -8.447053582451563e-06 -0.014960997350002038 0 -1.2326447646839583e-05 -0.014878942877654525 0 -7.3811409491822321e-06 -0.014863080253093641 0 -0.00064284178957610936 -0.014404200796120393 0 -0.0006069483343499343 -0.013835321996895581 0 -0.00030497448757196383 -0.014276915210783491 0 -0.00064284178957610936 -0.014404200796120393 0 -0.00030497448757196383 -0.014276915210783491 0 -0.0003857121609425384 -0.014561068153030999 0 -0.00069422826513434641 -0.013883810039993305 0 -0.00063143485130829485 -0.013835886421938738 0 -0.00077632267584972078 -0.013397564615667497 0 -0.0006069483343499343 -0.013835321996895581 0 -0.00062441985535098446 -0.01353616169160597 0 -0.0006069483343499343 -0.013835321996895581 0 -0.00030497448757196383 -0.014276915210783491 0 -0.00033159449425079751 -0.014030912318233448 0 -0.00015655955111769691 -0.014260110399350311 0 -0.00030497448757196383 -0.014276915210783491 0 -0.00033159449425079751 -0.014030912318233448 0 -4.8743335843704298e-05 -0.014337347380474414 0 -0.00015655955111769691 -0.014260110399350311 0 -0.00010460540245188942 -0.014302354463839753 0 -4.8743335843704298e-05 -0.014337347380474414 0 -0.00015655955111769691 -0.014260110399350311 0 -0.00013315911902107524 -0.014636333352614177 0 -8.2961054232139552e-05 -0.014547401584343552 0 -0.00013498459591013818 -0.014638286744667299 0 -0.00030497448757196383 -0.014276915210783491 0 -0.00013315911902107524 -0.014636333352614177 0 -0.0003857121609425384 -0.014561068153030999 0 -0.00015655955111769691 -0.014260110399350311 0 -0.00030497448757196383 -0.014276915210783491 0 -0.00013315911902107524 -0.014636333352614177 0 -0.00013315911902107524 -0.014636333352614177 0 -0.00031849752069268769 -0.014758281488354135 0 -0.0003857121609425384 -0.014561068153030999 0 -7.0388790869817109e-05 -0.014833007863889075 0 -0.00013315911902107524 -0.014636333352614177 0 -0.00016000920836194333 -0.014867478084498424 0 -0.00013315911902107524 -0.014636333352614177 0 -0.00031849752069268769 -0.014758281488354135 0 -0.00016000920836194333 -0.014867478084498424 0 -0.00031849752069268769 -0.014758281488354135 0 -0.0003857121609425384 -0.014561068153030999 0 -0.00059624351992539396 -0.014705522069519757 0 -0.00031849752069268769 -0.014758281488354135 0 -0.00059624351992539396 -0.014705522069519757 0 -0.0004587692510354274 -0.014831460426756274 0 -0.00064284178957610936 -0.014404200796120393 0 -0.0003857121609425384 -0.014561068153030999 0 -0.00059624351992539396 -0.014705522069519757 0 -0.00069422826513434641 -0.013883810039993305 0 -0.00070321924484422036 -0.014012020626049037 0 -0.00059624351992539396 -0.014705522069519757 0 -0.00057183384346772524 -0.01491752461517179 0 -0.0004587692510354274 -0.014831460426756274 0 -0.00070321924484422036 -0.014012020626049037 0 -0.00062029101604880218 -0.013806506279440403 0 -0.00057183384346772524 -0.01491752461517179 0 -0.0004587692510354274 -0.014831460426756274 0 -0.00033480016739779669 -0.014978354138887937 0 -0.00031849752069268769 -0.014758281488354135 0 -0.0004587692510354274 -0.014831460426756274 0 -0.00033480016739779669 -0.014978354138887937 0 -0.00062029101604880218 -0.013806506279440403 0 -0.00036126595808504114 -0.014556966593079899 0 -0.00053661262084334484 -0.013917832118374071 0 -0.00053662237617639174 -0.01395040922291709 0 -0.00048316625486383803 -0.013939642689644297 0 -0.00053662237617639174 -0.01395040922291709 0 -0.00048316625486383803 -0.013939642689644297 0 -0.00051412098896681693 -0.013967855993906195 0 -0.00062029101604880218 -0.013806506279440403 0 -0.00065164097164352734 -0.013508505432658533 0 -0.00076331914322971459 -0.013139998228755468 0 -0.00076176258666269718 -0.013116313662086206 0 -0.00075045397146823083 -0.013116657688273279 0 -0.00076176258666269718 -0.013116313662086206 0 -0.00075652984108162354 -0.013107828855022268 0 -0.00075045397146823083 -0.013116657688273279 0 -0.00031849752069268769 -0.014758281488354135 0 -0.00016000920836194333 -0.014867478084498424 0 -0.00033480016739779669 -0.014978354138887937 0 -0.00048316625486383803 -0.013939642689644297 0 -0.00042876084825002641 -0.013962725798717702 0 -0.0004811208009802418 -0.013977100610237112 0 -0.00036126595808504114 -0.014556966593079899 0 -0.00036905152112120729 -0.014342723452577267 0 -0.00016000920836194333 -0.014867478084498424 0 -0.00033480016739779669 -0.014978354138887937 0 -0.0001574438237847886 -0.015004720714608531 0 -0.0004606463084210953 -0.014277975336162025 0 -0.00045666937447184588 -0.014275602880668332 0 -0.00044904772363027636 -0.014274237941557808 0 -0.0004496301380993416 -0.01428985573343248 0 -0.00045666937447184588 -0.014275602880668332 0 -0.0004560638915185584 -0.014274029398049684 0 -0.0004496301380993416 -0.01428985573343248 0 -0.0004606463084210953 -0.014277975336162025 0 -0.00045666937447184588 -0.014275602880668332 0 -0.00045666937447184588 -0.014275602880668332 0 -0.00044904772363027636 -0.014274237941557808 0 -0.00045608882532240379 -0.014263548953088193 0 -0.00036905152112120729 -0.014342723452577267 0 -0.00044382634471302297 -0.014155919677109274 0 -0.00044904772363027636 -0.014274237941557808 0 -0.00045608882532240379 -0.014263548953088193 0 -0.0004429643151581214 -0.01425941942204513 0 -0.00046146122278125664 -0.014250277564297463 0 -0.00045608882532240379 -0.014263548953088193 0 -0.0004429643151581214 -0.01425941942204513 0 -0.00045666937447184588 -0.014275602880668332 0 -0.00045608882532240379 -0.014263548953088193 0 -0.00045766143389450653 -0.014267969514555875 0 -0.00045999583320724901 -0.01426123432884136 0 -0.00045608882532240379 -0.014263548953088193 0 -0.00045766143389450653 -0.014267969514555875 0 -0.00045999583320724901 -0.01426123432884136 0 -0.00045931366972837149 -0.014267542133673055 0 -0.00045766143389450653 -0.014267969514555875 0 -0.00045666937447184588 -0.014275602880668332 0 -0.00045766143389450653 -0.014267969514555875 0 -0.0004560638915185584 -0.014274029398049684 0 -0.00045931366972837149 -0.014267542133673055 0 -0.00045766143389450653 -0.014267969514555875 0 -0.0004560638915185584 -0.014274029398049684 0 -0.00076176258666269718 -0.013116313662086206 0 -0.0007598834742179758 -0.013102815441892499 0 -0.00075652984108162354 -0.013107828855022268 0 -0.00053662237617639174 -0.01395040922291709 0 -0.0005368777873545655 -0.013980726495998342 0 -0.00051412098896681693 -0.013967855993906195 0 -0.00065164097164352734 -0.013508505432658533 0 -0.00077688554480839908 -0.013427163569146345 0 -0.0005368777873545655 -0.013980726495998342 0 -0.00051412098896681693 -0.013967855993906195 0 -0.00053164647644413782 -0.013989576637123025 0 -0.00076276475586360638 -0.013098844855751341 0 -0.00075652984108162354 -0.013107828855022268 0 -0.00075049951142694752 -0.013096285874354664 0 -0.00077688554480839908 -0.013427163569146345 0 -0.00083564784332720117 -0.013137998578957314 0 -0.00044382634471302297 -0.014155919677109274 0 -0.00071407540672541289 -0.013614575878652887 0 -0.0004811208009802418 -0.013977100610237112 0 -0.00051412098896681693 -0.013967855993906195 0 -0.00053164647644413782 -0.013989576637123025 0 -0.00048316625486383803 -0.013939642689644297 0 -0.0004811208009802418 -0.013977100610237112 0 -0.00051412098896681693 -0.013967855993906195 0 -0.00044904772363027636 -0.014274237941557808 0 -0.0004429643151581214 -0.01425941942204513 0 -0.00042852647242388813 -0.014261604043339995 0 -0.00043405889683743805 -0.014235363998462154 0 -0.0004429643151581214 -0.01425941942204513 0 -0.00042852647242388813 -0.014261604043339995 0 -0.00064424840963457619 -0.013705638756768602 0 -0.00071407540672541289 -0.013614575878652887 0 -0.00079583855339122986 -0.013091423610825787 0 -0.00081449578991181785 -0.013247013015910556 0 -0.00079541878876453545 -0.013238661285920965 0 -0.0010882735363162319 -0.012714582630519911 0 -0.00092559431789891603 -0.01312740165120483 0 -0.0013788975979130288 -0.012341137430548979 0 -0.0013771115165341476 -0.012393154485411824 0 -0.00134117336034685 -0.012370030891779229 0 -0.00090542091918412789 -0.013445503325529703 0 -0.00093372620393521253 -0.013399513544433563 0 -0.0009049257084767882 -0.013387193848584297 0 -0.00077688554480839908 -0.013427163569146345 0 -0.00071407540672541289 -0.013614575878652887 0 -0.00071407540672541289 -0.013614575878652887 0 -0.00092559431789891603 -0.01312740165120483 0 -0.00076276475586360638 -0.013098844855751341 0 -0.00076281058993816532 -0.013092463324594022 0 -0.00075049951142694752 -0.013096285874354664 0 -0.00077688554480839908 -0.013427163569146345 0 -0.00092559431789891603 -0.01312740165120483 0 -0.00074787736616349621 -0.013083463368103494 0 -0.00075049951142694752 -0.013096285874354664 0 -0.00073640198392715787 -0.013092107891022022 0 -0.00092559431789891603 -0.01312740165120483 0 -0.00098821216579322944 -0.012729059074083409 0 -0.00076281058993816532 -0.013092463324594022 0 -0.00074787736616349621 -0.013083463368103494 0 -0.00075049951142694752 -0.013096285874354664 0 -0.00075652984108162354 -0.013107828855022268 0 -0.00075049951142694752 -0.013096285874354664 0 -0.00074103336651715548 -0.01310585003142134 0 -0.00075049951142694752 -0.013096285874354664 0 -0.00074103336651715548 -0.01310585003142134 0 -0.00073640198392715787 -0.013092107891022022 0 -0.00075652984108162354 -0.013107828855022268 0 -0.00074103336651715548 -0.01310585003142134 0 -0.00075045397146823083 -0.013116657688273279 0 -0.00074103336651715548 -0.01310585003142134 0 -0.00072627241871324195 -0.013106645588466156 0 -0.00073640198392715787 -0.013092107891022022 0 -0.0017033443521759358 -0.011785606500547774 0 -0.00098821216579322944 -0.012729059074083409 0 -0.00073955559738470217 -0.013073709724839769 0 -0.00074787736616349621 -0.013083463368103494 0 -0.00073640198392715787 -0.013092107891022022 0 -0.002747951003401201 -0.010953420471596755 0 -0.0025511483478101323 -0.010857682770834307 0 -0.0025345669048003586 -0.011153226067074948 0 -0.00073955559738470217 -0.013073709724839769 0 -0.00073640198392715787 -0.013092107891022022 0 -0.00072691396877039272 -0.013097147770483993 0 -0.0017033443521759358 -0.011785606500547774 0 -0.001627335833783692 -0.01216346111383892 0 -0.0025511483478101323 -0.010857682770834307 0 -0.0025345669048003586 -0.011153226067074948 0 -0.0024361647033070964 -0.010979168332001708 0 -0.0025345669048003586 -0.011153226067074948 0 -0.0024361647033070964 -0.010979168332001708 0 -0.0022544330423027244 -0.011090275332315153 0 -0.00072691396877039272 -0.013097147770483993 0 -0.00071827935840147489 -0.013110512464158714 0 -0.00074632350096292817 -0.013111232091758835 0 -0.001627335833783692 -0.01216346111383892 0 -0.0015185415619309295 -0.012262579236038993 0 -0.00072627241871324195 -0.013106645588466156 0 -0.00073640198392715787 -0.013092107891022022 0 -0.00072691396877039272 -0.013097147770483993 0 -0.00072627241871324195 -0.013106645588466156 0 -0.00072691396877039272 -0.013097147770483993 0 -0.00071827935840147489 -0.013110512464158714 0 -0.00072627241871324195 -0.013106645588466156 0 -0.00071827935840147489 -0.013110512464158714 0 -0.00070891327183360427 -0.013122623329777238 0 -0.00071827935840147489 -0.013110512464158714 0 -0.00071079098380927611 -0.013098906995298823 0 -0.00074632350096292817 -0.013111232091758835 0 -0.00071827935840147489 -0.013110512464158714 0 -0.00071079098380927611 -0.013098906995298823 0 -0.00070891327183360427 -0.013122623329777238 0 -0.00071079098380927611 -0.013098906995298823 0 -0.00070891327183360427 -0.013122623329777238 0 -0.00068932483355302126 -0.013161080588151058 0 -0.00070891327183360427 -0.013122623329777238 0 -0.0007135812614823241 -0.01314816024194485 0 -0.00073192848057292191 -0.013120437294167153 0 -0.00070891327183360427 -0.013122623329777238 0 -0.0007135812614823241 -0.01314816024194485 0 -0.00068932483355302126 -0.013161080588151058 0 -0.00076331914322971459 -0.013139998228755468 0 -0.0007135812614823241 -0.01314816024194485 0 -0.00073192848057292191 -0.013120437294167153 0 -0.00079523739084578224 -0.013227413275169677 0 -0.000795544979810384 -0.013145597815971072 0 -0.0007135812614823241 -0.01314816024194485 0 -0.00062029101604880218 -0.013806506279440403 0 -0.00081554994233357916 -0.012950572873041678 0 -0.00076331914322971459 -0.013139998228755468 0 -0.00073192848057292191 -0.013120437294167153 0 -0.00075045397146823083 -0.013116657688273279 0 -0.00074103336651715548 -0.01310585003142134 0 -0.00073192848057292191 -0.013120437294167153 0 -0.00075045397146823083 -0.013116657688273279 0 -0.00074103336651715548 -0.01310585003142134 0 -0.00072627241871324195 -0.013106645588466156 0 -0.00073192848057292191 -0.013120437294167153 0 -0.00072627241871324195 -0.013106645588466156 0 -0.00070891327183360427 -0.013122623329777238 0 -0.00073192848057292191 -0.013120437294167153 0 -0.001697044142883187 -0.011214934087734704 0 -0.0016092233448625885 -0.011579015464580567 0 -0.0013082495144135179 -0.011275061607721265 0 -0.0016133458666846112 -0.010942977742585467 0 -0.001697044142883187 -0.011214934087734704 0 -0.0013082495144135179 -0.011275061607721265 0 -0.0016133458666846112 -0.010942977742585467 0 -0.0019132387383435047 -0.010978748053880195 0 -0.001697044142883187 -0.011214934087734704 0 -0.0019132387383435047 -0.010978748053880195 0 -0.001697044142883187 -0.011214934087734704 0 -0.0020023465304776708 -0.011317910699415318 0 -0.001697044142883187 -0.011214934087734704 0 -0.0020023465304776708 -0.011317910699415318 0 -0.0016092233448625885 -0.011579015464580567 0 -0.0019132387383435047 -0.010978748053880195 0 -0.0020023465304776708 -0.011317910699415318 0 -0.0022544330423027244 -0.011090275332315153 0 -0.0021473995697847315 -0.010827997669128 0 -0.0019132387383435047 -0.010978748053880195 0 -0.0022544330423027244 -0.011090275332315153 0 -0.0023206416815446432 -0.010900229179775669 0 -0.0024361647033070964 -0.010979168332001708 0 -0.0022544330423027244 -0.011090275332315153 0 -0.0020023465304776708 -0.011317910699415318 0 -0.0022544330423027244 -0.011090275332315153 0 -0.0022901570751704 -0.011425042241377482 0 -0.0025345669048003586 -0.011153226067074948 0 -0.0022544330423027244 -0.011090275332315153 0 -0.0022901570751704 -0.011425042241377482 0 -0.00074632350096292817 -0.013111232091758835 0 -0.00082400857930962359 -0.013062493935089573 0 -0.00076093655714876281 -0.013031868850866846 0 -0.00071079098380927611 -0.013098906995298823 0 -0.00074632350096292817 -0.013111232091758835 0 -0.00076093655714876281 -0.013031868850866846 0 -0.00082400857930962359 -0.013062493935089573 0 -0.00083610528810961415 -0.012935414829838005 0 -0.00076093655714876281 -0.013031868850866846 0 -0.0020023465304776708 -0.011317910699415318 0 -0.0022901570751704 -0.011425042241377482 0 -0.001972468559951617 -0.01174339419993177 0 -0.0015185415619309295 -0.012262579236038993 0 -0.0013950681059556635 -0.0124032556255937 0 -0.0020023465304776708 -0.011317910699415318 0 -0.001972468559951617 -0.01174339419993177 0 -0.0016092233448625885 -0.011579015464580567 0 -0.001972468559951617 -0.01174339419993177 0 -0.0016092233448625885 -0.011579015464580567 0 -0.0016059343627577857 -0.012081138653389941 0 -0.0013950681059556635 -0.0124032556255937 0 -0.001263531792382663 -0.012474997504427531 0 -0.00082400857930962359 -0.013062493935089573 0 -0.00095060798135483606 -0.01287789897033432 0 -0.00083610528810961415 -0.012935414829838005 0 -0.0016092233448625885 -0.011579015464580567 0 -0.0016059343627577857 -0.012081138653389941 0 -0.0012670417014146961 -0.011791749653664925 0 -0.00095060798135483606 -0.01287789897033432 0 -0.00098373435028753248 -0.012605333316889277 0 -0.0010920995339442046 -0.012459674767704276 0 -0.00095060798135483606 -0.01287789897033432 0 -0.00087286665688272316 -0.012805858240116683 0 -0.00098373435028753248 -0.012605333316889277 0 -0.001263531792382663 -0.012474997504427531 0 -0.0011048387101701526 -0.012481870986626295 0 -0.00095060798135483606 -0.01287789897033432 0 -0.00087286665688272316 -0.012805858240116683 0 -0.00083610528810961415 -0.012935414829838005 0 -0.00087286665688272316 -0.012805858240116683 0 -0.00083610528810961415 -0.012935414829838005 0 -0.0007715649494929969 -0.012985794671746459 0 -0.00083610528810961415 -0.012935414829838005 0 -0.00076093655714876281 -0.013031868850866846 0 -0.0007715649494929969 -0.012985794671746459 0 -0.00076093655714876281 -0.013031868850866846 0 -0.0007715649494929969 -0.012985794671746459 0 -0.00069853440454982409 -0.013126411598287176 0 -0.0007715649494929969 -0.012985794671746459 0 -0.00077086376310434002 -0.013032398389476391 0 -0.00069853440454982409 -0.013126411598287176 0 -0.00077086376310434002 -0.013032398389476391 0 -0.0008393714784138219 -0.012876698701773097 0 -0.00086032417338380459 -0.012857985313426162 0 -0.0007715649494929969 -0.012985794671746459 0 -0.00077086376310434002 -0.013032398389476391 0 -0.0008393714784138219 -0.012876698701773097 0 -0.00087286665688272316 -0.012805858240116683 0 -0.0007715649494929969 -0.012985794671746459 0 -0.0008393714784138219 -0.012876698701773097 0 -0.00087286665688272316 -0.012805858240116683 0 -0.0008393714784138219 -0.012876698701773097 0 -0.00092652020328451532 -0.012710866869931378 0 -0.0008393714784138219 -0.012876698701773097 0 -0.00092652020328451532 -0.012710866869931378 0 -0.00086032417338380459 -0.012857985313426162 0 -0.00092652020328451532 -0.012710866869931378 0 -0.00093275813093772898 -0.012626943229829749 0 -0.00095670648353342953 -0.012583603804377924 0 -0.00092652020328451532 -0.012710866869931378 0 -0.00098373435028753248 -0.012605333316889277 0 -0.00095670648353342953 -0.012583603804377924 0 -0.00087286665688272316 -0.012805858240116683 0 -0.00092652020328451532 -0.012710866869931378 0 -0.00098373435028753248 -0.012605333316889277 0 -0.00077632267584972078 -0.013397564615667497 0 -0.00079523739084578224 -0.013227413275169677 0 -0.00067228705541392945 -0.013269418311146282 0 -0.00079523739084578224 -0.013227413275169677 0 -0.0007135812614823241 -0.01314816024194485 0 -0.00067228705541392945 -0.013269418311146282 0 -0.0007135812614823241 -0.01314816024194485 0 -0.00067228705541392945 -0.013269418311146282 0 -0.00068932483355302126 -0.013161080588151058 0 -0.00071079098380927611 -0.013098906995298823 0 -0.00068932483355302126 -0.013161080588151058 0 -0.00069853440454982409 -0.013126411598287176 0 -0.00071079098380927611 -0.013098906995298823 0 -0.00076093655714876281 -0.013031868850866846 0 -0.00069853440454982409 -0.013126411598287176 0 -0.00067228705541392945 -0.013269418311146282 0 -0.00068932483355302126 -0.013161080588151058 0 -0.00069853440454982409 -0.013126411598287176 0 -0.00077086376310434002 -0.013032398389476391 0 -0.00069853440454982409 -0.013126411598287176 0 -0.00068182176816492185 -0.013286847633060608 0 -0.00077086376310434002 -0.013032398389476391 0 -0.00068182176816492185 -0.013286847633060608 0 -0.0007438160744628158 -0.013225787748040962 0 -0.00067228705541392945 -0.013269418311146282 0 -0.00069853440454982409 -0.013126411598287176 0 -0.00068182176816492185 -0.013286847633060608 0 -0.00068182176816492185 -0.013286847633060608 0 -0.00062441985535098446 -0.01353616169160597 0 -0.00065580828147139905 -0.013465479977014312 0 -0.00067228705541392945 -0.013269418311146282 0 -0.00068182176816492185 -0.013286847633060608 0 -0.00062441985535098446 -0.01353616169160597 0 -0.00077632267584972078 -0.013397564615667497 0 -0.00067228705541392945 -0.013269418311146282 0 -0.00062441985535098446 -0.01353616169160597 0 -0.0006069483343499343 -0.013835321996895581 0 -0.00062441985535098446 -0.01353616169160597 0 -0.00056136024929659227 -0.013706098163687558 0 -0.00062441985535098446 -0.01353616169160597 0 -0.00056136024929659227 -0.013706098163687558 0 -0.00065580828147139905 -0.013465479977014312 0 -0.00056136024929659227 -0.013706098163687558 0 -0.00059815077588524395 -0.013547820799977423 0 -0.00065580828147139905 -0.013465479977014312 0 -0.00056136024929659227 -0.013706098163687558 0 -0.00059815077588524395 -0.013547820799977423 0 -0.00034778116967273243 -0.013759214154696803 0 -0.00059815077588524395 -0.013547820799977423 0 -0.00053186364806677802 -0.013443239371044333 0 -0.00034778116967273243 -0.013759214154696803 0 -0.00059815077588524395 -0.013547820799977423 0 -0.00053186364806677802 -0.013443239371044333 0 -0.0006475640878882223 -0.013360686109406276 0 -0.00059815077588524395 -0.013547820799977423 0 -0.00068748999394167658 -0.013387481021919122 0 -0.00065580828147139905 -0.013465479977014312 0 -0.00068748999394167658 -0.013387481021919122 0 -0.0007371974603740093 -0.013278383975491198 0 -0.0006475640878882223 -0.013360686109406276 0 -0.00059815077588524395 -0.013547820799977423 0 -0.00068748999394167658 -0.013387481021919122 0 -0.0006475640878882223 -0.013360686109406276 0 -0.00068748999394167658 -0.013387481021919122 0 -0.00065580828147139905 -0.013465479977014312 0 -0.0007438160744628158 -0.013225787748040962 0 -0.00068182176816492185 -0.013286847633060608 0 -0.00065580828147139905 -0.013465479977014312 0 -0.0007438160744628158 -0.013225787748040962 0 -0.0007438160744628158 -0.013225787748040962 0 -0.00079234133239311521 -0.013165879285189077 0 -0.00079644816418601499 -0.012973375663231973 0 -0.0007438160744628158 -0.013225787748040962 0 -0.0007371974603740093 -0.013278383975491198 0 -0.00079234133239311521 -0.013165879285189077 0 -0.00068748999394167658 -0.013387481021919122 0 -0.0007438160744628158 -0.013225787748040962 0 -0.0007371974603740093 -0.013278383975491198 0 -0.0007371974603740093 -0.013278383975491198 0 -0.00079234133239311521 -0.013165879285189077 0 -0.00075234904275724656 -0.013206266286084508 0 -0.00079234133239311521 -0.013165879285189077 0 -0.0007754221567425804 -0.013172530470221395 0 -0.0007793333028901175 -0.013167135544832276 0 -0.0007754221567425804 -0.013172530470221395 0 -0.00075234904275724656 -0.013206266286084508 0 -0.00073338243617749926 -0.01315619728396562 0 -0.00079234133239311521 -0.013165879285189077 0 -0.0007754221567425804 -0.013172530470221395 0 -0.00075234904275724656 -0.013206266286084508 0 -0.00075234904275724656 -0.013206266286084508 0 -0.00068909485867861694 -0.013216964579988071 0 -0.00073338243617749926 -0.01315619728396562 0 -0.00068909485867861694 -0.013216964579988071 0 -0.00057689892812344372 -0.013268229243694345 0 -0.00057082652886537768 -0.013153511081983345 0 -0.00068909485867861694 -0.013216964579988071 0 -0.00057689892812344372 -0.013268229243694345 0 -0.0006475640878882223 -0.013360686109406276 0 -0.00057689892812344372 -0.013268229243694345 0 -0.00053186364806677802 -0.013443239371044333 0 -0.0006475640878882223 -0.013360686109406276 0 -0.0007371974603740093 -0.013278383975491198 0 -0.00068909485867861694 -0.013216964579988071 0 -0.0006475640878882223 -0.013360686109406276 0 -0.0007371974603740093 -0.013278383975491198 0 -0.00075234904275724656 -0.013206266286084508 0 -0.00068909485867861694 -0.013216964579988071 0 -0.00091785973266119596 -0.012720239400789831 0 -0.00090889250314424698 -0.012702256498828626 0 -0.00091084536146215358 -0.012631699890618299 0 -0.00091785973266119596 -0.012720239400789831 0 -0.00090889250314424698 -0.012702256498828626 0 -0.00090004095849592451 -0.012789452082648221 0 -0.00092652020328451532 -0.012710866869931378 0 -0.00091785973266119596 -0.012720239400789831 0 -0.00093275813093772898 -0.012626943229829749 0 -0.00092652020328451532 -0.012710866869931378 0 -0.00091785973266119596 -0.012720239400789831 0 -0.00086032417338380459 -0.012857985313426162 0 -0.00091785973266119596 -0.012720239400789831 0 -0.00086032417338380459 -0.012857985313426162 0 -0.00090004095849592451 -0.012789452082648221 0 -0.00077086376310434002 -0.013032398389476391 0 -0.0007438160744628158 -0.013225787748040962 0 -0.00079644816418601499 -0.012973375663231973 0 -0.00086032417338380459 -0.012857985313426162 0 -0.00079644816418601499 -0.012973375663231973 0 -0.00090004095849592451 -0.012789452082648221 0 -0.00077086376310434002 -0.013032398389476391 0 -0.00086032417338380459 -0.012857985313426162 0 -0.00079644816418601499 -0.012973375663231973 0 -0.00079234133239311521 -0.013165879285189077 0 -0.00079644816418601499 -0.012973375663231973 0 -0.0007793333028901175 -0.013167135544832276 0 -0.00079911743337876475 -0.012976760960096201 0 -0.00082202653371974018 -0.01296980881037346 0 -0.00085925804595930332 -0.012766015030679818 0 -0.00089367131958929943 -0.01275542942715961 0 -0.0008875879672407517 -0.012789587379957534 0 -0.00079644816418601499 -0.012973375663231973 0 -0.00085925804595930332 -0.012766015030679818 0 -0.00090004095849592451 -0.012789452082648221 0 -0.00090004095849592451 -0.012789452082648221 0 -0.00089367131958929943 -0.01275542942715961 0 -0.00090234455913622248 -0.012733479519346336 0 -0.00085925804595930332 -0.012766015030679818 0 -0.00090004095849592451 -0.012789452082648221 0 -0.00089367131958929943 -0.01275542942715961 0 -0.00089367131958929943 -0.01275542942715961 0 -0.00088682957731206252 -0.012739120769599516 0 -0.00090234455913622248 -0.012733479519346336 0 -0.00090889250314424698 -0.012702256498828626 0 -0.00090004095849592451 -0.012789452082648221 0 -0.00090234455913622248 -0.012733479519346336 0 -0.00090889250314424698 -0.012702256498828626 0 -0.00090234455913622248 -0.012733479519346336 0 -0.00088490525795396067 -0.012683703348921339 0 -0.0008689870294031134 -0.012823572718000229 0 -0.00085461188569375479 -0.012843647632510119 0 -0.00086282737629376572 -0.012802693566564414 0 -0.0008689870294031134 -0.012823572718000229 0 -0.00087582726252270196 -0.012834881621785116 0 -0.00087116344799187677 -0.012857570240906219 0 -0.0008689870294031134 -0.012823572718000229 0 -0.00087912270055584768 -0.012780167696822452 0 -0.00087582726252270196 -0.012834881621785116 0 -0.0008689870294031134 -0.012823572718000229 0 -0.00087912270055584768 -0.012780167696822452 0 -0.00086282737629376572 -0.012802693566564414 0 -0.00087912270055584768 -0.012780167696822452 0 -0.00086809687684381127 -0.012763721179390534 0 -0.00086282737629376572 -0.012802693566564414 0 -0.00089367131958929943 -0.01275542942715961 0 -0.00088682957731206252 -0.012739120769599516 0 -0.00087912270055584768 -0.012780167696822452 0 -0.00088682957731206252 -0.012739120769599516 0 -0.00087912270055584768 -0.012780167696822452 0 -0.00086809687684381127 -0.012763721179390534 0 -0.00089367131958929943 -0.01275542942715961 0 -0.00087912270055584768 -0.012780167696822452 0 -0.0008875879672407517 -0.012789587379957534 0 -0.0008875879672407517 -0.012789587379957534 0 -0.00087582726252270196 -0.012834881621785116 0 -0.00088149236943915884 -0.012878392459928268 0 -0.00087912270055584768 -0.012780167696822452 0 -0.0008875879672407517 -0.012789587379957534 0 -0.00087582726252270196 -0.012834881621785116 0 -0.0008875879672407517 -0.012789587379957534 0 -0.00092472829184720459 -0.012817969921058396 0 -0.00088149236943915884 -0.012878392459928268 0 -0.00085925804595930332 -0.012766015030679818 0 -0.0008875879672407517 -0.012789587379957534 0 -0.00092472829184720459 -0.012817969921058396 0 -0.00082202653371974018 -0.01296980881037346 0 -0.00087195178127411695 -0.012982903095169316 0 -0.0007793333028901175 -0.013167135544832276 0 -0.00082745825255463789 -0.013151527414362919 0 -0.00079122018798085747 -0.013158117458831817 0 -0.00082745825255463789 -0.013151527414362919 0 -0.00079122018798085747 -0.013158117458831817 0 -0.00079187237098871555 -0.013114809615078167 0 -0.00088262446832712527 -0.013005147806727044 0 -0.00079187237098871555 -0.013114809615078167 0 -0.00081202057266887044 -0.013070091315934671 0 -0.00082745825255463789 -0.013151527414362919 0 -0.00088262446832712527 -0.013005147806727044 0 -0.00079187237098871555 -0.013114809615078167 0 -0.00087195178127411695 -0.012982903095169316 0 -0.00088277646239792479 -0.012998986609710685 0 -0.00088262446832712527 -0.013005147806727044 0 -0.00081202057266887044 -0.013070091315934671 0 -0.00086416764150275499 -0.012996651219123486 0 -0.00088262446832712527 -0.013005147806727044 0 -0.00086416764150275499 -0.012996651219123486 0 -0.00088457812166574531 -0.012950631955752325 0 -0.00088262446832712527 -0.013005147806727044 0 -0.00088164880431197158 -0.012937732599947054 0 -0.00088457812166574531 -0.012950631955752325 0 -0.00088164880431197158 -0.012937732599947054 0 -0.00088642008740962431 -0.012907991569695125 0 -0.00088457812166574531 -0.012950631955752325 0 -0.00088262446832712527 -0.013005147806727044 0 -0.00088164880431197158 -0.012937732599947054 0 -0.00088149236943915884 -0.012878392459928268 0 -0.00092472829184720459 -0.012817969921058396 0 -0.00088262446832712527 -0.013005147806727044 0 -0.00088149236943915884 -0.012878392459928268 0 -0.00088164880431197158 -0.012937732599947054 0 -0.00088149236943915884 -0.012878392459928268 0 -0.00087658869517799642 -0.012886058369229625 0 -0.00087582726252270196 -0.012834881621785116 0 -0.00088149236943915884 -0.012878392459928268 0 -0.00087658869517799642 -0.012886058369229625 0 -0.00087582726252270196 -0.012834881621785116 0 -0.00087658869517799642 -0.012886058369229625 0 -0.00087116344799187677 -0.012857570240906219 0 -0.00087658869517799642 -0.012886058369229625 0 -0.00087600429045491836 -0.012893427615002694 0 -0.00087116344799187677 -0.012857570240906219 0 -0.00087658869517799642 -0.012886058369229625 0 -0.00088094630372240234 -0.012910650692081783 0 -0.00087600429045491836 -0.012893427615002694 0 -0.00088164880431197158 -0.012937732599947054 0 -0.00087658869517799642 -0.012886058369229625 0 -0.00088094630372240234 -0.012910650692081783 0 -0.00088164880431197158 -0.012937732599947054 0 -0.00088094630372240234 -0.012910650692081783 0 -0.00088642008740962431 -0.012907991569695125 0 -0.00088642008740962431 -0.012907991569695125 0 -0.0008907427685737677 -0.012868514222924088 0 -0.00089266720310765589 -0.012875969980339649 0 -0.00088642008740962431 -0.012907991569695125 0 -0.00088503323467154405 -0.012896843016772134 0 -0.0008907427685737677 -0.012868514222924088 0 -0.00088094630372240234 -0.012910650692081783 0 -0.00088642008740962431 -0.012907991569695125 0 -0.00088503323467154405 -0.012896843016772134 0 -0.00088094630372240234 -0.012910650692081783 0 -0.00088503323467154405 -0.012896843016772134 0 -0.00087600429045491836 -0.012893427615002694 0 -0.00088503323467154405 -0.012896843016772134 0 -0.00087600429045491836 -0.012893427615002694 0 -0.0008398986504063586 -0.012896611879988959 0 -0.00088698327165464912 -0.012876781882013166 0 -0.00086515907647137188 -0.012744971400913531 0 -0.00088503323467154405 -0.012896843016772134 0 -0.00089384405964897638 -0.012836747508602173 0 -0.00089435046924909816 -0.012816531097144257 0 -0.00088503323467154405 -0.012896843016772134 0 -0.0008907427685737677 -0.012868514222924088 0 -0.00089384405964897638 -0.012836747508602173 0 -0.0008907427685737677 -0.012868514222924088 0 -0.00089384405964897638 -0.012836747508602173 0 -0.00089266720310765589 -0.012875969980339649 0 -0.00089384405964897638 -0.012836747508602173 0 -0.00089435046924909816 -0.012816531097144257 0 -0.00088725746445064149 -0.01277663293999365 0 -0.00087622227610207291 -0.012887502637866087 0 -0.0008431410091690679 -0.012843516872765821 0 -0.00087600429045491836 -0.012893427615002694 0 -0.00087116344799187677 -0.012857570240906219 0 -0.00085461188569375479 -0.012843647632510119 0 -0.00087600429045491836 -0.012893427615002694 0 -0.0008398986504063586 -0.012896611879988959 0 -0.0008312054251166177 -0.012843561999147796 0 -0.0008689870294031134 -0.012823572718000229 0 -0.00087116344799187677 -0.012857570240906219 0 -0.00085461188569375479 -0.012843647632510119 0 -0.00073519686387155667 -0.013112582582243798 0 -0.00065648533287303854 -0.013071726519414234 0 -0.00067955179147932677 -0.013140162841213771 0 -0.00073519686387155667 -0.013112582582243798 0 -0.00078061231479554876 -0.013128704001877513 0 -0.00074827586885793771 -0.013136884845132426 0 -0.00071720606419342116 -0.013140620856267153 0 -0.00057862979850294063 -0.013516463028292852 0 -0.00057862979850294063 -0.013516463028292852 0 -0.00050224997104880958 -0.013415318017013872 0 -0.00041759792249251447 -0.013791230565355967 0 -0.00040700132472076806 -0.01381517054259852 0 -0.0003955137809898629 -0.013812514452175979 0 -0.00068909485867861694 -0.013216964579988071 0 -0.00057082652886537768 -0.013153511081983345 0 -0.00067955179147932677 -0.013140162841213771 0 -0.00065648533287303854 -0.013071726519414234 0 -0.00057082652886537768 -0.013153511081983345 0 -0.00067955179147932677 -0.013140162841213771 0 -0.00073519686387155667 -0.013112582582243798 0 -0.00073338243617749926 -0.01315619728396562 0 -0.00067955179147932677 -0.013140162841213771 0 -0.00068909485867861694 -0.013216964579988071 0 -0.00073338243617749926 -0.01315619728396562 0 -0.00067955179147932677 -0.013140162841213771 0 -0.0007754221567425804 -0.013172530470221395 0 -0.00073338243617749926 -0.01315619728396562 0 -0.00075967670200749915 -0.013131759863473791 0 -0.0007754221567425804 -0.013172530470221395 0 -0.0007793333028901175 -0.013167135544832276 0 -0.00079122018798085747 -0.013158117458831817 0 -0.0007754221567425804 -0.013172530470221395 0 -0.00079122018798085747 -0.013158117458831817 0 -0.00075967670200749915 -0.013131759863473791 0 -0.00075967670200749915 -0.013131759863473791 0 -0.00079187237098871555 -0.013114809615078167 0 -0.00076321355864519943 -0.013126150122907285 0 -0.00079122018798085747 -0.013158117458831817 0 -0.00075967670200749915 -0.013131759863473791 0 -0.00079187237098871555 -0.013114809615078167 0 -0.00073519686387155667 -0.013112582582243798 0 -0.00075967670200749915 -0.013131759863473791 0 -0.00074827586885793771 -0.013136884845132426 0 -0.00073519686387155667 -0.013112582582243798 0 -0.00073338243617749926 -0.01315619728396562 0 -0.00075967670200749915 -0.013131759863473791 0 -0.00075967670200749915 -0.013131759863473791 0 -0.00074827586885793771 -0.013136884845132426 0 -0.00076321355864519943 -0.013126150122907285 0 -0.00074827586885793771 -0.013136884845132426 0 -0.00076321355864519943 -0.013126150122907285 0 -0.00074690458194183289 -0.013179282834576098 0 -0.00079187237098871555 -0.013114809615078167 0 -0.00076321355864519943 -0.013126150122907285 0 -0.00081202057266887044 -0.013070091315934671 0 -0.00076321355864519943 -0.013126150122907285 0 -0.00081202057266887044 -0.013070091315934671 0 -0.00074690458194183289 -0.013179282834576098 0 -0.00081202057266887044 -0.013070091315934671 0 -0.00074690458194183289 -0.013179282834576098 0 -0.00079517382528243141 -0.013089774666381015 0 -0.00075163160614858282 -0.013300316491862052 0 -0.00066888685570137471 -0.013776700573921944 0 -0.00045244642239469329 -0.013531340419682325 0 -0.00075343177903842691 -0.013331952595083314 0 -0.00071367760010294175 -0.013478732295171063 0 -0.00074690458194183289 -0.013179282834576098 0 -0.00075163160614858282 -0.013300316491862052 0 -0.00077996377514417893 -0.013172241303524283 0 -0.00074827586885793771 -0.013136884845132426 0 -0.00074690458194183289 -0.013179282834576098 0 -0.00077996377514417893 -0.013172241303524283 0 -0.00078061231479554876 -0.013128704001877513 0 -0.00074827586885793771 -0.013136884845132426 0 -0.00077996377514417893 -0.013172241303524283 0 -0.00057862979850294063 -0.013516463028292852 0 -0.00071367760010294175 -0.013478732295171063 0 -0.00054386974070903891 -0.014073153378753304 0 -0.00039325601111773448 -0.013834543936381232 0 -0.00018599838716522828 -0.013958231989419331 0 -0.00057862979850294063 -0.013516463028292852 0 -0.00026195822925274403 -0.014056053287196439 0 -0.00054386974070903891 -0.014073153378753304 0 -0.00066888685570137471 -0.013776700573921944 0 -0.00039325601111773448 -0.013834543936381232 0 -0.00066888685570137471 -0.013776700573921944 0 -0.00039325601111773448 -0.013834543936381232 0 -0.00045244642239469329 -0.013531340419682325 0 -0.00045244642239469329 -0.013531340419682325 0 -0.00024570051496974784 -0.013581141644100571 0 -0.00017465671694862203 -0.013843315777759001 0 -0.00039325601111773448 -0.013834543936381232 0 -0.00045244642239469329 -0.013531340419682325 0 -0.00017465671694862203 -0.013843315777759001 0 -0.00024570051496974784 -0.013581141644100571 0 -3.8406365810286025e-05 -0.013884920287068373 0 -0.000119517418016422 -0.013320228406065129 0 -0.00024570051496974784 -0.013581141644100571 0 -0.00017465671694862203 -0.013843315777759001 0 -3.8406365810286025e-05 -0.013884920287068373 0 -3.8406365810286025e-05 -0.013884920287068373 0 0.00010341754103737499 -0.014042077580323444 0 -0.000119517418016422 -0.013320228406065129 0 -3.8406365810286025e-05 -0.013884920287068373 0 9.423141161448074e-05 -0.014012317330523393 0 0.00010341754103737499 -0.014042077580323444 0 -0.00017800896868251163 -0.014367249658363468 0 -0.00017240646512598065 -0.014403290454602178 0 -0.00017873918057880316 -0.014408258423700889 0 -2.899428749170396e-05 -0.014202182895310698 0 -0.00026195822925274403 -0.014056053287196439 0 -3.8406365810286025e-05 -0.013884920287068373 0 9.423141161448074e-05 -0.014012317330523393 0 -0.00016805787464465279 -0.014058592209343135 0 -0.00017800896868251163 -0.014367249658363468 0 -0.00017240646512598065 -0.014403290454602178 0 -0.00015025910318296372 -0.01441446324146993 0 -0.00039325601111773448 -0.013834543936381232 0 -0.00017465671694862203 -0.013843315777759001 0 -0.00018599838716522828 -0.013958231989419331 0 -0.00017465671694862203 -0.013843315777759001 0 -3.8406365810286025e-05 -0.013884920287068373 0 -0.00016805787464465279 -0.014058592209343135 0 -0.00019135926183540562 -0.01385971978817074 0 -0.00026195822925274403 -0.014056053287196439 0 -0.00026195822925274403 -0.014056053287196439 0 -0.00026782235465754701 -0.014149378295003647 0 -0.00041759792249251447 -0.013791230565355967 0 -0.00039467760057945462 -0.013786742363078683 0 -0.0003955137809898629 -0.013812514452175979 0 -0.00017873918057880316 -0.014408258423700889 0 -0.00016612958810932572 -0.014422460140189308 0 -0.00014026228682703241 -0.014404670530257128 0 -0.00017240646512598065 -0.014403290454602178 0 -0.00017873918057880316 -0.014408258423700889 0 -0.00016612958810932572 -0.014422460140189308 0 -0.00017240646512598065 -0.014403290454602178 0 -0.00016612958810932572 -0.014422460140189308 0 -0.00015025910318296372 -0.01441446324146993 0 -0.00014026228682703241 -0.014404670530257128 0 -0.00018127530521586978 -0.01439833261135679 0 -0.0001850568873574045 -0.014302779025709532 0 -0.00016612958810932572 -0.014422460140189308 0 -0.00014026228682703241 -0.014404670530257128 0 -0.00018127530521586978 -0.01439833261135679 0 -0.00012586244722553798 -0.0144677799508987 0 -7.9254455459542623e-05 -0.01456624118532367 0 -0.00014841613844427716 -0.014448682153236631 0 -0.00016612958810932572 -0.014422460140189308 0 -0.00018127530521586978 -0.01439833261135679 0 -0.00012586244722553798 -0.0144677799508987 0 -0.00018127530521586978 -0.01439833261135679 0 -0.00012586244722553798 -0.0144677799508987 0 -0.00014841613844427716 -0.014448682153236631 0 -0.00016612958810932572 -0.014422460140189308 0 -0.00012586244722553798 -0.0144677799508987 0 -0.00015025910318296372 -0.01441446324146993 0 -0.00012586244722553798 -0.0144677799508987 0 -0.00015025910318296372 -0.01441446324146993 0 -0.00010775922965576203 -0.014392419555236301 0 -0.00012586244722553798 -0.0144677799508987 0 -5.5886096291686206e-05 -0.014415291105124 0 -7.0249648655714764e-05 -0.014491088576124998 0 -0.00012586244722553798 -0.0144677799508987 0 -7.0249648655714764e-05 -0.014491088576124998 0 -7.9254455459542623e-05 -0.01456624118532367 0 -0.00012586244722553798 -0.0144677799508987 0 -5.5886096291686206e-05 -0.014415291105124 0 -0.00010775922965576203 -0.014392419555236301 0 -5.5886096291686206e-05 -0.014415291105124 0 -3.7696390884316058e-05 -0.014247228382517733 0 -1.9619118474297758e-05 -0.014358562562486426 0 -5.5886096291686206e-05 -0.014415291105124 0 -0.00010775922965576203 -0.014392419555236301 0 -3.7696390884316058e-05 -0.014247228382517733 0 -0.00017800896868251163 -0.014367249658363468 0 -0.00010775922965576203 -0.014392419555236301 0 -3.7696390884316058e-05 -0.014247228382517733 0 -0.00017800896868251163 -0.014367249658363468 0 -0.00015025910318296372 -0.01441446324146993 0 -0.00010775922965576203 -0.014392419555236301 0 0.00010341754103737499 -0.014042077580323444 0 -3.7696390884316058e-05 -0.014247228382517733 0 2.8100668481820031e-05 -0.014259500066738819 0 -2.899428749170396e-05 -0.014202182895310698 0 -2.5363421373703234e-05 -0.014224923135523324 0 9.423141161448074e-05 -0.014012317330523393 0 0.00010341754103737499 -0.014042077580323444 0 -3.7696390884316058e-05 -0.014247228382517733 0 0.00010341754103737499 -0.014042077580323444 0 0.00010322921535421489 -0.014234190122459784 0 2.8100668481820031e-05 -0.014259500066738819 0 -3.7696390884316058e-05 -0.014247228382517733 0 -1.9619118474297758e-05 -0.014358562562486426 0 1.5207105869284711e-06 -0.014289850364792862 0 -3.7696390884316058e-05 -0.014247228382517733 0 2.8100668481820031e-05 -0.014259500066738819 0 1.5207105869284711e-06 -0.014289850364792862 0 -1.9619118474297758e-05 -0.014358562562486426 0 2.0526135016953889e-05 -0.014374883960208857 0 -3.6187913811319933e-05 -0.014514314274243515 0 -1.9619118474297758e-05 -0.014358562562486426 0 2.0526135016953889e-05 -0.014374883960208857 0 2.4871963226649669e-05 -0.014317411338454038 0 -1.9619118474297758e-05 -0.014358562562486426 0 1.5207105869284711e-06 -0.014289850364792862 0 2.4871963226649669e-05 -0.014317411338454038 0 2.0526135016953889e-05 -0.014374883960208857 0 8.9747096594416852e-05 -0.014439975559626858 0 6.0301478351642399e-05 -0.014318055849558085 0 2.0526135016953889e-05 -0.014374883960208857 0 -3.6187913811319933e-05 -0.014514314274243515 0 8.9747096594416852e-05 -0.014439975559626858 0 -3.6187913811319933e-05 -0.014514314274243515 0 8.9747096594416852e-05 -0.014439975559626858 0 4.8263711962029061e-05 -0.014794798300567871 0 -5.5886096291686206e-05 -0.014415291105124 0 -3.6187913811319933e-05 -0.014514314274243515 0 -7.0249648655714764e-05 -0.014491088576124998 0 -5.5886096291686206e-05 -0.014415291105124 0 -1.9619118474297758e-05 -0.014358562562486426 0 -3.6187913811319933e-05 -0.014514314274243515 0 4.3899916445106598e-05 -0.014977984535856829 0 -6.6724797459194469e-08 -0.014999810043266641 0 3.2825437563166704e-08 -0.015000045873908239 0 6.0374817886098611e-05 -0.014708107952782398 0 5.3056106396489866e-05 -0.014776832342679217 0 4.3899916445106598e-05 -0.014977984535856829 0 -6.6724797459194469e-08 -0.014999810043266641 0 4.8263711962029061e-05 -0.014794798300567871 0 -6.6724797459194469e-08 -0.014999810043266641 0 4.8263711962029061e-05 -0.014794798300567871 0 1.0295160702374905e-07 -0.014999810333392391 0 -1.0942147338685038e-05 -0.014823539568268762 0 -1.6965405796220612e-05 -0.01468945251326328 0 -4.8527798815268989e-05 -0.014679720479482582 0 4.8263711962029061e-05 -0.014794798300567871 0 -1.0942147338685038e-05 -0.014823539568268762 0 -1.6965405796220612e-05 -0.01468945251326328 0 4.8263711962029061e-05 -0.014794798300567871 0 -1.0942147338685038e-05 -0.014823539568268762 0 1.0295160702374905e-07 -0.014999810333392391 0 -3.6187913811319933e-05 -0.014514314274243515 0 -7.0249648655714764e-05 -0.014491088576124998 0 -7.9254455459542623e-05 -0.01456624118532367 0 -3.6187913811319933e-05 -0.014514314274243515 0 4.8263711962029061e-05 -0.014794798300567871 0 -1.6965405796220612e-05 -0.01468945251326328 0 -3.6187913811319933e-05 -0.014514314274243515 0 -1.6965405796220612e-05 -0.01468945251326328 0 -7.9254455459542623e-05 -0.01456624118532367 0 -1.6965405796220612e-05 -0.01468945251326328 0 -7.9254455459542623e-05 -0.01456624118532367 0 -4.8527798815268989e-05 -0.014679720479482582 0 -7.9254455459542623e-05 -0.01456624118532367 0 -9.0651896905403459e-05 -0.01456218313852947 0 -4.8527798815268989e-05 -0.014679720479482582 0 -7.9254455459542623e-05 -0.01456624118532367 0 -9.0651896905403459e-05 -0.01456218313852947 0 -0.00014841613844427716 -0.014448682153236631 0 -9.0651896905403459e-05 -0.01456218313852947 0 -8.30366279677467e-05 -0.014573405821190386 0 -0.00014841613844427716 -0.014448682153236631 0 -9.0651896905403459e-05 -0.01456218313852947 0 -4.8527798815268989e-05 -0.014679720479482582 0 -8.30366279677467e-05 -0.014573405821190386 0 -4.8527798815268989e-05 -0.014679720479482582 0 -8.30366279677467e-05 -0.014573405821190386 0 -3.3682812703516179e-05 -0.014769353291345112 0 -8.30366279677467e-05 -0.014573405821190386 0 -0.00012981041478140706 -0.01436645933289781 0 -0.00014841613844427716 -0.014448682153236631 0 -1.0942147338685038e-05 -0.014823539568268762 0 -3.3682812703516179e-05 -0.014769353291345112 0 -3.0125136392715479e-07 -0.014999207166182908 0 -1.0942147338685038e-05 -0.014823539568268762 0 1.0295160702374905e-07 -0.014999810333392391 0 -3.0125136392715479e-07 -0.014999207166182908 0 -1.0942147338685038e-05 -0.014823539568268762 0 -4.8527798815268989e-05 -0.014679720479482582 0 -3.3682812703516179e-05 -0.014769353291345112 0 -8.30366279677467e-05 -0.014573405821190386 0 -3.3682812703516179e-05 -0.014769353291345112 0 -5.9680927450956648e-05 -0.014654380605899868 0 -3.3682812703516179e-05 -0.014769353291345112 0 -2.8240038070859786e-05 -0.014781683476729316 0 -5.9680927450956648e-05 -0.014654380605899868 0 -3.0125136392715479e-07 -0.014999207166182908 0 -2.8240038070859786e-05 -0.014781683476729316 0 -5.0254570998325239e-05 -0.014681768222093888 0 -3.3682812703516179e-05 -0.014769353291345112 0 -3.0125136392715479e-07 -0.014999207166182908 0 -2.8240038070859786e-05 -0.014781683476729316 0 -1.0426232768721618e-08 -0.014999929382854119 0 -1.5912061192441941e-05 -0.014843110500966403 0 -2.1961062886089626e-09 -0.01499999905871283 0 3.9351321431873009e-09 -0.015000001184895424 0 8.0258092267103696e-07 -0.015000281939675361 0 -2.8240038070859786e-05 -0.014781683476729316 0 -5.0254570998325239e-05 -0.014681768222093888 0 -5.9680927450956648e-05 -0.014654380605899868 0 -5.0254570998325239e-05 -0.014681768222093888 0 -5.9680927450956648e-05 -0.014654380605899868 0 -4.7390404838534778e-05 -0.014692284284298359 0 -5.9680927450956648e-05 -0.014654380605899868 0 -4.7390404838534778e-05 -0.014692284284298359 0 -7.7607019186154406e-05 -0.014698929593983893 0 -1.3250815186323988e-05 -0.014723705629487873 0 -5.0254570998325239e-05 -0.014681768222093888 0 -4.7390404838534778e-05 -0.014692284284298359 0 9.1292107809278987e-06 -0.014997048034388661 0 -6.968834760348781e-09 -0.015000000834449051 0 8.0258092267103696e-07 -0.015000281939675361 0 -6.968834760348781e-09 -0.015000000834449051 0 3.9351321431873009e-09 -0.015000001184895424 0 8.0258092267103696e-07 -0.015000281939675361 0 -7.3811409491822321e-06 -0.014863080253093641 0 -1.5912061192441941e-05 -0.014843110500966403 0 -0.00012981041478140706 -0.01436645933289781 0 -9.3864688003110125e-05 -0.014455083284807992 0 -0.00010460540245188942 -0.014302354463839753 0 -8.30366279677467e-05 -0.014573405821190386 0 -0.00012981041478140706 -0.01436645933289781 0 -9.3864688003110125e-05 -0.014455083284807992 0 -8.30366279677467e-05 -0.014573405821190386 0 -5.9680927450956648e-05 -0.014654380605899868 0 -9.3864688003110125e-05 -0.014455083284807992 0 -6.6846087565773239e-05 -0.014626859813857085 0 -8.2917965112363974e-05 -0.014533684093050106 0 -5.9680927450956648e-05 -0.014654380605899868 0 -9.3864688003110125e-05 -0.014455083284807992 0 -0.00011483651975638616 -0.014356517801495591 0 -5.1165984827027771e-05 -0.014715342044569152 0 -4.7390404838534778e-05 -0.014692284284298359 0 -7.7607019186154406e-05 -0.014698929593983893 0 -9.3864688003110125e-05 -0.014455083284807992 0 -0.00011483651975638616 -0.014356517801495591 0 -0.00010460540245188942 -0.014302354463839753 0 -0.00015655955111769691 -0.014260110399350311 0 -0.00010460540245188942 -0.014302354463839753 0 -0.00021737972578531582 -0.014143309434918613 0 -0.00012981041478140706 -0.01436645933289781 0 -0.00010460540245188942 -0.014302354463839753 0 -0.00021737972578531582 -0.014143309434918613 0 -0.00012981041478140706 -0.01436645933289781 0 -0.00021390090310104931 -0.014216902145417704 0 -0.00021737972578531582 -0.014143309434918613 0 -0.00021390090310104931 -0.014216902145417704 0 -0.00021737972578531582 -0.014143309434918613 0 -0.0002864896779248782 -0.014027491861727175 0 -0.00021390090310104931 -0.014216902145417704 0 -0.0002864896779248782 -0.014027491861727175 0 -0.00026247346921974324 -0.014117858621227103 0 -0.00021737972578531582 -0.014143309434918613 0 -0.00033159449425079751 -0.014030912318233448 0 -0.0002864896779248782 -0.014027491861727175 0 -0.00015655955111769691 -0.014260110399350311 0 -0.00021737972578531582 -0.014143309434918613 0 -0.00033159449425079751 -0.014030912318233448 0 -0.0006069483343499343 -0.013835321996895581 0 -0.00033159449425079751 -0.014030912318233448 0 -0.00040352306172680388 -0.013862829413121691 0 -0.00033159449425079751 -0.014030912318233448 0 -0.00040352306172680388 -0.013862829413121691 0 -0.0002864896779248782 -0.014027491861727175 0 -0.0006069483343499343 -0.013835321996895581 0 -0.00056136024929659227 -0.013706098163687558 0 -0.00040352306172680388 -0.013862829413121691 0 -0.00056136024929659227 -0.013706098163687558 0 -0.00040352306172680388 -0.013862829413121691 0 -0.00034778116967273243 -0.013759214154696803 0 -0.00034778116967273243 -0.013759214154696803 0 -0.00026506292260833434 -0.014010283610533452 0 -8.1835905244384652e-05 -0.014247382640380718 0 -0.00040352306172680388 -0.013862829413121691 0 -0.00034778116967273243 -0.013759214154696803 0 -0.00031728171428075118 -0.013934144090911033 0 -0.00034778116967273243 -0.013759214154696803 0 -0.00026506292260833434 -0.014010283610533452 0 -0.00031728171428075118 -0.013934144090911033 0 -0.00040352306172680388 -0.013862829413121691 0 -0.0002864896779248782 -0.014027491861727175 0 -0.00031728171428075118 -0.013934144090911033 0 -0.00026506292260833434 -0.014010283610533452 0 -0.00031728171428075118 -0.013934144090911033 0 -0.00026247346921974324 -0.014117858621227103 0 -0.0002864896779248782 -0.014027491861727175 0 -0.00031728171428075118 -0.013934144090911033 0 -0.00026247346921974324 -0.014117858621227103 0 -0.00026247346921974324 -0.014117858621227103 0 -0.00022581015131151427 -0.01418863630441318 0 -0.00021197961422843721 -0.014285677552630559 0 -0.00026506292260833434 -0.014010283610533452 0 -0.00026247346921974324 -0.014117858621227103 0 -0.00022581015131151427 -0.01418863630441318 0 -0.00022581015131151427 -0.01418863630441318 0 -0.00012696252165257061 -0.014203251363109336 0 -0.0001850568873574045 -0.014302779025709532 0 -0.00022581015131151427 -0.01418863630441318 0 -0.0001850568873574045 -0.014302779025709532 0 -0.00021197961422843721 -0.014285677552630559 0 -0.00031034120528879372 -0.013764173031340803 0 -0.00029813960085282398 -0.013860906419615061 0 -0.00053186364806677802 -0.013443239371044333 0 -0.00034778116967273243 -0.013759214154696803 0 -0.0003830118347736301 -0.013325489103272008 0 -0.00019716439156935954 -0.014113204498428561 0 -0.00029813960085282398 -0.013860906419615061 0 -0.00026506292260833434 -0.014010283610533452 0 -0.00022581015131151427 -0.01418863630441318 0 -0.00012696252165257061 -0.014203251363109336 0 -0.00057689892812344372 -0.013268229243694345 0 -0.00053186364806677802 -0.013443239371044333 0 -0.0003830118347736301 -0.013325489103272008 0 -0.00057689892812344372 -0.013268229243694345 0 -0.00057082652886537768 -0.013153511081983345 0 -0.0003830118347736301 -0.013325489103272008 0 -0.00040700132472076806 -0.01381517054259852 0 -0.0003955137809898629 -0.013812514452175979 0 -0.0003938729953431855 -0.013840496466407629 0 -0.00026782235465754701 -0.014149378295003647 0 -0.00029813960085282398 -0.013860906419615061 0 -0.00014026228682703241 -0.014404670530257128 0 -0.00012696252165257061 -0.014203251363109336 0 -0.0001850568873574045 -0.014302779025709532 0 -0.00050224997104880958 -0.013415318017013872 0 -0.00029813960085282398 -0.013860906419615061 0 -0.00018127530521586978 -0.01439833261135679 0 -0.0001850568873574045 -0.014302779025709532 0 -0.00021197961422843721 -0.014285677552630559 0 -0.00018127530521586978 -0.01439833261135679 0 -0.00014841613844427716 -0.014448682153236631 0 -0.00021197961422843721 -0.014285677552630559 0 -0.00012981041478140706 -0.01436645933289781 0 -0.00021390090310104931 -0.014216902145417704 0 -0.00014841613844427716 -0.014448682153236631 0 -0.00021390090310104931 -0.014216902145417704 0 -0.00014841613844427716 -0.014448682153236631 0 -0.00021197961422843721 -0.014285677552630559 0 -0.00021390090310104931 -0.014216902145417704 0 -0.00026247346921974324 -0.014117858621227103 0 -0.00021197961422843721 -0.014285677552630559 0 0.0002524952866036567 -0.0028458324179902934 0 -0.00020809286831179326 -0.0026389810419282767 0 0.00054440855710340607 -0.0024371272936790337 0 0.0002524952866036567 -0.0028458324179902934 0 0.00067121804965259455 -0.0027706745935549963 0 0.00054440855710340607 -0.0024371272936790337 0 -0.00030523849268995957 -0.0023150028466504785 0 0.00046699167757913596 -0.0026219447523480291 0 0.00094955594428677457 -0.0025485827647605342 0 0.00067121804965259455 -0.0027706745935549963 0 0.0011250868427421842 -0.0030266014590454053 0 0.00094955594428677457 -0.0025485827647605342 0 0.00067121804965259455 -0.0027706745935549963 0 0.00054440855710340607 -0.0024371272936790337 0 0.00057504249838537681 -0.0030873493140392374 0 0.0013212137551873765 -0.002763382455699564 0 0.0010168766528407583 -0.0034176901261318694 0 0.00067121804965259455 -0.0027706745935549963 0 0.00057504249838537681 -0.0030873493140392374 0 0.0011250868427421842 -0.0030266014590454053 0 0.00063382746649334309 -0.0030597867227974145 0 0.0012267899607072874 -0.0029110678234156805 0 0.0002524952866036567 -0.0028458324179902934 0 0.00067121804965259455 -0.0027706745935549963 0 0.00057504249838537681 -0.0030873493140392374 0 0.0002524952866036567 -0.0028458324179902934 0 0.00057504249838537681 -0.0030873493140392374 0 5.323600753980878e-05 -0.0032635232330300631 0 0.00057504249838537681 -0.0030873493140392374 0 5.323600753980878e-05 -0.0032635232330300631 0 0.0003528077036467521 -0.0035839816319370998 0 5.323600753980878e-05 -0.0032635232330300631 0 -0.0004310176083311493 -0.0031680968719760608 0 -0.00043692529031287336 -0.003555736146750494 0 5.323600753980878e-05 -0.0032635232330300631 0 -8.0183358906394216e-05 -0.0029793983069289634 0 -0.0004310176083311493 -0.0031680968719760608 0 -8.0183358906394216e-05 -0.0029793983069289634 0 -0.0004310176083311493 -0.0031680968719760608 0 -0.00020809286831179326 -0.0026389810419282767 0 0.0002524952866036567 -0.0028458324179902934 0 5.323600753980878e-05 -0.0032635232330300631 0 -8.0183358906394216e-05 -0.0029793983069289634 0 -0.0004310176083311493 -0.0031680968719760608 0 -0.00076723639513677456 -0.0030951093573363779 0 -0.00020809286831179326 -0.0026389810419282767 0 -0.00071855155607110756 -0.0033369566523250207 0 -0.0004310176083311493 -0.0031680968719760608 0 -0.00076723639513677456 -0.0030951093573363779 0 -0.00071855155607110756 -0.0033369566523250207 0 -0.0004310176083311493 -0.0031680968719760608 0 -0.00043692529031287336 -0.003555736146750494 0 -0.00082841586891403175 -0.0028200928270677886 0 -0.00039728055265220429 -0.0030320294456125108 0 -0.0014764222871118679 -0.0035584220553325436 0 -0.00030523849268995957 -0.0023150028466504785 0 -0.00075614000605751515 -0.0066595636990399313 0 -0.00076723639513677456 -0.0030951093573363779 0 -0.00020809286831179326 -0.0026389810419282767 0 -0.0010414794683189196 -0.0029858920183017095 0 -0.00082841586891403175 -0.0028200928270677886 0 -0.0014764222871118679 -0.0035584220553325436 0 -0.0012024457309308581 -0.0027463220788943726 0 0.0002524952866036567 -0.0028458324179902934 0 -8.0183358906394216e-05 -0.0029793983069289634 0 -0.00020809286831179326 -0.0026389810419282767 0 -0.00039728055265220429 -0.0030320294456125108 0 -0.00054963825737179106 -0.0025426196496034733 0 8.4019773484078473e-05 -0.0024586198978562984 0 -0.00054963825737179106 -0.0025426196496034733 0 -0.00081300652584487417 -0.0020572838595258815 0 8.4019773484078473e-05 -0.0024586198978562984 0 -0.0006525572005172905 -0.0020141108639359639 0 -0.00020059648008294371 -0.0021092683105723648 0 8.4019773484078473e-05 -0.0024586198978562984 0 -0.00089566629830399559 -0.0036186006761804849 0 -3.8051411269752984e-06 -0.0019776522056168199 0 -0.00085516472572511179 -0.0024222902504807777 0 -0.00090779494727239482 -0.0020014034495788808 0 -0.0012024457309308581 -0.0027463220788943726 0 8.9025483760827914e-05 -0.0065078067074884902 0 -0.0009651613333156782 -0.0078266965354085085 0 -0.00082841586891403175 -0.0028200928270677886 0 -0.00085516472572511179 -0.0024222902504807777 0 -0.0012024457309308581 -0.0027463220788943726 0 -0.00082841586891403175 -0.0028200928270677886 0 -0.00039728055265220429 -0.0030320294456125108 0 -0.00054963825737179106 -0.0025426196496034733 0 -0.00082841586891403175 -0.0028200928270677886 0 -0.00054963825737179106 -0.0025426196496034733 0 -0.00085516472572511179 -0.0024222902504807777 0 -0.00054963825737179106 -0.0025426196496034733 0 -0.00085516472572511179 -0.0024222902504807777 0 -0.00081300652584487417 -0.0020572838595258815 0 -0.00085516472572511179 -0.0024222902504807777 0 -0.00090779494727239482 -0.0020014034495788808 0 -0.00081300652584487417 -0.0020572838595258815 0 8.9025483760827914e-05 -0.0065078067074884902 0 -0.00089566629830399559 -0.0036186006761804849 0 -0.00071648500185408838 -0.0019916767208246937 0 -0.00063455075956194275 -0.0020353573805592137 0 -0.00061730705848909225 -0.0016992152692179689 0 -0.00063455075956194275 -0.0020353573805592137 0 -0.00028690169377098201 -0.0018087936523428149 0 -0.00061730705848909225 -0.0016992152692179689 0 8.9025483760827914e-05 -0.0065078067074884902 0 0.0005248020646446734 -0.0042200601053847342 0 0.00045769421101289425 -0.0057809334129508413 0 0.00059396980878974315 -0.0053876818701257025 0 0.00052285104103707701 -0.0054184330318498833 0 -0.00063455075956194275 -0.0020353573805592137 0 -0.00020059648008294371 -0.0021092683105723648 0 -0.00028690169377098201 -0.0018087936523428149 0 -0.00089566629830399559 -0.0036186006761804849 0 -0.00032145128958636172 -0.0022434461194580182 0 -0.00020059648008294371 -0.0021092683105723648 0 -0.00028690169377098201 -0.0018087936523428149 0 8.9254511469459176e-05 -0.001823108664344279 0 -0.00020059648008294371 -0.0021092683105723648 0 8.9254511469459176e-05 -0.001823108664344279 0 0.00029010436112737422 -0.0021448177665145396 0 8.9254511469459176e-05 -0.001823108664344279 0 0.00040020598274065474 -0.0018901138536024035 0 0.00042179455021239449 -0.0016093866180218273 0 0.00040020598274065474 -0.0018901138536024035 0 0.00029010436112737422 -0.0021448177665145396 0 0.00059509739025881934 -0.0020531748671096329 0 8.9254511469459176e-05 -0.001823108664344279 0 0.00040020598274065474 -0.0018901138536024035 0 0.00029010436112737422 -0.0021448177665145396 0 -0.00039728055265220429 -0.0030320294456125108 0 8.4019773484078473e-05 -0.0024586198978562984 0 0.00054440855710340607 -0.0024371272936790337 0 -0.00020059648008294371 -0.0021092683105723648 0 0.00029010436112737422 -0.0021448177665145396 0 8.4019773484078473e-05 -0.0024586198978562984 0 0.00029010436112737422 -0.0021448177665145396 0 0.00054440855710340607 -0.0024371272936790337 0 0.00059509739025881934 -0.0020531748671096329 0 0.00029010436112737422 -0.0021448177665145396 0 8.4019773484078473e-05 -0.0024586198978562984 0 0.00054440855710340607 -0.0024371272936790337 0 0.00094955594428677457 -0.0025485827647605342 0 0.00054440855710340607 -0.0024371272936790337 0 0.00088474851169667937 -0.0021555381171686162 0 0.00054440855710340607 -0.0024371272936790337 0 0.00088474851169667937 -0.0021555381171686162 0 0.00059509739025881934 -0.0020531748671096329 0 0.00088474851169667937 -0.0021555381171686162 0 0.00059509739025881934 -0.0020531748671096329 0 0.00072750711379169206 -0.0017214292693412507 0 0.00040020598274065474 -0.0018901138536024035 0 0.00059509739025881934 -0.0020531748671096329 0 0.00072750711379169206 -0.0017214292693412507 0 0.00040020598274065474 -0.0018901138536024035 0 0.00072750711379169206 -0.0017214292693412507 0 0.00042179455021239449 -0.0016093866180218273 0 0.00088474851169667937 -0.0021555381171686162 0 0.00072750711379169206 -0.0017214292693412507 0 0.0010519967344056306 -0.0017675947841429985 0 0.0010519967344056306 -0.0017675947841429985 0 0.0014722707300409287 -0.0018005821963060125 0 0.0012008256982682084 -0.002226561504909714 0 0.00088474851169667937 -0.0021555381171686162 0 0.0010519967344056306 -0.0017675947841429985 0 0.0012008256982682084 -0.002226561504909714 0 0.0010519967344056306 -0.0017675947841429985 0 0.0014722707300409287 -0.0018005821963060125 0 0.0013137652195246996 -0.0014543855339953623 0 0.0014722707300409287 -0.0018005821963060125 0 0.0015326241585382633 -0.0021708216451461287 0 0.0019321880008448065 -0.0018280326098442411 0 0.0014722707300409287 -0.0018005821963060125 0 0.0019321880008448065 -0.0018280326098442411 0 0.0018874033598907734 -0.0013933081779396892 0 0.0014722707300409287 -0.0018005821963060125 0 0.0015326241585382633 -0.0021708216451461287 0 0.0012008256982682084 -0.002226561504909714 0 0.0015326241585382633 -0.0021708216451461287 0 0.0019670256160408016 -0.0025131361630236944 0 0.0016477767145580253 -0.0025510554322718624 0 0.0015326241585382633 -0.0021708216451461287 0 0.0013583758805026556 -0.002609586352739896 0 0.0016477767145580253 -0.0025510554322718624 0 0.00094955594428677457 -0.0025485827647605342 0 0.0012008256982682084 -0.002226561504909714 0 0.0013583758805026556 -0.002609586352739896 0 0.0015326241585382633 -0.0021708216451461287 0 0.0012008256982682084 -0.002226561504909714 0 0.0013583758805026556 -0.002609586352739896 0 0.00094955594428677457 -0.0025485827647605342 0 0.00088474851169667937 -0.0021555381171686162 0 0.0012008256982682084 -0.002226561504909714 0 0.0023734654634474739 -0.00079216556182226368 0 0.0022242526383767945 -0.0010521819605021172 0 0.0025357597205684663 -0.0010239298364086858 0 0.0023891848183334738 -0.00054732265282806205 0 0.0021864490659391587 -0.0017743254392168031 0 0.0015326241585382633 -0.0021708216451461287 0 0.0019321880008448065 -0.0018280326098442411 0 0.0022818394650022666 -0.0021105564059266777 0 0.002530542068626252 -0.0016728975501630857 0 0.0019321880008448065 -0.0018280326098442411 0 0.0022818394650022666 -0.0021105564059266777 0 0.0015326241585382633 -0.0021708216451461287 0 0.0020991718542069642 -0.0022197222135133827 0 0.0021953866882929328 -0.002118450735596215 0 0.0015879547622980373 -0.0022407563035856974 0 0.0021864490659391587 -0.0017743254392168031 0 0.0015326241585382633 -0.0021708216451461287 0 0.0019670256160408016 -0.0025131361630236944 0 0.0020991718542069642 -0.0022197222135133827 0 0.0020054006882392426 -0.002159182725249256 0 0.0021864490659391587 -0.0017743254392168031 0 0.0020531512444587063 -0.0017882461643979367 0 0.002268520775374335 -0.0014228077917574438 0 0.0022982806060574163 -0.0017380403512973458 0 0.0019670256160408016 -0.0025131361630236944 0 0.0020991718542069642 -0.0022197222135133827 0 0.0021969796491457419 -0.0021172579928526052 0 0.0020789186489641206 -0.0019709816486554268 0 0.0021864490659391587 -0.0017743254392168031 0 0.0021864490659391587 -0.0017743254392168031 0 0.002658364679800167 -0.0012089404328072192 0 0.002268520775374335 -0.0014228077917574438 0 0.0025321721824580219 -0.0016962244415696993 0 0.0027103670157358111 -0.0013924274968231502 0 0.002268520775374335 -0.0014228077917574438 0 0.0022982806060574163 -0.0017380403512973458 0 0.0025321721824580219 -0.0016962244415696993 0 0.0025321721824580219 -0.0016962244415696993 0 0.0023396949421963581 -0.0020484092369802763 0 0.0028417278783353459 -0.0019376455582511005 0 0.0024525423191695478 -0.0021062831848550107 0 0.0028113580878107109 -0.0019701315350452056 0 0.0024927407901190455 -0.0022002661205296624 0 0.0026319843730523615 -0.0024713607374285216 0 0.0028417278783353459 -0.0019376455582511005 0 0.0022982806060574163 -0.0017380403512973458 0 0.0025321721824580219 -0.0016962244415696993 0 0.0023396949421963581 -0.0020484092369802763 0 0.0024927407901190455 -0.0022002661205296624 0 0.0022574830623510529 -0.0025310124433305277 0 0.0020593366516844097 -0.0024828176761120288 0 0.0020531512444587063 -0.0017882461643979367 0 0.0023396949421963581 -0.0020484092369802763 0 0.0018386793744031142 -0.0021596970857399741 0 0.0024525423191695478 -0.0021062831848550107 0 0.0018840310644160335 -0.0024974391883003625 0 0.0020531512444587063 -0.0017882461643979367 0 0.0022982806060574163 -0.0017380403512973458 0 0.0023396949421963581 -0.0020484092369802763 0 0.0020054006882392426 -0.002159182725249256 0 0.0018840310644160335 -0.0024974391883003625 0 0.0022574830623510529 -0.0025310124433305277 0 0.0026319843730523615 -0.0024713607374285216 0 0.002039684227740281 -0.0028221767571384106 0 0.0029780151585192941 -0.0031728273241336635 0 0.002039684227740281 -0.0028221767571384106 0 0.0023279147555117881 -0.0032070527989879805 0 0.0027881544218785474 -0.0028412723402517115 0 0.0020391342897965003 -0.0028041039947493303 0 0.0024927407901190455 -0.0022002661205296624 0 0.0022574830623510529 -0.0025310124433305277 0 0.0026319843730523615 -0.0024713607374285216 0 0.00094955594428677457 -0.0025485827647605342 0 0.0013583758805026556 -0.002609586352739896 0 0.0011250868427421842 -0.0030266014590454053 0 0.0013583758805026556 -0.002609586352739896 0 0.0017320690696351539 -0.0029138957149884679 0 0.0011250868427421842 -0.0030266014590454053 0 0.0013583758805026556 -0.002609586352739896 0 0.0016477767145580253 -0.0025510554322718624 0 0.0017320690696351539 -0.0029138957149884679 0 0.0019670256160408016 -0.0025131361630236944 0 0.0016477767145580253 -0.0025510554322718624 0 0.0017320690696351539 -0.0029138957149884679 0 0.0018840310644160335 -0.0024974391883003625 0 0.0012267899607072874 -0.0029110678234156805 0 0.0016656176630787754 -0.002850368327729929 0 0.0020032414575332476 -0.0026400175848753371 0 0.002039684227740281 -0.0028221767571384106 0 0.0020926730416458567 -0.0024716334473888759 0 0.0016656176630787754 -0.002850368327729929 0 0.0013212137551873765 -0.002763382455699564 0 0.0020926730416458567 -0.0024716334473888759 0 0.0016656176630787754 -0.002850368327729929 0 0.0020032414575332476 -0.0026400175848753371 0 0.0022574830623510529 -0.0025310124433305277 0 0.0020032414575332476 -0.0026400175848753371 0 0.002039684227740281 -0.0028221767571384106 0 0.0022574830623510529 -0.0025310124433305277 0 0.0020593366516844097 -0.0024828176761120288 0 0.0020032414575332476 -0.0026400175848753371 0 0.0018840310644160335 -0.0024974391883003625 0 0.0019161814163267136 -0.0025151095683348134 0 0.002039684227740281 -0.0028221767571384106 0 0.0019087960949094789 -0.0030862663913028029 0 0.0023279147555117881 -0.0032070527989879805 0 0.0016656176630787754 -0.002850368327729929 0 0.002039684227740281 -0.0028221767571384106 0 0.0019087960949094789 -0.0030862663913028029 0 0.0016656176630787754 -0.002850368327729929 0 0.0019087960949094789 -0.0030862663913028029 0 0.0015685143377109332 -0.0032511016987630489 0 0.0016656176630787754 -0.002850368327729929 0 0.0013212137551873765 -0.002763382455699564 0 0.0015685143377109332 -0.0032511016987630489 0 0.0013212137551873765 -0.002763382455699564 0 0.0015685143377109332 -0.0032511016987630489 0 0.0010168766528407583 -0.0034176901261318694 0 0.0015685143377109332 -0.0032511016987630489 0 0.0013869141929849669 -0.0037891233469845216 0 0.0010168766528407583 -0.0034176901261318694 0 0.0015685143377109332 -0.0032511016987630489 0 0.0018055754033695001 -0.0035924798971517747 0 0.0013869141929849669 -0.0037891233469845216 0 0.0015685143377109332 -0.0032511016987630489 0 0.0019545582220703334 -0.003330930426567937 0 0.0018055754033695001 -0.0035924798971517747 0 0.0019087960949094789 -0.0030862663913028029 0 0.0015685143377109332 -0.0032511016987630489 0 0.0019545582220703334 -0.003330930426567937 0 0.0019087960949094789 -0.0030862663913028029 0 0.0019545582220703334 -0.003330930426567937 0 0.0023279147555117881 -0.0032070527989879805 0 0.0019545582220703334 -0.003330930426567937 0 0.0021247438788196782 -0.0036620747673209489 0 0.0018055754033695001 -0.0035924798971517747 0 0.0019545582220703334 -0.003330930426567937 0 0.0021247438788196782 -0.0036620747673209489 0 0.0022950763292091964 -0.0034764809143503937 0 0.0018055754033695001 -0.0035924798971517747 0 0.0019892380289642116 -0.0039649216098332539 0 0.0013869141929849669 -0.0037891233469845216 0 0.0021247438788196782 -0.0036620747673209489 0 0.0019892380289642116 -0.0039649216098332539 0 0.0024458382508156799 -0.003830566307484263 0 0.0021247438788196782 -0.0036620747673209489 0 0.0018055754033695001 -0.0035924798971517747 0 0.0019892380289642116 -0.0039649216098332539 0 0.0019892380289642116 -0.0039649216098332539 0 0.0022740623255524052 -0.0041399869160413869 0 0.0020726639895603657 -0.0044492879853035546 0 0.0019892380289642116 -0.0039649216098332539 0 0.0013869141929849669 -0.0037891233469845216 0 0.0014771856457069341 -0.0043045559989366858 0 0.0013869141929849669 -0.0037891233469845216 0 0.0014771856457069341 -0.0043045559989366858 0 0.00090049963161051554 -0.0043564020996654093 0 0.0029780151585192941 -0.0031728273241336635 0 0.0027535243708777879 -0.0034791702170953085 0 0.0023279147555117881 -0.0032070527989879805 0 0.0029780151585192941 -0.0031728273241336635 0 0.0027535243708777879 -0.0034791702170953085 0 0.0031798685868894986 -0.0037300959550601218 0 0.0027535243708777879 -0.0034791702170953085 0 0.0022950763292091964 -0.0034764809143503937 0 0.0024458382508156799 -0.003830566307484263 0 0.0027535243708777879 -0.0034791702170953085 0 0.0023279147555117881 -0.0032070527989879805 0 0.0022950763292091964 -0.0034764809143503937 0 0.0019545582220703334 -0.003330930426567937 0 0.0023279147555117881 -0.0032070527989879805 0 0.0022950763292091964 -0.0034764809143503937 0 0.0021247438788196782 -0.0036620747673209489 0 0.0022950763292091964 -0.0034764809143503937 0 0.0024458382508156799 -0.003830566307484263 0 0.0024458382508156799 -0.003830566307484263 0 0.0022740623255524052 -0.0041399869160413869 0 0.0025768256551243871 -0.0043155525642252961 0 0.0024458382508156799 -0.003830566307484263 0 0.0027899876107511431 -0.0039577644904314618 0 0.0025768256551243871 -0.0043155525642252961 0 0.0027535243708777879 -0.0034791702170953085 0 0.0024458382508156799 -0.003830566307484263 0 0.0027899876107511431 -0.0039577644904314618 0 0.0019892380289642116 -0.0039649216098332539 0 0.0024458382508156799 -0.003830566307484263 0 0.0022740623255524052 -0.0041399869160413869 0 0.0027535243708777879 -0.0034791702170953085 0 0.0027899876107511431 -0.0039577644904314618 0 0.0031798685868894986 -0.0037300959550601218 0 0.0027899876107511431 -0.0039577644904314618 0 0.0029681292445111773 -0.004444093342895656 0 0.0031798685868894986 -0.0037300959550601218 0 0.0027899876107511431 -0.0039577644904314618 0 0.0029681292445111773 -0.004444093342895656 0 0.0025768256551243871 -0.0043155525642252961 0 0.0029681292445111773 -0.004444093342895656 0 0.0025768256551243871 -0.0043155525642252961 0 0.0027779593047493655 -0.0046509080252743447 0 0.0025768256551243871 -0.0043155525642252961 0 0.0025896704892779117 -0.0047830705306933265 0 0.0027779593047493655 -0.0046509080252743447 0 0.0022740623255524052 -0.0041399869160413869 0 0.0025768256551243871 -0.0043155525642252961 0 0.0020726639895603657 -0.0044492879853035546 0 0.0025768256551243871 -0.0043155525642252961 0 0.0025896704892779117 -0.0047830705306933265 0 0.0020726639895603657 -0.0044492879853035546 0 0.0025896704892779117 -0.0047830705306933265 0 0.0020726639895603657 -0.0044492879853035546 0 0.0020395033705396851 -0.0051984916229271547 0 0.0025896704892779117 -0.0047830705306933265 0 0.0020395033705396851 -0.0051984916229271547 0 0.0025917665693661308 -0.0053660967210305719 0 0.0025896704892779117 -0.0047830705306933265 0 0.0031365976365730526 -0.0053270915483286559 0 0.0025917665693661308 -0.0053660967210305719 0 0.0028765383681789067 -0.0049134306089936627 0 0.0033726453370482739 -0.0043587614080268251 0 0.002924635695765745 -0.0050270562657490567 0 0.0029681292445111773 -0.004444093342895656 0 0.0028765383681789067 -0.0049134306089936627 0 0.0033726453370482739 -0.0043587614080268251 0 0.0029681292445111773 -0.004444093342895656 0 0.0027779593047493655 -0.0046509080252743447 0 0.0028765383681789067 -0.0049134306089936627 0 0.0025896704892779117 -0.0047830705306933265 0 0.0027779593047493655 -0.0046509080252743447 0 0.0028765383681789067 -0.0049134306089936627 0 0.0025896704892779117 -0.0047830705306933265 0 0.0028765383681789067 -0.0049134306089936627 0 0.0028765383441899557 -0.0049503279938381828 0 0.0027005045147117956 -0.0048647966361151807 0 0.0029803517511338288 -0.0048173966114697809 0 0.0029744232839929285 -0.0048367199048642345 0 0.0029803517511338288 -0.0048173966114697809 0 0.0014771856457069341 -0.0043045559989366858 0 0.0011050164128910045 -0.0048511723306606542 0 0.00090049963161051554 -0.0043564020996654093 0 0.0014771856457069341 -0.0043045559989366858 0 0.0016222909145169879 -0.0048364650883055129 0 0.0011050164128910045 -0.0048511723306606542 0 0.0014771856457069341 -0.0043045559989366858 0 0.0020726639895603657 -0.0044492879853035546 0 0.0016222909145169879 -0.0048364650883055129 0 0.0019892380289642116 -0.0039649216098332539 0 0.0014771856457069341 -0.0043045559989366858 0 0.0020726639895603657 -0.0044492879853035546 0 0.0020395033705396851 -0.0051984916229271547 0 0.001426549579256904 -0.005391143850656031 0 0.0016222909145169879 -0.0048364650883055129 0 0.0020726639895603657 -0.0044492879853035546 0 0.0020395033705396851 -0.0051984916229271547 0 0.0016222909145169879 -0.0048364650883055129 0 0.001426549579256904 -0.005391143850656031 0 0.0016222909145169879 -0.0048364650883055129 0 0.0011050164128910045 -0.0048511723306606542 0 0.001426549579256904 -0.005391143850656031 0 0.0011050164128910045 -0.0048511723306606542 0 0.00076306484827433211 -0.0055930134971402179 0 0.0011050164128910045 -0.0048511723306606542 0 0.00044869768475878512 -0.0046982502822639372 0 0.00076306484827433211 -0.0055930134971402179 0 0.00014898906320196296 -0.0053021175274346848 0 0.00044869768475878512 -0.0046982502822639372 0 0.00076306484827433211 -0.0055930134971402179 0 0.00044869768475878512 -0.0046982502822639372 0 0.00033538115473396646 -0.0041121091244474004 0 -0.00011354662649355613 -0.0044371250184872136 0 0.00044869768475878512 -0.0046982502822639372 0 0.00090049963161051554 -0.0043564020996654093 0 0.00033538115473396646 -0.0041121091244474004 0 0.00014898906320196296 -0.0053021175274346848 0 0.00044869768475878512 -0.0046982502822639372 0 -0.00011354662649355613 -0.0044371250184872136 0 0.0011050164128910045 -0.0048511723306606542 0 0.00044869768475878512 -0.0046982502822639372 0 0.00090049963161051554 -0.0043564020996654093 0 0.0013869141929849669 -0.0037891233469845216 0 0.00090049963161051554 -0.0043564020996654093 0 0.00075512428882187649 -0.0038701499266104084 0 0.00090049963161051554 -0.0043564020996654093 0 0.00075512428882187649 -0.0038701499266104084 0 0.00033538115473396646 -0.0041121091244474004 0 0.00075512428882187649 -0.0038701499266104084 0 0.00033538115473396646 -0.0041121091244474004 0 0.0003528077036467521 -0.0035839816319370998 0 0.00033538115473396646 -0.0041121091244474004 0 0.0003528077036467521 -0.0035839816319370998 0 -8.0912777480891435e-05 -0.0038133141510044025 0 5.323600753980878e-05 -0.0032635232330300631 0 0.0003528077036467521 -0.0035839816319370998 0 -8.0912777480891435e-05 -0.0038133141510044025 0 0.00057504249838537681 -0.0030873493140392374 0 0.0003528077036467521 -0.0035839816319370998 0 0.0010168766528407583 -0.0034176901261318694 0 0.00075512428882187649 -0.0038701499266104084 0 0.0003528077036467521 -0.0035839816319370998 0 0.0010168766528407583 -0.0034176901261318694 0 0.0013869141929849669 -0.0037891233469845216 0 0.00075512428882187649 -0.0038701499266104084 0 0.0010168766528407583 -0.0034176901261318694 0 -0.00043692529031287336 -0.003555736146750494 0 -0.00045181558743981906 -0.0039824306679357973 0 -0.00085914333416630881 -0.0036976629608039885 0 -0.00071855155607110756 -0.0033369566523250207 0 -0.00043692529031287336 -0.003555736146750494 0 -0.00085914333416630881 -0.0036976629608039885 0 5.323600753980878e-05 -0.0032635232330300631 0 -0.00043692529031287336 -0.003555736146750494 0 -8.0912777480891435e-05 -0.0038133141510044025 0 -0.00043692529031287336 -0.003555736146750494 0 -8.0912777480891435e-05 -0.0038133141510044025 0 -0.00045181558743981906 -0.0039824306679357973 0 -8.0912777480891435e-05 -0.0038133141510044025 0 -0.00045181558743981906 -0.0039824306679357973 0 -0.00011354662649355613 -0.0044371250184872136 0 0.00033538115473396646 -0.0041121091244474004 0 -8.0912777480891435e-05 -0.0038133141510044025 0 -0.00011354662649355613 -0.0044371250184872136 0 -0.00070055430663753875 -0.0053343945581151558 0 -0.00099956563327647878 -0.0041601604276005075 0 -0.00045181558743981906 -0.0039824306679357973 0 -0.00069952079883506496 -0.004437768743848252 0 -0.00085914333416630881 -0.0036976629608039885 0 -0.00045181558743981906 -0.0039824306679357973 0 -0.00069952079883506496 -0.004437768743848252 0 -0.00011354662649355613 -0.0044371250184872136 0 -0.00079357839938439109 -0.0058750530740312246 0 -0.00090424350766398149 -0.0061318125744690647 0 -0.00077377991194022347 -0.0059479667804787518 0 -0.00069952079883506496 -0.004437768743848252 0 -0.00011354662649355613 -0.0044371250184872136 0 -0.0005041313807443757 -0.0052935865091387896 0 -0.00070055430663753875 -0.0053343945581151558 0 -0.00052279272567980846 -0.0055932368144180752 0 0.00014898906320196296 -0.0053021175274346848 0 -0.00011354662649355613 -0.0044371250184872136 0 -0.0005041313807443757 -0.0052935865091387896 0 -0.00079357839938439109 -0.0058750530740312246 0 -0.00054897332536662656 -0.0059082737432685781 0 -0.00081096239292148781 -0.0058865701769083125 0 -0.0010187020716409074 -0.0067385456334139796 0 -0.0010685619701569528 -0.0065858140045724246 0 -0.0011472719593824897 -0.0067238485169377723 0 -0.0010187020716409074 -0.0067385456334139796 0 -0.0010685619701569528 -0.0065858140045724246 0 -0.00095916006913685718 -0.0064504988646288154 0 -0.00091496662112573431 -0.0063151756347307872 0 -0.00087736014795937944 -0.006196191138781346 0 -0.00079357839938439109 -0.0058750530740312246 0 -0.00081096239292148781 -0.0058865701769083125 0 -0.00077377991194022347 -0.0059479667804787518 0 -0.0010685619701569528 -0.0065858140045724246 0 -0.0012300950973194403 -0.0066250970948063988 0 -0.0010494454352533 -0.0062954935132371473 0 -0.0010685619701569528 -0.0065858140045724246 0 -0.0012300950973194403 -0.0066250970948063988 0 -0.0011472719593824897 -0.0067238485169377723 0 -0.0012300950973194403 -0.0066250970948063988 0 -0.0013496420732380947 -0.0069122582732236036 0 -0.001220693556448083 -0.0068389902213364939 0 -0.0010187020716409074 -0.0067385456334139796 0 -0.0011472719593824897 -0.0067238485169377723 0 -0.001220693556448083 -0.0068389902213364939 0 -0.0012300950973194403 -0.0066250970948063988 0 -0.0011472719593824897 -0.0067238485169377723 0 -0.001220693556448083 -0.0068389902213364939 0 -0.00062671910018456179 -0.012635181707030794 0 -0.00066810455848937149 -0.012681518040352922 0 -0.00062855845823386121 -0.012695196059482711 0 -0.00051538813893441538 -0.012851331589969506 0 -0.00083697229260042225 -0.010390473583888704 0 -0.00066835595411478873 -0.012454772995272168 0 -0.00060309905894604993 -0.012385526651289325 0 -0.00064998996439575413 -0.012243622873973447 0 -0.00094027030047238004 -0.0093219256820456734 0 -0.00083697229260042225 -0.010390473583888704 0 -0.00062671910018456179 -0.012635181707030794 0 -0.00070981449856801317 -0.012644777800379467 0 -0.00066810455848937149 -0.012681518040352922 0 -0.00070981449856801317 -0.012644777800379467 0 -0.00066810455848937149 -0.012681518040352922 0 -0.00072951095534051866 -0.012713492547510547 0 -0.00070981449856801317 -0.012644777800379467 0 -0.00064017622867022729 -0.012514877541477173 0 -0.00076941220233947625 -0.012580999790585811 0 -0.00062671910018456179 -0.012635181707030794 0 -0.00070981449856801317 -0.012644777800379467 0 -0.00064017622867022729 -0.012514877541477173 0 -0.00064017622867022729 -0.012514877541477173 0 -0.00065124488237348747 -0.012485256625059893 0 -0.00076941220233947625 -0.012580999790585811 0 -0.00051538813893441538 -0.012851331589969506 0 -0.0006702366385577999 -0.012390355736465056 0 -0.00060309905894604993 -0.012385526651289325 0 -0.00063663172784763299 -0.012459434043331941 0 -0.00064017622867022729 -0.012514877541477173 0 -0.00066835595411478873 -0.012454772995272168 0 -0.00060309905894604993 -0.012385526651289325 0 -0.00063663172784763299 -0.012459434043331941 0 -0.00063663172784763299 -0.012459434043331941 0 -0.00064017622867022729 -0.012514877541477173 0 -0.00063623285271332186 -0.01248210738630633 0 -0.00066835595411478873 -0.012454772995272168 0 -0.00063663172784763299 -0.012459434043331941 0 -0.00063623285271332186 -0.01248210738630633 0 -0.00066835595411478873 -0.012454772995272168 0 -0.00063623285271332186 -0.01248210738630633 0 -0.00062952212389597679 -0.012463744535072773 0 -0.00063623285271332186 -0.01248210738630633 0 -0.00065019806646201834 -0.012468424778002396 0 -0.00062952212389597679 -0.012463744535072773 0 -0.00063623285271332186 -0.01248210738630633 0 -0.00065019806646201834 -0.012468424778002396 0 -0.00065124488237348747 -0.012485256625059893 0 -0.00064017622867022729 -0.012514877541477173 0 -0.00063623285271332186 -0.01248210738630633 0 -0.00065124488237348747 -0.012485256625059893 0 -0.00065019806646201834 -0.012468424778002396 0 -0.00062952212389597679 -0.012463744535072773 0 -0.00063784809169191534 -0.012454752359881744 0 -0.00065124488237348747 -0.012485256625059893 0 -0.00067031932732737327 -0.012469881750864097 0 -0.00069561547517540479 -0.012473710258238851 0 -0.00065338168417488241 -0.012492883839489254 0 -0.00073326285072998129 -0.012544297624124736 0 -0.00065124488237348747 -0.012485256625059893 0 -0.00070666494200938572 -0.012510493048870946 0 -0.00069561547517540479 -0.012473710258238851 0 -0.00065019806646201834 -0.012468424778002396 0 -0.00065124488237348747 -0.012485256625059893 0 -0.00067031932732737327 -0.012469881750864097 0 -0.00065019806646201834 -0.012468424778002396 0 -0.00067031932732737327 -0.012469881750864097 0 -0.00066631706999002217 -0.012460023252455711 0 -0.00069649720402660239 -0.012461989131489397 0 -0.00068314477692282079 -0.012462352292602136 0 -0.00069561547517540479 -0.012473710258238851 0 -0.00067031932732737327 -0.012469881750864097 0 -0.00068314477692282079 -0.012462352292602136 0 -0.00069561547517540479 -0.012473710258238851 0 -0.00069649720402660239 -0.012461989131489397 0 -0.00068314477692282079 -0.012462352292602136 0 -0.00069146858808177554 -0.012456984982060522 0 -0.00066631706999002217 -0.012460023252455711 0 -0.00067723067261797143 -0.012452884391774463 0 -0.00065245665679461993 -0.012448892364763976 0 -0.00068314477692282079 -0.012462352292602136 0 -0.00066631706999002217 -0.012460023252455711 0 -0.00067723067261797143 -0.012452884391774463 0 -0.00067031932732737327 -0.012469881750864097 0 -0.00068314477692282079 -0.012462352292602136 0 -0.00066631706999002217 -0.012460023252455711 0 -0.00066687895766977961 -0.012439335683051727 0 -0.00067723067261797143 -0.012452884391774463 0 -0.00069513406413236839 -0.012451059478181391 0 -0.00066687895766977961 -0.012439335683051727 0 -0.00067723067261797143 -0.012452884391774463 0 -0.00065245665679461993 -0.012448892364763976 0 -0.00067723067261797143 -0.012452884391774463 0 -0.00069146858808177554 -0.012456984982060522 0 -0.00069513406413236839 -0.012451059478181391 0 -0.00068314477692282079 -0.012462352292602136 0 -0.00067723067261797143 -0.012452884391774463 0 -0.00069146858808177554 -0.012456984982060522 0 -0.00069146858808177554 -0.012456984982060522 0 -0.00070398608820461644 -0.012458550098533293 0 -0.00069513406413236839 -0.012451059478181391 0 -0.00069649720402660239 -0.012461989131489397 0 -0.00069146858808177554 -0.012456984982060522 0 -0.00070398608820461644 -0.012458550098533293 0 -0.00063784809169191534 -0.012454752359881744 0 -0.00065245665679461993 -0.012448892364763976 0 -0.00061728894984206483 -0.012432884115538227 0 -0.00062952212389597679 -0.012463744535072773 0 -0.00063784809169191534 -0.012454752359881744 0 -0.00061728894984206483 -0.012432884115538227 0 -0.00065019806646201834 -0.012468424778002396 0 -0.00063784809169191534 -0.012454752359881744 0 -0.00065245665679461993 -0.012448892364763976 0 -0.00065019806646201834 -0.012468424778002396 0 -0.00066631706999002217 -0.012460023252455711 0 -0.00065245665679461993 -0.012448892364763976 0 -0.00066687895766977961 -0.012439335683051727 0 -0.00065245665679461993 -0.012448892364763976 0 -0.00063819504493039115 -0.012419835665346983 0 -0.00065245665679461993 -0.012448892364763976 0 -0.00061728894984206483 -0.012432884115538227 0 -0.00063819504493039115 -0.012419835665346983 0 -0.00061728894984206483 -0.012432884115538227 0 -0.00057817104910482388 -0.012391470259209558 0 -0.0005810101389790008 -0.01237276457897633 0 -0.00062952212389597679 -0.012463744535072773 0 -0.00061728894984206483 -0.012432884115538227 0 -0.00058442227793811731 -0.012439132653536737 0 -0.00061728894984206483 -0.012432884115538227 0 -0.00058442227793811731 -0.012439132653536737 0 -0.00057817104910482388 -0.012391470259209558 0 -0.00058442227793811731 -0.012439132653536737 0 -0.00057817104910482388 -0.012391470259209558 0 -0.00052497211734354023 -0.012319129401239288 0 -0.00081721606877047223 -0.0096092838905546402 0 -0.00094854986018389213 -0.0082814599592984598 0 -0.0010494454352533 -0.0062954935132371473 0 -0.00091664184570029966 -0.0061901308001928376 0 -0.00095916006913685718 -0.0064504988646288154 0 -0.00091664184570029966 -0.0061901308001928376 0 -0.00090424350766398149 -0.0061318125744690647 0 -0.00077377991194022347 -0.0059479667804787518 0 -0.00091664184570029966 -0.0061901308001928376 0 -0.00090424350766398149 -0.0061318125744690647 0 -0.00089217152887506861 -0.006169286703520134 0 -0.0010494454352533 -0.0062954935132371473 0 -0.00091664184570029966 -0.0061901308001928376 0 -0.00089217152887506861 -0.006169286703520134 0 -0.00090524016880276926 -0.0061778823973695088 0 -0.00087736014795937944 -0.006196191138781346 0 -0.0010685619701569528 -0.0065858140045724246 0 -0.0010494454352533 -0.0062954935132371473 0 -0.00095916006913685718 -0.0064504988646288154 0 -0.00094027030047238004 -0.0093219256820456734 0 -0.00081721606877047223 -0.0096092838905546402 0 -0.00066835595411478873 -0.012454772995272168 0 -0.00062952212389597679 -0.012463744535072773 0 -0.00058442227793811731 -0.012439132653536737 0 -0.00083511950246992911 -0.012561815442878209 0 -0.00081120829748351981 -0.012554577798775406 0 -0.00078963753730143733 -0.012506943653622055 0 -0.00086515907647137188 -0.012744971400913531 0 -0.00076995089371569253 -0.012651823989296276 0 -0.0008398986504063586 -0.012896611879988959 0 -0.0008312054251166177 -0.012843561999147796 0 -0.00077845949626267484 -0.012820485547131829 0 -0.00086515907647137188 -0.012744971400913531 0 -0.00084122657788300527 -0.012675354493048043 0 -0.00089384405964897638 -0.012836747508602173 0 -0.00088725746445064149 -0.01277663293999365 0 -0.00088053676933934582 -0.012802178483662689 0 -0.00088725746445064149 -0.01277663293999365 0 -0.00088053676933934582 -0.012802178483662689 0 -0.00086802882211012657 -0.012756160017209634 0 -0.00088725746445064149 -0.01277663293999365 0 -0.00086802882211012657 -0.012756160017209634 0 -0.00084465830597536666 -0.012676822307486601 0 -0.00086802882211012657 -0.012756160017209634 0 -0.00085536418051156669 -0.012765046308268302 0 -0.00084465830597536666 -0.012676822307486601 0 -0.00088053676933934582 -0.012802178483662689 0 -0.00086802882211012657 -0.012756160017209634 0 -0.00085536418051156669 -0.012765046308268302 0 -0.0007513095154117979 -0.012531904125303712 0 -0.00075497444441895503 -0.012496380786545367 0 -0.00078963753730143733 -0.012506943653622055 0 -0.00084122657788300527 -0.012675354493048043 0 -0.00079513748078462643 -0.01260281017272041 0 -0.00081120829748351981 -0.012554577798775406 0 -0.0007513095154117979 -0.012531904125303712 0 -0.00078963753730143733 -0.012506943653622055 0 -0.00084465830597536666 -0.012676822307486601 0 -0.00080181966742386612 -0.012711485596032374 0 -0.00076941220233947625 -0.012580999790585811 0 -0.0007513095154117979 -0.012531904125303712 0 -0.00070666494200938572 -0.012510493048870946 0 -0.00073226278644667169 -0.012489527817243344 0 -0.00079513748078462643 -0.01260281017272041 0 -0.00073326285072998129 -0.012544297624124736 0 -0.00085536418051156669 -0.012765046308268302 0 -0.00084465830597536666 -0.012676822307486601 0 -0.00080181966742386612 -0.012711485596032374 0 -0.00070981449856801317 -0.012644777800379467 0 -0.00080181966742386612 -0.012711485596032374 0 -0.00076941220233947625 -0.012580999790585811 0 -0.00070981449856801317 -0.012644777800379467 0 -0.00080181966742386612 -0.012711485596032374 0 -0.00072951095534051866 -0.012713492547510547 0 -0.00070666494200938572 -0.012510493048870946 0 -0.00069561547517540479 -0.012473710258238851 0 -0.00071455842444772036 -0.012471835919046459 0 -0.00069561547517540479 -0.012473710258238851 0 -0.00070638447329247781 -0.012462987571592117 0 -0.00071455842444772036 -0.012471835919046459 0 -0.00069649720402660239 -0.012461989131489397 0 -0.00069561547517540479 -0.012473710258238851 0 -0.00070638447329247781 -0.012462987571592117 0 -0.00069649720402660239 -0.012461989131489397 0 -0.00070638447329247781 -0.012462987571592117 0 -0.00070398608820461644 -0.012458550098533293 0 -0.00070638447329247781 -0.012462987571592117 0 -0.00071248590149110399 -0.012461209998964507 0 -0.00070398608820461644 -0.012458550098533293 0 -0.00071294814476225397 -0.012461509194984602 0 -0.00071120921509531545 -0.012455694456923469 0 -0.00071431322350700647 -0.012460994780852837 0 -0.00071248590149110399 -0.012461209998964507 0 -0.00071294814476225397 -0.012461509194984602 0 -0.00071431322350700647 -0.012460994780852837 0 -0.00070638447329247781 -0.012462987571592117 0 -0.00071248590149110399 -0.012461209998964507 0 -0.00071294814476225397 -0.012461509194984602 0 -0.00070638447329247781 -0.012462987571592117 0 -0.00071294814476225397 -0.012461509194984602 0 -0.00071455842444772036 -0.012471835919046459 0 -0.00071294814476225397 -0.012461509194984602 0 -0.00071455842444772036 -0.012471835919046459 0 -0.00072223477374402858 -0.012466474421976185 0 -0.00082329662733051539 -0.012740962731848316 0 -0.0008250168364798649 -0.012651639744836334 0 -0.00079044010100383691 -0.012674444236688766 0 -0.00071455842444772036 -0.012471835919046459 0 -0.00072223477374402858 -0.012466474421976185 0 -0.00073226278644667169 -0.012489527817243344 0 -0.00071294814476225397 -0.012461509194984602 0 -0.00072223477374402858 -0.012466474421976185 0 -0.00071120921509531545 -0.012455694456923469 0 -0.00072223477374402858 -0.012466474421976185 0 -0.00074641227187517538 -0.012465758684072315 0 -0.00071120921509531545 -0.012455694456923469 0 -0.00077272471834672642 -0.012639619221069263 0 -0.00079897022689823531 -0.012627156956889204 0 -0.00082488034618461218 -0.012614233254109168 0 -0.00077696602750384352 -0.012574920219828662 0 -0.00078953210633585398 -0.012572295781225516 0 -0.00077272471834672642 -0.012639619221069263 0 -0.00074093400953753499 -0.012509389003954647 0 -0.00072223477374402858 -0.012466474421976185 0 -0.00073226278644667169 -0.012489527817243344 0 -0.00074641227187517538 -0.012465758684072315 0 -0.00070666494200938572 -0.012510493048870946 0 -0.00071455842444772036 -0.012471835919046459 0 -0.00073226278644667169 -0.012489527817243344 0 -0.0007513095154117979 -0.012531904125303712 0 -0.00073226278644667169 -0.012489527817243344 0 -0.00075497444441895503 -0.012496380786545367 0 -0.00073226278644667169 -0.012489527817243344 0 -0.00075497444441895503 -0.012496380786545367 0 -0.00074641227187517538 -0.012465758684072315 0 -0.00075497444441895503 -0.012496380786545367 0 -0.00074641227187517538 -0.012465758684072315 0 -0.00078963753730143733 -0.012506943653622055 0 -0.00077272471834672642 -0.012639619221069263 0 -0.00076995089371569253 -0.012651823989296276 0 -0.00071296295693141012 -0.012738393672581156 0 -0.00077845949626267484 -0.012820485547131829 0 -0.00077378897147617595 -0.01279182665910456 0 -0.00077272471834672642 -0.012639619221069263 0 -0.00081742257142236087 -0.012803994434129129 0 -0.00082329662733051539 -0.012740962731848316 0 -0.00085233878919831381 -0.012744969130011018 0 -0.00085567145959383425 -0.012680217837287629 0 -0.00082329662733051539 -0.012740962731848316 0 -0.00085233878919831381 -0.012744969130011018 0 -0.00084680049623881771 -0.012792380028618414 0 -0.00085233878919831381 -0.012744969130011018 0 -0.00086827901226625085 -0.012724321284428632 0 -0.00085567145959383425 -0.012680217837287629 0 -0.00085233878919831381 -0.012744969130011018 0 -0.00086809687684381127 -0.012763721179390534 0 -0.00084680049623881771 -0.012792380028618414 0 -0.00085233878919831381 -0.012744969130011018 0 -0.00086827901226625085 -0.012724321284428632 0 -0.00086809687684381127 -0.012763721179390534 0 -0.00088682957731206252 -0.012739120769599516 0 -0.00086827901226625085 -0.012724321284428632 0 -0.00086809687684381127 -0.012763721179390534 0 -0.00085461188569375479 -0.012843647632510119 0 -0.00086282737629376572 -0.012802693566564414 0 -0.00084680049623881771 -0.012792380028618414 0 -0.0008312054251166177 -0.012843561999147796 0 -0.00077845949626267484 -0.012820485547131829 0 -0.00077378897147617595 -0.01279182665910456 0 -0.0008431410091690679 -0.012843516872765821 0 -0.00081742257142236087 -0.012803994434129129 0 -0.00086809687684381127 -0.012763721179390534 0 -0.00086282737629376572 -0.012802693566564414 0 -0.00084680049623881771 -0.012792380028618414 0 -0.00088490525795396067 -0.012683703348921339 0 -0.00087121500210179698 -0.012631302319072061 0 -0.00089340199135301459 -0.012645792325849843 0 -0.00090889250314424698 -0.012702256498828626 0 -0.00088490525795396067 -0.012683703348921339 0 -0.00089340199135301459 -0.012645792325849843 0 -0.00086827901226625085 -0.012724321284428632 0 -0.00088490525795396067 -0.012683703348921339 0 -0.00085567145959383425 -0.012680217837287629 0 -0.00088682957731206252 -0.012739120769599516 0 -0.00086827901226625085 -0.012724321284428632 0 -0.00088490525795396067 -0.012683703348921339 0 -0.00088682957731206252 -0.012739120769599516 0 -0.00090234455913622248 -0.012733479519346336 0 -0.00088490525795396067 -0.012683703348921339 0 -0.00082329662733051539 -0.012740962731848316 0 -0.00085567145959383425 -0.012680217837287629 0 -0.0008250168364798649 -0.012651639744836334 0 -0.00088490525795396067 -0.012683703348921339 0 -0.00085567145959383425 -0.012680217837287629 0 -0.00087121500210179698 -0.012631302319072061 0 -0.00085567145959383425 -0.012680217837287629 0 -0.00084145785047850239 -0.012597723271827968 0 -0.0008250168364798649 -0.012651639744836334 0 -0.00084145785047850239 -0.012597723271827968 0 -0.00087121500210179698 -0.012631302319072061 0 -0.00086725671530530962 -0.01258111149702788 0 -0.00084145785047850239 -0.012597723271827968 0 -0.00083189259861749171 -0.012546842090501857 0 -0.00086725671530530962 -0.01258111149702788 0 -0.00085567145959383425 -0.012680217837287629 0 -0.00084145785047850239 -0.012597723271827968 0 -0.00087121500210179698 -0.012631302319072061 0 -0.00087121500210179698 -0.012631302319072061 0 -0.00086725671530530962 -0.01258111149702788 0 -0.00089340199135301459 -0.012645792325849843 0 -0.00084145785047850239 -0.012597723271827968 0 -0.00083189259861749171 -0.012546842090501857 0 -0.00079998193746820079 -0.012532712283893148 0 -0.00083189259861749171 -0.012546842090501857 0 -0.00079998193746820079 -0.012532712283893148 0 -0.00080784408665991096 -0.012487184038745545 0 -0.00079998193746820079 -0.012532712283893148 0 -0.00080579506547153866 -0.012586693513623157 0 -0.00075500729958131443 -0.012524711443173398 0 -0.00084145785047850239 -0.012597723271827968 0 -0.00079998193746820079 -0.012532712283893148 0 -0.00080579506547153866 -0.012586693513623157 0 -0.00084145785047850239 -0.012597723271827968 0 -0.0008250168364798649 -0.012651639744836334 0 -0.00080579506547153866 -0.012586693513623157 0 -0.0008250168364798649 -0.012651639744836334 0 -0.0007957895304453725 -0.012610347586733092 0 -0.00080579506547153866 -0.012586693513623157 0 -0.0008250168364798649 -0.012651639744836334 0 -0.00079044010100383691 -0.012674444236688766 0 -0.0007957895304453725 -0.012610347586733092 0 -0.00077696602750384352 -0.012574920219828662 0 -0.00078953210633585398 -0.012572295781225516 0 -0.00075500729958131443 -0.012524711443173398 0 -0.00079044010100383691 -0.012674444236688766 0 -0.0007957895304453725 -0.012610347586733092 0 -0.00075500729958131443 -0.012524711443173398 0 -0.0007957895304453725 -0.012610347586733092 0 -0.00080579506547153866 -0.012586693513623157 0 -0.00075500729958131443 -0.012524711443173398 0 -0.00079897022689823531 -0.012627156956889204 0 -0.00075564518906132789 -0.012547223250480171 0 -0.00077696602750384352 -0.012574920219828662 0 -0.00075500729958131443 -0.012524711443173398 0 -0.00072827695734214266 -0.012493016912979773 0 -0.00074093400953753499 -0.012509389003954647 0 -0.00073439027884980687 -0.012501114405252273 0 -0.00071120921509531545 -0.012455694456923469 0 -0.00071867939619697189 -0.012468275828760327 0 -0.00072827695734214266 -0.012493016912979773 0 -0.00071120921509531545 -0.012455694456923469 0 -0.00071867939619697189 -0.012468275828760327 0 -0.00071431322350700647 -0.012460994780852837 0 -0.00071248590149110399 -0.012461209998964507 0 -0.00071867939619697189 -0.012468275828760327 0 -0.00071431322350700647 -0.012460994780852837 0 -0.00071248590149110399 -0.012461209998964507 0 -0.00070398608820461644 -0.012458550098533293 0 -0.00071521765016297389 -0.012463711977224444 0 -0.00071248590149110399 -0.012461209998964507 0 -0.00071867939619697189 -0.012468275828760327 0 -0.00071521765016297389 -0.012463711977224444 0 -0.00071867939619697189 -0.012468275828760327 0 -0.00071521765016297389 -0.012463711977224444 0 -0.00072827695734214266 -0.012493016912979773 0 -0.00071521765016297389 -0.012463711977224444 0 -0.00072827695734214266 -0.012493016912979773 0 -0.00070152539144748634 -0.012443909623580218 0 -0.00075500729958131443 -0.012524711443173398 0 -0.00072827695734214266 -0.012493016912979773 0 -0.00075380241425549105 -0.012466046471806061 0 -0.00072827695734214266 -0.012493016912979773 0 -0.00075380241425549105 -0.012466046471806061 0 -0.00072037175808147664 -0.012451829369056719 0 -0.00079998193746820079 -0.012532712283893148 0 -0.00075500729958131443 -0.012524711443173398 0 -0.00075380241425549105 -0.012466046471806061 0 -0.00079998193746820079 -0.012532712283893148 0 -0.00075380241425549105 -0.012466046471806061 0 -0.00080784408665991096 -0.012487184038745545 0 -0.00075380241425549105 -0.012466046471806061 0 -0.00073393971030906837 -0.012389750632794055 0 -0.00080784408665991096 -0.012487184038745545 0 -0.0007607860979491018 -0.012402708580055835 0 -0.00083166731142767208 -0.012557094867401551 0 -0.00080784408665991096 -0.012487184038745545 0 -0.00076605280299393808 -0.012489571494109892 0 -0.00081661749239001229 -0.012496313363628017 0 -0.00073393971030906837 -0.012389750632794055 0 -0.00080784408665991096 -0.012487184038745545 0 -0.0007542613235972692 -0.012246079689019345 0 -0.00076605280299393808 -0.012489571494109892 0 -0.000772872647747725 -0.01243414968084508 0 -0.00080929096678328423 -0.012450621308334759 0 -0.000772872647747725 -0.01243414968084508 0 -0.00080929096678328423 -0.012450621308334759 0 -0.00079266681539953124 -0.012390132061507667 0 -0.00076605280299393808 -0.012489571494109892 0 -0.00080929096678328423 -0.012450621308334759 0 -0.00081661749239001229 -0.012496313363628017 0 -0.00080929096678328423 -0.012450621308334759 0 -0.00081661749239001229 -0.012496313363628017 0 -0.00084345014517955158 -0.012482085955590558 0 -0.00081661749239001229 -0.012496313363628017 0 -0.00084345014517955158 -0.012482085955590558 0 -0.00084856761142773293 -0.012529370636275603 0 -0.00080929096678328423 -0.012450621308334759 0 -0.00084345014517955158 -0.012482085955590558 0 -0.00085362941026518918 -0.01242815091595925 0 -0.00084345014517955158 -0.012482085955590558 0 -0.00087969940693240049 -0.012486811313580612 0 -0.00085362941026518918 -0.01242815091595925 0 -0.00084345014517955158 -0.012482085955590558 0 -0.00087969940693240049 -0.012486811313580612 0 -0.00084856761142773293 -0.012529370636275603 0 -0.00083189259861749171 -0.012546842090501857 0 -0.00080784408665991096 -0.012487184038745545 0 -0.00084856761142773293 -0.012529370636275603 0 -0.00083189259861749171 -0.012546842090501857 0 -0.00084856761142773293 -0.012529370636275603 0 -0.00086725671530530962 -0.01258111149702788 0 -0.00080784408665991096 -0.012487184038745545 0 -0.00081661749239001229 -0.012496313363628017 0 -0.00084856761142773293 -0.012529370636275603 0 -0.00086725671530530962 -0.01258111149702788 0 -0.00089833079074063088 -0.012558926629204457 0 -0.00091084536146215358 -0.012631699890618299 0 -0.00086725671530530962 -0.01258111149702788 0 -0.00091084536146215358 -0.012631699890618299 0 -0.00089340199135301459 -0.012645792325849843 0 -0.00084856761142773293 -0.012529370636275603 0 -0.00086725671530530962 -0.01258111149702788 0 -0.00089833079074063088 -0.012558926629204457 0 -0.00089833079074063088 -0.012558926629204457 0 -0.00093275813093772898 -0.012626943229829749 0 -0.00092815094292359151 -0.012496535910208507 0 -0.00087969940693240049 -0.012486811313580612 0 -0.00084856761142773293 -0.012529370636275603 0 -0.00089833079074063088 -0.012558926629204457 0 -0.00087969940693240049 -0.012486811313580612 0 -0.00089833079074063088 -0.012558926629204457 0 -0.00092815094292359151 -0.012496535910208507 0 -0.00091785973266119596 -0.012720239400789831 0 -0.00093275813093772898 -0.012626943229829749 0 -0.00091084536146215358 -0.012631699890618299 0 -0.00089833079074063088 -0.012558926629204457 0 -0.00093275813093772898 -0.012626943229829749 0 -0.00091084536146215358 -0.012631699890618299 0 -0.00090889250314424698 -0.012702256498828626 0 -0.00091084536146215358 -0.012631699890618299 0 -0.00089340199135301459 -0.012645792325849843 0 -0.00056053986817742576 -0.012295324624397388 0 -0.00061810644461520489 -0.012304732813448731 0 -0.00052374871628769798 -0.012219324763141099 0 -0.00056053986817742576 -0.012295324624397388 0 -0.00048768914953121198 -0.012268779342544368 0 -0.00052374871628769798 -0.012219324763141099 0 -0.00054476451722432662 -0.012321300155537869 0 -0.00056053986817742576 -0.012295324624397388 0 -0.00048768914953121198 -0.012268779342544368 0 -0.00054476451722432662 -0.012321300155537869 0 -0.00056053986817742576 -0.012295324624397388 0 -0.00061571257749094388 -0.012364350571159165 0 -0.00048768914953121198 -0.012268779342544368 0 -0.00052374871628769798 -0.012219324763141099 0 -0.00043299947673872266 -0.012205377825969199 0 -0.00075614000605751515 -0.0066595636990399313 0 -0.0009651613333156782 -0.0078266965354085085 0 -0.00048768914953121198 -0.012268779342544368 0 -0.00048475510091587816 -0.012269408308643259 0 -0.00043299947673872266 -0.012205377825969199 0 -0.00054476451722432662 -0.012321300155537869 0 -0.00048768914953121198 -0.012268779342544368 0 -0.0004696559502622057 -0.012328076760508126 0 -0.00048768914953121198 -0.012268779342544368 0 -0.00048581469497004575 -0.012267831738606735 0 -0.00048475510091587816 -0.012269408308643259 0 -9.3769789603226732e-05 -0.012288675112201893 0 -0.00094854986018389213 -0.0082814599592984598 0 -0.00071855155607110756 -0.0033369566523250207 0 -0.00085914333416630881 -0.0036976629608039885 0 -0.0010567320357580256 -0.0030374855185457284 0 -0.00099956563327647878 -0.0041601604276005075 0 -0.00094854986018389213 -0.0082814599592984598 0 -0.00094854986018389213 -0.0082814599592984598 0 -0.00075614000605751515 -0.0066595636990399313 0 -0.00076723639513677456 -0.0030951093573363779 0 -0.0010567320357580256 -0.0030374855185457284 0 -0.0010414794683189196 -0.0029858920183017095 0 -0.00071855155607110756 -0.0033369566523250207 0 -0.00076723639513677456 -0.0030951093573363779 0 -0.0010567320357580256 -0.0030374855185457284 0 -0.00061728894984206483 -0.012432884115538227 0 -0.0005810101389790008 -0.01237276457897633 0 -0.00063819504493039115 -0.012419835665346983 0 -0.00057817104910482388 -0.012391470259209558 0 -0.00052497211734354023 -0.012319129401239288 0 -0.0005810101389790008 -0.01237276457897633 0 -0.00054476451722432662 -0.012321300155537869 0 -0.0004696559502622057 -0.012328076760508126 0 -0.0005810101389790008 -0.01237276457897633 0 -0.00094854986018389213 -0.0082814599592984598 0 -0.00084942902104810636 -0.012268314294237186 0 -0.00054476451722432662 -0.012321300155537869 0 -0.0005810101389790008 -0.01237276457897633 0 -0.00061571257749094388 -0.012364350571159165 0 -0.00066687895766977961 -0.012439335683051727 0 -0.00063819504493039115 -0.012419835665346983 0 -0.00066737942184530593 -0.012423644123371273 0 -0.00063819504493039115 -0.012419835665346983 0 -0.00066737942184530593 -0.012423644123371273 0 -0.00061571257749094388 -0.012364350571159165 0 -0.00066737942184530593 -0.012423644123371273 0 -0.00066583180846358793 -0.012400238570849115 0 -0.00061571257749094388 -0.012364350571159165 0 -0.0005810101389790008 -0.01237276457897633 0 -0.00063819504493039115 -0.012419835665346983 0 -0.00061571257749094388 -0.012364350571159165 0 -0.00070398608820461644 -0.012458550098533293 0 -0.00071521765016297389 -0.012463711977224444 0 -0.00069513406413236839 -0.012451059478181391 0 -0.00071521765016297389 -0.012463711977224444 0 -0.00069513406413236839 -0.012451059478181391 0 -0.00070152539144748634 -0.012443909623580218 0 -0.00066687895766977961 -0.012439335683051727 0 -0.00066737942184530593 -0.012423644123371273 0 -0.00069513406413236839 -0.012451059478181391 0 -0.00066737942184530593 -0.012423644123371273 0 -0.00069513406413236839 -0.012451059478181391 0 -0.00070152539144748634 -0.012443909623580218 0 -0.00066737942184530593 -0.012423644123371273 0 -0.00070152539144748634 -0.012443909623580218 0 -0.00066583180846358793 -0.012400238570849115 0 -0.00072827695734214266 -0.012493016912979773 0 -0.00070152539144748634 -0.012443909623580218 0 -0.00072037175808147664 -0.012451829369056719 0 -0.00069431531605851804 -0.012396436637550207 0 -0.00061810644461520489 -0.012304732813448731 0 -0.00068584834186480466 -0.012322524619697307 0 -0.00070152539144748634 -0.012443909623580218 0 -0.00072037175808147664 -0.012451829369056719 0 -0.00069431531605851804 -0.012396436637550207 0 -0.00075380241425549105 -0.012466046471806061 0 -0.00072037175808147664 -0.012451829369056719 0 -0.00069431531605851804 -0.012396436637550207 0 -0.00070152539144748634 -0.012443909623580218 0 -0.00066583180846358793 -0.012400238570849115 0 -0.00069431531605851804 -0.012396436637550207 0 -0.00075380241425549105 -0.012466046471806061 0 -0.00073393971030906837 -0.012389750632794055 0 -0.00069431531605851804 -0.012396436637550207 0 -0.00066583180846358793 -0.012400238570849115 0 -0.00069431531605851804 -0.012396436637550207 0 -0.00061810644461520489 -0.012304732813448731 0 -0.00066583180846358793 -0.012400238570849115 0 -0.00061571257749094388 -0.012364350571159165 0 -0.00061810644461520489 -0.012304732813448731 0 -0.00056053986817742576 -0.012295324624397388 0 -0.00061571257749094388 -0.012364350571159165 0 -0.00061810644461520489 -0.012304732813448731 0 -0.00061810644461520489 -0.012304732813448731 0 -0.00065347904634605546 -0.012237964813831164 0 -0.00068584834186480466 -0.012322524619697307 0 -0.00061810644461520489 -0.012304732813448731 0 -0.00065347904634605546 -0.012237964813831164 0 -0.00058004610947724126 -0.012206160651973259 0 -0.0007542613235972692 -0.012246079689019345 0 -0.00065347904634605546 -0.012237964813831164 0 -0.00068584834186480466 -0.012322524619697307 0 -0.00073393971030906837 -0.012389750632794055 0 -0.00069431531605851804 -0.012396436637550207 0 -0.00068584834186480466 -0.012322524619697307 0 -0.00073393971030906837 -0.012389750632794055 0 -0.0007542613235972692 -0.012246079689019345 0 -0.00068584834186480466 -0.012322524619697307 0 -0.00083166731142767208 -0.012557094867401551 0 -0.00083076733192698757 -0.010904293514188425 0 -0.00076605280299393808 -0.012489571494109892 0 -0.000772872647747725 -0.01243414968084508 0 -0.00068362772288690715 -0.012395975507092226 0 -0.0007542613235972692 -0.012246079689019345 0 -0.00065347904634605546 -0.012237964813831164 0 -0.00067697477890115093 -0.012117930860156084 0 -0.00063058221156970249 -0.010885002771362475 0 -0.00083076733192698757 -0.010904293514188425 0 -0.00053685241584628014 -0.012111744073907089 0 -0.00058004610947724126 -0.012206160651973259 0 -0.00067697477890115093 -0.012117930860156084 0 -0.00065347904634605546 -0.012237964813831164 0 -0.00058004610947724126 -0.012206160651973259 0 -0.00067697477890115093 -0.012117930860156084 0 -0.00053685241584628014 -0.012111744073907089 0 -0.00052374871628769798 -0.012219324763141099 0 -0.00047092894596943176 -0.01215239319543247 0 -0.00053685241584628014 -0.012111744073907089 0 -0.00052374871628769798 -0.012219324763141099 0 -0.00058004610947724126 -0.012206160651973259 0 -0.00061810644461520489 -0.012304732813448731 0 -0.00052374871628769798 -0.012219324763141099 0 -0.00058004610947724126 -0.012206160651973259 0 -0.00052374871628769798 -0.012219324763141099 0 -0.00047092894596943176 -0.01215239319543247 0 -0.00043299947673872266 -0.012205377825969199 0 -0.00038443922402038887 -0.012066846768125698 0 -0.00047092894596943176 -0.01215239319543247 0 -0.00043299947673872266 -0.012205377825969199 0 0.00045769421101289425 -0.0057809334129508413 0 -0.0004322515194682413 -0.0052706669116519521 0 0.00052285104103707701 -0.0054184330318498833 0 8.9025483760827914e-05 -0.0065078067074884902 0 -0.00058313072114864076 -0.0068700239644050873 0 8.9025483760827914e-05 -0.0065078067074884902 0 -0.00063058221156970249 -0.010885002771362475 0 -0.00038443922402038887 -0.012066846768125698 0 -0.00053685241584628014 -0.012111744073907089 0 -0.00047092894596943176 -0.01215239319543247 0 -0.0004422848831549277 -0.0087053681682353716 0 -0.00062311942029464077 -0.0087286282913216218 0 -0.00058234959968503331 -0.008669763746601937 0 -0.0004322515194682413 -0.0052706669116519521 0 0.00014015626033917533 -0.0050011889042918655 0 0.00052285104103707701 -0.0054184330318498833 0 -0.0004322515194682413 -0.0052706669116519521 0 0.00014015626033917533 -0.0050011889042918655 0 -0.0002207236848824887 -0.0046000192959831871 0 0.00014015626033917533 -0.0050011889042918655 0 -0.0002207236848824887 -0.0046000192959831871 0 0.00049029311840281201 -0.0046291118802583948 0 -0.0002207236848824887 -0.0046000192959831871 0 -0.0010189744254133883 -0.004429008166208003 0 -1.7106180329143614e-05 -0.0038742431956227505 0 -0.0002207236848824887 -0.0046000192959831871 0 -1.7106180329143614e-05 -0.0038742431956227505 0 0.00049029311840281201 -0.0046291118802583948 0 -0.0004322515194682413 -0.0052706669116519521 0 -0.0002207236848824887 -0.0046000192959831871 0 -0.0010189744254133883 -0.004429008166208003 0 -0.0004322515194682413 -0.0052706669116519521 0 -0.0010189744254133883 -0.004429008166208003 0 -0.0013103320057076331 -0.0047862516771928531 0 -0.00062311942029464077 -0.0087286282913216218 0 -0.00058234959968503331 -0.008669763746601937 0 -0.00073341884584504028 -0.0085967336546188509 0 -0.00058313072114864076 -0.0068700239644050873 0 -0.00084498288531024339 -0.0080946815443566113 0 -0.00062311942029464077 -0.0087286282913216218 0 -0.00082115658035775282 -0.0087146674860895824 0 -0.00073341884584504028 -0.0085967336546188509 0 -0.00074630331837800682 -0.010648932808708694 0 -0.00035624544660025872 -0.010175918064765378 0 -0.00050160966461114864 -0.010093674454311459 0 -0.00083076733192698757 -0.010904293514188425 0 -0.00084498288531024339 -0.0080946815443566113 0 -0.00060739338527788936 -0.01033395324846267 0 -0.00097020664455207462 -0.011755392437815822 0 -0.00074630331837800682 -0.010648932808708694 0 -0.00050160966461114864 -0.010093674454311459 0 -0.0013404698506762922 -0.010533842729004926 0 -0.00083076733192698757 -0.010904293514188425 0 -0.00097020664455207462 -0.011755392437815822 0 -0.000772872647747725 -0.01243414968084508 0 -0.00068362772288690715 -0.012395975507092226 0 -0.00077676432712104856 -0.012381697367938141 0 -0.00085164642067815232 -0.01193349521309057 0 -0.00081170305635998546 -0.011947248423825515 0 -0.00082574586713475215 -0.01222619331762999 0 -0.00081170305635998546 -0.011947248423825515 0 -0.00079564990078072415 -0.01194599997611431 0 -0.00082574586713475215 -0.01222619331762999 0 -0.00085164642067815232 -0.01193349521309057 0 -0.00081170305635998546 -0.011947248423825515 0 -0.00092796265717383375 -0.011619683836205321 0 -0.00085164642067815232 -0.01193349521309057 0 -0.0007482559300831383 -0.01191377632174935 0 -0.00081655753654190204 -0.012044802879876798 0 2.9985640340253347e-05 -0.0088716916478908808 0 -0.00084498288531024339 -0.0080946815443566113 0 4.0538853305975044e-05 -0.0090292310215487476 0 -0.00048070354134779848 -0.0096416567362087209 0 -0.00080726252500482759 -0.0094526918364805333 0 2.9985640340253347e-05 -0.0088716916478908808 0 -0.00060739338527788936 -0.01033395324846267 0 -0.00084498288531024339 -0.0080946815443566113 0 -0.00060739338527788936 -0.01033395324846267 0 -0.00041738861021374567 -0.010785326684085696 0 -0.00060739338527788936 -0.01033395324846267 0 -0.00081170305635998546 -0.011947248423825515 0 -0.00062274208341718171 -0.012115122477658861 0 -0.00048767891262388051 -0.011706837954187423 0 -0.00081170305635998546 -0.011947248423825515 0 -0.00048767891262388051 -0.011706837954187423 0 -0.00092796265717383375 -0.011619683836205321 0 0.00018669524936630054 -0.01178290714959057 0 -0.00062274208341718171 -0.012115122477658861 0 -0.00048767891262388051 -0.011706837954187423 0 0.00018669524936630054 -0.01178290714959057 0 -0.00048767891262388051 -0.011706837954187423 0 -1.6299964202306076e-05 -0.010768787897655473 0 -1.6299964202306076e-05 -0.010768787897655473 0 -0.00092796265717383375 -0.011619683836205321 0 -0.00031204914398112217 -0.0093757381182374179 0 -0.00048767891262388051 -0.011706837954187423 0 -1.6299964202306076e-05 -0.010768787897655473 0 -0.00092796265717383375 -0.011619683836205321 0 -0.00094252587949448824 -0.011533809691369282 0 -0.0010758260774011818 -0.010362252912846858 0 -0.00092796265717383375 -0.011619683836205321 0 -0.0007482559300831383 -0.01191377632174935 0 -0.00063438327315470152 -0.011957446299073421 0 -0.00085164642067815232 -0.01193349521309057 0 -0.00092796265717383375 -0.011619683836205321 0 -0.0007482559300831383 -0.01191377632174935 0 -0.0007482559300831383 -0.01191377632174935 0 -0.00063438327315470152 -0.011957446299073421 0 -0.00072626918177073842 -0.011980747364492311 0 -0.00092796265717383375 -0.011619683836205321 0 -0.0015575339897602148 -0.008765346301170672 0 -0.00031204914398112217 -0.0093757381182374179 0 -0.0015575339897602148 -0.008765346301170672 0 -0.00031204914398112217 -0.0093757381182374179 0 -0.00060412097669775217 -0.0076506051082560131 0 0.00063360717746030742 -0.0094894957191800772 0 0.0018200700856832292 -0.0088336949365239812 0 0.00049538031032813972 -0.0083486219865174828 0 -0.00031204914398112217 -0.0093757381182374179 0 0.00063360717746030742 -0.0094894957191800772 0 0.00049538031032813972 -0.0083486219865174828 0 0.0018200700856832292 -0.0088336949365239812 0 0.0017799095406121586 -0.0096331193030768317 0 0.0023488292358341345 -0.0087237079893163604 0 0.00063360717746030742 -0.0094894957191800772 0 0.0018200700856832292 -0.0088336949365239812 0 0.0011302491060668693 -0.010368375012141004 0 0.0018278728578128495 -0.0089211310897626007 0 0.0010323598502550197 -0.010164572822338023 0 0.0018200700856832292 -0.0088336949365239812 0 0.0017799095406121586 -0.0096331193030768317 0 0.0012238410091723858 -0.0095123136386764014 0 2.9985640340253347e-05 -0.0088716916478908808 0 0.00096991344903532334 -0.0068564792577777839 0 0.00064700854102234695 -0.010144091250656774 0 0.0017799095406121586 -0.0096331193030768317 0 0.0012238410091723858 -0.0095123136386764014 0 0.00018669524936630054 -0.01178290714959057 0 -1.6299964202306076e-05 -0.010768787897655473 0 0.0011302491060668693 -0.010368375012141004 0 2.9985640340253347e-05 -0.0088716916478908808 0 0.0010323598502550197 -0.010164572822338023 0 -1.6299964202306076e-05 -0.010768787897655473 0 0.00063360717746030742 -0.0094894957191800772 0 0.0011302491060668693 -0.010368375012141004 0 -1.6299964202306076e-05 -0.010768787897655473 0 -0.00031204914398112217 -0.0093757381182374179 0 0.00063360717746030742 -0.0094894957191800772 0 -0.00098373435028753248 -0.012605333316889277 0 -0.0009967538562664015 -0.012506314653072642 0 -0.00095670648353342953 -0.012583603804377924 0 -0.00093275813093772898 -0.012626943229829749 0 -0.00095670648353342953 -0.012583603804377924 0 -0.00092815094292359151 -0.012496535910208507 0 -0.0009967538562664015 -0.012506314653072642 0 -0.00095670648353342953 -0.012583603804377924 0 -0.00092815094292359151 -0.012496535910208507 0 -0.00087969940693240049 -0.012486811313580612 0 -0.00092815094292359151 -0.012496535910208507 0 -0.00087845280258198476 -0.012423739605182045 0 -0.00092815094292359151 -0.012496535910208507 0 -0.00092200615235500931 -0.01238134205918451 0 -0.00088598316147631628 -0.012363357873610675 0 -0.0009967538562664015 -0.012506314653072642 0 -0.00092815094292359151 -0.012496535910208507 0 -0.00092200615235500931 -0.01238134205918451 0 -0.0009967538562664015 -0.012506314653072642 0 -0.00092200615235500931 -0.01238134205918451 0 -0.00092455280236608463 -0.01227131623366671 0 -0.00092200615235500931 -0.01238134205918451 0 -0.00085012919938564876 -0.012227231123238461 0 -0.00092455280236608463 -0.01227131623366671 0 -0.00085012919938564876 -0.012227231123238461 0 -0.00088598316147631628 -0.012363357873610675 0 -0.00085017939929212373 -0.01227866208719188 0 -0.00085012919938564876 -0.012227231123238461 0 -0.00085017939929212373 -0.01227866208719188 0 -0.00083215624386271845 -0.012192940306973522 0 -0.00092200615235500931 -0.01238134205918451 0 -0.00085012919938564876 -0.012227231123238461 0 -0.00088598316147631628 -0.012363357873610675 0 -0.00092815094292359151 -0.012496535910208507 0 -0.00088598316147631628 -0.012363357873610675 0 -0.00087845280258198476 -0.012423739605182045 0 -0.00088598316147631628 -0.012363357873610675 0 -0.00087845280258198476 -0.012423739605182045 0 -0.0008589462410370244 -0.012358837205371315 0 -0.00087969940693240049 -0.012486811313580612 0 -0.00087845280258198476 -0.012423739605182045 0 -0.00085362941026518918 -0.01242815091595925 0 -0.00080929096678328423 -0.012450621308334759 0 -0.00083164182777795939 -0.012394416570318636 0 -0.00085362941026518918 -0.01242815091595925 0 -0.00087845280258198476 -0.012423739605182045 0 -0.00085362941026518918 -0.01242815091595925 0 -0.0008589462410370244 -0.012358837205371315 0 -0.00083164182777795939 -0.012394416570318636 0 -0.00085362941026518918 -0.01242815091595925 0 -0.0008589462410370244 -0.012358837205371315 0 -0.00083164182777795939 -0.012394416570318636 0 -0.0008589462410370244 -0.012358837205371315 0 -0.00082955224439531269 -0.01230252072310269 0 -0.00088598316147631628 -0.012363357873610675 0 -0.0008589462410370244 -0.012358837205371315 0 -0.00085017939929212373 -0.01227866208719188 0 -0.0008589462410370244 -0.012358837205371315 0 -0.00085017939929212373 -0.01227866208719188 0 -0.00082955224439531269 -0.01230252072310269 0 -0.00085017939929212373 -0.01227866208719188 0 -0.00082955224439531269 -0.01230252072310269 0 -0.00083215624386271845 -0.012192940306973522 0 -0.00082955224439531269 -0.01230252072310269 0 -0.00082574586713475215 -0.01222619331762999 0 -0.00083215624386271845 -0.012192940306973522 0 -0.00083164182777795939 -0.012394416570318636 0 -0.00082955224439531269 -0.01230252072310269 0 -0.00079266681539953124 -0.012390132061507667 0 -0.00082955224439531269 -0.01230252072310269 0 -0.00079266681539953124 -0.012390132061507667 0 -0.0006915229377856308 -0.01233717084901083 0 -0.00077543194636905163 -0.012022978935670371 0 -0.00097020664455207462 -0.011755392437815822 0 -0.00095323931912263396 -0.011958362821788294 0 -0.00097020664455207462 -0.011755392437815822 0 -0.00080929096678328423 -0.012450621308334759 0 -0.00083164182777795939 -0.012394416570318636 0 -0.00079266681539953124 -0.012390132061507667 0 -0.000772872647747725 -0.01243414968084508 0 -0.00079266681539953124 -0.012390132061507667 0 -0.00077676432712104856 -0.012381697367938141 0 -0.00082574586713475215 -0.01222619331762999 0 -0.00083215624386271845 -0.012192940306973522 0 -0.00081655753654190204 -0.012044802879876798 0 -0.00085012919938564876 -0.012227231123238461 0 -0.00081655753654190204 -0.012044802879876798 0 -0.00079279034249917781 -0.012079720355714842 0 -0.00085012919938564876 -0.012227231123238461 0 -0.00083215624386271845 -0.012192940306973522 0 -0.00081655753654190204 -0.012044802879876798 0 -0.00085164642067815232 -0.01193349521309057 0 -0.00082574586713475215 -0.01222619331762999 0 -0.00081655753654190204 -0.012044802879876798 0 -0.0007482559300831383 -0.01191377632174935 0 -0.00081655753654190204 -0.012044802879876798 0 -0.00079279034249917781 -0.012079720355714842 0 -0.0007482559300831383 -0.01191377632174935 0 -0.00079279034249917781 -0.012079720355714842 0 -0.00072626918177073842 -0.011980747364492311 0 -0.00072626918177073842 -0.011980747364492311 0 -0.00082357716704944083 -0.012036106216210478 0 -0.00073015060279846213 -0.01180093383471912 0 -0.00063438327315470152 -0.011957446299073421 0 -0.00072626918177073842 -0.011980747364492311 0 -0.00073015060279846213 -0.01180093383471912 0 -0.00079279034249917781 -0.012079720355714842 0 -0.00072626918177073842 -0.011980747364492311 0 -0.00082357716704944083 -0.012036106216210478 0 -0.00082357716704944083 -0.012036106216210478 0 -0.00092455280236608463 -0.01227131623366671 0 -0.00093919761874455485 -0.011927557476961699 0 -0.00079279034249917781 -0.012079720355714842 0 -0.00082357716704944083 -0.012036106216210478 0 -0.00092455280236608463 -0.01227131623366671 0 -0.00085012919938564876 -0.012227231123238461 0 -0.00079279034249917781 -0.012079720355714842 0 -0.00092455280236608463 -0.01227131623366671 0 -0.0010920995339442046 -0.012459674767704276 0 -0.0012670417014146961 -0.011791749653664925 0 -0.00093919761874455485 -0.011927557476961699 0 -0.0016059343627577857 -0.012081138653389941 0 -0.0010920995339442046 -0.012459674767704276 0 -0.0012670417014146961 -0.011791749653664925 0 -0.0009967538562664015 -0.012506314653072642 0 -0.00092455280236608463 -0.01227131623366671 0 -0.0010920995339442046 -0.012459674767704276 0 -0.00092455280236608463 -0.01227131623366671 0 -0.0010920995339442046 -0.012459674767704276 0 -0.00093919761874455485 -0.011927557476961699 0 -0.00098373435028753248 -0.012605333316889277 0 -0.0009967538562664015 -0.012506314653072642 0 -0.0010920995339442046 -0.012459674767704276 0 -0.0012670417014146961 -0.011791749653664925 0 -0.0010627446741852608 -0.011578142684080946 0 -0.0013082495144135179 -0.011275061607721265 0 -0.0016092233448625885 -0.011579015464580567 0 -0.0012670417014146961 -0.011791749653664925 0 -0.0013082495144135179 -0.011275061607721265 0 -0.0012670417014146961 -0.011791749653664925 0 -0.00093919761874455485 -0.011927557476961699 0 -0.0010627446741852608 -0.011578142684080946 0 -0.00093919761874455485 -0.011927557476961699 0 -0.0010627446741852608 -0.011578142684080946 0 -0.0008389838624167467 -0.011594906582584281 0 -0.0010627446741852608 -0.011578142684080946 0 -0.0008389838624167467 -0.011594906582584281 0 -0.00094775307321348081 -0.011314556269647039 0 -0.0008389838624167467 -0.011594906582584281 0 -0.00073015060279846213 -0.01180093383471912 0 -0.00064954947580643518 -0.011547919110185238 0 -0.0008389838624167467 -0.011594906582584281 0 -0.00064954947580643518 -0.011547919110185238 0 -0.00071016513539598415 -0.011352167086014584 0 -0.00093919761874455485 -0.011927557476961699 0 -0.0008389838624167467 -0.011594906582584281 0 -0.00073015060279846213 -0.01180093383471912 0 -0.00082357716704944083 -0.012036106216210478 0 -0.00093919761874455485 -0.011927557476961699 0 -0.00073015060279846213 -0.01180093383471912 0 -0.00064954947580643518 -0.011547919110185238 0 -0.0005480671049465539 -0.011362375568919234 0 -0.00045109189683548845 -0.011590677440464488 0 -0.00073015060279846213 -0.01180093383471912 0 -0.00064954947580643518 -0.011547919110185238 0 -0.00045109189683548845 -0.011590677440464488 0 -0.00064954947580643518 -0.011547919110185238 0 -0.0005480671049465539 -0.011362375568919234 0 -0.00071016513539598415 -0.011352167086014584 0 -0.0005480671049465539 -0.011362375568919234 0 -0.00059880411174342135 -0.011164723192423931 0 -0.00071016513539598415 -0.011352167086014584 0 -0.0005480671049465539 -0.011362375568919234 0 -0.00059880411174342135 -0.011164723192423931 0 -0.00035692072734888651 -0.011088018549626381 0 -0.00059880411174342135 -0.011164723192423931 0 -0.00035692072734888651 -0.011088018549626381 0 -0.00059675193706540321 -0.010896702371416699 0 -0.00059880411174342135 -0.011164723192423931 0 -0.00078042191701188895 -0.011102218508377632 0 -0.00059675193706540321 -0.010896702371416699 0 -0.00078042191701188895 -0.011102218508377632 0 -0.00080397079246494175 -0.01085609833921815 0 -0.00059675193706540321 -0.010896702371416699 0 -0.00078042191701188895 -0.011102218508377632 0 -0.0010225994164882331 -0.010995391591313401 0 -0.00080397079246494175 -0.01085609833921815 0 -0.00078042191701188895 -0.011102218508377632 0 -0.00071016513539598415 -0.011352167086014584 0 -0.00094775307321348081 -0.011314556269647039 0 -0.0008389838624167467 -0.011594906582584281 0 -0.00071016513539598415 -0.011352167086014584 0 -0.00094775307321348081 -0.011314556269647039 0 -0.00059880411174342135 -0.011164723192423931 0 -0.00078042191701188895 -0.011102218508377632 0 -0.00071016513539598415 -0.011352167086014584 0 -0.0010627446741852608 -0.011578142684080946 0 -0.00094775307321348081 -0.011314556269647039 0 -0.0013082495144135179 -0.011275061607721265 0 -0.00094775307321348081 -0.011314556269647039 0 -0.0010225994164882331 -0.010995391591313401 0 -0.0013082495144135179 -0.011275061607721265 0 -0.00078042191701188895 -0.011102218508377632 0 -0.00094775307321348081 -0.011314556269647039 0 -0.0010225994164882331 -0.010995391591313401 0 -0.0010225994164882331 -0.010995391591313401 0 -0.0013082495144135179 -0.011275061607721265 0 -0.0013267043824594753 -0.010756657428271872 0 -0.0016133458666846112 -0.010942977742585467 0 -0.0013082495144135179 -0.011275061607721265 0 -0.0013267043824594753 -0.010756657428271872 0 0.00011657581101778631 -0.0070033200233278652 0 0.0007543889467080294 -0.0063842482679117209 0 0.001269584461402266 -0.0073458330924655903 0 0.00011657581101778631 -0.0070033200233278652 0 0.0007543889467080294 -0.0063842482679117209 0 0.00012744718831430167 -0.0059934877568493198 0 0.0007543889467080294 -0.0063842482679117209 0 0.0015026724961960754 -0.0061244983519902728 0 0.001269584461402266 -0.0073458330924655903 0 0.0015026724961960754 -0.0061244983519902728 0 0.001269584461402266 -0.0073458330924655903 0 0.0021207943355346062 -0.0066916957207370387 0 0.0018200700856832292 -0.0088336949365239812 0 0.001269584461402266 -0.0073458330924655903 0 0.0022187025445679688 -0.0077221911869147395 0 0.0018200700856832292 -0.0088336949365239812 0 0.001269584461402266 -0.0073458330924655903 0 0.00049538031032813972 -0.0083486219865174828 0 0.001269584461402266 -0.0073458330924655903 0 0.0021207943355346062 -0.0066916957207370387 0 0.0022187025445679688 -0.0077221911869147395 0 0.00011657581101778631 -0.0070033200233278652 0 0.00049538031032813972 -0.0083486219865174828 0 -0.00060412097669775217 -0.0076506051082560131 0 0.00011657581101778631 -0.0070033200233278652 0 0.001269584461402266 -0.0073458330924655903 0 0.00049538031032813972 -0.0083486219865174828 0 -0.00031204914398112217 -0.0093757381182374179 0 0.00049538031032813972 -0.0083486219865174828 0 -0.00060412097669775217 -0.0076506051082560131 0 -0.00063438327315470152 -0.011957446299073421 0 -0.00073015060279846213 -0.01180093383471912 0 -0.00045109189683548845 -0.011590677440464488 0 -0.0010758260774011818 -0.010362252912846858 0 -0.0010002831699205171 -0.0091170228700091869 0 -0.0015575339897602148 -0.008765346301170672 0 -0.00060412097669775217 -0.0076506051082560131 0 -0.0015661035590946843 -0.0066049253209246456 0 -0.00060412097669775217 -0.0076506051082560131 0 -0.0015661035590946843 -0.0066049253209246456 0 -0.00064476010710101412 -0.0063353494836823664 0 0.00011657581101778631 -0.0070033200233278652 0 -0.00060412097669775217 -0.0076506051082560131 0 -0.00064476010710101412 -0.0063353494836823664 0 0.00011657581101778631 -0.0070033200233278652 0 -0.00064476010710101412 -0.0063353494836823664 0 0.00012744718831430167 -0.0059934877568493198 0 -0.00064476010710101412 -0.0063353494836823664 0 -0.0006039284458741218 -0.0054916405584013233 0 -0.001179638367918679 -0.0054507589098795996 0 -0.00064476010710101412 -0.0063353494836823664 0 -0.0006039284458741218 -0.0054916405584013233 0 0.00012744718831430167 -0.0059934877568493198 0 -0.0015661035590946843 -0.0066049253209246456 0 -0.001179638367918679 -0.0054507589098795996 0 -0.0013954743758707747 -0.0052510107595560122 0 -0.0005480671049465539 -0.011362375568919234 0 -0.00045109189683548845 -0.011590677440464488 0 -0.00035692072734888651 -0.011088018549626381 0 -0.0015661035590946843 -0.0066049253209246456 0 -0.00064476010710101412 -0.0063353494836823664 0 -0.001179638367918679 -0.0054507589098795996 0 -0.0010002831699205171 -0.0091170228700091869 0 -0.00094291572357871648 -0.008159115349899989 0 -0.0011539819327356538 -0.0054267604379508172 0 -0.00090678568134510589 -0.0048605987002720884 0 -0.001179638367918679 -0.0054507589098795996 0 -0.0013954743758707747 -0.0052510107595560122 0 -0.001128035057300191 -0.0049258275953645491 0 -0.0006039284458741218 -0.0054916405584013233 0 -0.00063312801791022392 -0.0050740982646212303 0 -0.00028919145966843066 -0.0048477116117244864 0 -0.001179638367918679 -0.0054507589098795996 0 -0.00063312801791022392 -0.0050740982646212303 0 -0.00066602877372019538 -0.0046965396456633583 0 -0.00057061206457045333 -0.0054108686885818548 0 -4.5762669699943077e-05 -0.0044164673009377126 0 -0.0006039284458741218 -0.0054916405584013233 0 -0.001179638367918679 -0.0054507589098795996 0 -0.00063312801791022392 -0.0050740982646212303 0 -0.0006039284458741218 -0.0054916405584013233 0 0.00073808440397717286 -0.0052473219137170483 0 0.00021621210333492408 -0.0039046882407565739 0 0.00073808440397717286 -0.0052473219137170483 0 0.0015146323458857867 -0.004196588608518916 0 0.00021621210333492408 -0.0039046882407565739 0 0.0007543889467080294 -0.0063842482679117209 0 0.00073808440397717286 -0.0052473219137170483 0 0.00012744718831430167 -0.0059934877568493198 0 -0.0006039284458741218 -0.0054916405584013233 0 0.00073808440397717286 -0.0052473219137170483 0 0.00012744718831430167 -0.0059934877568493198 0 0.0007543889467080294 -0.0063842482679117209 0 0.0015026724961960754 -0.0061244983519902728 0 0.00073808440397717286 -0.0052473219137170483 0 0.0015026724961960754 -0.0061244983519902728 0 0.00073808440397717286 -0.0052473219137170483 0 0.0017168980822207566 -0.0051517028517042039 0 0.00073808440397717286 -0.0052473219137170483 0 0.0017168980822207566 -0.0051517028517042039 0 0.0015146323458857867 -0.004196588608518916 0 0.0015146323458857867 -0.004196588608518916 0 0.002288261880319914 -0.0045891002356587361 0 0.0024451395312713531 -0.0036870013323884285 0 0.0017168980822207566 -0.0051517028517042039 0 0.0015146323458857867 -0.004196588608518916 0 0.002288261880319914 -0.0045891002356587361 0 0.002288261880319914 -0.0045891002356587361 0 0.0029249472805146374 -0.004246287034620203 0 0.0024451395312713531 -0.0036870013323884285 0 0.0029249472805146374 -0.004246287034620203 0 0.0032773240570388757 -0.0040797528377212282 0 0.0030356606621464877 -0.003654079936984164 0 0.0032773240570388757 -0.0040797528377212282 0 0.0033221051760174854 -0.0036228164359488296 0 0.0030356606621464877 -0.003654079936984164 0 0.0029249472805146374 -0.004246287034620203 0 0.0032773240570388757 -0.0040797528377212282 0 0.0032252841931103109 -0.0045329019230937071 0 0.0032252841931103109 -0.0045329019230937071 0 0.0027848255112486466 -0.0048642292054967761 0 0.0033621337090256366 -0.0050901261299273557 0 0.0032773240570388757 -0.0040797528377212282 0 0.0032252841931103109 -0.0045329019230937071 0 0.0038338548225694468 -0.0044040794876803822 0 0.0032252841931103109 -0.0045329019230937071 0 0.0033621337090256366 -0.0050901261299273557 0 0.0038338548225694468 -0.0044040794876803822 0 0.0029249472805146374 -0.004246287034620203 0 0.0032252841931103109 -0.0045329019230937071 0 0.0027848255112486466 -0.0048642292054967761 0 0.002288261880319914 -0.0045891002356587361 0 0.0029249472805146374 -0.004246287034620203 0 0.0027848255112486466 -0.0048642292054967761 0 0.0027848255112486466 -0.0048642292054967761 0 0.0033621337090256366 -0.0050901261299273557 0 0.0025252763456393456 -0.0056547814717196341 0 0.0033621337090256366 -0.0050901261299273557 0 0.0025252763456393456 -0.0056547814717196341 0 0.0037412115137942271 -0.005984924711235168 0 0.002288261880319914 -0.0045891002356587361 0 0.0027848255112486466 -0.0048642292054967761 0 0.0025252763456393456 -0.0056547814717196341 0 0.0015026724961960754 -0.0061244983519902728 0 0.0017168980822207566 -0.0051517028517042039 0 0.0025252763456393456 -0.0056547814717196341 0 0.0017168980822207566 -0.0051517028517042039 0 0.002288261880319914 -0.0045891002356587361 0 0.0025252763456393456 -0.0056547814717196341 0 0.0019997529125262477 0.0021392988833130759 0 0.0019133344902859824 0.0022629319695124609 0 0.0018949815200266849 0.0023192909199686754 0 0.0019997529125262477 0.0021392988833130759 0 0.0018949815200266849 0.0023192909199686754 0 0.0019585711480645598 0.0022614711741111653 0 0.0019997529125262477 0.0021392988833130759 0 0.0020401577541824829 0.0020794344704313621 0 0.0019585711480645598 0.0022614711741111653 0 0.0019997529125262477 0.0021392988833130759 0 0.0020401577541824829 0.0020794344704313621 0 0.0020683180442302969 0.0019750493905395876 0 0.0019997529125262477 0.0021392988833130759 0 0.0020683180442302969 0.0019750493905395876 0 0.0019133344902859824 0.0022629319695124609 0 0.0028075078672763825 0.00081587364171307227 0 0.0023320980518216992 0.0016293403781568602 0 0.0029132173971886466 -0.0023547742917753717 0 0.0024390603857371781 0.0016239121182286854 0 0.0024066875135104302 0.00011939444762480928 0 0.0020401577541824829 0.0020794344704313621 0 0.0023320980518216992 0.0016293403781568602 0 0.0018756115739636417 0.0023433775219102227 0 0.0020401577541824829 0.0020794344704313621 0 0.0020683180442302969 0.0019750493905395876 0 0.0023320980518216992 0.0016293403781568602 0 0.0038338548225694468 -0.0044040794876803822 0 0.0033917598915859382 -0.0034393836591074148 0 0.0033221051760174854 -0.0036228164359488296 0 0.0032773240570388757 -0.0040797528377212282 0 0.0038338548225694468 -0.0044040794876803822 0 0.0033221051760174854 -0.0036228164359488296 0 0.0033621337090256366 -0.0050901261299273557 0 0.0038338548225694468 -0.0044040794876803822 0 0.0037412115137942271 -0.005984924711235168 0 0.0023320980518216992 0.0016293403781568602 0 0.0022733877418223995 0.0024137283281421189 0 0.002452769216784128 0.0025870147885396445 0 0.0023320980518216992 0.0016293403781568602 0 0.002072435254028632 0.0021232476558960467 0 0.0022733877418223995 0.0024137283281421189 0 0.0032829545212401893 -0.0019252176034928923 0 0.0030881639790979716 -0.0017789978406591315 0 0.0028075078672763825 0.00081587364171307227 0 0.0023320980518216992 0.0016293403781568602 0 0.002452769216784128 0.0025870147885396445 0 0.0020683180442302969 0.0019750493905395876 0 0.0023320980518216992 0.0016293403781568602 0 0.002072435254028632 0.0021232476558960467 0 0.0019580830590245533 0.0022095904836345035 0 0.0019092905783376171 0.0022474178078394297 0 0.0019133344902859824 0.0022629319695124609 0 0.0020683180442302969 0.0019750493905395876 0 0.002072435254028632 0.0021232476558960467 0 0.0019580830590245533 0.0022095904836345035 0 0.002072435254028632 0.0021232476558960467 0 0.0019580830590245533 0.0022095904836345035 0 0.0019834671938366187 0.0022571138982069535 0 0.0020683180442302969 0.0019750493905395876 0 0.0019580830590245533 0.0022095904836345035 0 0.0019133344902859824 0.0022629319695124609 0 0.001125236165895109 0.00091562953955764482 0 0.001500354846693021 0.00086664235167008762 0 0.0014501032143067424 0.0011239027834192639 0 0.002150562088684165 0.0023011996672108051 0 0.0019002906815657708 0.0020074754398218299 0 0.0019834671938366187 0.0022571138982069535 0 0.0020246233421401041 0.0023680323240028414 0 0.0019092905783376171 0.0022474178078394297 0 0.002072435254028632 0.0021232476558960467 0 0.0019834671938366187 0.0022571138982069535 0 0.0020246233421401041 0.0023680323240028414 0 0.0019002906815657708 0.0020074754398218299 0 0.0016106225841150466 0.001587834957083146 0 0.0019580830590245533 0.0022095904836345035 0 0.0019834671938366187 0.0022571138982069535 0 0.0019092905783376171 0.0022474178078394297 0 0.002072435254028632 0.0021232476558960467 0 0.0022733877418223995 0.0024137283281421189 0 0.0023326961758796767 0.0025312000659170096 0 0.0022733877418223995 0.0024137283281421189 0 0.0023449704276474158 0.0024802139848392819 0 0.0023326961758796767 0.0025312000659170096 0 0.0022733877418223995 0.0024137283281421189 0 0.0023449704276474158 0.0024802139848392819 0 0.002452769216784128 0.0025870147885396445 0 0.0023826364317594485 0.0023577966041767738 0 0.0020294573968165546 0.0022764402650870363 0 0.0022360239343985205 0.0018149698262732302 0 0.0023826364317594485 0.0023577966041767738 0 0.0026345110744851372 0.0020527822446578777 0 0.0022360239343985205 0.0018149698262732302 0 0.0023449704276474158 0.0024802139848392819 0 0.0023826364317594485 0.0023577966041767738 0 0.0020294573968165546 0.0022764402650870363 0 0.0023449704276474158 0.0024802139848392819 0 0.0023826364317594485 0.0023577966041767738 0 0.0023326961758796767 0.0025312000659170096 0 0.0023826364317594485 0.0023577966041767738 0 0.0026093968934042125 0.0024868589080381748 0 0.0026345110744851372 0.0020527822446578777 0 0.0023970711471205755 0.0023449064650451035 0 0.0019002906815657708 0.0020074754398218299 0 0.001125236165895109 0.00091562953955764482 0 0.0011378849315963862 0.00069166951099904072 0 0.001500354846693021 0.00086664235167008762 0 0.00060430151707943235 0.00035439299913030836 0 0.001047147413113695 0.00029060430901233663 0 0.0012601734409974023 0.00069713808531711604 0 0.001780899214328295 8.8691628095326165e-05 0 0.0012277306095922712 0.00079738022054775268 0 0.0019002906815657708 0.0020074754398218299 0 0.001780899214328295 8.8691628095326165e-05 0 0.0025252763456393456 -0.0056547814717196341 0 0.0021207943355346062 -0.0066916957207370387 0 0.0028527048704438821 -0.0068216091855938989 0 0.0015026724961960754 -0.0061244983519902728 0 0.0025252763456393456 -0.0056547814717196341 0 0.0021207943355346062 -0.0066916957207370387 0 0.0021207943355346062 -0.0066916957207370387 0 0.0028527048704438821 -0.0068216091855938989 0 0.0022187025445679688 -0.0077221911869147395 0 0.0030881639790979716 -0.0017789978406591315 0 0.0028747755288723717 -0.0026222373428940095 0 0.0023449704276474158 0.0024802139848392819 0 0.002452769216784128 0.0025870147885396445 0 0.0020294573968165546 0.0022764402650870363 0 0.0037412115137942271 -0.005984924711235168 0 0.0028527048704438821 -0.0068216091855938989 0 0.0035177554264482921 -0.0075466149231184056 0 0.0025252763456393456 -0.0056547814717196341 0 0.0037412115137942271 -0.005984924711235168 0 0.0028527048704438821 -0.0068216091855938989 0 0.0028527048704438821 -0.0068216091855938989 0 0.0035177554264482921 -0.0075466149231184056 0 0.0028321457120674349 -0.0081655949009925358 0 0.0028527048704438821 -0.0068216091855938989 0 0.0028321457120674349 -0.0081655949009925358 0 0.0022187025445679688 -0.0077221911869147395 0 0.0028321457120674349 -0.0081655949009925358 0 0.0022187025445679688 -0.0077221911869147395 0 0.0023488292358341345 -0.0087237079893163604 0 0.0018200700856832292 -0.0088336949365239812 0 0.0022187025445679688 -0.0077221911869147395 0 0.0023488292358341345 -0.0087237079893163604 0 0.0017799095406121586 -0.0096331193030768317 0 0.0023488292358341345 -0.0087237079893163604 0 0.0031298125060108674 -0.0089809944454172057 0 0.0028321457120674349 -0.0081655949009925358 0 0.0023488292358341345 -0.0087237079893163604 0 0.0031298125060108674 -0.0089809944454172057 0 -1.7106180329143614e-05 -0.0038742431956227505 0 0.00089011696222460516 -0.0037047976002785076 0 0.00099620993282925748 -0.0033164769797905287 0 -1.7106180329143614e-05 -0.0038742431956227505 0 0.00089011696222460516 -0.0037047976002785076 0 0.00060278952754471012 -0.0041334694398896298 0 0.00096991344903532334 -0.0068564792577777839 0 0.0012746687231044943 -0.0036739677389875298 0 0.0011618387066171301 -0.0040377496785717233 0 0.0013718232006144936 -0.0035857776143938961 0 0.0017350618122390733 -0.0040787838573889896 0 0.0011618387066171301 -0.0040377496785717233 0 0.00089011696222460516 -0.0037047976002785076 0 0.0013718232006144936 -0.0035857776143938961 0 0.0011618387066171301 -0.0040377496785717233 0 0.00089011696222460516 -0.0037047976002785076 0 0.00060278952754471012 -0.0041334694398896298 0 0.00089011696222460516 -0.0037047976002785076 0 0.0013718232006144936 -0.0035857776143938961 0 0.000991915924081644 -0.003258321736773589 0 0.0010744037135972972 -0.0036025875067468857 0 0.0012746687231044943 -0.0036739677389875298 0 0.0035177554264482921 -0.0075466149231184056 0 0.0028321457120674349 -0.0081655949009925358 0 0.0031298125060108674 -0.0089809944454172057 0 0.0028747755288723717 -0.0026222373428940095 0 0.0012746687231044943 -0.0036739677389875298 0 0.0013718232006144936 -0.0035857776143938961 0 0.000991915924081644 -0.003258321736773589 0 0.0016334477875746642 -0.0029075912235922569 0 0.0020294573968165546 0.0022764402650870363 0 0.0017632591560931879 0.0015269097443182487 0 0.0022360239343985205 0.0018149698262732302 0 0.0012746687231044943 -0.0036739677389875298 0 0.002202047806741042 -0.00046553582762960563 0 0.0013718232006144936 -0.0035857776143938961 0 0.0016334477875746642 -0.0029075912235922569 0 0.0023138568245988367 -0.0036309994454840904 0 0.002283930094626868 -0.0025591820132869806 0 0.0016334477875746642 -0.0029075912235922569 0 0.0023138568245988367 -0.0036309994454840904 0 0.001780899214328295 8.8691628095326165e-05 0 0.002202047806741042 -0.00046553582762960563 0 0.001780899214328295 8.8691628095326165e-05 0 0.0015048944852151997 -0.0023835644272050924 0 0.00060430151707943235 0.00035439299913030836 0 0.00095200377279629981 -2.3574374405386528e-05 0 0.00062897505096647349 -0.00034704880751468763 0 0.00060430151707943235 0.00035439299913030836 0 0.00095200377279629981 -2.3574374405386528e-05 0 0.001047147413113695 0.00029060430901233663 0 0.00095200377279629981 -2.3574374405386528e-05 0 0.00062897505096647349 -0.00034704880751468763 0 0.0011144631426267693 -0.00038700922655928875 0 0.00062897505096647349 -0.00034704880751468763 0 0.00092385097286399437 -0.00063528713758529093 0 0.0011144631426267693 -0.00038700922655928875 0 0.0013718232006144936 -0.0035857776143938961 0 0.0023138568245988367 -0.0036309994454840904 0 0.0017350618122390733 -0.0040787838573889896 0 0.0017350618122390733 -0.0040787838573889896 0 0.0015199136750288964 -0.0044952829742867066 0 0.002333232827036355 -0.0046407621661739449 0 0.0023138568245988367 -0.0036309994454840904 0 0.0017350618122390733 -0.0040787838573889896 0 0.002333232827036355 -0.0046407621661739449 0 0.0015199136750288964 -0.0044952829742867066 0 0.002333232827036355 -0.0046407621661739449 0 0.0014536143464942725 -0.0050186453901117922 0 0.00057805821143975145 -0.0011224847302710053 0 0.0010117764053631643 -0.0011638498566677916 0 0.0012324593373770185 -0.000798201541497977 0 0.00062897505096647349 -0.00034704880751468763 0 0.00092385097286399437 -0.00063528713758529093 0 0.00065647938702133497 -0.0010474889177411091 0 0.0015048944852151997 -0.0023835644272050924 0 0.00087781016695476449 -0.0020677801771023401 0 0.00087781016695476449 -0.0020677801771023401 0 0.0012684075674250104 -0.00068141041641441838 0 0.00092385097286399437 -0.00063528713758529093 0 0.00065647938702133497 -0.0010474889177411091 0 0.0012947369762489711 -0.0007602462177030057 0 0.0008010536004469822 -0.0013009161867463901 0 0.00077793495943430911 -0.0014943371214134317 0 0.0010255327283045187 -0.0013929188301682297 0 0.00057805821143975145 -0.0011224847302710053 0 0.0008010536004469822 -0.0013009161867463901 0 0.0010117764053631643 -0.0011638498566677916 0 0.0008010536004469822 -0.0013009161867463901 0 0.0010255327283045187 -0.0013929188301682297 0 0.0010117764053631643 -0.0011638498566677916 0 0.0008010536004469822 -0.0013009161867463901 0 0.00059788604057232767 -0.0013562797075004013 0 0.00077793495943430911 -0.0014943371214134317 0 0.00057805821143975145 -0.0011224847302710053 0 0.0008010536004469822 -0.0013009161867463901 0 0.00059788604057232767 -0.0013562797075004013 0 0.00087781016695476449 -0.0020677801771023401 0 0.00074803404219604154 -0.0013647501427800522 0 0.00072750711379169206 -0.0017214292693412507 0 0.00077793495943430911 -0.0014943371214134317 0 0.00042179455021239449 -0.0016093866180218273 0 0.00059788604057232767 -0.0013562797075004013 0 0.00077793495943430911 -0.0014943371214134317 0 0.00042179455021239449 -0.0016093866180218273 0 0.0010519967344056306 -0.0017675947841429985 0 0.00077793495943430911 -0.0014943371214134317 0 0.0010255327283045187 -0.0013929188301682297 0 0.00072750711379169206 -0.0017214292693412507 0 0.0010519967344056306 -0.0017675947841429985 0 0.00077793495943430911 -0.0014943371214134317 0 0.00059788604057232767 -0.0013562797075004013 0 0.00042179455021239449 -0.0016093866180218273 0 -3.6175989112610724e-06 -0.0014138953715642068 0 0.00059000890456860605 -0.0011469208438560634 0 0.00059788604057232767 -0.0013562797075004013 0 -3.6175989112610724e-06 -0.0014138953715642068 0 0.00087781016695476449 -0.0020677801771023401 0 0.00072838733664073974 -0.00322728889722812 0 8.9254511469459176e-05 -0.001823108664344279 0 0.00042179455021239449 -0.0016093866180218273 0 -3.6175989112610724e-06 -0.0014138953715642068 0 0.00072838733664073974 -0.00322728889722812 0 0.0005248020646446734 -0.0042200601053847342 0 0.0014536143464942725 -0.0050186453901117922 0 0.00090643981089080555 -0.0048013802461859718 0 0.00069024507321094786 -0.0051171344190861839 0 0.0014536143464942725 -0.0050186453901117922 0 0.00059607701328600986 -0.0053818115744039665 0 0.00069024507321094786 -0.0051171344190861839 0 -0.00028690169377098201 -0.0018087936523428149 0 -3.6175989112610724e-06 -0.0014138953715642068 0 -0.00061730705848909225 -0.0016992152692179689 0 -0.00028690169377098201 -0.0018087936523428149 0 8.9254511469459176e-05 -0.001823108664344279 0 -3.6175989112610724e-06 -0.0014138953715642068 0 0.00059651830489115994 -0.0053874591475875522 0 0.00052285104103707701 -0.0054184330318498833 0 0.0004778175953531521 -0.0051744916205451116 0 0.0005248020646446734 -0.0042200601053847342 0 0.00048706551349735977 -0.0042775293843995013 0 0.0005248020646446734 -0.0042200601053847342 0 0.00043370049713556494 -0.004962778575173887 0 0.00059651830489115994 -0.0053874591475875522 0 0.00069024507321094786 -0.0051171344190861839 0 0.0004778175953531521 -0.0051744916205451116 0 0.00014015626033917533 -0.0050011889042918655 0 0.00052285104103707701 -0.0054184330318498833 0 0.0004778175953531521 -0.0051744916205451116 0 0.00014015626033917533 -0.0050011889042918655 0 0.0004778175953531521 -0.0051744916205451116 0 0.00049029311840281201 -0.0046291118802583948 0 0.00090643981089080555 -0.0048013802461859718 0 0.00069024507321094786 -0.0051171344190861839 0 0.00049029311840281201 -0.0046291118802583948 0 0.00069024507321094786 -0.0051171344190861839 0 0.0004778175953531521 -0.0051744916205451116 0 0.00049029311840281201 -0.0046291118802583948 0 0.00090643981089080555 -0.0048013802461859718 0 0.00049029311840281201 -0.0046291118802583948 0 0.00099571168992166822 -0.0044423595196643574 0 -1.7106180329143614e-05 -0.0038742431956227505 0 0.00049029311840281201 -0.0046291118802583948 0 0.00060278952754471012 -0.0041334694398896298 0 0.00049029311840281201 -0.0046291118802583948 0 0.00060278952754471012 -0.0041334694398896298 0 0.00099571168992166822 -0.0044423595196643574 0 0.0011618387066171301 -0.0040377496785717233 0 0.00060278952754471012 -0.0041334694398896298 0 0.00099571168992166822 -0.0044423595196643574 0 0.0011618387066171301 -0.0040377496785717233 0 0.0017350618122390733 -0.0040787838573889896 0 0.0015199136750288964 -0.0044952829742867066 0 0.0011618387066171301 -0.0040377496785717233 0 0.0015199136750288964 -0.0044952829742867066 0 0.00099571168992166822 -0.0044423595196643574 0 0.0015199136750288964 -0.0044952829742867066 0 0.0014536143464942725 -0.0050186453901117922 0 0.00099571168992166822 -0.0044423595196643574 0 0.0014536143464942725 -0.0050186453901117922 0 0.00090643981089080555 -0.0048013802461859718 0 0.00099571168992166822 -0.0044423595196643574 0 0.0024652750854529779 -0.00094791719347570578 0 0.0019605700495565906 -0.0013136730526324865 0 0.0017089218090934877 -0.0008839243467416892 0 0.0024652750854529779 -0.00094791719347570578 0 0.0017089218090934877 -0.0008839243467416892 0 0.0019147599827958974 -0.0004802369725709277 0 0.0024652750854529779 -0.00094791719347570578 0 0.0025394258391947025 -0.00031339733296445525 0 0.0028482312244554006 -0.00059584687304384872 0 0.0024652750854529779 -0.00094791719347570578 0 0.0028482312244554006 -0.00059584687304384872 0 0.0029939108530365873 -0.0009902391755706205 0 0.0024652750854529779 -0.00094791719347570578 0 0.002767280757013716 -0.0013523707350481284 0 0.0029939108530365873 -0.0009902391755706205 0 0.0026325579590031414 -0.0015850034235887253 0 0.0024652750854529779 -0.00094791719347570578 0 0.002767280757013716 -0.0013523707350481284 0 0.0023891848183334738 -0.00054732265282806205 0 0.0026518479101797269 2.9890044847158651e-05 0 0.0023891848183334738 -0.00054732265282806205 0 0.002000951169061366 -0.0014911504670399951 0 0.002530542068626252 -0.0016728975501630857 0 0.0019321880008448065 -0.0018280326098442411 0 0.0018874033598907734 -0.0013933081779396892 0 0.0026325579590031414 -0.0015850034235887253 0 0.0024652750854529779 -0.00094791719347570578 0 0.0019605700495565906 -0.0013136730526324865 0 0.002000951169061366 -0.0014911504670399951 0 0.0012577465283011087 -0.0010513405522630235 0 0.0014722707300409287 -0.0018005821963060125 0 0.0018874033598907734 -0.0013933081779396892 0 0.0013137652195246996 -0.0014543855339953623 0 0.0018874033598907734 -0.0013933081779396892 0 0.0013137652195246996 -0.0014543855339953623 0 0.001263752086065522 -0.0010778698478297675 0 0.0010519967344056306 -0.0017675947841429985 0 0.0013137652195246996 -0.0014543855339953623 0 0.0010255327283045187 -0.0013929188301682297 0 0.0013137652195246996 -0.0014543855339953623 0 0.0011538173254025629 -0.0012728774262500597 0 0.001263752086065522 -0.0010778698478297675 0 0.0013137652195246996 -0.0014543855339953623 0 0.0011538173254025629 -0.0012728774262500597 0 0.0010255327283045187 -0.0013929188301682297 0 0.0011538173254025629 -0.0012728774262500597 0 0.0010255327283045187 -0.0013929188301682297 0 0.0010117764053631643 -0.0011638498566677916 0 0.0010117764053631643 -0.0011638498566677916 0 0.001263752086065522 -0.0010778698478297675 0 0.0012324593373770185 -0.000798201541497977 0 0.0011538173254025629 -0.0012728774262500597 0 0.0010117764053631643 -0.0011638498566677916 0 0.001263752086065522 -0.0010778698478297675 0 0.001263752086065522 -0.0010778698478297675 0 0.0012324593373770185 -0.000798201541497977 0 0.0017089218090934877 -0.0008839243467416892 0 0.0012324593373770185 -0.000798201541497977 0 0.0017089218090934877 -0.0008839243467416892 0 0.0019147599827958974 -0.0004802369725709277 0 0.0019605700495565906 -0.0013136730526324865 0 0.001263752086065522 -0.0010778698478297675 0 0.0017089218090934877 -0.0008839243467416892 0 0.0012684075674250104 -0.00068141041641441838 0 0.0018648653741013613 -0.00052345724946611396 0 0.0012947369762489711 -0.0007602462177030057 0 0.0019147599827958974 -0.0004802369725709277 0 0.0014912803394254816 -0.00033134604306155567 0 0.0019147599827958974 -0.0004802369725709277 0 0.0017384768749134786 -8.2172025021641351e-07 0 0.002168218674551792 1.4094769191491892e-05 0 0.0019147599827958974 -0.0004802369725709277 0 0.0014912803394254816 -0.00033134604306155567 0 0.0017384768749134786 -8.2172025021641351e-07 0 0.00092385097286399437 -0.00063528713758529093 0 0.0012947369762489711 -0.0007602462177030057 0 0.0011144631426267693 -0.00038700922655928875 0 0.0012947369762489711 -0.0007602462177030057 0 0.0014912803394254816 -0.00033134604306155567 0 0.0011144631426267693 -0.00038700922655928875 0 0.0014912803394254816 -0.00033134604306155567 0 0.0011144631426267693 -0.00038700922655928875 0 0.0013641855432555317 -2.9833562473014004e-05 0 0.00095200377279629981 -2.3574374405386528e-05 0 0.0011144631426267693 -0.00038700922655928875 0 0.0013641855432555317 -2.9833562473014004e-05 0 0.0013641855432555317 -2.9833562473014004e-05 0 0.001047147413113695 0.00029060430901233663 0 0.0014646620977921414 0.00034380239050560549 0 0.00095200377279629981 -2.3574374405386528e-05 0 0.0013641855432555317 -2.9833562473014004e-05 0 0.001047147413113695 0.00029060430901233663 0 0.0014912803394254816 -0.00033134604306155567 0 0.0013641855432555317 -2.9833562473014004e-05 0 0.0017384768749134786 -8.2172025021641351e-07 0 0.0013641855432555317 -2.9833562473014004e-05 0 0.0017384768749134786 -8.2172025021641351e-07 0 0.0014646620977921414 0.00034380239050560549 0 0.0017384768749134786 -8.2172025021641351e-07 0 0.0014646620977921414 0.00034380239050560549 0 0.0018667808821788258 0.00045045946334819321 0 0.0017384768749134786 -8.2172025021641351e-07 0 0.002168218674551792 1.4094769191491892e-05 0 0.0018667808821788258 0.00045045946334819321 0 0.002168218674551792 1.4094769191491892e-05 0 0.0026627158543030636 0.00023003398457183762 0 0.0023348242848908632 0.00063302409421614209 0 0.0019147599827958974 -0.0004802369725709277 0 0.002168218674551792 1.4094769191491892e-05 0 0.0025394258391947025 -0.00031339733296445525 0 0.0024652750854529779 -0.00094791719347570578 0 0.0019147599827958974 -0.0004802369725709277 0 0.0025394258391947025 -0.00031339733296445525 0 0.0025394258391947025 -0.00031339733296445525 0 0.0028482312244554006 -0.00059584687304384872 0 0.003033555685614385 -0.00012417951599187984 0 0.0025394258391947025 -0.00031339733296445525 0 0.0026627158543030636 0.00023003398457183762 0 0.003033555685614385 -0.00012417951599187984 0 0.002168218674551792 1.4094769191491892e-05 0 0.0025394258391947025 -0.00031339733296445525 0 0.0026627158543030636 0.00023003398457183762 0 0.0026627158543030636 0.00023003398457183762 0 0.0028199033356365883 0.0007239428523995588 0 0.0023348242848908632 0.00063302409421614209 0 0.0023348242848908632 0.00063302409421614209 0 0.0018667808821788258 0.00045045946334819321 0 0.0019401574682310942 0.0010414046654598815 0 0.002168218674551792 1.4094769191491892e-05 0 0.0023348242848908632 0.00063302409421614209 0 0.0018667808821788258 0.00045045946334819321 0 0.0023348242848908632 0.00063302409421614209 0 0.0019401574682310942 0.0010414046654598815 0 0.00254076673209702 0.0012409701461675239 0 0.0028199033356365883 0.0007239428523995588 0 0.0023348242848908632 0.00063302409421614209 0 0.00254076673209702 0.0012409701461675239 0 0.001047147413113695 0.00029060430901233663 0 0.0014646620977921414 0.00034380239050560549 0 0.0012601734409974023 0.00069713808531711604 0 0.0014646620977921414 0.00034380239050560549 0 0.0012601734409974023 0.00069713808531711604 0 0.0016330375085547326 0.00063253945915976576 0 0.0016330375085547326 0.00063253945915976576 0 0.0018667808821788258 0.00045045946334819321 0 0.0019401574682310942 0.0010414046654598815 0 0.0014646620977921414 0.00034380239050560549 0 0.0016330375085547326 0.00063253945915976576 0 0.0018667808821788258 0.00045045946334819321 0 0.0012277306095922712 0.00079738022054775268 0 0.0019657615558869154 0.001038774810878048 0 0.0012601734409974023 0.00069713808531711604 0 0.0016330375085547326 0.00063253945915976576 0 0.0019401574682310942 0.0010414046654598815 0 0.0019401574682310942 0.0010414046654598815 0 0.0014501032143067424 0.0011239027834192639 0 0.0018410903489256983 0.0013952304789172814 0 0.001500354846693021 0.00086664235167008762 0 0.0019401574682310942 0.0010414046654598815 0 0.0014501032143067424 0.0011239027834192639 0 0.0019092905783376171 0.0022474178078394297 0 0.0019133344902859824 0.0022629319695124609 0 0.0019178189364366662 0.0022542734795810248 0 0.0019126610538996859 0.0023383773840816554 0 0.0017536198292951513 0.0022636221163403253 0 0.0016106225841150466 0.001587834957083146 0 0.0017536198292951513 0.0022636221163403253 0 0.0017256971179801469 0.0026366621133189724 0 0.0016985273988839081 0.0026367709803487007 0 0.0017868411268182906 0.0024793022784037051 0 0.0016985273988839081 0.0026367709803487007 0 0.0016747247292119042 0.0027582708240009137 0 0.0017179347688703512 0.0026030087255489867 0 0.0016985273988839081 0.0026367709803487007 0 0.0017868411268182906 0.0024793022784037051 0 0.0017179347688703512 0.0026030087255489867 0 0.0019133344902859824 0.0022629319695124609 0 0.0017256971179801469 0.0026366621133189724 0 0.0017868411268182906 0.0024793022784037051 0 0.0017868411268182906 0.0024793022784037051 0 0.0018949815200266849 0.0023192909199686754 0 0.0017601874551265865 0.0024954357316789768 0 0.0019133344902859824 0.0022629319695124609 0 0.0017868411268182906 0.0024793022784037051 0 0.0018949815200266849 0.0023192909199686754 0 0.0016785149644593308 0.0026021445136367722 0 0.0016428387435773119 0.0027461549567285612 0 0.0018486968678801236 0.0028278202432678676 0 0.0017536198292951513 0.0022636221163403253 0 0.0016347601211060671 0.0027885695080185134 0 0.0019401574682310942 0.0010414046654598815 0 0.0018410903489256983 0.0013952304789172814 0 0.00254076673209702 0.0012409701461675239 0 0.0017536198292951513 0.0022636221163403253 0 0.0020977129884214474 0.0018955619726489042 0 0.0015093649393379937 0.0026609695464779063 0 0.0016785149644593308 0.0026021445136367722 0 0.0016428387435773119 0.0027461549567285612 0 0.0016428387435773119 0.0027461549567285612 0 0.001688894465461834 0.002935800739478499 0 0.0016747247292119042 0.0027582708240009137 0 0.0016985273988839081 0.0026367709803487007 0 0.0016428387435773119 0.0027461549567285612 0 0.0016747247292119042 0.0027582708240009137 0 0.0017256971179801469 0.0026366621133189724 0 0.0016985273988839081 0.0026367709803487007 0 0.0016428387435773119 0.0027461549567285612 0 0.0016428387435773119 0.0027461549567285612 0 0.001688894465461834 0.002935800739478499 0 0.0018486968678801236 0.0028278202432678676 0 0.001688894465461834 0.002935800739478499 0 0.0016814222300446848 0.0029713408552901202 0 0.00172942594773371 0.0032095292393583179 0 0.001688894465461834 0.002935800739478499 0 0.0016747247292119042 0.0027582708240009137 0 0.0016814222300446848 0.0029713408552901202 0 0.0016747247292119042 0.0027582708240009137 0 0.0016814222300446848 0.0029713408552901202 0 0.0016792101120577888 0.0026886407394662677 0 0.0016814222300446848 0.0029713408552901202 0 0.0016507735210321958 0.0028296850174550016 0 0.0016792101120577888 0.0026886407394662677 0 0.0016814222300446848 0.0029713408552901202 0 0.00172942594773371 0.0032095292393583179 0 0.0016035282443013492 0.0031411917213024589 0 0.0016814222300446848 0.0029713408552901202 0 0.0016207281723808642 0.0030736684660442343 0 0.0016035282443013492 0.0031411917213024589 0 0.0016814222300446848 0.0029713408552901202 0 0.0016309324112494853 0.0030020383774122935 0 0.0016507735210321958 0.0028296850174550016 0 0.0016814222300446848 0.0029713408552901202 0 0.0016309324112494853 0.0030020383774122935 0 0.0016207281723808642 0.0030736684660442343 0 0.0016207281723808642 0.0030736684660442343 0 0.0015641992504328572 0.003121349045540487 0 0.0015872858061570809 0.0031039608642253673 0 0.0016309324112494853 0.0030020383774122935 0 0.0016207281723808642 0.0030736684660442343 0 0.0015872858061570809 0.0031039608642253673 0 0.0016207281723808642 0.0030736684660442343 0 0.0015734159742306973 0.0031260760367339915 0 0.0016035282443013492 0.0031411917213024589 0 0.0016207281723808642 0.0030736684660442343 0 0.0015734159742306973 0.0031260760367339915 0 0.0015641992504328572 0.003121349045540487 0 0.0016082063557919229 0.0016164914357604679 0 0.0014449958848140906 0.0020489589947328482 0 0.0017887647822133852 0.0020334730426616039 0 0.0016082063557919229 0.0016164914357604679 0 0.0017887647822133852 0.0020334730426616039 0 0.001962359735232201 0.0017178918781638093 0 0.0016487641275583886 0.0020389835090461332 0 0.0015376603169833989 0.0022936080549913153 0 0.0014444039161149831 0.0020056009116889294 0 0.0015789328762437517 0.0024993594868432303 0 0.0015205747883330076 0.002582374650573413 0 0.0015231203675999945 0.0020250598494125135 0 0.0015789328762437517 0.0024993594868432303 0 0.0016309324112494853 0.0030020383774122935 0 0.0015531634871283632 0.0029931505749630797 0 0.0015872858061570809 0.0031039608642253673 0 0.0015789328762437517 0.0024993594868432303 0 0.0015588849980457367 0.0029472361457551048 0 0.0016309324112494853 0.0030020383774122935 0 0.0015531634871283632 0.0029931505749630797 0 0.0016507735210321958 0.0028296850174550016 0 0.0014449958848140906 0.0020489589947328482 0 0.0017887647822133852 0.0020334730426616039 0 0.0018114126682493275 0.0022798168188402539 0 0.0018114126682493275 0.0022798168188402539 0 0.0016790525969202069 0.0025403561514094277 0 0.0019309951845891096 0.0023359816468765883 0 0.0014449958848140906 0.0020489589947328482 0 0.0018114126682493275 0.0022798168188402539 0 0.0016790525969202069 0.0025403561514094277 0 0.0015730548255676767 0.0029745120233843647 0 0.0016790525969202069 0.0025403561514094277 0 0.0016507735210321958 0.0028296850174550016 0 0.0015789328762437517 0.0024993594868432303 0 0.0016386822945362387 0.002558248769645523 0 0.0016790525969202069 0.0025403561514094277 0 0.0016507735210321958 0.0028296850174550016 0 0.0016792101120577888 0.0026886407394662677 0 0.0016790525969202069 0.0025403561514094277 0 0.0016792101120577888 0.0026886407394662677 0 0.0017601874551265865 0.0024954357316789768 0 0.0017868411268182906 0.0024793022784037051 0 0.0017179347688703512 0.0026030087255489867 0 0.0017601874551265865 0.0024954357316789768 0 0.0016792101120577888 0.0026886407394662677 0 0.0017179347688703512 0.0026030087255489867 0 0.0017601874551265865 0.0024954357316789768 0 0.0016747247292119042 0.0027582708240009137 0 0.0016792101120577888 0.0026886407394662677 0 0.0017179347688703512 0.0026030087255489867 0 0.0016790525969202069 0.0025403561514094277 0 0.0018702845922896653 0.0023886322156059245 0 0.0019309951845891096 0.0023359816468765883 0 0.0016790525969202069 0.0025403561514094277 0 0.0018702845922896653 0.0023886322156059245 0 0.0017601874551265865 0.0024954357316789768 0 0.0018949815200266849 0.0023192909199686754 0 0.0018702845922896653 0.0023886322156059245 0 0.0017601874551265865 0.0024954357316789768 0 0.0018949815200266849 0.0023192909199686754 0 0.0018702845922896653 0.0023886322156059245 0 0.0019585711480645598 0.0022614711741111653 0 0.0018702845922896653 0.0023886322156059245 0 0.0019364799308642625 0.0023250564214868648 0 0.0019585711480645598 0.0022614711741111653 0 0.0018702845922896653 0.0023886322156059245 0 0.0019364799308642625 0.0023250564214868648 0 0.0019309951845891096 0.0023359816468765883 0 0.0019364799308642625 0.0023250564214868648 0 0.0018756115739636417 0.0023433775219102227 0 0.0019309951845891096 0.0023359816468765883 0 0.0020401577541824829 0.0020794344704313621 0 0.0019570805660345954 0.0022563264057550636 0 0.0018756115739636417 0.0023433775219102227 0 0.0019364799308642625 0.0023250564214868648 0 0.0019570805660345954 0.0022563264057550636 0 0.0018756115739636417 0.0023433775219102227 0 0.0019364799308642625 0.0023250564214868648 0 0.0019570805660345954 0.0022563264057550636 0 0.0019585711480645598 0.0022614711741111653 0 0.0020401577541824829 0.0020794344704313621 0 0.0019570805660345954 0.0022563264057550636 0 0.0019585711480645598 0.0022614711741111653 0 0.0038338548225694468 -0.0044040794876803822 0 0.0033917598915859382 -0.0034393836591074148 0 0.0032738077614933468 -0.0027298072626129434 0 0.0032829545212401893 -0.0019252176034928923 0 0.0032130016944011178 -0.0027812657228127877 0 0.0028075078672763825 0.00081587364171307227 0 0.0032738077614933468 -0.0027298072626129434 0 0.0029132173971886466 -0.0023547742917753717 0 0.0033917598915859382 -0.0034393836591074148 0 0.0033221051760174854 -0.0036228164359488296 0 0.0032315431222341116 -0.0031174259667650726 0 0.0033221051760174854 -0.0036228164359488296 0 0.0032315431222341116 -0.0031174259667650726 0 0.0030356606621464877 -0.003654079936984164 0 0.0032315431222341116 -0.0031174259667650726 0 0.0032738077614933468 -0.0027298072626129434 0 0.0032222705512914632 -0.002963379130586682 0 0.0032315431222341116 -0.0031174259667650726 0 0.0032222705512914632 -0.002963379130586682 0 0.0029609267085301352 -0.0031526286480231527 0 0.0033917598915859382 -0.0034393836591074148 0 0.0032315431222341116 -0.0031174259667650726 0 0.0032738077614933468 -0.0027298072626129434 0 0.0032738077614933468 -0.0027298072626129434 0 0.0029132173971886466 -0.0023547742917753717 0 0.0032908644943680765 -0.0028902948439149139 0 0.0032908644943680765 -0.0028902948439149139 0 0.0032222705512914632 -0.002963379130586682 0 0.0031618721909307044 -0.0028117684739224738 0 0.0032738077614933468 -0.0027298072626129434 0 0.0032908644943680765 -0.0028902948439149139 0 0.0032222705512914632 -0.002963379130586682 0 0.0032908644943680765 -0.0028902948439149139 0 0.0033178413097076074 -0.00297418231564732 0 0.0031618721909307044 -0.0028117684739224738 0 0.0032222705512914632 -0.002963379130586682 0 0.0029609267085301352 -0.0031526286480231527 0 0.0031618721909307044 -0.0028117684739224738 0 0.0024066875135104302 0.00011939444762480928 0 0.0026397254919508016 -0.00034941719935117563 0 0.0018756115739636417 0.0023433775219102227 0 0.0019309951845891096 0.0023359816468765883 0 0.0020082908503481251 0.0022368890744410212 0 0.0029132173971886466 -0.0023547742917753717 0 0.0032908644943680765 -0.0028902948439149139 0 0.0033178413097076074 -0.00297418231564732 0 0.0018114126682493275 0.0022798168188402539 0 0.0019309951845891096 0.0023359816468765883 0 0.0020082908503481251 0.0022368890744410212 0 0.0015146323458857867 -0.004196588608518916 0 0.0018241299886102901 -0.0032240313261015499 0 0.0024451395312713531 -0.0036870013323884285 0 0.0018241299886102901 -0.0032240313261015499 0 0.0024451395312713531 -0.0036870013323884285 0 0.0024501812080679544 -0.0029578986049163189 0 0.0024451395312713531 -0.0036870013323884285 0 0.0029609267085301352 -0.0031526286480231527 0 0.0024501812080679544 -0.0029578986049163189 0 0.0024451395312713531 -0.0036870013323884285 0 0.0030356606621464877 -0.003654079936984164 0 0.0029609267085301352 -0.0031526286480231527 0 0.0029249472805146374 -0.004246287034620203 0 0.0024451395312713531 -0.0036870013323884285 0 0.0030356606621464877 -0.003654079936984164 0 0.0032315431222341116 -0.0031174259667650726 0 0.0030356606621464877 -0.003654079936984164 0 0.0029609267085301352 -0.0031526286480231527 0 0.0029609267085301352 -0.0031526286480231527 0 0.0024501812080679544 -0.0029578986049163189 0 0.0029848635421860304 -0.0023987629555351189 0 0.002951919559174948 -0.0031264922573247828 0 0.0030580325620753316 -0.0026234490519964023 0 0.0024501812080679544 -0.0029578986049163189 0 0.0022306634259394382 -0.0024354048551407902 0 0.0029848635421860304 -0.0023987629555351189 0 0.0018241299886102901 -0.0032240313261015499 0 0.0024501812080679544 -0.0029578986049163189 0 0.0022306634259394382 -0.0024354048551407902 0 0.0022306634259394382 -0.0024354048551407902 0 0.002645035276346938 -0.0019361976743847754 0 0.0022548777157359915 -0.0020061393707727347 0 0.0022306634259394382 -0.0024354048551407902 0 0.0022548777157359915 -0.0020061393707727347 0 0.0017441712846153826 -0.0019655380464260303 0 0.0022306634259394382 -0.0024354048551407902 0 0.002645035276346938 -0.0019361976743847754 0 0.0029848635421860304 -0.0023987629555351189 0 0.002645035276346938 -0.0019361976743847754 0 0.0024595115517284777 -0.0017435301871073672 0 0.0026478174646675044 -0.0015894992784955808 0 0.002645035276346938 -0.0019361976743847754 0 0.0024595115517284777 -0.0017435301871073672 0 0.0022548777157359915 -0.0020061393707727347 0 -0.00018917687171872085 -0.0044746357483965282 0 -0.00016640579370485391 -0.0044497694360877346 0 -0.00015632225059571104 -0.0044195500714453344 0 0.0022466016671483847 -0.0016472747667781423 0 0.002229671068565356 -0.0014079080560202267 0 0.0017441712846153826 -0.0019655380464260303 0 0.0016362845387438989 -0.0024520828241851706 0 0.00068030482860318266 -0.0033295168420350773 0 0.0024595115517284777 -0.0017435301871073672 0 0.0022548777157359915 -0.0020061393707727347 0 0.0022466016671483847 -0.0016472747667781423 0 0.0024595115517284777 -0.0017435301871073672 0 0.0022466016671483847 -0.0016472747667781423 0 0.0024293295813792321 -0.0015739136325108112 0 0.0022548777157359915 -0.0020061393707727347 0 0.0022466016671483847 -0.0016472747667781423 0 0.0017441712846153826 -0.0019655380464260303 0 0.0017887647822133852 0.0020334730426616039 0 0.0020082908503481251 0.0022368890744410212 0 0.001962359735232201 0.0017178918781638093 0 0.0026397254919508016 -0.00034941719935117563 0 0.0027834248315906376 -0.00043081753961830908 0 0.0017887647822133852 0.0020334730426616039 0 0.0018114126682493275 0.0022798168188402539 0 0.0020082908503481251 0.0022368890744410212 0 0.0033178413097076074 -0.00297418231564732 0 0.0031618721909307044 -0.0028117684739224738 0 0.0031510990151130723 -0.0024633771437754101 0 0.002645035276346938 -0.0019361976743847754 0 0.0029848635421860304 -0.0023987629555351189 0 0.0029933739165196294 -0.0017914491017965173 0 0.0030580325620753316 -0.0026234490519964023 0 0.0030793642558950549 -0.0021287376431971196 0 0.002645035276346938 -0.0019361976743847754 0 0.0029933739165196294 -0.0017914491017965173 0 0.0026478174646675044 -0.0015894992784955808 0 0.0033178413097076074 -0.00297418231564732 0 0.0031510990151130723 -0.0024633771437754101 0 0.0035636065231564773 -0.0024145100352999894 0 0.0035636065231564773 -0.0024145100352999894 0 0.0033162307065027746 -0.0018396465087888944 0 0.0037707546469888499 -0.0017302447817339741 0 0.0031510990151130723 -0.0024633771437754101 0 0.0035636065231564773 -0.0024145100352999894 0 0.0033162307065027746 -0.0018396465087888944 0 0.0030793642558950549 -0.0021287376431971196 0 0.0031723395906569801 -0.0016120783946811338 0 0.0029933739165196294 -0.0017914491017965173 0 0.0030051878916065927 -0.0013771347713588443 0 0.0028196925862654771 -0.0014523739013759041 0 0.0029933739165196294 -0.0017914491017965173 0 0.0028196925862654771 -0.0014523739013759041 0 0.0026478174646675044 -0.0015894992784955808 0 0.0028196925862654771 -0.0014523739013759041 0 0.0026478174646675044 -0.0015894992784955808 0 0.0026514656435389005 -0.0013347132621875058 0 0.0030051878916065927 -0.0013771347713588443 0 0.0028196925862654771 -0.0014523739013759041 0 0.0028074708733133494 -0.0012303530257653946 0 0.0030051878916065927 -0.0013771347713588443 0 0.0028074708733133494 -0.0012303530257653946 0 0.0029479634767834093 -0.001179059368683322 0 0.0028196925862654771 -0.0014523739013759041 0 0.0028074708733133494 -0.0012303530257653946 0 0.0026514656435389005 -0.0013347132621875058 0 0.0028074708733133494 -0.0012303530257653946 0 0.0026086775879177447 -0.0011178210727704431 0 0.0028208451646384411 -0.0010896256349175362 0 0.0028074708733133494 -0.0012303530257653946 0 0.0026514656435389005 -0.0013347132621875058 0 0.0026086775879177447 -0.0011178210727704431 0 0.0028074708733133494 -0.0012303530257653946 0 0.0029479634767834093 -0.001179059368683322 0 0.0028208451646384411 -0.0010896256349175362 0 0.0031723395906569801 -0.0016120783946811338 0 0.0031779239726651533 -0.0011282457094786453 0 0.0033162307065027746 -0.0018396465087888944 0 0.0035372428503658336 -0.0012034362131382232 0 0.0037707546469888499 -0.0017302447817339741 0 0.0030051878916065927 -0.0013771347713588443 0 0.0029479634767834093 -0.001179059368683322 0 0.0030217697424095311 -0.001051024652476055 0 -0.00018917687171872085 -0.0044746357483965282 0 -0.00017299882003226372 -0.0044940037714477814 0 -0.00017124639321591191 -0.0045117599195181896 0 0.0022466016671483847 -0.0016472747667781423 0 0.0022774068167199933 -0.0015039138912766347 0 0.0024293295813792321 -0.0015739136325108112 0 0.0018990793446475728 -0.0016248976491326668 0 0.0016362845387438989 -0.0024520828241851706 0 0.0022774068167199933 -0.0015039138912766347 0 0.0024942739369312092 -0.0014422937196394772 0 0.0024751678459880473 -0.0012480949785901444 0 0.0022774068167199933 -0.0015039138912766347 0 0.0024942739369312092 -0.0014422937196394772 0 0.0024293295813792321 -0.0015739136325108112 0 0.0024942739369312092 -0.0014422937196394772 0 0.0024293295813792321 -0.0015739136325108112 0 0.0026478174646675044 -0.0015894992784955808 0 0.0024595115517284777 -0.0017435301871073672 0 0.0024293295813792321 -0.0015739136325108112 0 0.0026478174646675044 -0.0015894992784955808 0 0.0024942739369312092 -0.0014422937196394772 0 0.0026478174646675044 -0.0015894992784955808 0 0.0026514656435389005 -0.0013347132621875058 0 0.0024751678459880473 -0.0012480949785901444 0 0.0022465970705520394 -0.0012469795000770705 0 0.0026086775879177447 -0.0011178210727704431 0 0.0026514656435389005 -0.0013347132621875058 0 0.0024751678459880473 -0.0012480949785901444 0 0.0026086775879177447 -0.0011178210727704431 0 0.0024942739369312092 -0.0014422937196394772 0 0.0026514656435389005 -0.0013347132621875058 0 0.0024751678459880473 -0.0012480949785901444 0 0.0016362845387438989 -0.0024520828241851706 0 0.0026609082107362458 -0.00092465358657212301 0 0.0022855094295938928 -0.001613858987461726 0 0.0024751678459880473 -0.0012480949785901444 0 0.0022465970705520394 -0.0012469795000770705 0 0.0016362845387438989 -0.0024520828241851706 0 0.00088351358223738075 -0.0033241912550346958 0 0.00088351358223738075 -0.0033241912550346958 0 -0.00056311337843692987 -0.004947277003129952 0 0.0010285892031117907 -0.0034437102684201832 0 0.0014869224993557056 -0.0029564815212346227 0 0.00093430110818336657 -0.0028308621912180951 0 0.00088351358223738075 -0.0033241912550346958 0 0.00040856698851436061 -0.0040643804784819236 0 0.00088351358223738075 -0.0033241912550346958 0 0.002033142749010466 -0.0018604381033005552 0 0.0022465970705520394 -0.0012469795000770705 0 0.0026086775879177447 -0.0011178210727704431 0 0.0026115479293161836 -0.00091008401460025495 0 0.0006823286227733888 -0.0031245371537195052 0 0.00070933386357734042 -0.0032062183390183206 0 0.00057696165898521619 -0.0031497825475301213 0 0.0006823286227733888 -0.0031245371537195052 0 0.00070933386357734042 -0.0032062183390183206 0 0.00083844275583601845 -0.0031049748943482239 0 0.002033142749010466 -0.0018604381033005552 0 0.00040856698851436061 -0.0040643804784819236 0 0.0006823286227733888 -0.0031245371537195052 0 0.00057696165898521619 -0.0031497825475301213 0 0.00060359929303018401 -0.0030964295484079266 0 0.0029519058872078314 -0.0010234792531724091 0 0.0030217697424095311 -0.001051024652476055 0 0.0029164709169920561 -0.00104169919941953 0 0.0028723247686700771 -0.00072159119711904672 0 0.002744180099787271 -0.0010128090137609472 0 0.0027191616888964944 -0.00083291177598174542 0 0.0031779239726651533 -0.0011282457094786453 0 0.0028824944594823495 -0.00096063148908046014 0 0.0028254738181885323 -0.00082038180739381968 0 0.0029164709169920561 -0.00104169919941953 0 0.002744180099787271 -0.0010128090137609472 0 0.0031779239726651533 -0.0011282457094786453 0 0.002942821119553362 -0.00095603219751097773 0 0.0029479634767834093 -0.001179059368683322 0 0.0030217697424095311 -0.001051024652476055 0 0.0029497180998913504 -0.0010893959608124649 0 0.0029479634767834093 -0.001179059368683322 0 0.0029497180998913504 -0.0010893959608124649 0 0.0028208451646384411 -0.0010896256349175362 0 0.0029519058872078314 -0.0010234792531724091 0 0.0029497180998913504 -0.0010893959608124649 0 0.0028208451646384411 -0.0010896256349175362 0 0.0029519058872078314 -0.0010234792531724091 0 0.0030217697424095311 -0.001051024652476055 0 0.0029497180998913504 -0.0010893959608124649 0 0.0026115479293161836 -0.00091008401460025495 0 0.0029519058872078314 -0.0010234792531724091 0 0.0028208451646384411 -0.0010896256349175362 0 0.002033142749010466 -0.0018604381033005552 0 0.0032481478673375337 -0.00085300545641679791 0 0.0026086775879177447 -0.0011178210727704431 0 0.0026115479293161836 -0.00091008401460025495 0 0.0028208451646384411 -0.0010896256349175362 0 0.0031288831312916345 -0.0010703081990827052 0 0.0029656119031044878 -0.0011046725475710852 0 0.0030315467841376623 -0.0012192676840059398 0 0.0031288831312916345 -0.0010703081990827052 0 0.0029519058872078314 -0.0010234792531724091 0 0.0029656119031044878 -0.0011046725475710852 0 0.002033142749010466 -0.0018604381033005552 0 0.0020015113100874684 -0.0021281732918662739 0 0.0029656119031044878 -0.0011046725475710852 0 0.0028360446069637299 -0.0012605868869166677 0 0.0030315467841376623 -0.0012192676840059398 0 0.0029656119031044878 -0.0011046725475710852 0 0.0028207522508517722 -0.0011327603512661993 0 0.0028360446069637299 -0.0012605868869166677 0 0.0029656119031044878 -0.0011046725475710852 0 0.0029164709169920561 -0.00104169919941953 0 0.0028207522508517722 -0.0011327603512661993 0 0.0029519058872078314 -0.0010234792531724091 0 0.0029656119031044878 -0.0011046725475710852 0 0.0029164709169920561 -0.00104169919941953 0 0.0029164709169920561 -0.00104169919941953 0 0.0028207522508517722 -0.0011327603512661993 0 0.002744180099787271 -0.0010128090137609472 0 0.0028207522508517722 -0.0011327603512661993 0 0.0026120985396413995 -0.0012390850104251135 0 0.0028360446069637299 -0.0012605868869166677 0 0.0015587687319102385 0.00078697887464787325 0 0.00091896178052145328 0.0011287910417619388 0 0.0020618116322473627 -0.00058717775080927568 0 0.0015587687319102385 0.00078697887464787325 0 0.0028207522508517722 -0.0011327603512661993 0 0.0026120985396413995 -0.0012390850104251135 0 0.002744180099787271 -0.0010128090137609472 0 0.0013894998704763232 0.00037684114235543917 0 0.0013436251368033438 0.00059707589788700029 0 0.0012706771394410102 0.00035166121352336481 0 0.0026120985396413995 -0.0012390850104251135 0 0.0026290369976789394 -0.00096977744594030737 0 0.0025010460585378046 -0.00090045066775517072 0 0.0026120985396413995 -0.0012390850104251135 0 0.0026290369976789394 -0.00096977744594030737 0 0.002744180099787271 -0.0010128090137609472 0 0.0027191616888964944 -0.00083291177598174542 0 0.0025449301735648781 -0.00086693793893572455 0 0.0026591958272578222 -0.00024514894161059119 0 0.0025449301735648781 -0.00086693793893572455 0 0.0024946059156974111 -0.00086085978065261672 0 0.0026591958272578222 -0.00024514894161059119 0 0.0028723247686700771 -0.00072159119711904672 0 0.0027191616888964944 -0.00083291177598174542 0 0.0026591958272578222 -0.00024514894161059119 0 0.0026290369976789394 -0.00096977744594030737 0 0.002744180099787271 -0.0010128090137609472 0 0.0027191616888964944 -0.00083291177598174542 0 0.0026290369976789394 -0.00096977744594030737 0 0.0027191616888964944 -0.00083291177598174542 0 0.0025449301735648781 -0.00086693793893572455 0 0.0016031219378568732 0.0015810572327606435 0 0.0016068168980785411 0.0015924624873794326 0 0.0015523949280179929 0.0016485472724551004 0 0.0026290369976789394 -0.00096977744594030737 0 0.0025010460585378046 -0.00090045066775517072 0 0.0025449301735648781 -0.00086693793893572455 0 0.0015587687319102385 0.00078697887464787325 0 0.0016398535321917697 0.00068203919909000062 0 0.0024835103629196973 -0.00089498252387119491 0 0.0025449301735648781 -0.00086693793893572455 0 0.0024946059156974111 -0.00086085978065261672 0 0.0015587687319102385 0.00078697887464787325 0 0.001672966082104382 0.00084431292570637923 0 0.001672966082104382 0.00084431292570637923 0 0.0015939558888271156 0.0017264687646526453 0 0.0016068168980785411 0.0015924624873794326 0 0.0015523949280179929 0.0016485472724551004 0 0.0015930854746229088 0.0017189664762663382 0 0.0016031219378568732 0.0015810572327606435 0 0.0014720669173025941 0.0016367112998153968 0 0.0015523949280179929 0.0016485472724551004 0 0.0016031219378568732 0.0015810572327606435 0 0.0014720669173025941 0.0016367112998153968 0 0.0014361926523636587 0.0015085813443356515 0 0.0014720669173025941 0.0016367112998153968 0 0.0015523949280179929 0.0016485472724551004 0 0.0015126190858914318 0.0017588771374865155 0 0.00069642914527660838 0.0020519565921245306 0 0.00047426648820582135 0.0019577487436647817 0 0.00062700004830525612 0.0018450887580133699 0 0.0015587687319102385 0.00078697887464787325 0 0.00088763481770878382 0.0017773321966032317 0 0.00088763481770878382 0.0017773321966032317 0 0.00095004888255507795 0.0019585713158697636 0 0.0014361926523636587 0.0015085813443356515 0 0.0013394891995955529 0.0015963907204132989 0 0.0012808723677017071 0.0014389648262862537 0 0.0015628783463951048 0.0029878426688989272 0 0.0015131259016347902 0.0026642701154590584 0 0.0012560303146283822 0.0028182873374694856 0 0.0014970436154600672 0.0023220713259278548 0 0.00095004888255507795 0.0019585713158697636 0 0.0015628783463951048 0.0029878426688989272 0 0.0013648428564873949 0.0030077198370440975 0 0.0012560303146283822 0.0028182873374694856 0 0.0015628783463951048 0.0029878426688989272 0 0.0014976903327788497 0.003097369643985751 0 0.0013648428564873949 0.0030077198370440975 0 0.0014720669173025941 0.0016367112998153968 0 0.0013394891995955529 0.0015963907204132989 0 0.0013891274308746779 0.0017703086882826283 0 0.0014720669173025941 0.0016367112998153968 0 0.0014361926523636587 0.0015085813443356515 0 0.0013394891995955529 0.0015963907204132989 0 0.0014970436154600672 0.0023220713259278548 0 0.0014799809354515147 0.0024162498772072973 0 0.0015628783463951048 0.0029878426688989272 0 0.0015849574426674211 0.0030863219842734413 0 0.0014976903327788497 0.003097369643985751 0 0.0015849574426674211 0.0030863219842734413 0 0.0014976903327788497 0.003097369643985751 0 0.0015641992504328572 0.003121349045540487 0 0.0014976903327788497 0.003097369643985751 0 0.0015641992504328572 0.003121349045540487 0 0.0014993436769099747 0.0031377241845401819 0 0.0015734159742306973 0.0031260760367339915 0 0.0015641992504328572 0.003121349045540487 0 0.0014993436769099747 0.0031377241845401819 0 0.0015849574426674211 0.0030863219842734413 0 0.0015641992504328572 0.003121349045540487 0 0.0015872858061570809 0.0031039608642253673 0 0.0014799809354515147 0.0024162498772072973 0 0.0015205747883330076 0.002582374650573413 0 0.0016487641275583886 0.0020389835090461332 0 0.0014444039161149831 0.0020056009116889294 0 0.0015910517224662637 0.0018553841444952396 0 0.0013891274308746779 0.0017703086882826283 0 0.0014444039161149831 0.0020056009116889294 0 0.0015126190858914318 0.0017588771374865155 0 0.0014444039161149831 0.0020056009116889294 0 0.0015910517224662637 0.0018553841444952396 0 0.0015126190858914318 0.0017588771374865155 0 0.0016487641275583886 0.0020389835090461332 0 0.0015910517224662637 0.0018553841444952396 0 0.0018150696740514049 0.0017276243155862723 0 0.0027834248315906376 -0.00043081753961830908 0 0.0024687695574001824 0.00014529591721403179 0 0.0015231203675999945 0.0020250598494125135 0 0.0024687695574001824 0.00014529591721403179 0 0.0016082063557919229 0.0016164914357604679 0 0.001962359735232201 0.0017178918781638093 0 0.0018195414386432125 0.0011326710294807939 0 0.0015910517224662637 0.0018553841444952396 0 0.0018150696740514049 0.0017276243155862723 0 0.0016263724942825882 0.0015509937449223207 0 0.0031779239726651533 -0.0011282457094786453 0 0.0024687695574001824 0.00014529591721403179 0 0.0016898432629322794 0.0012296330240315584 0 0.0018150696740514049 0.0017276243155862723 0 0.0016263724942825882 0.0015509937449223207 0 0.001672966082104382 0.00084431292570637923 0 0.0024687695574001824 0.00014529591721403179 0 0.0015934307040280469 0.0017979424833200063 0 0.0015939558888271156 0.0017264687646526453 0 0.0014720669173025941 0.0016367112998153968 0 0.0013891274308746779 0.0017703086882826283 0 0.0015126190858914318 0.0017588771374865155 0 0.0015523949280179929 0.0016485472724551004 0 0.0015930854746229088 0.0017189664762663382 0 0.0015126190858914318 0.0017588771374865155 0 0.0015910517224662637 0.0018553841444952396 0 0.0015930854746229088 0.0017189664762663382 0 0.0015126190858914318 0.0017588771374865155 0 -0.0014801084943761272 -0.0099834911504163119 0 -0.001125244075875312 -0.0098412260597007008 0 -0.0014161448004427564 -0.0097120700814399899 0 -0.0014801084943761272 -0.0099834911504163119 0 -0.001125244075875312 -0.0098412260597007008 0 -0.0012239315086348319 -0.01012409388484322 0 -0.001125244075875312 -0.0098412260597007008 0 -0.00096706016099172858 -0.010090693400632136 0 -0.0007561293361752926 -0.009864828540313177 0 -0.001125244075875312 -0.0098412260597007008 0 -0.0007561293361752926 -0.009864828540313177 0 -0.00098931294581806775 -0.0096072382330437325 0 -0.001125244075875312 -0.0098412260597007008 0 -0.00096706016099172858 -0.010090693400632136 0 -0.0012239315086348319 -0.01012409388484322 0 -0.00096706016099172858 -0.010090693400632136 0 -0.0011067680491413415 -0.010372228569902395 0 -0.00071487494661154978 -0.010257727318173159 0 -0.00096706016099172858 -0.010090693400632136 0 -0.0012239315086348319 -0.01012409388484322 0 -0.0011067680491413415 -0.010372228569902395 0 -0.0014549816476741215 -0.010338894221997666 0 -0.0012239315086348319 -0.01012409388484322 0 -0.0011067680491413415 -0.010372228569902395 0 -0.0014549816476741215 -0.010338894221997666 0 -0.0014801084943761272 -0.0099834911504163119 0 -0.0012239315086348319 -0.01012409388484322 0 -0.0014549816476741215 -0.010338894221997666 0 -0.0013267043824594753 -0.010756657428271872 0 -0.0011067680491413415 -0.010372228569902395 0 -0.0010225994164882331 -0.010995391591313401 0 -0.0013267043824594753 -0.010756657428271872 0 -0.00094760536162441381 -0.010646893075949199 0 -0.0010225994164882331 -0.010995391591313401 0 -0.00094760536162441381 -0.010646893075949199 0 -0.00080397079246494175 -0.01085609833921815 0 -0.00094760536162441381 -0.010646893075949199 0 -0.0011067680491413415 -0.010372228569902395 0 -0.00071487494661154978 -0.010257727318173159 0 -0.0013267043824594753 -0.010756657428271872 0 -0.00094760536162441381 -0.010646893075949199 0 -0.0011067680491413415 -0.010372228569902395 0 -0.00094760536162441381 -0.010646893075949199 0 -0.00071487494661154978 -0.010257727318173159 0 -0.00066545624736450521 -0.010621784507314883 0 -0.00094760536162441381 -0.010646893075949199 0 -0.00066545624736450521 -0.010621784507314883 0 -0.00080397079246494175 -0.01085609833921815 0 -0.00066545624736450521 -0.010621784507314883 0 -0.00080397079246494175 -0.01085609833921815 0 -0.00059675193706540321 -0.010896702371416699 0 -0.00066545624736450521 -0.010621784507314883 0 -0.00059675193706540321 -0.010896702371416699 0 -0.00025682073498040227 -0.010541288168116777 0 -0.00087644393688681202 -0.011642299541960353 0 -0.00050529760806887361 -0.0077972984023325503 0 -0.00035692072734888651 -0.011088018549626381 0 -0.00059675193706540321 -0.010896702371416699 0 -0.00038801014537192407 -0.010558505909915509 0 -0.00071487494661154978 -0.010257727318173159 0 -0.00025682073498040227 -0.010541288168116777 0 -0.00027594180001633723 -0.0099182685518772861 0 -0.00050529760806887361 -0.0077972984023325503 0 -0.00032682720880209082 -0.0077953705483743271 0 -0.00071487494661154978 -0.010257727318173159 0 -0.00066545624736450521 -0.010621784507314883 0 -0.00025682073498040227 -0.010541288168116777 0 -0.00071899060768283599 -0.010221633231142259 0 -0.00078797663430910038 -0.0096872006883058914 0 -0.00071487494661154978 -0.010257727318173159 0 -0.00027594180001633723 -0.0099182685518772861 0 -0.00082982140551276216 -0.0094950921714437551 0 -0.00096706016099172858 -0.010090693400632136 0 -0.00071487494661154978 -0.010257727318173159 0 -0.0007561293361752926 -0.009864828540313177 0 -0.00027594180001633723 -0.0099182685518772861 0 -0.00082982140551276216 -0.0094950921714437551 0 -0.0003747879775517878 -0.009188159715255868 0 -0.00032682720880209082 -0.0077953705483743271 0 -0.00039299348825469195 -0.0071783559008051622 0 -0.00042954060345623356 -0.0054913686438606557 0 -0.0002862148087183492 -0.0053820238597167541 0 -0.00040222775155540971 -0.0051875217330360542 0 -0.0002862148087183492 -0.0053820238597167541 0 -0.00023756242681399224 -0.0052460243761191299 0 -0.00040222775155540971 -0.0051875217330360542 0 -0.0002862148087183492 -0.0053820238597167541 0 -0.00016889116140725413 -0.0053396076118317551 0 -0.00016303530136022631 -0.0055106237334752624 0 -0.0002862148087183492 -0.0053820238597167541 0 -0.00023756242681399224 -0.0052460243761191299 0 -0.00016889116140725413 -0.0053396076118317551 0 -0.00023756242681399224 -0.0052460243761191299 0 -0.00015302351242738231 -0.0052292552720790723 0 -0.00016889116140725413 -0.0053396076118317551 0 -0.00015302351242738231 -0.0052292552720790723 0 -5.061569124657459e-05 -0.0052018093200571283 0 -0.00016889116140725413 -0.0053396076118317551 0 -0.00038088887184432277 -0.0047630028811859685 0 -0.00063375528981494088 -0.004609294871615658 0 -0.00038088887184432277 -0.0047630028811859685 0 -0.00070892065279172176 -0.0044425539633859874 0 -0.00016347775791725704 -0.0044254276104925992 0 -0.00034604538703373087 -0.0044315967250067147 0 -0.00018584421566371451 -0.0044233320579170768 0 -5.061569124657459e-05 -0.0052018093200571283 0 -0.00016889116140725413 -0.0053396076118317551 0 -0.00016303530136022631 -0.0055106237334752624 0 -0.00094085215285153703 -0.0042960165696406304 0 -0.0010379076534835711 -0.0046020348894833885 0 -0.0011478213941744321 -0.004554474393111697 0 -0.0010379076534835711 -0.0046020348894833885 0 -0.0011478213941744321 -0.004554474393111697 0 -0.0011720581589365045 -0.0047445446324665321 0 -0.00042954060345623356 -0.0054913686438606557 0 -0.0002862148087183492 -0.0053820238597167541 0 -0.00016303530136022631 -0.0055106237334752624 0 -0.00038854479719384761 -0.0058900888942478875 0 -0.00042954060345623356 -0.0054913686438606557 0 -0.00016303530136022631 -0.0055106237334752624 0 -0.00050529760806887361 -0.0077972984023325503 0 -0.00063375528981494088 -0.004609294871615658 0 -0.0013833182669841832 -0.0048420476842292864 0 -0.0011478213941744321 -0.004554474393111697 0 -0.0011720581589365045 -0.0047445446324665321 0 -0.0013833182669841832 -0.0048420476842292864 0 -0.0011720581589365045 -0.0047445446324665321 0 -0.001128035057300191 -0.0049258275953645491 0 -0.00094291572357871648 -0.008159115349899989 0 -0.00050529760806887361 -0.0077972984023325503 0 -0.0013954743758707747 -0.0052510107595560122 0 -0.0013833182669841832 -0.0048420476842292864 0 -0.001128035057300191 -0.0049258275953645491 0 -0.00066602877372019538 -0.0046965396456633583 0 -0.00035742901682517519 -0.0045826117071259831 0 -0.00028919145966843066 -0.0048477116117244864 0 -0.00063312801791022392 -0.0050740982646212303 0 -0.00066602877372019538 -0.0046965396456633583 0 -0.00028919145966843066 -0.0048477116117244864 0 -0.00034604538703373087 -0.0044315967250067147 0 -0.00066602877372019538 -0.0046965396456633583 0 -0.00035742901682517519 -0.0045826117071259831 0 -0.0010379076534835711 -0.0046020348894833885 0 -0.0011720581589365045 -0.0047445446324665321 0 -0.001128035057300191 -0.0049258275953645491 0 -0.00034604538703373087 -0.0044315967250067147 0 -0.00035742901682517519 -0.0045826117071259831 0 -0.00026461647351423527 -0.0044804136802993064 0 -0.00070892065279172176 -0.0044425539633859874 0 -0.00090678568134510589 -0.0048605987002720884 0 -0.00035742901682517519 -0.0045826117071259831 0 -0.00026461647351423527 -0.0044804136802993064 0 -0.00016122150119175327 -0.0045079870555444516 0 -0.00035742901682517519 -0.0045826117071259831 0 -0.00028919145966843066 -0.0048477116117244864 0 -0.00016122150119175327 -0.0045079870555444516 0 0.00021621210333492408 -0.0039046882407565739 0 0.0011658700039354954 -0.0034987355513241025 0 0.0010812136353427785 -0.0027346919178975375 0 -4.5762669699943077e-05 -0.0044164673009377126 0 0.0004714534046198979 -0.0036082152806100293 0 0.0015146323458857867 -0.004196588608518916 0 0.0018241299886102901 -0.0032240313261015499 0 0.0011658700039354954 -0.0034987355513241025 0 0.0015146323458857867 -0.004196588608518916 0 0.00021621210333492408 -0.0039046882407565739 0 0.0011658700039354954 -0.0034987355513241025 0 0.0018241299886102901 -0.0032240313261015499 0 0.0022306634259394382 -0.0024354048551407902 0 0.0010812136353427785 -0.0027346919178975375 0 0.0018241299886102901 -0.0032240313261015499 0 0.0011658700039354954 -0.0034987355513241025 0 0.0010812136353427785 -0.0027346919178975375 0 -0.00016122150119175327 -0.0045079870555444516 0 -0.00019943362033176179 -0.0044343847334126938 0 -0.00015632225059571104 -0.0044195500714453344 0 0.0022306634259394382 -0.0024354048551407902 0 0.0010812136353427785 -0.0027346919178975375 0 0.0017441712846153826 -0.0019655380464260303 0 0.0004714534046198979 -0.0036082152806100293 0 0.00068030482860318266 -0.0033295168420350773 0 -0.00034604538703373087 -0.0044315967250067147 0 -0.00019943362033176179 -0.0044343847334126938 0 -0.00018584421566371451 -0.0044233320579170768 0 -0.00034604538703373087 -0.0044315967250067147 0 -0.00026461647351423527 -0.0044804136802993064 0 -0.00019943362033176179 -0.0044343847334126938 0 -0.00026461647351423527 -0.0044804136802993064 0 -0.00016122150119175327 -0.0045079870555444516 0 -0.00019943362033176179 -0.0044343847334126938 0 -0.00019943362033176179 -0.0044343847334126938 0 -0.00018584421566371451 -0.0044233320579170768 0 -0.00016742695756290067 -0.004427950076422822 0 -0.00016347775791725704 -0.0044254276104925992 0 -0.00018584421566371451 -0.0044233320579170768 0 -0.00014565963583708071 -0.0044499463318962177 0 -0.00018584421566371451 -0.0044233320579170768 0 -0.00016742695756290067 -0.004427950076422822 0 -0.00014565963583708071 -0.0044499463318962177 0 -0.00019943362033176179 -0.0044343847334126938 0 -0.00015632225059571104 -0.0044195500714453344 0 -0.00016742695756290067 -0.004427950076422822 0 -0.00016640579370485391 -0.0044497694360877346 0 -0.00016742695756290067 -0.004427950076422822 0 -0.00014565963583708071 -0.0044499463318962177 0 -0.00016640579370485391 -0.0044497694360877346 0 -0.00015632225059571104 -0.0044195500714453344 0 -0.00016742695756290067 -0.004427950076422822 0 -0.00017124639321591191 -0.0045117599195181896 0 -0.00014565963583708071 -0.0044499463318962177 0 -7.7622831954278143e-05 -0.0045309293031514661 0 -0.00018917687171872085 -0.0044746357483965282 0 -0.00016640579370485391 -0.0044497694360877346 0 -0.00017124639321591191 -0.0045117599195181896 0 -0.00016640579370485391 -0.0044497694360877346 0 -0.00017124639321591191 -0.0045117599195181896 0 -0.00014565963583708071 -0.0044499463318962177 0 -7.2035380984231478e-05 -0.0051411646360163951 0 -6.7832801609543362e-05 -0.0050659725683287722 0 -4.0969090238177926e-05 -0.0050141882782399755 0 -0.00038088887184432277 -0.0047630028811859685 0 -5.7360658504333378e-05 -0.0047703469784243077 0 -0.00016347775791725704 -0.0044254276104925992 0 -0.00014565963583708071 -0.0044499463318962177 0 -7.7622831954278143e-05 -0.0045309293031514661 0 -0.00038088887184432277 -0.0047630028811859685 0 -0.00018835114978704682 -0.0051179529057142764 0 -6.7832801609543362e-05 -0.0050659725683287722 0 -8.2805940842719505e-05 -0.0049990919164783565 0 -0.00012516870899806779 -0.0050349594212616344 0 -6.7832801609543362e-05 -0.0050659725683287722 0 -4.0969090238177926e-05 -0.0050141882782399755 0 -8.2805940842719505e-05 -0.0049990919164783565 0 -4.0969090238177926e-05 -0.0050141882782399755 0 -7.9946251993815608e-05 -0.0049271665845854818 0 -0.00010602040797560964 -0.0048123421033678671 0 -4.0969090238177926e-05 -0.0050141882782399755 0 -8.2805940842719505e-05 -0.0049990919164783565 0 -7.9946251993815608e-05 -0.0049271665845854818 0 -7.9946251993815608e-05 -0.0049271665845854818 0 -8.6093296264274863e-05 -0.0048915968285090762 0 -0.00010534703617400339 -0.0049525886495950513 0 -8.2805940842719505e-05 -0.0049990919164783565 0 -7.9946251993815608e-05 -0.0049271665845854818 0 -0.00010534703617400339 -0.0049525886495950513 0 -7.9946251993815608e-05 -0.0049271665845854818 0 -0.00010602040797560964 -0.0048123421033678671 0 -8.6093296264274863e-05 -0.0048915968285090762 0 -0.00017124639321591191 -0.0045117599195181896 0 -7.7622831954278143e-05 -0.0045309293031514661 0 -0.00010602040797560964 -0.0048123421033678671 0 -0.00026693533608407397 -0.0047339221231122042 0 -0.00017124639321591191 -0.0045117599195181896 0 -0.00010602040797560964 -0.0048123421033678671 0 -5.7360658504333378e-05 -0.0047703469784243077 0 -0.00011573026247412958 -0.0048334218760407079 0 -0.00026693533608407397 -0.0047339221231122042 0 -0.00016456283578799167 -0.0049258847630878396 0 -0.00010602040797560964 -0.0048123421033678671 0 -0.00016456283578799167 -0.0049258847630878396 0 -0.00010602040797560964 -0.0048123421033678671 0 -9.635798340703423e-05 -0.0048834948604789472 0 0.00069957738829242561 -0.0049951319677519297 0 0.00030580598335506088 -0.0049155629311511823 0 0.00043296748061229397 -0.0047150883137351647 0 0.00040856698851436061 -0.0040643804784819236 0 9.4208951832201032e-05 -0.0050013511294707503 0 -0.00016456283578799167 -0.0049258847630878396 0 -9.635798340703423e-05 -0.0048834948604789472 0 -8.3407320216894758e-05 -0.0048834935264682649 0 -9.635798340703423e-05 -0.0048834948604789472 0 -8.3407320216894758e-05 -0.0048834935264682649 0 -9.9015613179111015e-05 -0.0048899395401449447 0 -9.9015613179111015e-05 -0.0048899395401449447 0 -8.6093296264274863e-05 -0.0048915968285090762 0 -0.00012965742563508394 -0.0049241818218338767 0 -9.635798340703423e-05 -0.0048834948604789472 0 -9.9015613179111015e-05 -0.0048899395401449447 0 -8.6093296264274863e-05 -0.0048915968285090762 0 -0.00010602040797560964 -0.0048123421033678671 0 -9.635798340703423e-05 -0.0048834948604789472 0 -8.6093296264274863e-05 -0.0048915968285090762 0 -8.6093296264274863e-05 -0.0048915968285090762 0 -0.00012965742563508394 -0.0049241818218338767 0 -0.00010534703617400339 -0.0049525886495950513 0 -0.00012965742563508394 -0.0049241818218338767 0 -0.00021256667402277081 -0.0049676100280267432 0 -0.00015709857980419548 -0.0049838327003123052 0 -0.00012965742563508394 -0.0049241818218338767 0 -0.00017552071991951856 -0.0049196070343900536 0 -0.00021256667402277081 -0.0049676100280267432 0 -0.00012965742563508394 -0.0049241818218338767 0 -0.00013552695822046 -0.0048798178752361985 0 -0.00017552071991951856 -0.0049196070343900536 0 -9.9015613179111015e-05 -0.0048899395401449447 0 -0.00012965742563508394 -0.0049241818218338767 0 -0.00013552695822046 -0.0048798178752361985 0 9.4208951832201032e-05 -0.0050013511294707503 0 -0.00012090132120981677 -0.0048020056009985459 0 -8.3407320216894758e-05 -0.0048834935264682649 0 -9.9015613179111015e-05 -0.0048899395401449447 0 -0.00013552695822046 -0.0048798178752361985 0 -8.3407320216894758e-05 -0.0048834935264682649 0 -0.00013552695822046 -0.0048798178752361985 0 -0.00013137695928485936 -0.0048192849365577481 0 -0.00013552695822046 -0.0048798178752361985 0 -0.00023561503013859236 -0.0048451214144989525 0 -0.00023196728308082343 -0.0049070878345129207 0 -0.00013552695822046 -0.0048798178752361985 0 -0.00023561503013859236 -0.0048451214144989525 0 -0.00013137695928485936 -0.0048192849365577481 0 -0.00013552695822046 -0.0048798178752361985 0 -0.00023196728308082343 -0.0049070878345129207 0 -0.00017552071991951856 -0.0049196070343900536 0 -0.00023196728308082343 -0.0049070878345129207 0 -0.00017552071991951856 -0.0049196070343900536 0 -0.00021256667402277081 -0.0049676100280267432 0 -0.00023196728308082343 -0.0049070878345129207 0 -0.00021256667402277081 -0.0049676100280267432 0 -0.00028247122671949665 -0.0049614101868195081 0 -0.00021256667402277081 -0.0049676100280267432 0 -0.00028946440345250954 -0.0050459511475073335 0 -0.00028247122671949665 -0.0049614101868195081 0 -0.00028946440345250954 -0.0050459511475073335 0 -0.00020913014873822055 -0.0050472832192009435 0 -0.00025820592968340308 -0.0051275398300460384 0 -0.00021256667402277081 -0.0049676100280267432 0 -0.00020913014873822055 -0.0050472832192009435 0 -0.00015709857980419548 -0.0049838327003123052 0 -0.00021256667402277081 -0.0049676100280267432 0 -0.00028946440345250954 -0.0050459511475073335 0 -0.00020913014873822055 -0.0050472832192009435 0 -0.00012965742563508394 -0.0049241818218338767 0 -0.00015709857980419548 -0.0049838327003123052 0 -0.00010534703617400339 -0.0049525886495950513 0 -8.2805940842719505e-05 -0.0049990919164783565 0 -0.00010534703617400339 -0.0049525886495950513 0 -0.00012516870899806779 -0.0050349594212616344 0 -0.00015709857980419548 -0.0049838327003123052 0 -0.00010534703617400339 -0.0049525886495950513 0 -0.00012516870899806779 -0.0050349594212616344 0 -0.00020913014873822055 -0.0050472832192009435 0 -0.00015709857980419548 -0.0049838327003123052 0 -0.00012516870899806779 -0.0050349594212616344 0 -0.00020913014873822055 -0.0050472832192009435 0 -0.00012516870899806779 -0.0050349594212616344 0 -0.00015617714214385766 -0.0051319067715404837 0 -6.7832801609543362e-05 -0.0050659725683287722 0 -0.00012516870899806779 -0.0050349594212616344 0 -0.00015617714214385766 -0.0051319067715404837 0 -5.061569124657459e-05 -0.0052018093200571283 0 -6.7832801609543362e-05 -0.0050659725683287722 0 -0.00015617714214385766 -0.0051319067715404837 0 -0.00015302351242738231 -0.0052292552720790723 0 -5.061569124657459e-05 -0.0052018093200571283 0 -0.00015617714214385766 -0.0051319067715404837 0 -0.00023756242681399224 -0.0052460243761191299 0 -0.00015302351242738231 -0.0052292552720790723 0 -0.00015617714214385766 -0.0051319067715404837 0 -0.00023756242681399224 -0.0052460243761191299 0 -0.00015617714214385766 -0.0051319067715404837 0 -0.00025820592968340308 -0.0051275398300460384 0 -0.00023756242681399224 -0.0052460243761191299 0 -0.00025820592968340308 -0.0051275398300460384 0 -0.00040222775155540971 -0.0051875217330360542 0 -0.00020913014873822055 -0.0050472832192009435 0 -0.00015617714214385766 -0.0051319067715404837 0 -0.00025820592968340308 -0.0051275398300460384 0 -0.00028946440345250954 -0.0050459511475073335 0 -0.00025820592968340308 -0.0051275398300460384 0 -0.00040222775155540971 -0.0051875217330360542 0 -0.0007561293361752926 -0.009864828540313177 0 -0.00077457710636389407 -0.0094110817220707434 0 -0.00098931294581806775 -0.0096072382330437325 0 -0.00078797663430910038 -0.0096872006883058914 0 -0.00082153393184747564 -0.009114071210725638 0 -0.00082982140551276216 -0.0094950921714437551 0 -0.0003747879775517878 -0.009188159715255868 0 -0.0008728742792964262 -0.0088176152263283077 0 -0.0008728742792964262 -0.0088176152263283077 0 -0.00049207739144185587 -0.008587815000367021 0 -0.00088694447448748204 -0.0083048036168191074 0 -0.0003747879775517878 -0.009188159715255868 0 -0.0008728742792964262 -0.0088176152263283077 0 -0.00049207739144185587 -0.008587815000367021 0 -0.00039299348825469195 -0.0071783559008051622 0 -0.0004250067575824587 -0.0067975009825052999 0 -0.00028946440345250954 -0.0050459511475073335 0 -0.00040222775155540971 -0.0051875217330360542 0 -0.00035629879197651574 -0.0050074175396865759 0 -0.00028946440345250954 -0.0050459511475073335 0 -0.00035629879197651574 -0.0050074175396865759 0 -0.00028247122671949665 -0.0049614101868195081 0 -0.0004250067575824587 -0.0067975009825052999 0 -0.0004658964758572028 -0.0065635692541573072 0 -0.00035629879197651574 -0.0050074175396865759 0 -0.00028247122671949665 -0.0049614101868195081 0 -0.0003518883088634954 -0.0048822510585277779 0 -0.00023196728308082343 -0.0049070878345129207 0 -0.00028247122671949665 -0.0049614101868195081 0 -0.0003518883088634954 -0.0048822510585277779 0 -0.00023561503013859236 -0.0048451214144989525 0 -0.00023196728308082343 -0.0049070878345129207 0 -0.0003518883088634954 -0.0048822510585277779 0 -0.00023561503013859236 -0.0048451214144989525 0 -0.0003518883088634954 -0.0048822510585277779 0 -0.00030841297895975911 -0.0048018835221701204 0 -0.00057738860634597112 -0.00814439544004175 0 -0.00088694447448748204 -0.0083048036168191074 0 -0.00072332058785433992 -0.007974987777321951 0 -0.00082153393184747564 -0.009114071210725638 0 -0.00084220736487894789 -0.0085394979577631432 0 -0.00049207739144185587 -0.008587815000367021 0 -0.00057738860634597112 -0.00814439544004175 0 -0.00088694447448748204 -0.0083048036168191074 0 -0.001059400736519277 -0.0090073783707028798 0 -0.0007812028360952237 -0.0087920888548414389 0 -0.0013148855138313048 -0.0084959565763958675 0 -0.00077457710636389407 -0.0094110817220707434 0 -0.001059400736519277 -0.0090073783707028798 0 -0.0007812028360952237 -0.0087920888548414389 0 -0.00084220736487894789 -0.0085394979577631432 0 -0.00091621522543818825 -0.0079684372102594644 0 -0.0007812028360952237 -0.0087920888548414389 0 -0.0011536224406720216 -0.0081986361307869616 0 -0.0013148855138313048 -0.0084959565763958675 0 -0.0007812028360952237 -0.0087920888548414389 0 -0.0011536224406720216 -0.0081986361307869616 0 -0.00092221731064944174 -0.0079283727050013797 0 -0.00088694447448748204 -0.0083048036168191074 0 -0.00092221731064944174 -0.0079283727050013797 0 -0.00072332058785433992 -0.007974987777321951 0 -0.001717060009580872 -0.0083205356394261392 0 -0.0013148855138313048 -0.0084959565763958675 0 -0.0014715983962066814 -0.0080473191181497771 0 -0.0011536224406720216 -0.0081986361307869616 0 -0.0013148855138313048 -0.0084959565763958675 0 -0.0014715983962066814 -0.0080473191181497771 0 -0.001717060009580872 -0.0083205356394261392 0 -0.0013148855138313048 -0.0084959565763958675 0 -0.0016593743763755801 -0.0087172312440896866 0 -0.001059400736519277 -0.0090073783707028798 0 -0.0013148855138313048 -0.0084959565763958675 0 -0.0016593743763755801 -0.0087172312440896866 0 -0.0010872531103995871 -0.0090014478485078309 0 -0.0015339047497278191 -0.0088310719784483547 0 -0.001059400736519277 -0.0090073783707028798 0 -0.0014033888665453275 -0.0089530579340260444 0 -0.0013184066589698854 -0.0092076192942477843 0 -0.0015700119003266609 -0.0095201920611698177 0 -0.0013184066589698854 -0.0092076192942477843 0 -0.0012342995203956468 -0.0095221547450730533 0 -0.001059400736519277 -0.0090073783707028798 0 -0.0013184066589698854 -0.0092076192942477843 0 -0.0010651655673206662 -0.0093684681182750144 0 -0.0013184066589698854 -0.0092076192942477843 0 -0.0010651655673206662 -0.0093684681182750144 0 -0.0012342995203956468 -0.0095221547450730533 0 -0.00077457710636389407 -0.0094110817220707434 0 -0.001059400736519277 -0.0090073783707028798 0 -0.0010651655673206662 -0.0093684681182750144 0 -0.00077457710636389407 -0.0094110817220707434 0 -0.0010651655673206662 -0.0093684681182750144 0 -0.00098931294581806775 -0.0096072382330437325 0 -0.001125244075875312 -0.0098412260597007008 0 -0.00098931294581806775 -0.0096072382330437325 0 -0.0012342995203956468 -0.0095221547450730533 0 -0.0010651655673206662 -0.0093684681182750144 0 -0.00098931294581806775 -0.0096072382330437325 0 -0.0012342995203956468 -0.0095221547450730533 0 -0.001125244075875312 -0.0098412260597007008 0 -0.0014161448004427564 -0.0097120700814399899 0 -0.0012342995203956468 -0.0095221547450730533 0 -0.0015700119003266609 -0.0095201920611698177 0 -0.0014161448004427564 -0.0097120700814399899 0 -0.0012342995203956468 -0.0095221547450730533 0 -0.001136536859952862 -0.0065570186280111149 0 -0.00078941708072202883 -0.0066374385091710272 0 -0.0011063699326188808 -0.0062003473608186156 0 -0.001136536859952862 -0.0065570186280111149 0 -0.00078941708072202883 -0.0066374385091710272 0 -0.0011591464789843795 -0.006924940379257778 0 -0.0014919403556076973 -0.0066028812708946571 0 -0.001136536859952862 -0.0065570186280111149 0 -0.0011591464789843795 -0.006924940379257778 0 -0.0014541439538617925 -0.00624648756631924 0 -0.0014919403556076973 -0.0066028812708946571 0 -0.001136536859952862 -0.0065570186280111149 0 -0.00078941708072202883 -0.0066374385091710272 0 -0.00047485798551700565 -0.0063253309324406591 0 -0.00077578946081250614 -0.0061157256967738251 0 -0.00078941708072202883 -0.0066374385091710272 0 -0.00074029181189648918 -0.0070119451775609081 0 -0.0011591464789843795 -0.006924940379257778 0 -0.00078941708072202883 -0.0066374385091710272 0 -0.00074029181189648918 -0.0070119451775609081 0 -0.00040239190007857845 -0.0068390954182211278 0 -0.00056481591833901343 -0.0067836368842230264 0 -0.00047828360875463169 -0.0055717215368418036 0 -0.00074029181189648918 -0.0070119451775609081 0 -0.0011591464789843795 -0.006924940379257778 0 -0.0010275302842206182 -0.0073296565566279715 0 -0.0014255621411274622 -0.0072728441459441271 0 -0.0010585282240107041 -0.0072720228130096582 0 -0.0016751807707302588 -0.0075864924840858047 0 -0.0012865213961950068 -0.0075107788837942011 0 -0.0012345946487433736 -0.0078000400716453141 0 -0.0014363363209975888 -0.0072481388091817766 0 -0.0011591464789843795 -0.006924940379257778 0 -0.0010275302842206182 -0.0073296565566279715 0 -0.0016751807707302588 -0.0075864924840858047 0 -0.0012345946487433736 -0.0078000400716453141 0 -0.0014715983962066814 -0.0080473191181497771 0 -0.0011536224406720216 -0.0081986361307869616 0 -0.0012345946487433736 -0.0078000400716453141 0 -0.0014715983962066814 -0.0080473191181497771 0 -0.0011536224406720216 -0.0081986361307869616 0 -0.0012345946487433736 -0.0078000400716453141 0 -0.00092221731064944174 -0.0079283727050013797 0 -0.0012345946487433736 -0.0078000400716453141 0 -0.00092221731064944174 -0.0079283727050013797 0 -0.00088418383294725672 -0.0076322400924640054 0 -0.00092221731064944174 -0.0079283727050013797 0 -0.00088418383294725672 -0.0076322400924640054 0 -0.00078217177767101733 -0.0078236375699199927 0 -0.00074029181189648918 -0.0070119451775609081 0 -0.0010275302842206182 -0.0073296565566279715 0 -0.00033002804105683312 -0.0073219474306502044 0 -0.00092929554242733689 -0.0065882891718274739 0 -0.00075145270232447158 -0.0066234325415256597 0 -0.0005863012204892639 -0.0065780569141734935 0 -0.0010585282240107041 -0.0072720228130096582 0 -0.00046267774684316591 -0.0059030664157755349 0 -0.0012865213961950068 -0.0075107788837942011 0 -0.0012345946487433736 -0.0078000400716453141 0 -0.00088418383294725672 -0.0076322400924640054 0 -0.0010585282240107041 -0.0072720228130096582 0 -0.00080908959774534436 -0.0070881584970273193 0 -0.00039994041119477582 -0.0046335239805184369 0 -0.00035579659569571858 -0.0045960014833134723 0 -0.00041725720302426757 -0.0045196338187223776 0 -0.00046267774684316591 -0.0059030664157755349 0 -0.00043999707211271865 -0.0059924246484337664 0 -0.00075145270232447158 -0.0066234325415256597 0 -0.0005863012204892639 -0.0065780569141734935 0 -0.00057375176779348011 -0.0066593151504301387 0 -0.00080908959774534436 -0.0070881584970273193 0 -0.00043999707211271865 -0.0059924246484337664 0 -0.0004658964758572028 -0.0065635692541573072 0 -0.00043999707211271865 -0.0059924246484337664 0 -0.00088418383294725672 -0.0076322400924640054 0 -0.00078217177767101733 -0.0078236375699199927 0 -0.00061737327230242849 -0.0077370327941635435 0 -0.00078217177767101733 -0.0078236375699199927 0 -0.00061737327230242849 -0.0077370327941635435 0 -0.00072332058785433992 -0.007974987777321951 0 -0.00057738860634597112 -0.00814439544004175 0 -0.00061737327230242849 -0.0077370327941635435 0 -0.00072332058785433992 -0.007974987777321951 0 -0.00092221731064944174 -0.0079283727050013797 0 -0.00078217177767101733 -0.0078236375699199927 0 -0.00072332058785433992 -0.007974987777321951 0 -0.00043999707211271865 -0.0059924246484337664 0 -0.00034910661897123593 -0.0046209059210556959 0 -0.00037530906454407825 -0.0047388582156642038 0 -0.00030841297895975911 -0.0048018835221701204 0 -0.00026027936436825994 -0.0047458605637424565 0 -0.0003518883088634954 -0.0048822510585277779 0 -0.00037530906454407825 -0.0047388582156642038 0 -0.00030841297895975911 -0.0048018835221701204 0 -0.00023561503013859236 -0.0048451214144989525 0 -0.00030841297895975911 -0.0048018835221701204 0 -0.00026027936436825994 -0.0047458605637424565 0 -0.00044030487426101697 -0.004706929187088307 0 -0.00026027936436825994 -0.0047458605637424565 0 -0.00031210668468630265 -0.0046343896432958732 0 -0.00046267774684316591 -0.0059030664157755349 0 -0.00033141835229541494 -0.004799412772517251 0 -0.0004499499619876646 -0.0046425775607562975 0 -0.00044030487426101697 -0.004706929187088307 0 -0.00031210668468630265 -0.0046343896432958732 0 -0.00039994041119477582 -0.0046335239805184369 0 -0.00031210668468630265 -0.0046343896432958732 0 -0.00035579659569571858 -0.0045960014833134723 0 -0.00031210668468630265 -0.0046343896432958732 0 -0.00035579659569571858 -0.0045960014833134723 0 -0.00030632030925476905 -0.0045546305757734433 0 -0.00030218341566482491 -0.0043369291605547013 0 -0.00036604789412093179 -0.0041615630766885089 0 -0.00054399859479790967 -0.0042140338032273699 0 -0.00035579659569571858 -0.0045960014833134723 0 -0.00030632030925476905 -0.0045546305757734433 0 -0.00041725720302426757 -0.0045196338187223776 0 -0.00037334214835350616 -0.0043465671188301531 0 -0.00047828360875463169 -0.0055717215368418036 0 -0.00030218341566482491 -0.0043369291605547013 0 -0.00036604789412093179 -0.0041615630766885089 0 -0.00019189063611384509 -0.0041989831997240731 0 -0.00046267774684316591 -0.0059030664157755349 0 -0.00047828360875463169 -0.0055717215368418036 0 -0.00074029181189648918 -0.0070119451775609081 0 -0.00033002804105683312 -0.0073219474306502044 0 -0.00040239190007857845 -0.0068390954182211278 0 -0.00054399859479790967 -0.0042140338032273699 0 -0.00043585057946022833 -0.0040273130923366013 0 -0.00058399493665051594 -0.0039264004776476688 0 -0.00047828360875463169 -0.0055717215368418036 0 -0.00052233732161731557 -0.0051604854420956433 0 -0.00036604789412093179 -0.0041615630766885089 0 -0.00054399859479790967 -0.0042140338032273699 0 -0.00043585057946022833 -0.0040273130923366013 0 -0.00078941708072202883 -0.0066374385091710272 0 -0.00040364768265799104 -0.0068222940191430635 0 -0.00047485798551700565 -0.0063253309324406591 0 -0.00043585057946022833 -0.0040273130923366013 0 -0.00029516438829462106 -0.0040131752533143017 0 -0.00038911565246017827 -0.0038196697987603542 0 -0.00036604789412093179 -0.0041615630766885089 0 -0.00029516438829462106 -0.0040131752533143017 0 -0.00019189063611384509 -0.0041989831997240731 0 -0.00036604789412093179 -0.0041615630766885089 0 -0.00043585057946022833 -0.0040273130923366013 0 -0.00029516438829462106 -0.0040131752533143017 0 -0.00011732237600652669 -0.0039968719501394462 0 5.9073029805926717e-05 -0.0040176779439054554 0 -3.7393394030738573e-07 -0.0042095654382366616 0 -0.00011732237600652669 -0.0039968719501394462 0 -3.7393394030738573e-07 -0.0042095654382366616 0 -0.00019189063611384509 -0.0041989831997240731 0 -0.00029516438829462106 -0.0040131752533143017 0 -0.00011732237600652669 -0.0039968719501394462 0 -0.00019189063611384509 -0.0041989831997240731 0 -0.00029516438829462106 -0.0040131752533143017 0 -0.00011732237600652669 -0.0039968719501394462 0 -0.00018630595705599627 -0.0038033635022363551 0 -0.00011732237600652669 -0.0039968719501394462 0 5.9073029805926717e-05 -0.0040176779439054554 0 2.0701882701810134e-05 -0.0038268480625128294 0 5.9073029805926717e-05 -0.0040176779439054554 0 0.00022535336319912957 -0.0038836853315639967 0 2.0701882701810134e-05 -0.0038268480625128294 0 5.9073029805926717e-05 -0.0040176779439054554 0 -3.7393394030738573e-07 -0.0042095654382366616 0 0.00023469760600662541 -0.0041627727903932208 0 5.9073029805926717e-05 -0.0040176779439054554 0 0.00023469760600662541 -0.0041627727903932208 0 0.00022535336319912957 -0.0038836853315639967 0 -3.7393394030738573e-07 -0.0042095654382366616 0 -6.6029400909491058e-05 -0.0044748373827457628 0 0.00013579509824126272 -0.0043936419140014381 0 -3.7393394030738573e-07 -0.0042095654382366616 0 0.00013579509824126272 -0.0043936419140014381 0 0.00023469760600662541 -0.0041627727903932208 0 -3.7393394030738573e-07 -0.0042095654382366616 0 -0.00019189063611384509 -0.0041989831997240731 0 -6.6029400909491058e-05 -0.0044748373827457628 0 -0.00030218341566482491 -0.0043369291605547013 0 -0.00019189063611384509 -0.0041989831997240731 0 -6.6029400909491058e-05 -0.0044748373827457628 0 -0.00037334214835350616 -0.0043465671188301531 0 -7.0339806607591285e-05 -0.0045476484929448599 0 -0.00031210668468630265 -0.0046343896432958732 0 -0.00030632030925476905 -0.0045546305757734433 0 -0.00013595557303855351 -0.0045830018570150411 0 -0.00026027936436825994 -0.0047458605637424565 0 -0.00031210668468630265 -0.0046343896432958732 0 -0.00013595557303855351 -0.0045830018570150411 0 -0.00026027936436825994 -0.0047458605637424565 0 -0.00013595557303855351 -0.0045830018570150411 0 -0.00013137695928485936 -0.0048192849365577481 0 -0.00023561503013859236 -0.0048451214144989525 0 -0.00026027936436825994 -0.0047458605637424565 0 -0.00013137695928485936 -0.0048192849365577481 0 0.00030580598335506088 -0.0049155629311511823 0 -0.00013137695928485936 -0.0048192849365577481 0 0.0001586598644468903 -0.0046401896219921248 0 -0.00013595557303855351 -0.0045830018570150411 0 -0.00013137695928485936 -0.0048192849365577481 0 0.0001586598644468903 -0.0046401896219921248 0 -7.0339806607591285e-05 -0.0045476484929448599 0 0.00013317780628181562 -0.004632958459682421 0 -6.6029400909491058e-05 -0.0044748373827457628 0 0.0001586598644468903 -0.0046401896219921248 0 0.00013579509824126272 -0.0043936419140014381 0 0.0001586598644468903 -0.0046401896219921248 0 0.00013579509824126272 -0.0043936419140014381 0 0.00038243089715929315 -0.0044709484741345873 0 0.0001586598644468903 -0.0046401896219921248 0 0.00038243089715929315 -0.0044709484741345873 0 0.00043296748061229397 -0.0047150883137351647 0 0.00030580598335506088 -0.0049155629311511823 0 0.0001586598644468903 -0.0046401896219921248 0 0.00043296748061229397 -0.0047150883137351647 0 0.00069957738829242561 -0.0049951319677519297 0 0.00043296748061229397 -0.0047150883137351647 0 0.00064849428204076032 -0.0046336901069138512 0 0.0006528392683955019 -0.0038878712249240297 0 0.00061436313441476213 -0.0037546985788007598 0 0.00038243089715929315 -0.0044709484741345873 0 0.00064849428204076032 -0.0046336901069138512 0 0.00060169402712579125 -0.0042735209450760862 0 0.00038243089715929315 -0.0044709484741345873 0 0.00043296748061229397 -0.0047150883137351647 0 0.00064849428204076032 -0.0046336901069138512 0 0.00013579509824126272 -0.0043936419140014381 0 0.00038243089715929315 -0.0044709484741345873 0 0.00023469760600662541 -0.0041627727903932208 0 0.00038243089715929315 -0.0044709484741345873 0 0.00060169402712579125 -0.0042735209450760862 0 0.00023469760600662541 -0.0041627727903932208 0 0.00023469760600662541 -0.0041627727903932208 0 0.00056671079755522 -0.0039235507897815202 0 0.00022535336319912957 -0.0038836853315639967 0 0.00060169402712579125 -0.0042735209450760862 0 0.00023469760600662541 -0.0041627727903932208 0 0.00056671079755522 -0.0039235507897815202 0 0.00063341087030150778 -0.0032413695463135656 0 0.00061276447554709499 -0.0033730795704923051 0 0.00055638265951453555 -0.0033432921802734918 0 0.00061436313441476213 -0.0037546985788007598 0 0.00058385395079179779 -0.0036413742134397882 0 0.00061276447554709499 -0.0033730795704923051 0 0.0005203123872552153 -0.0035156842786435312 0 0.00055045501112816213 -0.0034344388893882772 0 0.00056671079755522 -0.0039235507897815202 0 0.00037417695010564178 -0.003722724503223042 0 0.0005203123872552153 -0.0035156842786435312 0 0.00058385395079179779 -0.0036413742134397882 0 0.00053183278222505295 -0.0035165352309478675 0 0.00037417695010564178 -0.003722724503223042 0 0.00022535336319912957 -0.0038836853315639967 0 0.00021285909246391017 -0.0036152479848230645 0 0.00056671079755522 -0.0039235507897815202 0 0.00037417695010564178 -0.003722724503223042 0 0.00022535336319912957 -0.0038836853315639967 0 0.00037417695010564178 -0.003722724503223042 0 0.0005203123872552153 -0.0035156842786435312 0 0.00021285909246391017 -0.0036152479848230645 0 0.0005203123872552153 -0.0035156842786435312 0 0.00034656497847617535 -0.0033552464067535532 0 0.00021285909246391017 -0.0036152479848230645 0 0.0005203123872552153 -0.0035156842786435312 0 0.00034656497847617535 -0.0033552464067535532 0 0.00057203138519875297 -0.0034566092476485074 0 0.0005203123872552153 -0.0035156842786435312 0 0.00055045501112816213 -0.0034344388893882772 0 0.00057203138519875297 -0.0034566092476485074 0 0.000136192516861712 -0.0037754308292458328 0 0.00028643509356157941 -0.0034444540354149787 0 -3.8103462799990275e-06 -0.0038539768656327155 0 9.0771395354494177e-06 -0.0041681884844916757 0 2.4376398774024545e-05 -0.0034666788391160344 0 -3.8103462799990275e-06 -0.0038539768656327155 0 -8.724214330558451e-08 -0.0038017230211901073 0 -2.8747051012790501e-07 -0.0046833456625163979 0 -3.8103462799990275e-06 -0.0038539768656327155 0 -2.8747051012790501e-07 -0.0046833456625163979 0 9.0771395354494177e-06 -0.0041681884844916757 0 0.000136192516861712 -0.0037754308292458328 0 -4.6264914482203846e-05 -0.0039389501617603179 0 0.00034656497847617535 -0.0033552464067535532 0 0.00010852033429913481 -0.0034601535715991505 0 -6.6115196784026221e-05 -0.0032889842506347699 0 -2.8747051012790501e-07 -0.0046833456625163979 0 9.0771395354494177e-06 -0.0041681884844916757 0 -3.3433556169626409e-05 -0.0048734912138436942 0 -2.8747051012790501e-07 -0.0046833456625163979 0 7.8904098691431384e-07 -0.0055630586697806034 0 -3.3433556169626409e-05 -0.0048734912138436942 0 -6.6115196784026221e-05 -0.0032889842506347699 0 -6.1313396810071428e-05 -0.0035722658705668233 0 -0.0002579160044373413 -0.0034251750251156417 0 0.00010852033429913481 -0.0034601535715991505 0 -6.6115196784026221e-05 -0.0032889842506347699 0 -6.1313396810071428e-05 -0.0035722658705668233 0 -6.1313396810071428e-05 -0.0035722658705668233 0 -0.00018630595705599627 -0.0038033635022363551 0 -0.00027023016509251626 -0.0035931680398785127 0 -6.1313396810071428e-05 -0.0035722658705668233 0 -0.00027023016509251626 -0.0035931680398785127 0 -0.0002579160044373413 -0.0034251750251156417 0 0.00010852033429913481 -0.0034601535715991505 0 -6.1313396810071428e-05 -0.0035722658705668233 0 0.00021285909246391017 -0.0036152479848230645 0 0.00034656497847617535 -0.0033552464067535532 0 0.00010852033429913481 -0.0034601535715991505 0 0.00021285909246391017 -0.0036152479848230645 0 -6.1313396810071428e-05 -0.0035722658705668233 0 0.00021285909246391017 -0.0036152479848230645 0 2.0701882701810134e-05 -0.0038268480625128294 0 0.00022535336319912957 -0.0038836853315639967 0 0.00021285909246391017 -0.0036152479848230645 0 2.0701882701810134e-05 -0.0038268480625128294 0 -6.1313396810071428e-05 -0.0035722658705668233 0 2.0701882701810134e-05 -0.0038268480625128294 0 -0.00018630595705599627 -0.0038033635022363551 0 -0.00011732237600652669 -0.0039968719501394462 0 2.0701882701810134e-05 -0.0038268480625128294 0 -0.00018630595705599627 -0.0038033635022363551 0 -0.00018630595705599627 -0.0038033635022363551 0 -0.00038911565246017827 -0.0038196697987603542 0 -0.00027023016509251626 -0.0035931680398785127 0 -0.00029516438829462106 -0.0040131752533143017 0 -0.00018630595705599627 -0.0038033635022363551 0 -0.00038911565246017827 -0.0038196697987603542 0 -0.00038911565246017827 -0.0038196697987603542 0 -0.00058399493665051594 -0.0039264004776476688 0 -0.00061909380226835139 -0.0036410939965623376 0 -0.00043585057946022833 -0.0040273130923366013 0 -0.00038911565246017827 -0.0038196697987603542 0 -0.00058399493665051594 -0.0039264004776476688 0 -0.00052233732161731557 -0.0051604854420956433 0 -0.00063263503777679969 -0.0044942807545556617 0 -0.00061909380226835139 -0.0036410939965623376 0 -0.00027023016509251626 -0.0035931680398785127 0 -0.00044753459571726678 -0.003444999407643418 0 -0.00038911565246017827 -0.0038196697987603542 0 -0.00061909380226835139 -0.0036410939965623376 0 -0.00027023016509251626 -0.0035931680398785127 0 -0.0002579160044373413 -0.0034251750251156417 0 -0.00043687626331551799 -0.003234562235163389 0 -0.00044753459571726678 -0.003444999407643418 0 -6.6115196784026221e-05 -0.0032889842506347699 0 -0.0002579160044373413 -0.0034251750251156417 0 -0.00043687626331551799 -0.003234562235163389 0 -0.00027023016509251626 -0.0035931680398785127 0 -0.0002579160044373413 -0.0034251750251156417 0 -0.00044753459571726678 -0.003444999407643418 0 -4.6264914482203846e-05 -0.0039389501617603179 0 -2.9929903262431764e-05 -0.0051018410202235773 0 6.5179341245013753e-08 -0.0055647876351285252 0 -2.9929903262431764e-05 -0.0051018410202235773 0 1.2167400107116343e-07 -0.0055649228094365628 0 -1.2292528400472067e-07 -0.0061346636305749259 0 6.110786585884376e-06 -0.0062013634326426124 0 7.8904098691431384e-07 -0.0055630586697806034 0 -3.3433556169626409e-05 -0.0048734912138436942 0 0.00061576667296065542 -0.0051920455707710235 0 -1.2292528400472067e-07 -0.0061346636305749259 0 1.2696396767023106e-07 -0.006704016212280668 0 -1.0943496956364533e-05 -0.0065265039100111562 0 -1.2292528400472067e-07 -0.0061346636305749259 0 6.110786585884376e-06 -0.0062013634326426124 0 -1.0943496956364533e-05 -0.0065265039100111562 0 -0.00015784105017765753 -0.0058007071180092833 0 2.5231298243855427e-05 -0.0056942720495778117 0 5.0734570875367539e-05 -0.0058578983015207921 0 -2.9929903262431764e-05 -0.0051018410202235773 0 0.00018722755387270097 -0.0068030578259504499 0 -0.00043687626331551799 -0.003234562235163389 0 -0.00044753459571726678 -0.003444999407643418 0 -0.00065370227806472775 -0.0033712518465053528 0 -2.9929903262431764e-05 -0.0051018410202235773 0 -0.00023163545619167111 -0.0055070173778235913 0 -0.00061909380226835139 -0.0036410939965623376 0 -0.00044753459571726678 -0.003444999407643418 0 -0.00065370227806472775 -0.0033712518465053528 0 -0.00063263503777679969 -0.0044942807545556617 0 -0.00023163545619167111 -0.0055070173778235913 0 0.00059132023517319645 -0.0078492209648234508 0 0.00023090814069361842 -0.0077473406941489173 0 3.7003777173692085e-05 -0.0081554249524326255 0 -0.00023163545619167111 -0.0055070173778235913 0 -0.0005859673466483158 -0.0070874633495819394 0 -0.00023163545619167111 -0.0055070173778235913 0 0.00018722755387270097 -0.0068030578259504499 0 0.00059132023517319645 -0.0078492209648234508 0 0.00058911753052070398 -0.0074306932534713701 0 0.00023090814069361842 -0.0077473406941489173 0 0.00058911753052070398 -0.0074306932534713701 0 3.1943656037596787e-05 -0.0072358736040819376 0 0.00023090814069361842 -0.0077473406941489173 0 3.865496541502143e-07 -0.0067052919696325621 0 6.3018190521270706e-06 -0.0067403163223665871 0 3.1943656037596787e-05 -0.0072358736040819376 0 0.00018722755387270097 -0.0068030578259504499 0 8.0187186078393969e-05 -0.0071586875382321259 0 2.1902686441218858e-07 -0.0067046333443711668 0 0.00018722755387270097 -0.0068030578259504499 0 -4.7305378455707068e-08 -0.0075453926182407205 0 3.865496541502143e-07 -0.0067052919696325621 0 3.1943656037596787e-05 -0.0072358736040819376 0 -4.7305378455707068e-08 -0.0075453926182407205 0 3.1943656037596787e-05 -0.0072358736040819376 0 -1.5739193783037993e-05 -0.0078153705489530309 0 3.1943656037596787e-05 -0.0072358736040819376 0 -1.5739193783037993e-05 -0.0078153705489530309 0 0.00023090814069361842 -0.0077473406941489173 0 -1.5739193783037993e-05 -0.0078153705489530309 0 0.00023090814069361842 -0.0077473406941489173 0 3.7003777173692085e-05 -0.0081554249524326255 0 -0.00054807709792608185 -0.0058136932088965433 0 -0.00062191115820474764 -0.0053075901783362391 0 -0.0012302492253122937 -0.0056722218359624606 0 -0.00054807709792608185 -0.0058136932088965433 0 -0.0012302492253122937 -0.0056722218359624606 0 -0.00077578946081250614 -0.0061157256967738251 0 -0.00047485798551700565 -0.0063253309324406591 0 -0.00054807709792608185 -0.0058136932088965433 0 -0.00077578946081250614 -0.0061157256967738251 0 -0.00078941708072202883 -0.0066374385091710272 0 -0.00077578946081250614 -0.0061157256967738251 0 -0.0011063699326188808 -0.0062003473608186156 0 -0.0012302492253122937 -0.0056722218359624606 0 -0.00077578946081250614 -0.0061157256967738251 0 -0.0011063699326188808 -0.0062003473608186156 0 -0.0014541439538617925 -0.00624648756631924 0 -0.0012302492253122937 -0.0056722218359624606 0 -0.0011063699326188808 -0.0062003473608186156 0 -0.0014541439538617925 -0.00624648756631924 0 -0.001136536859952862 -0.0065570186280111149 0 -0.0011063699326188808 -0.0062003473608186156 0 0.00067521932285536735 0.0010933814139151843 0 0.00046752417299213459 0.0010235201911191999 0 0.0005306080451276526 0.00073254138204253592 0 0.00067521932285536735 0.0010933814139151843 0 0.00046752417299213459 0.0010235201911191999 0 0.00054774479166378126 0.0012522376672111024 0 0.00046752417299213459 0.0010235201911191999 0 0.00054774479166378126 0.0012522376672111024 0 0.00036443643518617371 0.0012714767887799358 0 0.00054774479166378126 0.0012522376672111024 0 0.00071558321313222096 0.0013431541217128929 0 0.0005666368178326932 0.0014756494428968692 0 0.00054774479166378126 0.0012522376672111024 0 0.00036443643518617371 0.0012714767887799358 0 0.0005666368178326932 0.0014756494428968692 0 0.00067521932285536735 0.0010933814139151843 0 0.00071558321313222096 0.0013431541217128929 0 0.0009050776126966057 0.0011747157546541959 0 0.00067521932285536735 0.0010933814139151843 0 0.00054774479166378126 0.0012522376672111024 0 0.00071558321313222096 0.0013431541217128929 0 0.00071558321313222096 0.0013431541217128929 0 0.0009050776126966057 0.0011747157546541959 0 0.0009361406107894286 0.0014240319348417703 0 0.0009050776126966057 0.0011747157546541959 0 0.0013020740055947071 0.0011478628839788627 0 0.0009361406107894286 0.0014240319348417703 0 0.0009050776126966057 0.0011747157546541959 0 0.0013020740055947071 0.0011478628839788627 0 0.00093417489976912939 0.0008313383659676127 0 0.00067521932285536735 0.0010933814139151843 0 0.0009050776126966057 0.0011747157546541959 0 0.00093417489976912939 0.0008313383659676127 0 0.0013020740055947071 0.0011478628839788627 0 0.00093417489976912939 0.0008313383659676127 0 0.0015727374410177588 0.00032014001160776922 0 0.00093417489976912939 0.0008313383659676127 0 0.00081130888070072009 0.00030058200191861563 0 0.0015727374410177588 0.00032014001160776922 0 0.00081130888070072009 0.00030058200191861563 0 0.0005306080451276526 0.00073254138204253592 0 0.00041039999485387104 0.0002310344866137127 0 0.00093417489976912939 0.0008313383659676127 0 0.00081130888070072009 0.00030058200191861563 0 0.0005306080451276526 0.00073254138204253592 0 0.00067521932285536735 0.0010933814139151843 0 0.00093417489976912939 0.0008313383659676127 0 0.0005306080451276526 0.00073254138204253592 0 0.00046752417299213459 0.0010235201911191999 0 0.0005306080451276526 0.00073254138204253592 0 0.00027149793135096406 0.00076569899616234065 0 0.0005306080451276526 0.00073254138204253592 0 0.00027149793135096406 0.00076569899616234065 0 0.00041039999485387104 0.0002310344866137127 0 0.00027149793135096406 0.00076569899616234065 0 0.00013412592577219739 0.0012338910895864533 0 7.2492656664915569e-05 0.00077141281926405652 0 0.00013412592577219739 0.0012338910895864533 0 0.00036443643518617371 0.0012714767887799358 0 0.00022529304860765821 0.00154243701786459 0 0.00013412592577219739 0.0012338910895864533 0 0.00022529304860765821 0.00154243701786459 0 0.000106783571379913 0.0015947456746381208 0 0.00027149793135096406 0.00076569899616234065 0 0.00013412592577219739 0.0012338910895864533 0 0.00036443643518617371 0.0012714767887799358 0 0.00046752417299213459 0.0010235201911191999 0 0.00027149793135096406 0.00076569899616234065 0 0.00036443643518617371 0.0012714767887799358 0 0.00036443643518617371 0.0012714767887799358 0 0.00022529304860765821 0.00154243701786459 0 0.0005666368178326932 0.0014756494428968692 0 0.00022529304860765821 0.00154243701786459 0 0.0005814849223738024 0.0015175345543319123 0 0.0005666368178326932 0.0014756494428968692 0 0.00022529304860765821 0.00154243701786459 0 0.00026587326686649962 0.0017298915085738257 0 0.00041614329363549434 0.0017506388987317528 0 0.00022529304860765821 0.00154243701786459 0 0.00041614329363549434 0.0017506388987317528 0 0.00056560723985857742 0.0016117741442634732 0 0.00013191200716986939 0.0016304317086232975 0 0.0008707115313122258 0.0011336313598936188 0 0.00022529304860765821 0.00154243701786459 0 0.000106783571379913 0.0015947456746381208 0 0.00016374963038421836 0.0017664507473745667 0 0.00022529304860765821 0.00154243701786459 0 0.00019582258612806493 0.0017330534833438116 0 0.00016374963038421836 0.0017664507473745667 0 0.00022529304860765821 0.00154243701786459 0 0.00019582258612806493 0.0017330534833438116 0 0.00026587326686649962 0.0017298915085738257 0 0.00019582258612806493 0.0017330534833438116 0 0.00023093371145556678 0.001807010178369452 0 0.00016710109325429826 0.0017841410500885884 0 0.00019582258612806493 0.0017330534833438116 0 0.00026587326686649962 0.0017298915085738257 0 0.00023093371145556678 0.001807010178369452 0 0.00026587326686649962 0.0017298915085738257 0 0.00023093371145556678 0.001807010178369452 0 0.00032584502622298787 0.0018014721274308147 0 0.00024577212269394095 0.0018509035418458266 0 0.00023093371145556678 0.001807010178369452 0 0.00032584502622298787 0.0018014721274308147 0 0.00095004888255507795 0.0019585713158697636 0 0.00081599635117430463 0.0018368871419591145 0 0.0015131259016347902 0.0026642701154590584 0 0.0010819670182511047 0.0023072910954429816 0 0.0012560303146283822 0.0028182873374694856 0 0.00095004888255507795 0.0019585713158697636 0 0.00060517630590586826 0.0020719313358385271 0 0.00023771182961988423 0.001825058413759631 0 0.00023093371145556678 0.001807010178369452 0 0.00016710109325429826 0.0017841410500885884 0 0.00047426648820582135 0.0019577487436647817 0 0.00041614329363549434 0.0017506388987317528 0 0.00032584502622298787 0.0018014721274308147 0 0.00047426648820582135 0.0019577487436647817 0 0.00024577212269394095 0.0018509035418458266 0 0.00032584502622298787 0.0018014721274308147 0 0.00026587326686649962 0.0017298915085738257 0 0.00041614329363549434 0.0017506388987317528 0 0.00032584502622298787 0.0018014721274308147 0 0.00047426648820582135 0.0019577487436647817 0 0.00041614329363549434 0.0017506388987317528 0 0.00062700004830525612 0.0018450887580133699 0 0.00041614329363549434 0.0017506388987317528 0 0.00062700004830525612 0.0018450887580133699 0 0.00056560723985857742 0.0016117741442634732 0 0.00091896178052145328 0.0011287910417619388 0 0.0008707115313122258 0.0011336313598936188 0 0.00059739462765719359 0.0015877842129724709 0 0.00079216862043546331 0.0015115561798183517 0 0.0005666368178326932 0.0014756494428968692 0 0.00071558321313222096 0.0013431541217128929 0 0.00079216862043546331 0.0015115561798183517 0 0.0005666368178326932 0.0014756494428968692 0 0.00071558321313222096 0.0013431541217128929 0 0.00079216862043546331 0.0015115561798183517 0 0.0009361406107894286 0.0014240319348417703 0 0.0008707115313122258 0.0011336313598936188 0 0.0008539701149555992 0.0012542704400374724 0 0.00059739462765719359 0.0015877842129724709 0 0.00079216862043546331 0.0015115561798183517 0 0.0011407776262082939 0.0017199100341549786 0 0.00035243850148260712 -0.0032080062780352925 0 0.00034015447281980513 -0.0031018782499015064 0 0.00037949130842937766 -0.0031656584902556963 0 0.0013020740055947071 0.0011478628839788627 0 0.0009361406107894286 0.0014240319348417703 0 0.0011407776262082939 0.0017199100341549786 0 0.0008707115313122258 0.0011336313598936188 0 0.0012876887095020328 -0.00080861278333545347 0 0.00079205739061526451 -0.00099422610510277801 0 0.0012876887095020328 -0.00080861278333545347 0 0.00079216862043546331 0.0015115561798183517 0 0.0009361406107894286 0.0014240319348417703 0 0.0011407776262082939 0.0017199100341549786 0 0.0020618116322473627 -0.00058717775080927568 0 0.0012876887095020328 -0.00080861278333545347 0 0.0013894998704763232 0.00037684114235543917 0 0.0012706771394410102 0.00035166121352336481 0 0.0014246609135907659 0.00015906258131431978 0 0.0012706771394410102 0.00035166121352336481 0 0.0011987369518251761 0.00011705500543289247 0 0.0014246609135907659 0.00015906258131431978 0 0.0026120985396413995 -0.0012390850104251135 0 0.0026588703010301438 -0.0015040011362898672 0 0.0027343474459649805 -0.001368479165812336 0 0.0026120985396413995 -0.0012390850104251135 0 0.0028360446069637299 -0.0012605868869166677 0 0.0027343474459649805 -0.001368479165812336 0 0.0026588703010301438 -0.0015040011362898672 0 0.0027343474459649805 -0.001368479165812336 0 0.0028324572577333299 -0.0014671395829931506 0 0.0028360446069637299 -0.0012605868869166677 0 0.0027343474459649805 -0.001368479165812336 0 0.0028324572577333299 -0.0014671395829931506 0 0.0012315419868458161 -0.0024713503774236832 0 0.0020015113100874684 -0.0021281732918662739 0 0.0028360446069637299 -0.0012605868869166677 0 0.0028324572577333299 -0.0014671395829931506 0 0.0030315467841376623 -0.0012192676840059398 0 0.00099322932739194991 -0.0029472436283424002 0 0.00077432826805463352 -0.003008901723451668 0 0.00083844275583601845 -0.0031049748943482239 0 0.0012315419868458161 -0.0024713503774236832 0 0.00050284935239268001 -0.0031179408780048629 0 0.0006823286227733888 -0.0031245371537195052 0 0.00077432826805463352 -0.003008901723451668 0 0.00083844275583601845 -0.0031049748943482239 0 0.00039388699788435835 -0.0031091826586658365 0 0.00048023886400101669 -0.0031022999157056192 0 0.00045710969767274274 -0.003149893081115815 0 0.00048023886400101669 -0.0031022999157056192 0 0.00045710969767274274 -0.003149893081115815 0 0.00054243453825147427 -0.0031314591729349182 0 0.00045710969767274274 -0.003149893081115815 0 0.00052569922794597256 -0.0031886027720370619 0 0.00045779898404649705 -0.0032066862803851563 0 0.00045710969767274274 -0.003149893081115815 0 0.00042013746531078443 -0.003175314243112075 0 0.00045779898404649705 -0.0032066862803851563 0 0.00045710969767274274 -0.003149893081115815 0 0.00042013746531078443 -0.003175314243112075 0 0.00040548205912307604 -0.0031431966396205423 0 0.00042013746531078443 -0.003175314243112075 0 0.00037949130842937766 -0.0031656584902556963 0 0.00040548205912307604 -0.0031431966396205423 0 0.00039388699788435835 -0.0031091826586658365 0 0.00045710969767274274 -0.003149893081115815 0 0.00040548205912307604 -0.0031431966396205423 0 0.00037949130842937766 -0.0031656584902556963 0 0.00037734901530775991 -0.0031182869454960088 0 0.00040548205912307604 -0.0031431966396205423 0 0.00039388699788435835 -0.0031091826586658365 0 0.00037734901530775991 -0.0031182869454960088 0 0.00040548205912307604 -0.0031431966396205423 0 0.00034015447281980513 -0.0031018782499015064 0 0.00040607761345520116 -0.0030858068052777125 0 0.00037734901530775991 -0.0031182869454960088 0 0.00034015447281980513 -0.0031018782499015064 0 0.00037949130842937766 -0.0031656584902556963 0 0.00037734901530775991 -0.0031182869454960088 0 0.0012876887095020328 -0.00080861278333545347 0 0.0012315419868458161 -0.0024713503774236832 0 0.0012315419868458161 -0.0024713503774236832 0 0.00062859041064664944 -0.0030289300261667935 0 0.00040856698851436061 -0.0040643804784819236 0 0.0006528392683955019 -0.0038878712249240297 0 0.00061700273980578061 -0.0031225707429848185 0 0.00060359929303018401 -0.0030964295484079266 0 0.00057748343489178323 -0.0031670175774584915 0 0.00060359929303018401 -0.0030964295484079266 0 0.00054243453825147427 -0.0031314591729349182 0 0.00057748343489178323 -0.0031670175774584915 0 0.00057696165898521619 -0.0031497825475301213 0 0.00061700273980578061 -0.0031225707429848185 0 0.00060359929303018401 -0.0030964295484079266 0 0.00050284935239268001 -0.0031179408780048629 0 0.00065639214529754266 -0.0030711184148203893 0 0.00048023886400101669 -0.0031022999157056192 0 0.00060359929303018401 -0.0030964295484079266 0 0.00054243453825147427 -0.0031314591729349182 0 0.0006823286227733888 -0.0031245371537195052 0 0.00077432826805463352 -0.003008901723451668 0 0.00060359929303018401 -0.0030964295484079266 0 0.00052569922794597256 -0.0031886027720370619 0 0.00057748343489178323 -0.0031670175774584915 0 0.00055583411279287753 -0.0032546129899009915 0 0.00045710969767274274 -0.003149893081115815 0 0.00054243453825147427 -0.0031314591729349182 0 0.00052569922794597256 -0.0031886027720370619 0 0.00054243453825147427 -0.0031314591729349182 0 0.00052569922794597256 -0.0031886027720370619 0 0.00057748343489178323 -0.0031670175774584915 0 0.00061700273980578061 -0.0031225707429848185 0 0.00063341087030150778 -0.0032413695463135656 0 0.00057748343489178323 -0.0031670175774584915 0 0.00063341087030150778 -0.0032413695463135656 0 0.00057748343489178323 -0.0031670175774584915 0 0.00055583411279287753 -0.0032546129899009915 0 0.00063341087030150778 -0.0032413695463135656 0 0.00055583411279287753 -0.0032546129899009915 0 0.00055638265951453555 -0.0033432921802734918 0 0.00055583411279287753 -0.0032546129899009915 0 0.00049997395909588303 -0.0032498409210952178 0 0.00050134696270205399 -0.0033203405872430929 0 0.00052569922794597256 -0.0031886027720370619 0 0.00055583411279287753 -0.0032546129899009915 0 0.00049997395909588303 -0.0032498409210952178 0 0.00052569922794597256 -0.0031886027720370619 0 0.00049997395909588303 -0.0032498409210952178 0 0.00045779898404649705 -0.0032066862803851563 0 0.00055583411279287753 -0.0032546129899009915 0 0.00050134696270205399 -0.0033203405872430929 0 0.00055638265951453555 -0.0033432921802734918 0 0.00050134696270205399 -0.0033203405872430929 0 0.00055638265951453555 -0.0033432921802734918 0 0.00049543139318270033 -0.0033899354426195488 0 0.00035243850148260712 -0.0032080062780352925 0 0.00040429220056170597 -0.0032207037087381213 0 0.00036683129496004887 -0.0033098694803958559 0 0.00035243850148260712 -0.0032080062780352925 0 0.00037949130842937766 -0.0031656584902556963 0 0.00040429220056170597 -0.0032207037087381213 0 0.00042013746531078443 -0.003175314243112075 0 0.00037949130842937766 -0.0031656584902556963 0 0.00040429220056170597 -0.0032207037087381213 0 0.00042013746531078443 -0.003175314243112075 0 0.00040429220056170597 -0.0032207037087381213 0 0.00045779898404649705 -0.0032066862803851563 0 0.00040429220056170597 -0.0032207037087381213 0 0.00045779898404649705 -0.0032066862803851563 0 0.00042887756108746645 -0.0032764747068962834 0 0.00049997395909588303 -0.0032498409210952178 0 0.00045779898404649705 -0.0032066862803851563 0 0.00042887756108746645 -0.0032764747068962834 0 0.00050134696270205399 -0.0033203405872430929 0 0.00042887756108746645 -0.0032764747068962834 0 0.00044437595640671099 -0.0033440436731319917 0 0.00049997395909588303 -0.0032498409210952178 0 0.00050134696270205399 -0.0033203405872430929 0 0.00042887756108746645 -0.0032764747068962834 0 0.00042887756108746645 -0.0032764747068962834 0 0.00041222638993675478 -0.0033214964626230442 0 0.00044437595640671099 -0.0033440436731319917 0 0.00079205739061526451 -0.00099422610510277801 0 0.00098014849671132324 -0.0015645229474669879 0 0.00042887756108746645 -0.0032764747068962834 0 0.00041222638993675478 -0.0033214964626230442 0 0.00036683129496004887 -0.0033098694803958559 0 0.00040429220056170597 -0.0032207037087381213 0 0.00042887756108746645 -0.0032764747068962834 0 0.00036683129496004887 -0.0033098694803958559 0 0.0015727374410177588 0.00032014001160776922 0 0.0018152577504265386 -0.0010964328157983924 0 0.00087194153719843796 -0.00085661560229349234 0 0.00036683129496004887 -0.0033098694803958559 0 0.00040803879857617448 -0.0033541830694643507 0 0.00038587298660863251 -0.0034012327508444106 0 0.00098014849671132324 -0.0015645229474669879 0 0.00099559916159007423 -0.0020194812589772312 0 0.00040803879857617448 -0.0033541830694643507 0 0.00044599977894400867 -0.0033870301091777416 0 0.00038587298660863251 -0.0034012327508444106 0 0.00041222638993675478 -0.0033214964626230442 0 0.00036683129496004887 -0.0033098694803958559 0 0.00040803879857617448 -0.0033541830694643507 0 0.00041222638993675478 -0.0033214964626230442 0 0.00040803879857617448 -0.0033541830694643507 0 0.00044437595640671099 -0.0033440436731319917 0 0.00044599977894400867 -0.0033870301091777416 0 0.00049543139318270033 -0.0033899354426195488 0 0.00049148385319045386 -0.0034421878991922243 0 0.00040803879857617448 -0.0033541830694643507 0 0.00044437595640671099 -0.0033440436731319917 0 0.00044599977894400867 -0.0033870301091777416 0 0.00044437595640671099 -0.0033440436731319917 0 0.00044599977894400867 -0.0033870301091777416 0 0.00049543139318270033 -0.0033899354426195488 0 0.00062979392851801109 -0.0022431836156017373 0 0.0007790245428517938 -0.0019396408591924445 0 0.00030029374375591399 -0.0028546040080591074 0 0.00099559916159007423 -0.0020194812589772312 0 0.00027778556177485706 -0.0032025631362670231 0 0.00044599977894400867 -0.0033870301091777416 0 0.00038587298660863251 -0.0034012327508444106 0 0.00049148385319045386 -0.0034421878991922243 0 0.00062979392851801109 -0.0022431836156017373 0 0.00075563350542851265 -0.0019176667190732067 0 0.00077817155094828908 -0.0019467600547866349 0 0.00062979392851801109 -0.0022431836156017373 0 0.00075563350542851265 -0.0019176667190732067 0 0.00066433064717379153 -0.0021236389323926329 0 0.00077817155094828908 -0.0019467600547866349 0 0.00082201647456727248 -0.0016301082762525752 0 0.00080644580014924529 -0.0018775516362652663 0 0.00075563350542851265 -0.0019176667190732067 0 0.00077817155094828908 -0.0019467600547866349 0 0.00082201647456727248 -0.0016301082762525752 0 0.00098772047663803187 -0.0020052442738282702 0 0.00099559916159007423 -0.0020194812589772312 0 0.00062979392851801109 -0.0022431836156017373 0 0.00077817155094828908 -0.0019467600547866349 0 0.0007790245428517938 -0.0019396408591924445 0 0.00061276447554709499 -0.0033730795704923051 0 0.00055638265951453555 -0.0033432921802734918 0 0.00055045501112816213 -0.0034344388893882772 0 0.00055638265951453555 -0.0033432921802734918 0 0.00055045501112816213 -0.0034344388893882772 0 0.00049543139318270033 -0.0033899354426195488 0 0.00050134696270205399 -0.0033203405872430929 0 0.00044437595640671099 -0.0033440436731319917 0 0.00049543139318270033 -0.0033899354426195488 0 0.00055045501112816213 -0.0034344388893882772 0 0.00049543139318270033 -0.0033899354426195488 0 0.00049148385319045386 -0.0034421878991922243 0 0.00027778556177485706 -0.0032025631362670231 0 0.00028643509356157941 -0.0034444540354149787 0 0.00055045501112816213 -0.0034344388893882772 0 0.00049148385319045386 -0.0034421878991922243 0 0.00057203138519875297 -0.0034566092476485074 0 -3.8103462799990275e-06 -0.0038539768656327155 0 2.4376398774024545e-05 -0.0034666788391160344 0 8.1093049520587857e-05 -0.0031774406673312099 0 0.00030029374375591399 -0.0028546040080591074 0 2.4376398774024545e-05 -0.0034666788391160344 0 8.1093049520587857e-05 -0.0031774406673312099 0 0.00030029374375591399 -0.0028546040080591074 0 8.1093049520587857e-05 -0.0031774406673312099 0 0.00032328063013210389 -0.0027847337701600106 0 8.1093049520587857e-05 -0.0031774406673312099 0 6.8518069836481369e-07 -0.0029214651563302745 0 0.00032328063013210389 -0.0027847337701600106 0 -3.8103462799990275e-06 -0.0038539768656327155 0 -8.724214330558451e-08 -0.0038017230211901073 0 8.1093049520587857e-05 -0.0031774406673312099 0 -8.724214330558451e-08 -0.0038017230211901073 0 8.1093049520587857e-05 -0.0031774406673312099 0 6.8518069836481369e-07 -0.0029214651563302745 0 0.00052002692285136047 -0.0025531005638716811 0 0.00066433064717379153 -0.0021236389323926329 0 0.00065808586436347011 -0.0018246456621083852 0 0.00062979392851801109 -0.0022431836156017373 0 0.00052002692285136047 -0.0025531005638716811 0 0.00066433064717379153 -0.0021236389323926329 0 0.00031319396406459429 -0.002124628302324412 0 0.00041340547596113004 -0.0012525104403714031 0 0.00062979392851801109 -0.0022431836156017373 0 0.00052002692285136047 -0.0025531005638716811 0 0.00032328063013210389 -0.0027847337701600106 0 0.00062979392851801109 -0.0022431836156017373 0 0.00030029374375591399 -0.0028546040080591074 0 0.00032328063013210389 -0.0027847337701600106 0 4.5855617659163208e-07 -0.0029202023962727119 0 0.00016063853203322591 -0.0017031995939827994 0 1.6178983688833285e-07 -0.0020328417454403324 0 6.8518069836481369e-07 -0.0029214651563302745 0 0.00052002692285136047 -0.0025531005638716811 0 0.00032328063013210389 -0.0027847337701600106 0 9.3172292776576703e-08 -0.0029205738113149428 0 0.00031319396406459429 -0.002124628302324412 0 0.00016063853203322591 -0.0017031995939827994 0 1.6178983688833285e-07 -0.0020328417454403324 0 6.1117073883416954e-05 -0.0013381651693720512 0 1.6178983688833285e-07 -0.0020328417454403324 0 6.1117073883416954e-05 -0.0013381651693720512 0 3.3094834274143146e-08 -0.0011453175622982395 0 6.1117073883416954e-05 -0.0013381651693720512 0 3.3094834274143146e-08 -0.0011453175622982395 0 6.5687877631824185e-05 -0.00088334094007349857 0 3.3094834274143146e-08 -0.0011453175622982395 0 3.9353283364733934e-05 -0.00049742979827770422 0 6.5687877631824185e-05 -0.00088334094007349857 0 3.9353283364733934e-05 -0.00049742979827770422 0 6.5687877631824185e-05 -0.00088334094007349857 0 0.00015145799647666794 -0.00073228502328489468 0 0.00016063853203322591 -0.0017031995939827994 0 6.1117073883416954e-05 -0.0013381651693720512 0 0.00015145799647666794 -0.00073228502328489468 0 6.1117073883416954e-05 -0.0013381651693720512 0 6.5687877631824185e-05 -0.00088334094007349857 0 0.00015145799647666794 -0.00073228502328489468 0 0.00075563350542851265 -0.0019176667190732067 0 0.00066433064717379153 -0.0021236389323926329 0 0.00065808586436347011 -0.0018246456621083852 0 0.00082201647456727248 -0.0016301082762525752 0 0.00065808586436347011 -0.0018246456621083852 0 0.00087194153719843796 -0.00085661560229349234 0 0.00075563350542851265 -0.0019176667190732067 0 0.00082201647456727248 -0.0016301082762525752 0 0.00065808586436347011 -0.0018246456621083852 0 0.00099559916159007423 -0.0020194812589772312 0 0.00082912114777709551 -0.0011447080454753298 0 0.00082201647456727248 -0.0016301082762525752 0 0.00080644580014924529 -0.0018775516362652663 0 0.00087194153719843796 -0.00085661560229349234 0 0.00065808586436347011 -0.0018246456621083852 0 0.00015847905958793609 -0.00010698725297336454 0 0.00087194153719843796 -0.00085661560229349234 0 0.00041340547596113004 -0.0012525104403714031 0 0.0001440907110349213 -0.0002752144347656147 0 3.9353283364733934e-05 -0.00049742979827770422 0 0.00015145799647666794 -0.00073228502328489468 0 0.00015847905958793609 -0.00010698725297336454 0 0.00027149793135096406 0.00076569899616234065 0 0.00015847905958793609 -0.00010698725297336454 0 0.00041039999485387104 0.0002310344866137127 0 0.00015847905958793609 -0.00010698725297336454 0 0.00041039999485387104 0.0002310344866137127 0 0.00087194153719843796 -0.00085661560229349234 0 0.00081130888070072009 0.00030058200191861563 0 0.00041039999485387104 0.0002310344866137127 0 0.00087194153719843796 -0.00085661560229349234 0 0.00081130888070072009 0.00030058200191861563 0 0.0015727374410177588 0.00032014001160776922 0 0.00087194153719843796 -0.00085661560229349234 0 7.2492656664915569e-05 0.00077141281926405652 0 2.7402367601645168e-05 0.00016962461821583283 0 -1.5524972018898038e-05 0.00091883829082924648 0 0.00027149793135096406 0.00076569899616234065 0 0.00015847905958793609 -0.00010698725297336454 0 7.2492656664915569e-05 0.00077141281926405652 0 0.00015847905958793609 -0.00010698725297336454 0 7.2492656664915569e-05 0.00077141281926405652 0 2.7402367601645168e-05 0.00016962461821583283 0 3.9353283364733934e-05 -0.00049742979827770422 0 0.00015847905958793609 -0.00010698725297336454 0 2.7402367601645168e-05 0.00016962461821583283 0 3.9353283364733934e-05 -0.00049742979827770422 0 2.7402367601645168e-05 0.00016962461821583283 0 -4.6519152599690727e-08 -0.00025762269121400242 0 2.7402367601645168e-05 0.00016962461821583283 0 -4.6519152599690727e-08 -0.00025762269121400242 0 -3.3207101581669382e-05 0.00034282576648069727 0 3.3094834274143146e-08 -0.0011453175622982395 0 3.9353283364733934e-05 -0.00049742979827770422 0 -4.6519152599690727e-08 -0.00025762269121400242 0 -4.6519152599690727e-08 -0.00025762269121400242 0 -2.3174538009914504e-07 0.00062872720347349862 0 -3.3207101581669382e-05 0.00034282576648069727 0 -2.3174538009914504e-07 0.00062872720347349862 0 -5.2693764767634988e-05 0.00070490877314607198 0 -3.3207101581669382e-05 0.00034282576648069727 0 -2.3174538009914504e-07 0.00062872720347349862 0 -5.2693764767634988e-05 0.00070490877314607198 0 -0.00018614186433817901 0.000874398680615962 0 -5.2693764767634988e-05 0.00070490877314607198 0 -0.00016343633660130283 0.0012862227557656283 0 -4.2396704862686846e-05 0.00073882055762884919 0 -5.2693764767634988e-05 0.00070490877314607198 0 -3.3207101581669382e-05 0.00034282576648069727 0 -4.2396704862686846e-05 0.00073882055762884919 0 2.7402367601645168e-05 0.00016962461821583283 0 -3.3207101581669382e-05 0.00034282576648069727 0 -4.2396704862686846e-05 0.00073882055762884919 0 4.5177116207541818e-08 0.0014258644726946282 0 -3.6047571795211957e-05 0.0020239407640001254 0 8.9710205081205348e-05 0.0017076435663081835 0 4.5177116207541818e-08 0.0014258644726946282 0 -3.6047571795211957e-05 0.0020239407640001254 0 -2.3696168369160176e-07 0.0022216566107399766 0 -8.4996897129239758e-08 0.00062994376185044926 0 -8.0426019630032753e-05 0.001311915595042858 0 3.3692658326291625e-07 0.0006302252651382307 0 4.5177116207541818e-08 0.0014258644726946282 0 8.9710205081205348e-05 0.0017076435663081835 0 -5.2693764767634988e-05 0.00070490877314607198 0 -0.00018614186433817901 0.000874398680615962 0 -0.00016343633660130283 0.0012862227557656283 0 -0.00018614186433817901 0.000874398680615962 0 -0.00016343633660130283 0.0012862227557656283 0 -0.0003492975083861538 0.0016283764614812032 0 -3.6047571795211957e-05 0.0020239407640001254 0 8.9710205081205348e-05 0.0017076435663081835 0 -7.26383352633765e-05 0.0024415530727373391 0 -8.0426019630032753e-05 0.001311915595042858 0 -0.00018557425724652498 0.0020209686998229484 0 -0.00016343633660130283 0.0012862227557656283 0 -0.0002835870553272273 0.002080445535294725 0 -0.0003492975083861538 0.0016283764614812032 0 -0.00016343633660130283 0.0012862227557656283 0 -0.00012051765884318807 0.0014475830439066391 0 -0.0002835870553272273 0.002080445535294725 0 2.7402367601645168e-05 0.00016962461821583283 0 -4.2396704862686846e-05 0.00073882055762884919 0 -1.5524972018898038e-05 0.00091883829082924648 0 -0.00016343633660130283 0.0012862227557656283 0 -0.00012051765884318807 0.0014475830439066391 0 -4.2396704862686846e-05 0.00073882055762884919 0 -0.00012051765884318807 0.0014475830439066391 0 -4.2396704862686846e-05 0.00073882055762884919 0 -1.5524972018898038e-05 0.00091883829082924648 0 -0.00012051765884318807 0.0014475830439066391 0 -1.5524972018898038e-05 0.00091883829082924648 0 -2.4853346407293317e-05 0.0013863220519513993 0 7.2492656664915569e-05 0.00077141281926405652 0 -1.5524972018898038e-05 0.00091883829082924648 0 -2.4853346407293317e-05 0.0013863220519513993 0 0.00013412592577219739 0.0012338910895864533 0 7.2492656664915569e-05 0.00077141281926405652 0 8.5104486550677396e-06 0.0014104447379719499 0 9.4278006925323075e-05 0.0008744244249650633 0 -1.4238796792016161e-05 0.0013769264547144743 0 0.00013412592577219739 0.0012338910895864533 0 0.000106783571379913 0.0015947456746381208 0 8.5104486550677396e-06 0.0014104447379719499 0 0.000106783571379913 0.0015947456746381208 0 8.7615269657355087e-05 0.0018374618636261603 0 0.00016374963038421836 0.0017664507473745667 0 8.7615269657355087e-05 0.0018374618636261603 0 8.5104486550677396e-06 0.0014104447379719499 0 -9.563843655435474e-05 0.0018914181031616044 0 0.000106783571379913 0.0015947456746381208 0 8.7615269657355087e-05 0.0018374618636261603 0 8.5104486550677396e-06 0.0014104447379719499 0 -0.00012051765884318807 0.0014475830439066391 0 -2.4853346407293317e-05 0.0013863220519513993 0 -0.00017457241597660118 0.001983659036582069 0 -1.4238796792016161e-05 0.0013769264547144743 0 -0.00013614512041709346 0.0019490994802638696 0 -0.00012051765884318807 0.0014475830439066391 0 -0.0002835870553272273 0.002080445535294725 0 -0.00017457241597660118 0.001983659036582069 0 -0.0002835870553272273 0.002080445535294725 0 -0.00017457241597660118 0.001983659036582069 0 -0.00023904265401481823 0.0024483847413723681 0 -0.00013614512041709346 0.0019490994802638696 0 -0.00024661392014018802 0.0023651651953816972 0 -9.563843655435474e-05 0.0018914181031616044 0 -6.5256560209310175e-05 0.002176541474760122 0 -0.00023904265401481823 0.0024483847413723681 0 8.7615269657355087e-05 0.0018374618636261603 0 -9.563843655435474e-05 0.0018914181031616044 0 -6.5256560209310175e-05 0.002176541474760122 0 -6.5256560209310175e-05 0.002176541474760122 0 -0.0001319965385962702 0.0025451367136622633 0 5.5445051815766618e-05 0.0023559360219816555 0 -6.5256560209310175e-05 0.002176541474760122 0 -0.00021702792024247677 0.0026165483001567968 0 -0.00023904265401481823 0.0024483847413723681 0 -6.5256560209310175e-05 0.002176541474760122 0 -0.0001319965385962702 0.0025451367136622633 0 -0.00021702792024247677 0.0026165483001567968 0 -0.0001319965385962702 0.0025451367136622633 0 -0.00011893206568872534 0.0027866417598572404 0 -0.00021024282960667844 0.0028043961731993262 0 -0.0001319965385962702 0.0025451367136622633 0 -0.00021702792024247677 0.0026165483001567968 0 -0.00021024282960667844 0.0028043961731993262 0 -0.0001319965385962702 0.0025451367136622633 0 5.5445051815766618e-05 0.0023559360219816555 0 3.8590024247212651e-05 0.0026812572034517093 0 -0.0001319965385962702 0.0025451367136622633 0 3.8590024247212651e-05 0.0026812572034517093 0 -0.00011893206568872534 0.0027866417598572404 0 5.5445051815766618e-05 0.0023559360219816555 0 0.00040476605208046893 0.0025086964618113569 0 3.8590024247212651e-05 0.0026812572034517093 0 5.5445051815766618e-05 0.0023559360219816555 0 0.00040476605208046893 0.0025086964618113569 0 0.00024908383646678032 0.0020042521422245531 0 0.00040476605208046893 0.0025086964618113569 0 0.0010819670182511047 0.0023072910954429816 0 0.0012560303146283822 0.0028182873374694856 0 0.00060517630590586826 0.0020719313358385271 0 0.00030337432944280813 0.0019808374070096452 0 0.00040476605208046893 0.0025086964618113569 0 0.0010819670182511047 0.0023072910954429816 0 0.00024908383646678032 0.0020042521422245531 0 0.00016710109325429826 0.0017841410500885884 0 0.00016374963038421836 0.0017664507473745667 0 0.00024908383646678032 0.0020042521422245531 0 0.00019582258612806493 0.0017330534833438116 0 0.00016710109325429826 0.0017841410500885884 0 0.00016374963038421836 0.0017664507473745667 0 8.7615269657355087e-05 0.0018374618636261603 0 -6.5256560209310175e-05 0.002176541474760122 0 0.00024908383646678032 0.0020042521422245531 0 -6.5256560209310175e-05 0.002176541474760122 0 5.5445051815766618e-05 0.0023559360219816555 0 0.00024908383646678032 0.0020042521422245531 0 8.7615269657355087e-05 0.0018374618636261603 0 0.00016374963038421836 0.0017664507473745667 0 0.00024908383646678032 0.0020042521422245531 0 -4.7919811189366824e-05 0.0031763478039777606 0 -0.00019828622212401991 0.0028470699698426435 0 -9.5943667064409135e-05 0.0031777843236263283 0 -4.7919811189366824e-05 0.0031763478039777606 0 -9.5943667064409135e-05 0.0031777843236263283 0 7.133147446228638e-05 0.0034250898564436977 0 -4.7919811189366824e-05 0.0031763478039777606 0 7.133147446228638e-05 0.0034250898564436977 0 0.00025661865297774627 0.0034047129112624685 0 -4.7919811189366824e-05 0.0031763478039777606 0 -0.00013318101628035688 0.0029974136051261744 0 -6.8436209876665614e-05 0.0029877441866327705 0 -4.7919811189366824e-05 0.0031763478039777606 0 -0.00013318101628035688 0.0029974136051261744 0 -0.00020573827799778919 0.0028564285367155399 0 -0.00013318101628035688 0.0029974136051261744 0 -0.00020573827799778919 0.0028564285367155399 0 -0.00019827367890771453 0.002895213236739266 0 -0.00020573827799778919 0.0028564285367155399 0 -0.00021024282960667844 0.0028043961731993262 0 -0.00019827367890771453 0.002895213236739266 0 -0.00020573827799778919 0.0028564285367155399 0 -0.00021702792024247677 0.0026165483001567968 0 -0.00021024282960667844 0.0028043961731993262 0 -0.00021702792024247677 0.0026165483001567968 0 -0.00019828622212401991 0.0028470699698426435 0 -0.00023904265401481823 0.0024483847413723681 0 -0.00020573827799778919 0.0028564285367155399 0 -0.00021702792024247677 0.0026165483001567968 0 -0.00019828622212401991 0.0028470699698426435 0 -4.7919811189366824e-05 0.0031763478039777606 0 -0.00020573827799778919 0.0028564285367155399 0 -0.00019828622212401991 0.0028470699698426435 0 -0.00019828622212401991 0.0028470699698426435 0 -0.00023904265401481823 0.0024483847413723681 0 -0.00022607107496750629 0.0027607480719776399 0 -0.0002835870553272273 0.002080445535294725 0 -0.00023904265401481823 0.0024483847413723681 0 -0.00022607107496750629 0.0027607480719776399 0 -0.00022607107496750629 0.0027607480719776399 0 -9.5943667064409135e-05 0.0031777843236263283 0 -9.5585772998888627e-05 0.0033448201271239425 0 -0.00019828622212401991 0.0028470699698426435 0 -0.00022607107496750629 0.0027607480719776399 0 -9.5943667064409135e-05 0.0031777843236263283 0 -0.00022607107496750629 0.0027607480719776399 0 -9.5585772998888627e-05 0.0033448201271239425 0 -0.00017434757010947015 0.0030252960879602162 0 -9.5585772998888627e-05 0.0033448201271239425 0 -0.00017434757010947015 0.0030252960879602162 0 -0.00010716868855689737 0.0034395552187337346 0 -0.00022607107496750629 0.0027607480719776399 0 -0.00017434757010947015 0.0030252960879602162 0 -0.00026020951242270725 0.0026070967776658828 0 -0.00017434757010947015 0.0030252960879602162 0 -0.00026020951242270725 0.0026070967776658828 0 -0.00012984602972738272 0.0030600959354324681 0 -0.00017434757010947015 0.0030252960879602162 0 -0.00010716868855689737 0.0034395552187337346 0 -0.00012984602972738272 0.0030600959354324681 0 -0.0002835870553272273 0.002080445535294725 0 -0.00022607107496750629 0.0027607480719776399 0 -0.00026020951242270725 0.0026070967776658828 0 -0.0002835870553272273 0.002080445535294725 0 -0.00026020951242270725 0.0026070967776658828 0 -0.0003492975083861538 0.0016283764614812032 0 -0.00025113679972577096 0.0025018228332020767 0 -0.00018557425724652498 0.0020209686998229484 0 -0.00026020951242270725 0.0026070967776658828 0 -7.26383352633765e-05 0.0024415530727373391 0 -0.00013801759071219879 0.0026027988572949164 0 -3.6047571795211957e-05 0.0020239407640001254 0 -7.26383352633765e-05 0.0024415530727373391 0 -0.00013801759071219879 0.0026027988572949164 0 -0.00026020951242270725 0.0026070967776658828 0 -0.00013801759071219879 0.0026027988572949164 0 -0.00012984602972738272 0.0030600959354324681 0 -0.00013801759071219879 0.0026027988572949164 0 -2.3696168369160176e-07 0.0022216566107399766 0 -2.4291540226530803e-07 0.0030174812992681947 0 -3.6047571795211957e-05 0.0020239407640001254 0 -0.00013801759071219879 0.0026027988572949164 0 -2.3696168369160176e-07 0.0022216566107399766 0 -0.00010716868855689737 0.0034395552187337346 0 -7.9659056636125549e-05 0.0034940871626600502 0 -0.00012984602972738272 0.0030600959354324681 0 -0.00013801759071219879 0.0026027988572949164 0 -0.00012984602972738272 0.0030600959354324681 0 -2.4291540226530803e-07 0.0030174812992681947 0 -7.9659056636125549e-05 0.0034940871626600502 0 -0.00012984602972738272 0.0030600959354324681 0 -2.4291540226530803e-07 0.0030174812992681947 0 -7.9659056636125549e-05 0.0034940871626600502 0 -2.4291540226530803e-07 0.0030174812992681947 0 -4.3775758455597241e-08 0.003813168880630889 0 -7.9659056636125549e-05 0.0034940871626600502 0 -4.3775758455597241e-08 0.003813168880630889 0 -6.9576604027005767e-05 0.003918296043617508 0 -4.3775758455597241e-08 0.003813168880630889 0 -6.9576604027005767e-05 0.003918296043617508 0 -4.2761599675638575e-07 0.0046093772213667943 0 -0.00010716868855689737 0.0034395552187337346 0 -7.9659056636125549e-05 0.0034940871626600502 0 -6.9576604027005767e-05 0.003918296043617508 0 -6.9576604027005767e-05 0.003918296043617508 0 -4.2761599675638575e-07 0.0046093772213667943 0 3.3829453213216762e-06 0.0041883180221275575 0 -4.2761599675638575e-07 0.0046093772213667943 0 9.3898291179246982e-07 0.0054033435505206574 0 3.0998852124553275e-05 0.0045828702728294597 0 -1.110116759567071e-08 0.0054053551425569547 0 8.2635232562887036e-05 0.0054682043184253312 0 9.3898291179246982e-07 0.0054033435505206574 0 3.0998852124553275e-05 0.0045828702728294597 0 0.00029086510745399168 0.0045798983018166609 0 3.0998852124553275e-05 0.0045828702728294597 0 0.00015293419646809317 0.0043804173070413855 0 0.00029086510745399168 0.0045798983018166609 0 3.0998852124553275e-05 0.0045828702728294597 0 3.3829453213216762e-06 0.0041883180221275575 0 0.00015293419646809317 0.0043804173070413855 0 -4.2761599675638575e-07 0.0046093772213667943 0 3.0998852124553275e-05 0.0045828702728294597 0 3.3829453213216762e-06 0.0041883180221275575 0 3.3829453213216762e-06 0.0041883180221275575 0 0.00015293419646809317 0.0043804173070413855 0 4.9533761070541307e-05 0.0040616878984622781 0 3.3829453213216762e-06 0.0041883180221275575 0 4.9533761070541307e-05 0.0040616878984622781 0 -5.0748070421017761e-05 0.0037847869271603104 0 0.00015293419646809317 0.0043804173070413855 0 4.9533761070541307e-05 0.0040616878984622781 0 4.9868710928118137e-05 0.0043843778061200076 0 4.9533761070541307e-05 0.0040616878984622781 0 -5.0748070421017761e-05 0.0037847869271603104 0 -1.1015810987640863e-05 0.0037481572459923118 0 -9.5585772998888627e-05 0.0033448201271239425 0 -5.0748070421017761e-05 0.0037847869271603104 0 -1.1015810987640863e-05 0.0037481572459923118 0 -9.5585772998888627e-05 0.0033448201271239425 0 -0.00010716868855689737 0.0034395552187337346 0 -5.0748070421017761e-05 0.0037847869271603104 0 -0.00010716868855689737 0.0034395552187337346 0 -6.9576604027005767e-05 0.003918296043617508 0 -5.0748070421017761e-05 0.0037847869271603104 0 -6.9576604027005767e-05 0.003918296043617508 0 3.3829453213216762e-06 0.0041883180221275575 0 -5.0748070421017761e-05 0.0037847869271603104 0 -0.00013321251614495432 0.0066073862839971034 0 -4.4148535220625236e-07 0.0063565050408342623 0 -7.2925062724245417e-07 0.007650311402042447 0 -0.00013321251614495432 0.0066073862839971034 0 -0.00010536579341250942 0.0066589112398038703 0 -7.2925062724245417e-07 0.007650311402042447 0 -0.00010536579341250942 0.0066589112398038703 0 -7.2925062724245417e-07 0.007650311402042447 0 -0.00010011536519755281 0.0070996827012975777 0 5.7228389933782347e-07 0.005406396626738948 0 -4.4148535220625236e-07 0.0063565050408342623 0 -1.9024804765275076e-05 0.0063129767567123175 0 -0.00013321251614495432 0.0066073862839971034 0 -0.00027072858914154574 0.0065495444242537225 0 -0.00010536579341250942 0.0066589112398038703 0 -0.00013321251614495432 0.0066073862839971034 0 -1.9024804765275076e-05 0.0063129767567123175 0 -0.00027072858914154574 0.0065495444242537225 0 -0.00013321251614495432 0.0066073862839971034 0 -4.4148535220625236e-07 0.0063565050408342623 0 -1.9024804765275076e-05 0.0063129767567123175 0 8.2635232562887036e-05 0.0054682043184253312 0 -4.074111920378328e-05 0.0055273894430294896 0 0.00015293419646809317 0.0043804173070413855 0 0.00010073510664453874 0.0047496363797282157 0 0.00010614933766731103 0.0045346261353227833 0 0.00015293419646809317 0.0043804173070413855 0 0.00029086510745399168 0.0045798983018166609 0 0.00010614933766731103 0.0045346261353227833 0 0.00015293419646809317 0.0043804173070413855 0 0.00010073510664453874 0.0047496363797282157 0 4.9868710928118137e-05 0.0043843778061200076 0 0.00010073510664453874 0.0047496363797282157 0 4.8736974682853195e-05 0.0047376123100350762 0 4.9868710928118137e-05 0.0043843778061200076 0 0.00010073510664453874 0.0047496363797282157 0 -1.684840014492136e-05 0.0055663081215697342 0 4.8736974682853195e-05 0.0047376123100350762 0 0.00010073510664453874 0.0047496363797282157 0 0.00010614933766731103 0.0045346261353227833 0 -1.684840014492136e-05 0.0055663081215697342 0 -0.00027072858914154574 0.0065495444242537225 0 -0.00010536579341250942 0.0066589112398038703 0 -8.0800010236368907e-05 0.0063050323076709793 0 -4.074111920378328e-05 0.0055273894430294896 0 -2.438975320648029e-06 0.0055136401643814262 0 -0.00027072858914154574 0.0065495444242537225 0 -8.0800010236368907e-05 0.0063050323076709793 0 -1.684840014492136e-05 0.0055663081215697342 0 -0.00010536579341250942 0.0066589112398038703 0 -5.5485260752382883e-05 0.0063364870025335324 0 -0.00012584054477710646 0.0065844481875506474 0 -0.00010536579341250942 0.0066589112398038703 0 -5.5485260752382883e-05 0.0063364870025335324 0 -8.0800010236368907e-05 0.0063050323076709793 0 -5.5485260752382883e-05 0.0063364870025335324 0 -8.0800010236368907e-05 0.0063050323076709793 0 1.9683247361670431e-05 0.0058206556155792283 0 1.9683247361670431e-05 0.0058206556155792283 0 -1.684840014492136e-05 0.0055663081215697342 0 0.00034133362936596709 0.0044571358485168766 0 -8.0800010236368907e-05 0.0063050323076709793 0 1.9683247361670431e-05 0.0058206556155792283 0 -1.684840014492136e-05 0.0055663081215697342 0 1.9683247361670431e-05 0.0058206556155792283 0 -0.00015767485458780494 0.006243038671809047 0 -0.0001435177270403461 0.0062758899365087098 0 -0.00015767485458780494 0.006243038671809047 0 -0.0001435177270403461 0.0062758899365087098 0 -0.00022532345571955306 0.0064199256122482425 0 -5.5485260752382883e-05 0.0063364870025335324 0 1.9683247361670431e-05 0.0058206556155792283 0 -0.0001435177270403461 0.0062758899365087098 0 -5.5485260752382883e-05 0.0063364870025335324 0 -0.0001435177270403461 0.0062758899365087098 0 -0.00012584054477710646 0.0065844481875506474 0 -0.0001435177270403461 0.0062758899365087098 0 -0.00019496996757086641 0.0064987355962243089 0 -0.00012584054477710646 0.0065844481875506474 0 -0.0001435177270403461 0.0062758899365087098 0 -0.00019496996757086641 0.0064987355962243089 0 -0.00022532345571955306 0.0064199256122482425 0 -0.00019496996757086641 0.0064987355962243089 0 -0.00021917729579268031 0.0065653788236960916 0 -0.00017428490815688989 0.0067691891435049676 0 -0.00019496996757086641 0.0064987355962243089 0 -0.00012584054477710646 0.0065844481875506474 0 -0.00017428490815688989 0.0067691891435049676 0 -0.00010536579341250942 0.0066589112398038703 0 -0.00012584054477710646 0.0065844481875506474 0 -0.00010011536519755281 0.0070996827012975777 0 -0.00012584054477710646 0.0065844481875506474 0 -0.00010011536519755281 0.0070996827012975777 0 -0.00017428490815688989 0.0067691891435049676 0 -0.00024517320938907417 0.0064015441310876497 0 -0.00021547655841459821 0.0063198352618452202 0 -0.00020835187513548747 0.0064822255713928552 0 -0.00024517320938907417 0.0064015441310876497 0 -0.00024164307734543064 0.0064746098963684318 0 -0.00023287634249328278 0.0064599011945192771 0 -0.00024517320938907417 0.0064015441310876497 0 -0.00024164307734543064 0.0064746098963684318 0 -0.00020835187513548747 0.0064822255713928552 0 -0.00024164307734543064 0.0064746098963684318 0 -0.00021917729579268031 0.0065653788236960916 0 -0.00020835187513548747 0.0064822255713928552 0 -0.00019496996757086641 0.0064987355962243089 0 -0.00021917729579268031 0.0065653788236960916 0 -0.00022532345571955306 0.0064199256122482425 0 -0.00024164307734543064 0.0064746098963684318 0 -0.00021917729579268031 0.0065653788236960916 0 -0.00022532345571955306 0.0064199256122482425 0 -0.00024164307734543064 0.0064746098963684318 0 -0.00022532345571955306 0.0064199256122482425 0 -0.00023287634249328278 0.0064599011945192771 0 -0.00022532345571955306 0.0064199256122482425 0 -0.00015411228904996734 0.0065029168143967662 0 -0.00023287634249328278 0.0064599011945192771 0 4.2999419539808899e-05 0.0057426971402108808 0 5.7903181803422256e-05 0.0054589841063766029 0 1.9683247361670431e-05 0.0058206556155792283 0 -0.00015767485458780494 0.006243038671809047 0 -0.00015411228904996734 0.0065029168143967662 0 -0.00015767485458780494 0.006243038671809047 0 -0.00022532345571955306 0.0064199256122482425 0 -0.00015411228904996734 0.0065029168143967662 0 -0.00015411228904996734 0.0065029168143967662 0 -0.00023287634249328278 0.0064599011945192771 0 -0.00037926286536557185 0.0063518690736924389 0 -0.00024517320938907417 0.0064015441310876497 0 -0.00023287634249328278 0.0064599011945192771 0 -0.00027908123292796693 0.0063604204128276465 0 -0.00023287634249328278 0.0064599011945192771 0 -0.00037926286536557185 0.0063518690736924389 0 -0.00027908123292796693 0.0063604204128276465 0 5.7903181803422256e-05 0.0054589841063766029 0 -4.9882699864532492e-05 0.0052689193505629488 0 0.00011097118302766941 0.0042753334684913621 0 0.00012162191402149535 0.0040701320714833962 0 0.0002471861800127213 0.0041235229407063801 0 0.00034133362936596709 0.0044571358485168766 0 0.00011097118302766941 0.0042753334684913621 0 0.0002471861800127213 0.0041235229407063801 0 0.00034133362936596709 0.0044571358485168766 0 0.00011097118302766941 0.0042753334684913621 0 4.8736974682853195e-05 0.0047376123100350762 0 -1.684840014492136e-05 0.0055663081215697342 0 0.00034133362936596709 0.0044571358485168766 0 4.8736974682853195e-05 0.0047376123100350762 0 0.00011097118302766941 0.0042753334684913621 0 4.8736974682853195e-05 0.0047376123100350762 0 4.9868710928118137e-05 0.0043843778061200076 0 0.00011097118302766941 0.0042753334684913621 0 6.5360810887931452e-05 0.004051734051120145 0 0.00012162191402149535 0.0040701320714833962 0 0.00011097118302766941 0.0042753334684913621 0 4.9868710928118137e-05 0.0043843778061200076 0 6.5360810887931452e-05 0.004051734051120145 0 6.5360810887931452e-05 0.004051734051120145 0 0.00012162191402149535 0.0040701320714833962 0 9.4663207231074218e-05 0.0040504538532272595 0 -0.00010350560761195006 0.004352414859209083 0 9.4663207231074218e-05 0.0040504538532272595 0 3.7365820107147075e-05 0.0043819428159660142 0 0.00012162191402149535 0.0040701320714833962 0 0.00017989390378116938 0.0040079714810248909 0 9.4663207231074218e-05 0.0040504538532272595 0 -0.00016491965724117869 0.0048662398501610775 0 0.00021357294019258723 0.0038869375480183083 0 -0.00010350560761195006 0.004352414859209083 0 -7.2770048980094716e-05 0.0045956689548395891 0 3.7365820107147075e-05 0.0043819428159660142 0 -8.3873411293995621e-05 0.004795445376748031 0 -3.7473972153180526e-05 0.0047829542382891478 0 -7.2770048980094716e-05 0.0045956689548395891 0 -0.00016491965724117869 0.0048662398501610775 0 -0.00011626046507455718 0.0045462592568468645 0 -0.0004609164979386543 0.0060545090504827374 0 -0.00037926286536557185 0.0063518690736924389 0 -0.0003579319143993533 0.0061481784992615789 0 -0.00016491965724117869 0.0048662398501610775 0 -4.9882699864532492e-05 0.0052689193505629488 0 0.00012162191402149535 0.0040701320714833962 0 0.00017989390378116938 0.0040079714810248909 0 0.0002471861800127213 0.0041235229407063801 0 -0.00037926286536557185 0.0063518690736924389 0 -0.00031533001464371658 0.0062740874559077276 0 -0.00027908123292796693 0.0063604204128276465 0 -0.00031533001464371658 0.0062740874559077276 0 -0.00027908123292796693 0.0063604204128276465 0 -0.00026843851878405957 0.0062665743356945455 0 -0.00031533001464371658 0.0062740874559077276 0 -0.0003579319143993533 0.0061481784992615789 0 -0.00026843851878405957 0.0062665743356945455 0 -0.00037926286536557185 0.0063518690736924389 0 -0.00031533001464371658 0.0062740874559077276 0 -0.0003579319143993533 0.0061481784992615789 0 -8.3873411293995621e-05 0.004795445376748031 0 -3.7473972153180526e-05 0.0047829542382891478 0 -9.7235871857042392e-06 0.0049129874474816444 0 -0.0004609164979386543 0.0060545090504827374 0 -0.0003579319143993533 0.0061481784992615789 0 -0.00020790267249567001 0.0059140460719730092 0 -0.00016491965724117869 0.0048662398501610775 0 -0.0001192218901236224 0.0054485292423187646 0 -9.7235871857042392e-06 0.0049129874474816444 0 -1.2340500149589988e-05 0.0050261881868497648 0 4.7133329104879287e-06 0.0051818276627618592 0 -0.0001192218901236224 0.0054485292423187646 0 3.6177006860123339e-05 0.0054534277308260727 0 -0.0003579319143993533 0.0061481784992615789 0 -0.00020790267249567001 0.0059140460719730092 0 -7.6549127337771378e-05 0.0058720868491818363 0 -0.00036315390657755203 0.0061358438288289406 0 -0.00016364041877126487 0.006034762101185265 0 -0.00020790267249567001 0.0059140460719730092 0 -7.6549127337771378e-05 0.0058720868491818363 0 -1.8751330197539803e-05 0.0057271938746605569 0 -0.0003579319143993533 0.0061481784992615789 0 -0.00021834929405164914 0.0062106570706523621 0 -0.00026843851878405957 0.0062665743356945455 0 -0.00021834929405164914 0.0062106570706523621 0 -0.00026843851878405957 0.0062665743356945455 0 -0.00021547655841459821 0.0063198352618452202 0 -0.00024517320938907417 0.0064015441310876497 0 -0.00026843851878405957 0.0062665743356945455 0 -0.00021547655841459821 0.0063198352618452202 0 -0.00024517320938907417 0.0064015441310876497 0 -0.00027908123292796693 0.0063604204128276465 0 -0.00026843851878405957 0.0062665743356945455 0 3.8950493357487863e-06 0.003535712650223859 0 2.8397153393553996e-05 0.0038822672611300789 0 9.3710309791826681e-05 0.0036827399868944585 0 -9.5943667064409135e-05 0.0031777843236263283 0 3.8950493357487863e-06 0.003535712650223859 0 7.133147446228638e-05 0.0034250898564436977 0 -9.5943667064409135e-05 0.0031777843236263283 0 -9.5585772998888627e-05 0.0033448201271239425 0 3.8950493357487863e-06 0.003535712650223859 0 -9.5585772998888627e-05 0.0033448201271239425 0 3.8950493357487863e-06 0.003535712650223859 0 -1.1015810987640863e-05 0.0037481572459923118 0 3.8950493357487863e-06 0.003535712650223859 0 -1.1015810987640863e-05 0.0037481572459923118 0 2.8397153393553996e-05 0.0038822672611300789 0 4.9533761070541307e-05 0.0040616878984622781 0 -1.1015810987640863e-05 0.0037481572459923118 0 2.8397153393553996e-05 0.0038822672611300789 0 4.9533761070541307e-05 0.0040616878984622781 0 4.9868710928118137e-05 0.0043843778061200076 0 2.8397153393553996e-05 0.0038822672611300789 0 6.5360810887931452e-05 0.004051734051120145 0 2.8397153393553996e-05 0.0038822672611300789 0 7.9353984793820165e-05 0.0038909696414304936 0 4.9868710928118137e-05 0.0043843778061200076 0 6.5360810887931452e-05 0.004051734051120145 0 2.8397153393553996e-05 0.0038822672611300789 0 2.8397153393553996e-05 0.0038822672611300789 0 7.9353984793820165e-05 0.0038909696414304936 0 9.3710309791826681e-05 0.0036827399868944585 0 6.5360810887931452e-05 0.004051734051120145 0 7.9353984793820165e-05 0.0038909696414304936 0 9.4663207231074218e-05 0.0040504538532272595 0 7.9353984793820165e-05 0.0038909696414304936 0 9.4663207231074218e-05 0.0040504538532272595 0 0.00016697902577676998 0.003930640138779487 0 7.9353984793820165e-05 0.0038909696414304936 0 9.3710309791826681e-05 0.0036827399868944585 0 0.00016697902577676998 0.003930640138779487 0 0.00016521740822067788 0.0036382080582620662 0 9.3710309791826681e-05 0.0036827399868944585 0 7.133147446228638e-05 0.0034250898564436977 0 0.00016521740822067788 0.0036382080582620662 0 9.3710309791826681e-05 0.0036827399868944585 0 0.00016697902577676998 0.003930640138779487 0 3.8950493357487863e-06 0.003535712650223859 0 9.3710309791826681e-05 0.0036827399868944585 0 7.133147446228638e-05 0.0034250898564436977 0 0.00016521740822067788 0.0036382080582620662 0 7.133147446228638e-05 0.0034250898564436977 0 0.00025661865297774627 0.0034047129112624685 0 0.00025661865297774627 0.0034047129112624685 0 0.00041773153961340796 0.0037255221819542032 0 0.00023296149324828071 0.0037755100204596029 0 0.00016521740822067788 0.0036382080582620662 0 0.00025661865297774627 0.0034047129112624685 0 0.00023296149324828071 0.0037755100204596029 0 0.00041773153961340796 0.0037255221819542032 0 0.00023296149324828071 0.0037755100204596029 0 0.00032411571977575141 0.0039615907489776716 0 0.00024444297531579112 0.0040841653251974504 0 0.00023296149324828071 0.0037755100204596029 0 0.00032411571977575141 0.0039615907489776716 0 0.00024444297531579112 0.0040841653251974504 0 0.00023296149324828071 0.0037755100204596029 0 0.00016697902577676998 0.003930640138779487 0 0.00016521740822067788 0.0036382080582620662 0 0.00023296149324828071 0.0037755100204596029 0 0.00016697902577676998 0.003930640138779487 0 9.4663207231074218e-05 0.0040504538532272595 0 0.00016697902577676998 0.003930640138779487 0 0.00011941235132658009 0.0043868036849116915 0 0.00016697902577676998 0.003930640138779487 0 0.00019712822773396526 0.0042116721765134172 0 0.00011941235132658009 0.0043868036849116915 0 0.00019712822773396526 0.0042116721765134172 0 0.00011941235132658009 0.0043868036849116915 0 0.00015876088802573363 0.0045978256140224204 0 0.00024444297531579112 0.0040841653251974504 0 0.00016697902577676998 0.003930640138779487 0 0.00019712822773396526 0.0042116721765134172 0 0.00024444297531579112 0.0040841653251974504 0 0.00019712822773396526 0.0042116721765134172 0 0.00028585787821203362 0.0043481984612270342 0 0.00028585787821203362 0.0043481984612270342 0 0.00029737934437303981 0.0042104067680481813 0 0.0002838454289948813 0.0041295955519548306 0 0.00019712822773396526 0.0042116721765134172 0 0.00028585787821203362 0.0043481984612270342 0 0.00015876088802573363 0.0045978256140224204 0 0.00028585787821203362 0.0043481984612270342 0 0.00025830042718712789 0.0048724573053869399 0 0.00015876088802573363 0.0045978256140224204 0 0.00029597773430667666 0.0043831937785892595 0 0.00032050036399993359 0.0045294728818782316 0 0.00028585787821203362 0.0043481984612270342 0 0.0003924279184830362 0.0042053416265402542 0 0.00029737934437303981 0.0042104067680481813 0 0.00029737934437303981 0.0042104067680481813 0 0.00031064734149455122 0.0041997294782014716 0 0.00033705921218802687 0.0041538937110995253 0 0.00029737934437303981 0.0042104067680481813 0 0.00033705921218802687 0.0041538937110995253 0 0.0002838454289948813 0.0041295955519548306 0 0.00031064734149455122 0.0041997294782014716 0 0.00033705921218802687 0.0041538937110995253 0 0.00053092923650786014 0.0042052339061284432 0 0.00033705921218802687 0.0041538937110995253 0 0.0004349359622267776 0.0039942899688883565 0 0.00053092923650786014 0.0042052339061284432 0 0.00033705921218802687 0.0041538937110995253 0 0.0004349359622267776 0.0039942899688883565 0 0.0002838454289948813 0.0041295955519548306 0 0.00041773153961340796 0.0037255221819542032 0 0.00032411571977575141 0.0039615907489776716 0 0.0004349359622267776 0.0039942899688883565 0 0.00032411571977575141 0.0039615907489776716 0 0.0004349359622267776 0.0039942899688883565 0 0.0002838454289948813 0.0041295955519548306 0 0.00024444297531579112 0.0040841653251974504 0 0.00032411571977575141 0.0039615907489776716 0 0.0002838454289948813 0.0041295955519548306 0 0.00024444297531579112 0.0040841653251974504 0 0.00028585787821203362 0.0043481984612270342 0 0.0002838454289948813 0.0041295955519548306 0 -2.1465414939472608e-05 0.0050160110667208865 0 -5.6924898279832407e-05 0.0049701881567998721 0 2.5963343516990209e-05 0.0051394228219762356 0 -2.1465414939472608e-05 0.0050160110667208865 0 -3.1888295524192876e-05 0.004857014772246814 0 -5.6924898279832407e-05 0.0049701881567998721 0 -2.1465414939472608e-05 0.0050160110667208865 0 -1.2340500149589988e-05 0.0050261881868497648 0 7.8290395515649573e-06 0.0051377208983174518 0 -9.7235871857042392e-06 0.0049129874474816444 0 -1.2340500149589988e-05 0.0050261881868497648 0 -3.1888295524192876e-05 0.004857014772246814 0 -2.1465414939472608e-05 0.0050160110667208865 0 -1.2340500149589988e-05 0.0050261881868497648 0 -3.1888295524192876e-05 0.004857014772246814 0 -3.1888295524192876e-05 0.004857014772246814 0 -2.0766031714998843e-05 0.0047563668059605524 0 -7.2770048980094716e-05 0.0045956689548395891 0 -3.7473972153180526e-05 0.0047829542382891478 0 -3.1888295524192876e-05 0.004857014772246814 0 -7.2770048980094716e-05 0.0045956689548395891 0 -3.7473972153180526e-05 0.0047829542382891478 0 -9.7235871857042392e-06 0.0049129874474816444 0 -3.1888295524192876e-05 0.004857014772246814 0 -2.0766031714998843e-05 0.0047563668059605524 0 6.8419457726748116e-05 0.0048533693368660539 0 -5.6924898279832407e-05 0.0049701881567998721 0 -3.1888295524192876e-05 0.004857014772246814 0 -2.0766031714998843e-05 0.0047563668059605524 0 -5.6924898279832407e-05 0.0049701881567998721 0 -2.0766031714998843e-05 0.0047563668059605524 0 2.4263187684619885e-05 0.0045932497134310571 0 6.8419457726748116e-05 0.0048533693368660539 0 -2.0766031714998843e-05 0.0047563668059605524 0 -7.2770048980094716e-05 0.0045956689548395891 0 2.4263187684619885e-05 0.0045932497134310571 0 -7.2770048980094716e-05 0.0045956689548395891 0 2.4263187684619885e-05 0.0045932497134310571 0 3.7365820107147075e-05 0.0043819428159660142 0 9.4663207231074218e-05 0.0040504538532272595 0 3.7365820107147075e-05 0.0043819428159660142 0 0.00011941235132658009 0.0043868036849116915 0 2.4263187684619885e-05 0.0045932497134310571 0 3.7365820107147075e-05 0.0043819428159660142 0 0.00011941235132658009 0.0043868036849116915 0 2.4263187684619885e-05 0.0045932497134310571 0 0.00011941235132658009 0.0043868036849116915 0 6.8419457726748116e-05 0.0048533693368660539 0 0.00011941235132658009 0.0043868036849116915 0 0.00015876088802573363 0.0045978256140224204 0 6.8419457726748116e-05 0.0048533693368660539 0 0.00015876088802573363 0.0045978256140224204 0 0.00014018922532780444 0.0049197472224340733 0 6.8419457726748116e-05 0.0048533693368660539 0 0.00025830042718712789 0.0048724573053869399 0 0.00015876088802573363 0.0045978256140224204 0 0.00014018922532780444 0.0049197472224340733 0 0.00014018922532780444 0.0049197472224340733 0 0.00025946710947859122 0.0051189874824610878 0 0.00020450760734990367 0.0050367105343010077 0 0.00014018922532780444 0.0049197472224340733 0 6.8419457726748116e-05 0.0048533693368660539 0 0.00025946710947859122 0.0051189874824610878 0 9.2287843016080167e-05 0.0049019760378503866 0 0.00017095641459852681 0.0051224989601313777 0 6.8419457726748116e-05 0.0048533693368660539 0 0.00025946710947859122 0.0051189874824610878 0 0.00037770184475478428 0.0053066769600616523 0 0.00025946710947859122 0.0051189874824610878 0 0.00043425028151121832 0.0052360160041629378 0 0.00052396821124488376 0.005338150393331461 0 0.00025946710947859122 0.0051189874824610878 0 0.00037770184475478428 0.0053066769600616523 0 0.00052396821124488376 0.005338150393331461 0 0.00045747029047522641 0.004977645925148327 0 0.00038084723475570144 0.0050913483896944198 0 0.00065808842206158884 0.0053644466485838751 0 0.00040968986444159169 0.0050260168081696106 0 0.00038084723475570144 0.0050913483896944198 0 0.00033801170763789776 0.0050307691538251124 0 0.00040968986444159169 0.0050260168081696106 0 0.00033801170763789776 0.0050307691538251124 0 0.00032181723800644264 0.0049595782200113278 0 0.00087755574052226528 0.0053636829326312039 0 0.00067046544208773477 0.0052352909394282245 0 0.00087755574052226528 0.0053636829326312039 0 0.00061487642317305735 0.0052941849418892423 0 0.00038084723475570144 0.0050913483896944198 0 0.00043425028151121832 0.0052360160041629378 0 0.00065808842206158884 0.0053644466485838751 0 0.00043425028151121832 0.0052360160041629378 0 0.00052396821124488376 0.005338150393331461 0 0.00065808842206158884 0.0053644466485838751 0 0.00038084723475570144 0.0050913483896944198 0 0.00043425028151121832 0.0052360160041629378 0 0.00028490912294963866 0.0051066285078186641 0 0.00025946710947859122 0.0051189874824610878 0 0.00028490912294963866 0.0051066285078186641 0 0.00020450760734990367 0.0050367105343010077 0 0.00025946710947859122 0.0051189874824610878 0 0.00043425028151121832 0.0052360160041629378 0 0.00028490912294963866 0.0051066285078186641 0 0.00028490912294963866 0.0051066285078186641 0 0.0003026747653190545 0.0050670493884770046 0 0.00021722066767522485 0.005035933213083499 0 0.00028490912294963866 0.0051066285078186641 0 0.00021722066767522485 0.005035933213083499 0 0.00020450760734990367 0.0050367105343010077 0 0.00028619340856890404 0.0050179014902105874 0 0.00021722066767522485 0.005035933213083499 0 0.00025205356442459194 0.0049862144839196952 0 0.0003026747653190545 0.0050670493884770046 0 0.00028619340856890404 0.0050179014902105874 0 0.00021722066767522485 0.005035933213083499 0 0.00038084723475570144 0.0050913483896944198 0 0.0003026747653190545 0.0050670493884770046 0 0.00033801170763789776 0.0050307691538251124 0 0.00038084723475570144 0.0050913483896944198 0 0.00028490912294963866 0.0051066285078186641 0 0.0003026747653190545 0.0050670493884770046 0 0.0003026747653190545 0.0050670493884770046 0 0.00033801170763789776 0.0050307691538251124 0 0.00028619340856890404 0.0050179014902105874 0 0.00033801170763789776 0.0050307691538251124 0 0.00028619340856890404 0.0050179014902105874 0 0.00032181723800644264 0.0049595782200113278 0 0.00022241247236660962 0.0050531104203080483 0 0.00027763408747896837 0.0049487085367097743 0 0.00021039773495876778 0.0050252888807665666 0 0.00021722066767522485 0.005035933213083499 0 0.00022440343351885409 0.0050214608744350896 0 0.00021039773495876778 0.0050252888807665666 0 0.00021722066767522485 0.005035933213083499 0 0.00018660097407627107 0.0049979727846654887 0 0.00014018922532780444 0.0049197472224340733 0 0.00020450760734990367 0.0050367105343010077 0 0.00018660097407627107 0.0049979727846654887 0 0.00021722066767522485 0.005035933213083499 0 0.00020450760734990367 0.0050367105343010077 0 0.00018660097407627107 0.0049979727846654887 0 0.00025830042718712789 0.0048724573053869399 0 0.00018660097407627107 0.0049979727846654887 0 0.00021775548508972702 0.005025495020330035 0 0.00025830042718712789 0.0048724573053869399 0 0.00014018922532780444 0.0049197472224340733 0 0.00018660097407627107 0.0049979727846654887 0 0.00021039773495876778 0.0050252888807665666 0 0.00021775548508972702 0.005025495020330035 0 0.0002179070161143517 0.0050161898701968173 0 0.00021039773495876778 0.0050252888807665666 0 0.00018660097407627107 0.0049979727846654887 0 0.00021775548508972702 0.005025495020330035 0 0.00038982322430953858 0.0041896307118466716 0 0.00038923905828585259 0.0041841903666664992 0 0.00038307163932706613 0.0041891601205715162 0 0.00038982322430953858 0.0041896307118466716 0 0.00038923905828585259 0.0041841903666664992 0 0.00039867387107598266 0.0041863542569092558 0 0.00062793498748530275 0.004010527561723441 0 0.0007273601094707927 0.004641919199290169 0 0.00024886643968224969 0.0046183253997450265 0 0.0007273601094707927 0.004641919199290169 0 0.00082736530862280618 0.0039164901572915347 0 0.00081442146989766555 0.0039607953799469684 0 0.0008303114052133991 0.0039487392937687478 0 0.0023622185699423352 0.0057700645549798001 0 0.0023541194258681923 0.0042884746223125769 0 0.0037120247176822786 0.0057514568874459252 0 0.0041286886489020208 0.0048329175272481166 0 0.0042924558210164472 0.005411070096013903 0 0.0037120247176822786 0.0057514568874459252 0 0.0025481215570635147 0.0055693744305008123 0 0.0041286886489020208 0.0048329175272481166 0 0.00082024667323718969 0.0039903053530177283 0 0.00081442146989766555 0.0039607953799469684 0 0.0008303114052133991 0.0039487392937687478 0 0.0020281969129688554 0.0055107480597894149 0 0.0007273601094707927 0.004641919199290169 0 0.00082024667323718969 0.0039903053530177283 0 0.00081768128432214862 0.0039883907152275574 0 0.00081442146989766555 0.0039607953799469684 0 0.0024969133056485966 0.006188421850414798 0 0.0023622185699423352 0.0057700645549798001 0 0.0024969133056485966 0.006188421850414798 0 0.0020281969129688554 0.0055107480597894149 0 0.0024273708801122646 0.0058440801588234368 0 0.0021581042534085447 0.0059842398084363028 0 0.0022778336991430117 0.0061037374612821303 0 0.0023622185699423352 0.0057700645549798001 0 0.0020281969129688554 0.0055107480597894149 0 0.0023018258388804399 0.0064043139901555296 0 0.0023509078254844392 0.0063159460753450499 0 0.0022439815099614953 0.0063230884950256899 0 0.0023509078254844392 0.0063159460753450499 0 0.0022439815099614953 0.0063230884950256899 0 0.0022393131313837218 0.0062723924847831493 0 0.0023018258388804399 0.0064043139901555296 0 0.0022439815099614953 0.0063230884950256899 0 0.0021419939126514115 0.006312818962226705 0 0.0022439815099614953 0.0063230884950256899 0 0.0022393131313837218 0.0062723924847831493 0 0.0021880122485545173 0.0062977308345445243 0 0.0013663800983101592 0.0052073094354385873 0 0.0013776826822989462 0.0052194262460777893 0 0.0013464107699097019 0.0052315426958971026 0 0.0022393131313837218 0.0062723924847831493 0 0.0021989606957024217 0.0062444340627769582 0 0.0021880122485545173 0.0062977308345445243 0 0.00023341060269246433 0.0050113449856957152 0 0.0002179070161143517 0.0050161898701968173 0 0.00023451622906566451 0.0050131405687695888 0 0.0020281969129688554 0.0055107480597894149 0 0.0013922466638726753 0.0056328617333233303 0 0.0013922466638726753 0.0056328617333233303 0 0.0007273601094707927 0.004641919199290169 0 0.0022393131313837218 0.0062723924847831493 0 0.0022147031214848462 0.0061809108458933627 0 0.0021989606957024217 0.0062444340627769582 0 0.0023509078254844392 0.0063159460753450499 0 0.0022393131313837218 0.0062723924847831493 0 0.0022147031214848462 0.0061809108458933627 0 0.00021039773495876778 0.0050252888807665666 0 0.0002179070161143517 0.0050161898701968173 0 0.00022440343351885409 0.0050214608744350896 0 0.0002179070161143517 0.0050161898701968173 0 0.00022440343351885409 0.0050214608744350896 0 0.00023451622906566451 0.0050131405687695888 0 0.00027763408747896837 0.0049487085367097743 0 0.0012056692246366172 0.0055036145676299539 0 0.00025205356442459194 0.0049862144839196952 0 0.00032181723800644264 0.0049595782200113278 0 0.00027345358083786424 0.0049153858056538748 0 0.00028619340856890404 0.0050179014902105874 0 0.00025205356442459194 0.0049862144839196952 0 0.00032181723800644264 0.0049595782200113278 0 0.0016873306362231414 0.0058730425632979614 0 0.0016879402155434546 0.0060455042565121129 0 0.0015558779594784331 0.0059336778830319957 0 0.0016873306362231414 0.0058730425632979614 0 0.0018524617942806418 0.0060388577832657915 0 0.0016879402155434546 0.0060455042565121129 0 0.0010017045158408639 0.0054105881031949058 0 0.0012056692246366172 0.0055036145676299539 0 0.0018524617942806418 0.0060388577832657915 0 0.0018454364130244282 0.0060884170073925966 0 0.0016879402155434546 0.0060455042565121129 0 0.0012056692246366172 0.0055036145676299539 0 0.0016929396530919315 0.005972829583079463 0 0.0014771966460801246 0.0057876266957836413 0 0.0015365430087636107 0.0058467039242020447 0 0.0015528250400182449 0.0057457953528743267 0 0.0013922466638726753 0.0056328617333233303 0 0.0012056692246366172 0.0055036145676299539 0 0.0013922466638726753 0.0056328617333233303 0 0.0016929396530919315 0.005972829583079463 0 0.0022147031214848462 0.0061809108458933627 0 0.0021554965681611074 0.0062146416069090108 0 0.0021989606957024217 0.0062444340627769582 0 0.0016929396530919315 0.005972829583079463 0 0.0023728457805520589 0.0068531376124557827 0 0.0021554965681611074 0.0062146416069090108 0 0.0021880122485545173 0.0062977308345445243 0 0.0021413838316686196 0.0063126662378692614 0 0.0021554965681611074 0.0062146416069090108 0 0.0021989606957024217 0.0062444340627769582 0 0.0021880122485545173 0.0062977308345445243 0 0.0022439815099614953 0.0063230884950256899 0 0.0021880122485545173 0.0062977308345445243 0 0.0021419939126514115 0.006312818962226705 0 0.0032114439017431593 0.0078754349157055242 0 0.0031591008421114949 0.00790218560545136 0 0.003209233941648093 0.0079092949486349665 0 0.0020782748999644564 0.0067287712805677875 0 0.0020887671526271015 0.0066687807053955979 0 0.0023171577521394456 0.0066070800831070859 0 0.0023625843465727657 0.0068334665187538201 0 0.0023728457805520589 0.0068531376124557827 0 0.0023018258388804399 0.0064043139901555296 0 0.0021419939126514115 0.006312818962226705 0 0.0021140962460796985 0.0065070943307885768 0 0.0023728457805520589 0.0068531376124557827 0 0.0028233362180795666 0.0072814196597505943 0 0.0024969133056485966 0.006188421850414798 0 0.0028233362180795666 0.0072814196597505943 0 0.0016929396530919315 0.005972829583079463 0 0.0025442173131994534 0.0071513620407123845 0 0.0023728457805520589 0.0068531376124557827 0 0.0025442173131994534 0.0071513620407123845 0 0.0018454364130244282 0.0060884170073925966 0 0.0016879402155434546 0.0060455042565121129 0 0.0016267633323275921 0.0062180851032838311 0 0.0016879402155434546 0.0060455042565121129 0 0.0016267633323275921 0.0062180851032838311 0 0.0015077622099849092 0.006098279278924537 0 0.0015507563649499775 0.0062429135082967433 0 0.0015077622099849092 0.006098279278924537 0 0.0012365739748806653 0.0061835458245795994 0 0.0016879402155434546 0.0060455042565121129 0 0.0015077622099849092 0.006098279278924537 0 0.0015558779594784331 0.0059336778830319957 0 0.0015507563649499775 0.0062429135082967433 0 0.0016267633323275921 0.0062180851032838311 0 0.0015077622099849092 0.006098279278924537 0 0.0022861414293613731 0.0072432628990612979 0 0.0025442173131994534 0.0071513620407123845 0 0.0015077622099849092 0.006098279278924537 0 0.0015558779594784331 0.0059336778830319957 0 0.0013770692226417779 0.0059448048456893689 0 0.0015186935107820046 0.0057052096161596772 0 0.0016873306362231414 0.0058730425632979614 0 0.0015558779594784331 0.0059336778830319957 0 0.00087755574052226528 0.0053636829326312039 0 0.0010017045158408639 0.0054105881031949058 0 0.00087755574052226528 0.0053636829326312039 0 0.0010938667096208573 0.0058364268245213171 0 0.0015186935107820046 0.0057052096161596772 0 0.0015558779594784331 0.0059336778830319957 0 0.0013770692226417779 0.0059448048456893689 0 0.0012497821956764462 0.0036359959218691001 0 0.001271068752495864 0.0035034045647051493 0 0.00083168001566831051 0.003868147527892136 0 0.00026557133589330838 0.0042233432806077021 0 0.00042710203836378205 0.0041549191603171822 0 0.00083168001566831051 0.003868147527892136 0 0.0024914338478187869 0.0038684499534665327 0 0.0029771932296359534 0.0043443023965891916 0 0.0012497821956764462 0.0036359959218691001 0 0.0013762122379743125 0.0036632271058608451 0 0.00091326284383263362 0.0039235482475884851 0 0.0046282710578378758 0.0048548033729781939 0 0.0048654921612012311 0.0046719738355341517 0 0.0047347738560497045 0.004704588189603758 0 0.0015301265051964161 0.003663626759156447 0 0.0024914338478187869 0.0038684499534665327 0 0.0012497821956764462 0.0036359959218691001 0 0.0013032135979596619 0.0035866357121630537 0 0.0012890448449297454 0.0035578775254751093 0 0.0046282710578378758 0.0048548033729781939 0 0.0047347738560497045 0.004704588189603758 0 0.0046359469808835716 0.0047194801849450158 0 0.0046282710578378758 0.0048548033729781939 0 0.0044938385324759722 0.0046662519263749669 0 0.0046359469808835716 0.0047194801849450158 0 0.0046282710578378758 0.0048548033729781939 0 0.0044938385324759722 0.0046662519263749669 0 0.0042611117028154583 0.0047364114856992632 0 0.0024914338478187869 0.0038684499534665327 0 0.0028823186206209574 0.0041260703502303498 0 0.0013833526603198132 0.0034727311691539037 0 0.0013195031604795982 0.0034979958737299177 0 0.0012613142279401131 0.0034213097972710738 0 0.0013032135979596619 0.0035866357121630537 0 0.0013041968638183017 0.0035123990444488524 0 0.0012890448449297454 0.0035578775254751093 0 0.0024914338478187869 0.0038684499534665327 0 0.0012396603316946299 0.0037664799097957649 0 0.0013032135979596619 0.0035866357121630537 0 0.0013041968638183017 0.0035123990444488524 0 0.0013195031604795982 0.0034979958737299177 0 0.0013041968638183017 0.0035123990444488524 0 0.0013195031604795982 0.0034979958737299177 0 0.0013177490499452459 0.0035186818108856673 0 0.00078196293062741257 0.0038692236505481654 0 0.00091779701860958255 0.003847465603970055 0 0.0013041968638183017 0.0035123990444488524 0 0.001271068752495864 0.0035034045647051493 0 0.0012890448449297454 0.0035578775254751093 0 0.00031064734149455122 0.0041997294782014716 0 0.00026557133589330838 0.0042233432806077021 0 0.00053092923650786014 0.0042052339061284432 0 0.0013041968638183017 0.0035123990444488524 0 0.001271068752495864 0.0035034045647051493 0 0.0013177490499452459 0.0035186818108856673 0 0.00031064734149455122 0.0041997294782014716 0 0.00026557133589330838 0.0042233432806077021 0 0.00035539703455423938 0.0042009411111072316 0 0.0012497821956764462 0.0036359959218691001 0 0.001271068752495864 0.0035034045647051493 0 0.0012890448449297454 0.0035578775254751093 0 0.00026557133589330838 0.0042233432806077021 0 0.00042710203836378205 0.0041549191603171822 0 0.00035539703455423938 0.0042009411111072316 0 0.00029737934437303981 0.0042104067680481813 0 0.00031064734149455122 0.0041997294782014716 0 0.00035539703455423938 0.0042009411111072316 0 0.0003924279184830362 0.0042053416265402542 0 0.00029737934437303981 0.0042104067680481813 0 0.00036459981716790199 0.0041857876466516626 0 0.00029737934437303981 0.0042104067680481813 0 0.00035539703455423938 0.0042009411111072316 0 0.00036459981716790199 0.0041857876466516626 0 0.00036459981716790199 0.0041857876466516626 0 0.00037569097223922877 0.0041796771845285597 0 0.00038034222028437851 0.0041870138480789897 0 0.00036459981716790199 0.0041857876466516626 0 0.00037569097223922877 0.0041796771845285597 0 0.00038722889070243291 0.0041699199238431489 0 0.00042710203836378205 0.0041549191603171822 0 0.00035539703455423938 0.0042009411111072316 0 0.00038722889070243291 0.0041699199238431489 0 0.00035539703455423938 0.0042009411111072316 0 0.00036459981716790199 0.0041857876466516626 0 0.00038722889070243291 0.0041699199238431489 0 0.0003924279184830362 0.0042053416265402542 0 0.00038982322430953858 0.0041896307118466716 0 0.00038034222028437851 0.0041870138480789897 0 0.00032050036399993359 0.0045294728818782316 0 0.00024886643968224969 0.0046183253997450265 0 0.0003924279184830362 0.0042053416265402542 0 0.00036459981716790199 0.0041857876466516626 0 0.00038034222028437851 0.0041870138480789897 0 0.00062793498748530275 0.004010527561723441 0 0.00058790406666842066 0.0040615980046860602 0 0.00038923905828585259 0.0041841903666664992 0 0.00038307163932706613 0.0041891601205715162 0 0.00037261135008713481 0.0041920955718019728 0 0.00082736530862280618 0.0039164901572915347 0 0.00083168001566831051 0.003868147527892136 0 0.00083672547102136088 0.003906913435356367 0 0.00038982322430953858 0.0041896307118466716 0 0.00038034222028437851 0.0041870138480789897 0 0.00038307163932706613 0.0041891601205715162 0 0.00038034222028437851 0.0041870138480789897 0 0.00038307163932706613 0.0041891601205715162 0 0.00037261135008713481 0.0041920955718019728 0 0.00042710203836378205 0.0041549191603171822 0 0.00038722889070243291 0.0041699199238431489 0 0.00037261135008713481 0.0041920955718019728 0 0.00078196293062741257 0.0038692236505481654 0 0.00082549110965510133 0.0038614330579763456 0 0.0012497821956764462 0.0036359959218691001 0 0.00083168001566831051 0.003868147527892136 0 0.00091326284383263362 0.0039235482475884851 0 0.00042710203836378205 0.0041549191603171822 0 0.00083168001566831051 0.003868147527892136 0 0.00083672547102136088 0.003906913435356367 0 0.00044641827738333177 0.0041422033032350496 0 0.00058790406666842066 0.0040615980046860602 0 0.00037569097223922877 0.0041796771845285597 0 0.00038034222028437851 0.0041870138480789897 0 0.00037261135008713481 0.0041920955718019728 0 0.00037569097223922877 0.0041796771845285597 0 0.00038722889070243291 0.0041699199238431489 0 0.00037261135008713481 0.0041920955718019728 0 0.0048654921612012311 0.0046719738355341517 0 0.0048208384390285739 0.0047488058545991432 0 0.0047347738560497045 0.004704588189603758 0 0.0048654921612012311 0.0046719738355341517 0 0.0047484602025611063 0.0048425189242517755 0 0.0048208384390285739 0.0047488058545991432 0 0.00083168001566831051 0.003868147527892136 0 0.00091326284383263362 0.0039235482475884851 0 0.0008303114052133991 0.0039487392937687478 0 0.0029771932296359534 0.0043443023965891916 0 0.0023541194258681923 0.0042884746223125769 0 0.00082736530862280618 0.0039164901572915347 0 0.00083168001566831051 0.003868147527892136 0 0.0008303114052133991 0.0039487392937687478 0 0.0048654921612012311 0.0046719738355341517 0 0.0047484602025611063 0.0048425189242517755 0 0.0041286886489020208 0.0048329175272481166 0 0.0048366681472230503 0.0050182298939086475 0 0.0051680363734914964 0.0062237545895677147 0 0.0044697876363054296 0.0061081058307252967 0 0.0047484602025611063 0.0048425189242517755 0 0.0041286886489020208 0.0048329175272481166 0 0.0048366681472230503 0.0050182298939086475 0 0.0041286886489020208 0.0048329175272481166 0 0.0042924558210164472 0.005411070096013903 0 0.0048366681472230503 0.0050182298939086475 0 0.0042924558210164472 0.005411070096013903 0 0.0048366681472230503 0.0050182298939086475 0 0.0044697876363054296 0.0061081058307252967 0 0.0037120247176822786 0.0057514568874459252 0 0.0042924558210164472 0.005411070096013903 0 0.0044697876363054296 0.0061081058307252967 0 0.0048208384390285739 0.0047488058545991432 0 0.0048366681472230503 0.0050182298939086475 0 0.0048063533086565424 0.0045613640134852468 0 0.0048366681472230503 0.0050182298939086475 0 0.0058267282831387232 0.0057391154379815386 0 0.0051680363734914964 0.0062237545895677147 0 0.0047484602025611063 0.0048425189242517755 0 0.0048208384390285739 0.0047488058545991432 0 0.0048366681472230503 0.0050182298939086475 0 0.0048736642398553255 0.0049743114072271543 0 0.0053341000544624428 0.0051889328091689231 0 0.0048208384390285739 0.0047488058545991432 0 0.0046458695248217767 0.0045092964073424353 0 0.0046549220189606002 0.0046394738320333865 0 0.0048208384390285739 0.0047488058545991432 0 0.0048063533086565424 0.0045613640134852468 0 0.0046458695248217767 0.0045092964073424353 0 0.0048208384390285739 0.0047488058545991432 0 0.0046549220189606002 0.0046394738320333865 0 0.0047347738560497045 0.004704588189603758 0 0.0046549220189606002 0.0046394738320333865 0 0.0047347738560497045 0.004704588189603758 0 0.0046359469808835716 0.0047194801849450158 0 0.0046549220189606002 0.0046394738320333865 0 0.0044938385324759722 0.0046662519263749669 0 0.0046359469808835716 0.0047194801849450158 0 0.0046549220189606002 0.0046394738320333865 0 0.0044938385324759722 0.0046662519263749669 0 0.0045032866154168594 0.0045153427856453798 0 0.0044938385324759722 0.0046662519263749669 0 0.0045032866154168594 0.0045153427856453798 0 0.0043069149971452052 0.004463288685441243 0 0.0046458695248217767 0.0045092964073424353 0 0.0045032866154168594 0.0045153427856453798 0 0.0043913498255754146 0.0042948449245593604 0 0.0046458695248217767 0.0045092964073424353 0 0.0046549220189606002 0.0046394738320333865 0 0.0045032866154168594 0.0045153427856453798 0 0.0040588794875243321 0.004194933555211086 0 0.0043069149971452052 0.004463288685441243 0 0.0043913498255754146 0.0042948449245593604 0 0.0045032866154168594 0.0045153427856453798 0 0.0043069149971452052 0.004463288685441243 0 0.0043913498255754146 0.0042948449245593604 0 0.0040343968131721503 0.0039827176610740898 0 0.0043948910829892402 0.0038256473034377985 0 0.0040588794875243321 0.004194933555211086 0 0.0040600188502931834 0.0044517868504394221 0 0.0043069149971452052 0.004463288685441243 0 0.0040600188502931834 0.0044517868504394221 0 0.0042611117028154583 0.0047364114856992632 0 0.0037299591697096805 0.0044905105223515844 0 0.0040588794875243321 0.004194933555211086 0 0.0040600188502931834 0.0044517868504394221 0 0.0035955481592812619 0.0040322540183831022 0 0.0044938385324759722 0.0046662519263749669 0 0.0043069149971452052 0.004463288685441243 0 0.0042611117028154583 0.0047364114856992632 0 0.0040600188502931834 0.0044517868504394221 0 0.0043069149971452052 0.004463288685441243 0 0.0042611117028154583 0.0047364114856992632 0 0.0013195031604795982 0.0034979958737299177 0 0.0012613142279401131 0.0034213097972710738 0 0.0012816355924283619 0.0034771963293456108 0 0.0028823186206209574 0.0041260703502303498 0 0.00244293884798017 0.003937795197606668 0 0.0012613142279401131 0.0034213097972710738 0 0.0012031930725214456 0.0034256105978214798 0 0.0011958191631793813 0.0034068788408357516 0 0.0012613142279401131 0.0034213097972710738 0 0.0012031930725214456 0.0034256105978214798 0 0.0012230596502662175 0.0034623867239199644 0 0.0012031930725214456 0.0034256105978214798 0 0.0012230596502662175 0.0034623867239199644 0 0.0011597352494362365 0.0034515090711217718 0 0.0012230596502662175 0.0034623867239199644 0 0.0011597352494362365 0.0034515090711217718 0 0.0011641242058818559 0.003516110734065481 0 0.0013195031604795982 0.0034979958737299177 0 0.0012816355924283619 0.0034771963293456108 0 0.0013177490499452459 0.0035186818108856673 0 0.0012613142279401131 0.0034213097972710738 0 0.0012230596502662175 0.0034623867239199644 0 0.0012816355924283619 0.0034771963293456108 0 0.0012230596502662175 0.0034623867239199644 0 0.0012816355924283619 0.0034771963293456108 0 0.0013177490499452459 0.0035186818108856673 0 0.0011850534510502162 0.0034012583449799811 0 0.0012123093765665875 0.0033824198908595712 0 0.0012255307592584849 0.0033504307779482416 0 0.0011850534510502162 0.0034012583449799811 0 0.0011869369245661333 0.0034107605700383417 0 0.0012123093765665875 0.0033824198908595712 0 0.0012031930725214456 0.0034256105978214798 0 0.0011597352494362365 0.0034515090711217718 0 0.0011869369245661333 0.0034107605700383417 0 0.0011850534510502162 0.0034012583449799811 0 0.0011597352494362365 0.0034515090711217718 0 0.0011869369245661333 0.0034107605700383417 0 0.0011869369245661333 0.0034107605700383417 0 0.0012123093765665875 0.0033824198908595712 0 0.0011958191631793813 0.0034068788408357516 0 0.0012031930725214456 0.0034256105978214798 0 0.0011869369245661333 0.0034107605700383417 0 0.0011958191631793813 0.0034068788408357516 0 0.0012123093765665875 0.0033824198908595712 0 0.0011958191631793813 0.0034068788408357516 0 0.0012615637731573043 0.0033968530634092839 0 0.00244293884798017 0.003937795197606668 0 0.0021607543748956401 0.0037655331590197468 0 0.0037299591697096805 0.0044905105223515844 0 0.0035955481592812619 0.0040322540183831022 0 0.0030279932227741907 0.0041315640878616796 0 0.0040600188502931834 0.0044517868504394221 0 0.0037299591697096805 0.0044905105223515844 0 0.0035955481592812619 0.0040322540183831022 0 0.0040654606129598174 0.003738625418139515 0 0.0035955481592812619 0.0040322540183831022 0 0.0035581958336895598 0.0034431424809815117 0 0.0040343968131721503 0.0039827176610740898 0 0.0036173789333192258 0.0040530202978958157 0 0.0035955481592812619 0.0040322540183831022 0 0.003066330421200299 0.0036139514598251352 0 0.0030279932227741907 0.0041315640878616796 0 0.0035955481592812619 0.0040322540183831022 0 0.003066330421200299 0.0036139514598251352 0 0.0035581958336895598 0.0034431424809815117 0 0.003066330421200299 0.0036139514598251352 0 0.0023400249111029704 0.0037190066748592782 0 0.0027508394634809539 0.0032410529144199802 0 0.0023400249111029704 0.0037190066748592782 0 0.0023107382007030563 0.0030677423131869725 0 0.0027508394634809539 0.0032410529144199802 0 0.0014327421038516179 0.0033489332346437199 0 0.0012615637731573043 0.0033968530634092839 0 0.0013621050400872343 0.0032936214426123999 0 0.0014327421038516179 0.0033489332346437199 0 0.0014918334423507714 0.003233861672241733 0 0.0013621050400872343 0.0032936214426123999 0 0.003066330421200299 0.0036139514598251352 0 0.0023400249111029704 0.0037190066748592782 0 0.0030279932227741907 0.0041315640878616796 0 0.0018949307623349924 0.0035197043512748549 0 0.0021607543748956401 0.0037655331590197468 0 0.001688894465461834 0.002935800739478499 0 0.00172942594773371 0.0032095292393583179 0 0.0018486968678801236 0.0028278202432678676 0 0.0018949307623349924 0.0035197043512748549 0 0.0017369058781680333 0.0032643991473885318 0 0.0023400249111029704 0.0037190066748592782 0 0.00172942594773371 0.0032095292393583179 0 0.0023107382007030563 0.0030677423131869725 0 0.0014327421038516179 0.0033489332346437199 0 0.00172942594773371 0.0032095292393583179 0 0.0014918334423507714 0.003233861672241733 0 0.00172942594773371 0.0032095292393583179 0 0.0016035282443013492 0.0031411917213024589 0 0.0014918334423507714 0.003233861672241733 0 0.0014918334423507714 0.003233861672241733 0 0.0014305253173326651 0.0032162629034204323 0 0.0013621050400872343 0.0032936214426123999 0 0.0016035282443013492 0.0031411917213024589 0 0.0014918334423507714 0.003233861672241733 0 0.0014305253173326651 0.0032162629034204323 0 0.0014305253173326651 0.0032162629034204323 0 0.0015019419598301601 0.0031605330323325226 0 0.0014221442040251589 0.003169031000219934 0 0.0016035282443013492 0.0031411917213024589 0 0.0014305253173326651 0.0032162629034204323 0 0.0015019419598301601 0.0031605330323325226 0 0.0015734159742306973 0.0031260760367339915 0 0.0016035282443013492 0.0031411917213024589 0 0.0015019419598301601 0.0031605330323325226 0 0.0015734159742306973 0.0031260760367339915 0 0.0015019419598301601 0.0031605330323325226 0 0.0014993436769099747 0.0031377241845401819 0 0.0012615637731573043 0.0033968530634092839 0 0.0012698620387649134 0.0033343613491764847 0 0.0013621050400872343 0.0032936214426123999 0 0.0012123093765665875 0.0033824198908595712 0 0.0012615637731573043 0.0033968530634092839 0 0.0012698620387649134 0.0033343613491764847 0 0.0014305253173326651 0.0032162629034204323 0 0.0013621050400872343 0.0032936214426123999 0 0.0013042406000945629 0.0032788581314643502 0 0.0014305253173326651 0.0032162629034204323 0 0.0013042406000945629 0.0032788581314643502 0 0.0013578710772685887 0.003216928608628464 0 0.0012698620387649134 0.0033343613491764847 0 0.0013621050400872343 0.0032936214426123999 0 0.0013042406000945629 0.0032788581314643502 0 0.0012698620387649134 0.0033343613491764847 0 0.0013042406000945629 0.0032788581314643502 0 0.0012255307592584849 0.0033504307779482416 0 0.0012123093765665875 0.0033824198908595712 0 0.0012698620387649134 0.0033343613491764847 0 0.0012255307592584849 0.0033504307779482416 0 0.0013042406000945629 0.0032788581314643502 0 0.0012946783467417198 0.0032350309902169313 0 0.0012249008572826447 0.0033153835810255015 0 0.0013042406000945629 0.0032788581314643502 0 0.0012255307592584849 0.0033504307779482416 0 0.0012249008572826447 0.0033153835810255015 0 0.0013042406000945629 0.0032788581314643502 0 0.0013578710772685887 0.003216928608628464 0 0.0012946783467417198 0.0032350309902169313 0 0.0013578710772685887 0.003216928608628464 0 0.0012946783467417198 0.0032350309902169313 0 0.0013483991226174775 0.0031620754851604659 0 0.0012694854971725092 0.0031623450181420781 0 0.0013483991226174775 0.0031620754851604659 0 0.0013295325357878349 0.0030661195525216265 0 0.0012946783467417198 0.0032350309902169313 0 0.0012694854971725092 0.0031623450181420781 0 0.0012249008572826447 0.0033153835810255015 0 0.0012946783467417198 0.0032350309902169313 0 0.0012694854971725092 0.0031623450181420781 0 0.0013483991226174775 0.0031620754851604659 0 0.0012249008572826447 0.0033153835810255015 0 0.0011979120405512056 0.0032762646954024605 0 0.0011663443984275851 0.0033899685481688902 0 0.0012694854971725092 0.0031623450181420781 0 0.0012249008572826447 0.0033153835810255015 0 0.0011979120405512056 0.0032762646954024605 0 0.0015019419598301601 0.0031605330323325226 0 0.0014993436769099747 0.0031377241845401819 0 0.0014221442040251589 0.003169031000219934 0 0.0014993436769099747 0.0031377241845401819 0 0.0014221442040251589 0.003169031000219934 0 0.0014069033415905464 0.0031058110826232429 0 0.0014305253173326651 0.0032162629034204323 0 0.0013578710772685887 0.003216928608628464 0 0.0014221442040251589 0.003169031000219934 0 0.0013578710772685887 0.003216928608628464 0 0.0014221442040251589 0.003169031000219934 0 0.0013483991226174775 0.0031620754851604659 0 0.0013483991226174775 0.0031620754851604659 0 0.0014069033415905464 0.0031058110826232429 0 0.0013295325357878349 0.0030661195525216265 0 0.0014221442040251589 0.003169031000219934 0 0.0013483991226174775 0.0031620754851604659 0 0.0014069033415905464 0.0031058110826232429 0 0.0014976903327788497 0.003097369643985751 0 0.0014993436769099747 0.0031377241845401819 0 0.0014069033415905464 0.0031058110826232429 0 0.0014976903327788497 0.003097369643985751 0 0.0014069033415905464 0.0031058110826232429 0 0.0013648428564873949 0.0030077198370440975 0 0.0014069033415905464 0.0031058110826232429 0 0.0013648428564873949 0.0030077198370440975 0 0.0013295325357878349 0.0030661195525216265 0 0.0013295325357878349 0.0030661195525216265 0 0.0013133295699006391 0.0029659615513507429 0 0.001258386729485479 0.0030372353685682949 0 0.0013648428564873949 0.0030077198370440975 0 0.0013295325357878349 0.0030661195525216265 0 0.0013133295699006391 0.0029659615513507429 0 0.000876373761476763 0.0029434733392615844 0 0.00057590671026141516 0.0029855552996952582 0 0.00040476605208046893 0.0025086964618113569 0 0.00036097044524523582 0.0029607457239569598 0 3.8590024247212651e-05 0.0026812572034517093 0 0.000876373761476763 0.0029434733392615844 0 0.0012332649719029453 0.002823826443165782 0 0.0013648428564873949 0.0030077198370440975 0 0.0013133295699006391 0.0029659615513507429 0 0.0012560303146283822 0.0028182873374694856 0 0.00040476605208046893 0.0025086964618113569 0 0.00036097044524523582 0.0029607457239569598 0 0.0012560303146283822 0.0028182873374694856 0 0.00077212545088428794 0.003217689766666761 0 0.00057590671026141516 0.0029855552996952582 0 0.0012694854971725092 0.0031623450181420781 0 0.0010716544564378593 0.0031069107533506814 0 0.001258386729485479 0.0030372353685682949 0 0.0013896858613854743 0.0032048878914247331 0 0.00077212545088428794 0.003217689766666761 0 -0.00017104664540238356 0.0029200137160347163 0 -2.3863632720922007e-05 0.0029334180951183526 0 -0.00011893206568872534 0.0027866417598572404 0 0.0012694854971725092 0.0031623450181420781 0 0.0013295325357878349 0.0030661195525216265 0 0.001258386729485479 0.0030372353685682949 0 0.00036097044524523582 0.0029607457239569598 0 -2.3863632720922007e-05 0.0029334180951183526 0 3.8590024247212651e-05 0.0026812572034517093 0 -2.3863632720922007e-05 0.0029334180951183526 0 3.8590024247212651e-05 0.0026812572034517093 0 -0.00011893206568872534 0.0027866417598572404 0 -0.00017104664540238356 0.0029200137160347163 0 -0.00011893206568872534 0.0027866417598572404 0 -0.00021024282960667844 0.0028043961731993262 0 -0.00021024282960667844 0.0028043961731993262 0 -0.00020740207810886804 0.0028742972630143894 0 -0.00019827367890771453 0.002895213236739266 0 0.00077212545088428794 0.003217689766666761 0 0.00039076160196862858 0.0031722484649276531 0 0.0011332097978475994 0.0034917656961973146 0 0.0011061786101565537 0.003481580444587306 0 0.0011131789210323808 0.0035087000143840521 0 -0.00017104664540238356 0.0029200137160347163 0 -0.00021024282960667844 0.0028043961731993262 0 -0.00020740207810886804 0.0028742972630143894 0 0.00077212545088428794 0.003217689766666761 0 0.0012531741385921182 0.0034774725866795141 0 0.00039076160196862858 0.0031722484649276531 0 0.00038449425659859077 0.0032351162542039813 0 0.0011061786101565537 0.003481580444587306 0 0.00084001826816528576 0.0034359007395694525 0 0.0010068952928558594 0.0035740514793149601 0 0.0011061786101565537 0.003481580444587306 0 0.0010068952928558594 0.0035740514793149601 0 0.0011131789210323808 0.0035087000143840521 0 -0.00020740207810886804 0.0028742972630143894 0 -0.00019827367890771453 0.002895213236739266 0 -6.8436209876665614e-05 0.0029877441866327705 0 -0.00013318101628035688 0.0029974136051261744 0 -0.00019827367890771453 0.002895213236739266 0 -6.8436209876665614e-05 0.0029877441866327705 0 0.00025661865297774627 0.0034047129112624685 0 0.00041773153961340796 0.0037255221819542032 0 0.00084001826816528576 0.0034359007395694525 0 -4.7919811189366824e-05 0.0031763478039777606 0 0.00025661865297774627 0.0034047129112624685 0 -6.8436209876665614e-05 0.0029877441866327705 0 0.00026305508330149281 0.0033505314672839389 0 0.00038449425659859077 0.0032351162542039813 0 0.00041773153961340796 0.0037255221819542032 0 0.00084001826816528576 0.0034359007395694525 0 0.00073010817623643716 0.0037458371537971696 0 0.00084001826816528576 0.0034359007395694525 0 0.0010068952928558594 0.0035740514793149601 0 0.00073010817623643716 0.0037458371537971696 0 0.0010700562007276016 0.0036755569984054282 0 0.00073010817623643716 0.0037458371537971696 0 0.00053092923650786014 0.0042052339061284432 0 0.0010068952928558594 0.0035740514793149601 0 0.0010700562007276016 0.0036755569984054282 0 0.00073010817623643716 0.0037458371537971696 0 0.00041773153961340796 0.0037255221819542032 0 0.0004349359622267776 0.0039942899688883565 0 0.00073010817623643716 0.0037458371537971696 0 0.0004349359622267776 0.0039942899688883565 0 0.00073010817623643716 0.0037458371537971696 0 0.00053092923650786014 0.0042052339061284432 0 0.0012230596502662175 0.0034623867239199644 0 0.0013177490499452459 0.0035186818108856673 0 0.0011641242058818559 0.003516110734065481 0 0.0010620435831090996 0.0036995565216117426 0 0.00091779701860958255 0.003847465603970055 0 0.0010700562007276016 0.0036755569984054282 0 0.0013177490499452459 0.0035186818108856673 0 0.0011641242058818559 0.003516110734065481 0 0.0011597352494362365 0.0034515090711217718 0 0.0011641242058818559 0.003516110734065481 0 0.00111455837239941 0.0035292286088769169 0 0.0010700562007276016 0.0036755569984054282 0 0.0011641242058818559 0.003516110734065481 0 0.00111455837239941 0.0035292286088769169 0 0.0011850534510502162 0.0034012583449799811 0 0.0011597352494362365 0.0034515090711217718 0 0.0011560914150475739 0.0034299481141558505 0 0.0011597352494362365 0.0034515090711217718 0 0.00111455837239941 0.0035292286088769169 0 0.0011560914150475739 0.0034299481141558505 0 0.0012255307592584849 0.0033504307779482416 0 0.0012249008572826447 0.0033153835810255015 0 0.0011560914150475739 0.0034299481141558505 0 0.0011850534510502162 0.0034012583449799811 0 0.0012255307592584849 0.0033504307779482416 0 0.0011560914150475739 0.0034299481141558505 0 0.0012249008572826447 0.0033153835810255015 0 0.0011560914150475739 0.0034299481141558505 0 0.0011663443984275851 0.0033899685481688902 0 0.0011979120405512056 0.0032762646954024605 0 0.0011663443984275851 0.0033899685481688902 0 0.0011131789210323808 0.0035087000143840521 0 0.0011560914150475739 0.0034299481141558505 0 0.0011663443984275851 0.0033899685481688902 0 0.0011131789210323808 0.0035087000143840521 0 0.0010700562007276016 0.0036755569984054282 0 0.00111455837239941 0.0035292286088769169 0 0.0011131789210323808 0.0035087000143840521 0 0.00111455837239941 0.0035292286088769169 0 0.0011560914150475739 0.0034299481141558505 0 0.0011131789210323808 0.0035087000143840521 0 0.0010068952928558594 0.0035740514793149601 0 0.0010700562007276016 0.0036755569984054282 0 0.0011131789210323808 0.0035087000143840521 0 1.972942012471094e-05 0.014981871214634632 0 6.4384682245004481e-05 0.014956385794122675 0 2.457825021014628e-05 0.01494981443001904 0 1.972942012471094e-05 0.014981871214634632 0 -4.5195307883216352e-08 0.014999933425198266 0 2.457825021014628e-05 0.01494981443001904 0 1.972942012471094e-05 0.014981871214634632 0 -4.5195307883216352e-08 0.014999933425198266 0 1.9298819248615861e-08 0.015000000357141685 0 1.972942012471094e-05 0.014981871214634632 0 1.9298819248615861e-08 0.015000000357141685 0 1.6616221531612521e-05 0.015009607036631751 0 1.972942012471094e-05 0.014981871214634632 0 5.667723106052717e-05 0.014999974293148541 0 1.6616221531612521e-05 0.015009607036631751 0 1.972942012471094e-05 0.014981871214634632 0 5.667723106052717e-05 0.014999974293148541 0 6.4384682245004481e-05 0.014956385794122675 0 7.8797719349781481e-06 0.015048001619721401 0 2.4645218464570509e-05 0.01349924994654377 0 7.3536082480673613e-05 0.014830855580926911 0 0.00017825675230618676 0.014746468727771231 0 0.00012319530007378398 0.014893187794142658 0 5.667723106052717e-05 0.014999974293148541 0 0.00011003641667675503 0.014966991969577346 0 6.4384682245004481e-05 0.014956385794122675 0 -0.00010710756536782396 0.011663100051547706 0 -0.00014126675596662852 0.011631525619660155 0 -0.00013480510736585841 0.01157939183139591 0 2.4645218464570509e-05 0.01349924994654377 0 2.0180127546335726e-05 0.01316267140300713 0 -0.00010710756536782396 0.011663100051547706 0 -0.00012088160250119829 0.011678428732353799 0 -0.00014126675596662852 0.011631525619660155 0 2.4645218464570509e-05 0.01349924994654377 0 0.00023134181940482452 0.013065295664836628 0 0.00011003641667675503 0.014966991969577346 0 0.00012580673895611178 0.01492524415407911 0 6.4384682245004481e-05 0.014956385794122675 0 2.4645218464570509e-05 0.01349924994654377 0 3.5302903280836944e-05 0.013269138247713913 0 -9.9225076276401766e-05 0.011666834327922088 0 -0.00012088160250119829 0.011678428732353799 0 -0.00012032867402021381 0.011763263390762788 0 0.00012580673895611178 0.01492524415407911 0 6.4384682245004481e-05 0.014956385794122675 0 6.9442916802585973e-05 0.014898337945520541 0 6.4384682245004481e-05 0.014956385794122675 0 6.9442916802585973e-05 0.014898337945520541 0 2.457825021014628e-05 0.01494981443001904 0 0.00012580673895611178 0.01492524415407911 0 6.9442916802585973e-05 0.014898337945520541 0 0.00013838257568212409 0.014884020019687343 0 -0.00011086193757354981 0.01470594233931046 0 7.7944538539966671e-06 0.013785152084147313 0 -0.00028401201578430235 0.014150865695556847 0 -0.00030198985257634162 0.013834293111944441 0 -0.00029649844121543454 0.013946992575366008 0 -0.0002152675046368565 0.014306588450555723 0 -0.00028401201578430235 0.014150865695556847 0 -0.00029543969861426273 0.013979876249941627 0 -0.00028401201578430235 0.014150865695556847 0 -0.00029649844121543454 0.013946992575366008 0 -0.00029543969861426273 0.013979876249941627 0 -0.0002152675046368565 0.014306588450555723 0 -0.00028401201578430235 0.014150865695556847 0 -9.9623639894237646e-05 0.014665154646645898 0 -0.0002152675046368565 0.014306588450555723 0 -2.1001761272008415e-05 0.014886725302878139 0 -9.9623639894237646e-05 0.014665154646645898 0 6.9442916802585973e-05 0.014898337945520541 0 2.457825021014628e-05 0.01494981443001904 0 -2.1001761272008415e-05 0.014886725302878139 0 -0.00011086193757354981 0.01470594233931046 0 -4.2171951722869757e-05 0.014813817062664209 0 -4.5195307883216352e-08 0.014999933425198266 0 2.457825021014628e-05 0.01494981443001904 0 -2.1001761272008415e-05 0.014886725302878139 0 -4.5195307883216352e-08 0.014999933425198266 0 -2.1001761272008415e-05 0.014886725302878139 0 -5.2000085602740049e-08 0.014999505855458721 0 -2.1001761272008415e-05 0.014886725302878139 0 -5.2000085602740049e-08 0.014999505855458721 0 -9.9623639894237646e-05 0.014665154646645898 0 -5.2000085602740049e-08 0.014999505855458721 0 -9.9623639894237646e-05 0.014665154646645898 0 -6.1333885939615427e-08 0.014999702246260755 0 -2.4808061984208273e-07 0.014999187982792725 0 -0.00014515795740343567 0.013596963488818272 0 -1.0096218950713697e-07 0.011811958370432717 0 -9.9623639894237646e-05 0.014665154646645898 0 -0.00017428952227367637 0.01452335451240455 0 -6.1333885939615427e-08 0.014999702246260755 0 -0.00013428299999189013 0.014406785119566116 0 -6.0836915335935265e-08 0.014999801763288344 0 -7.168197029814792e-05 0.014295711463138485 0 -2.4808061984208273e-07 0.014999187982792725 0 -0.00014515795740343567 0.013596963488818272 0 -7.168197029814792e-05 0.014295711463138485 0 4.54323848915613e-08 0.014998819497901484 0 -2.4808061984208273e-07 0.014999187982792725 0 -0.00013428299999189013 0.014406785119566116 0 -0.00022248817699434517 0.013721026815704649 0 -0.00028401201578430235 0.014150865695556847 0 -0.00017428952227367637 0.01452335451240455 0 -0.00032561146492590166 0.013883837280748696 0 -0.00028401201578430235 0.014150865695556847 0 -9.9623639894237646e-05 0.014665154646645898 0 -0.00017428952227367637 0.01452335451240455 0 -0.00028401201578430235 0.014150865695556847 0 -0.00032561146492590166 0.013883837280748696 0 -0.00030198985257634162 0.013834293111944441 0 -0.00032561146492590166 0.013883837280748696 0 -0.00030198985257634162 0.013834293111944441 0 -9.2491623273572001e-05 0.013010240057361257 0 -0.00013621125628687043 0.01350228081712432 0 -9.2491623273572001e-05 0.013010240057361257 0 7.8658357584182647e-05 0.012984842593198652 0 -0.00030198985257634162 0.013834293111944441 0 -0.00013621125628687043 0.01350228081712432 0 -9.2491623273572001e-05 0.013010240057361257 0 -0.00022248817699434517 0.013721026815704649 0 -8.3801032960143681e-05 0.013121548282744706 0 -0.00014515795740343567 0.013596963488818272 0 -9.2491623273572001e-05 0.013010240057361257 0 -1.0096218950713697e-07 0.011811958370432717 0 -9.2491623273572001e-05 0.013010240057361257 0 -1.0096218950713697e-07 0.011811958370432717 0 8.8389547861022916e-05 0.012231684972812625 0 -1.0096218950713697e-07 0.011811958370432717 0 8.8389547861022916e-05 0.012231684972812625 0 0.00022378780354801936 0.011494201585648178 0 8.8389547861022916e-05 0.012231684972812625 0 0.00039607126832960659 0.012685428444671829 0 7.8658357584182647e-05 0.012984842593198652 0 8.8389547861022916e-05 0.012231684972812625 0 0.00039607126832960659 0.012685428444671829 0 0.00022378780354801936 0.011494201585648178 0 -9.2491623273572001e-05 0.013010240057361257 0 8.8389547861022916e-05 0.012231684972812625 0 7.8658357584182647e-05 0.012984842593198652 0 -0.00013621125628687043 0.01350228081712432 0 7.8658357584182647e-05 0.012984842593198652 0 -1.4021151052708693e-05 0.013625552020637154 0 7.8658357584182647e-05 0.012984842593198652 0 0.0002832787079958104 0.013450765824949968 0 -1.4021151052708693e-05 0.013625552020637154 0 0.0001871291398524297 0.01153951961580659 0 0.00014213357850174091 0.011593113102625988 0 0.00020840276718794889 0.011586329523720969 0 0.00026569962130824773 0.012076322111078668 0 0.0001850147775537595 0.012724226830338973 0 0.00039607126832960659 0.012685428444671829 0 7.8658357584182647e-05 0.012984842593198652 0 0.0002832787079958104 0.013450765824949968 0 -0.00082344000081466901 0.0095775342597806089 0 0.00039949340556038525 0.011340883941621815 0 0.00014213357850174091 0.011593113102625988 0 0.00015017833991880071 0.011634671489654339 0 0.00020840276718794889 0.011586329523720969 0 0.00014213357850174091 0.011593113102625988 0 0.00015017833991880071 0.011634671489654339 0 0.00010131751084148805 0.011633613089948914 0 0.00049976312021321489 0.010373858633194339 0 0.00051850779570704407 0.010330354133571834 0 0.00031198587417796057 0.010546309107171463 0 0.00060082014727056603 0.0068739928935035131 0 0.00044944845119409269 0.0067206476833825057 0 0.00031817818222210098 0.0068712942314698841 0 -0.0024240384227194071 0.0079174966077448488 0 -0.0023468360786661146 0.0077956860117750345 0 -0.0021138814027904049 0.0077696448929923312 0 -0.00082344000081466901 0.0095775342597806089 0 -0.0004866685368989669 0.0081089234325044182 0 -0.00082344000081466901 0.0095775342597806089 0 -0.00051609391221387878 0.011360647105139916 0 -0.0024240384227194071 0.0079174966077448488 0 -0.0021138814027904049 0.0077696448929923312 0 -0.0018005099054215104 0.0079503259497949227 0 -0.0023468360786661146 0.0077956860117750345 0 -0.0021138814027904049 0.0077696448929923312 0 -0.0018834307015303119 0.0074111719052479264 0 -0.0021138814027904049 0.0077696448929923312 0 -0.0018005099054215104 0.0079503259497949227 0 -0.0018834307015303119 0.0074111719052479264 0 -0.0004866685368989669 0.0081089234325044182 0 -0.0019495246179014668 0.0074361721702785556 0 0.0001850147775537595 0.012724226830338973 0 -0.00051609391221387878 0.011360647105139916 0 0.0002832787079958104 0.013450765824949968 0 6.5511277932664124e-05 0.013903201213048329 0 -1.4021151052708693e-05 0.013625552020637154 0 -0.00013621125628687043 0.01350228081712432 0 -1.4021151052708693e-05 0.013625552020637154 0 -0.00021826858361040545 0.013780090757647969 0 -1.4021151052708693e-05 0.013625552020637154 0 -0.00021826858361040545 0.013780090757647969 0 -0.00019863010655906611 0.013919874037154554 0 -0.00030198985257634162 0.013834293111944441 0 -0.00013621125628687043 0.01350228081712432 0 -0.00021826858361040545 0.013780090757647969 0 -0.00030198985257634162 0.013834293111944441 0 -0.00021826858361040545 0.013780090757647969 0 -0.00029649844121543454 0.013946992575366008 0 -0.00021826858361040545 0.013780090757647969 0 -0.00029649844121543454 0.013946992575366008 0 -0.00019863010655906611 0.013919874037154554 0 7.7944538539966671e-06 0.013785152084147313 0 -0.00020570061972288343 0.012887785411804331 0 -0.00014927923119857083 0.011870622808408287 0 -0.00026533974063445455 0.011855435674148181 0 -0.00019769101771708803 0.011770045016210923 0 -0.00029649844121543454 0.013946992575366008 0 -0.00030414966905134528 0.013971404781011497 0 -0.00019863010655906611 0.013919874037154554 0 -0.00012495677335376597 0.013951617569777409 0 7.7944538539966671e-06 0.013785152084147313 0 3.5302903280836944e-05 0.013269138247713913 0 7.7944538539966671e-06 0.013785152084147313 0 -0.00012032867402021381 0.011763263390762788 0 -0.00014927923119857083 0.011870622808408287 0 -0.00019769101771708803 0.011770045016210923 0 6.5511277932664124e-05 0.013903201213048329 0 -1.4021151052708693e-05 0.013625552020637154 0 -0.00019863010655906611 0.013919874037154554 0 -0.00051609391221387878 0.011360647105139916 0 -0.00020570061972288343 0.012887785411804331 0 -0.00038661205924958673 0.011841964074986005 0 -0.00026533974063445455 0.011855435674148181 0 -0.00027745726895867255 0.011681377555449958 0 -0.0013410066604171759 0.0070530504374246563 0 -0.0014311927615966707 0.0070104484138136386 0 -0.0018834307015303119 0.0074111719052479264 0 -0.00051609391221387878 0.011360647105139916 0 -0.00083232906218482286 0.009113425533632211 0 -0.00026533974063445455 0.011855435674148181 0 -0.00027745726895867255 0.011681377555449958 0 -0.00019769101771708803 0.011770045016210923 0 -0.00027745726895867255 0.011681377555449958 0 -0.00019769101771708803 0.011770045016210923 0 -0.00017703269465553886 0.011685503475623974 0 -0.00012032867402021381 0.011763263390762788 0 -0.00019769101771708803 0.011770045016210923 0 -0.00017703269465553886 0.011685503475623974 0 -0.00012088160250119829 0.011678428732353799 0 -0.00012032867402021381 0.011763263390762788 0 -0.00017703269465553886 0.011685503475623974 0 -0.00083232906218482286 0.009113425533632211 0 -0.00065048971869741275 0.009041859231712232 0 -0.00017703269465553886 0.011685503475623974 0 -0.00014126675596662852 0.011631525619660155 0 -0.00017072838210346905 0.011565053616446741 0 -0.00027745726895867255 0.011681377555449958 0 -0.00017703269465553886 0.011685503475623974 0 -0.00017072838210346905 0.011565053616446741 0 -0.00012088160250119829 0.011678428732353799 0 -0.00017703269465553886 0.011685503475623974 0 -0.00014126675596662852 0.011631525619660155 0 -0.0014311927615966707 0.0070104484138136386 0 -0.0017872729151176079 0.007008932691606142 0 -0.0014971474901820034 0.0064431337669040162 0 -0.0013410066604171759 0.0070530504374246563 0 -0.0014311927615966707 0.0070104484138136386 0 -0.0014971474901820034 0.0064431337669040162 0 -0.0013410066604171759 0.0070530504374246563 0 -0.0014971474901820034 0.0064431337669040162 0 -0.0010561053364726467 0.0063705279119229937 0 -0.00049497871964654242 0.0066310633303134706 0 -0.0002508547658124612 0.0063508170438257745 0 0.00076538621239765844 0.0065486376690677651 0 0.00074000834069061559 0.0063023737782752524 0 0.00090163158237324659 0.0062618359337237965 0 0.00059366793976058975 0.0064261495078520754 0 0.00076538621239765844 0.0065486376690677651 0 0.00074000834069061559 0.0063023737782752524 0 0.00059366793976058975 0.0064261495078520754 0 0.00062199566423993971 0.0062190540489503177 0 0.00074000834069061559 0.0063023737782752524 0 0.00059366793976058975 0.0064261495078520754 0 0.00039744580914217786 0.0063478341237875853 0 0.00062199566423993971 0.0062190540489503177 0 0.00059366793976058975 0.0064261495078520754 0 0.00057979316557074049 0.0066318737754706147 0 0.00045339001864060129 0.0065446295258140821 0 0.00059366793976058975 0.0064261495078520754 0 0.00045339001864060129 0.0065446295258140821 0 0.00039744580914217786 0.0063478341237875853 0 0.00059366793976058975 0.0064261495078520754 0 0.00057979316557074049 0.0066318737754706147 0 0.00076538621239765844 0.0065486376690677651 0 0.00060082014727056603 0.0068739928935035131 0 0.00057979316557074049 0.0066318737754706147 0 0.00076538621239765844 0.0065486376690677651 0 0.00057979316557074049 0.0066318737754706147 0 0.00044944845119409269 0.0067206476833825057 0 0.00045339001864060129 0.0065446295258140821 0 0.00060082014727056603 0.0068739928935035131 0 0.00057979316557074049 0.0066318737754706147 0 0.00044944845119409269 0.0067206476833825057 0 -0.0004866685368989669 0.0081089234325044182 0 -0.00049497871964654242 0.0066310633303134706 0 -0.0018005099054215104 0.0079503259497949227 0 -0.0013410066604171759 0.0070530504374246563 0 -0.0018834307015303119 0.0074111719052479264 0 -0.0020194192503093645 0.0074575237969611062 0 -0.0017591670690316943 0.0072322884931672344 0 -0.0017872729151176079 0.007008932691606142 0 -0.0014311927615966707 0.0070104484138136386 0 -0.0017591670690316943 0.0072322884931672344 0 -0.0017872729151176079 0.007008932691606142 0 -0.0014234343783251565 0.007014697706505371 0 -0.0019495246179014668 0.0074361721702785556 0 0.00049640777699855277 0.0063087935333677563 0 0.00049696126575414306 0.0065939107936663129 0 0.00027852889776533549 0.0066400715309021079 0 9.8912226188166603e-05 0.0064888826780523561 0 -1.7081701479495481e-05 0.0069517023174368456 0 0.00092110814684968055 0.0060148912698842674 0 0.00068911936864167499 0.0061668112701149394 0 0.00096424210133175747 0.0066141685963863311 0 0.00044944845119409269 0.0067206476833825057 0 0.00027852889776533549 0.0066400715309021079 0 0.00031817818222210098 0.0068712942314698841 0 0.00044944845119409269 0.0067206476833825057 0 0.00045339001864060129 0.0065446295258140821 0 0.00027852889776533549 0.0066400715309021079 0 0.00039744580914217786 0.0063478341237875853 0 9.8912226188166603e-05 0.0064888826780523561 0 0.00023521915544352098 0.0060756104887978255 0 0.00027852889776533549 0.0066400715309021079 0 0.00039744580914217786 0.0063478341237875853 0 9.8912226188166603e-05 0.0064888826780523561 0 0.00045339001864060129 0.0065446295258140821 0 0.00027852889776533549 0.0066400715309021079 0 0.00039744580914217786 0.0063478341237875853 0 0.00036877921732053989 0.0060742237508303806 0 0.00068911936864167499 0.0061668112701149394 0 0.00067286084048522531 0.0057441986006996747 0 0.00092110814684968055 0.0060148912698842674 0 0.00068911936864167499 0.0061668112701149394 0 0.00067286084048522531 0.0057441986006996747 0 0.00048756817237664802 0.0059592424593261813 0 0.00067179143683992614 0.0057576941562673973 0 0.00060326616277499529 0.0058309745127961745 0 0.00055967003220029924 0.0056964164157098972 0 0.00067286084048522531 0.0057441986006996747 0 0.00036877921732053989 0.0060742237508303806 0 0.00068911936864167499 0.0061668112701149394 0 0.00055703305008553627 0.0064447625705719011 0 0.00036877921732053989 0.0060742237508303806 0 0.00055703305008553627 0.0064447625705719011 0 0.00030801957993141065 0.0064007688791709516 0 0.00068911936864167499 0.0061668112701149394 0 0.00055703305008553627 0.0064447625705719011 0 0.00096424210133175747 0.0066141685963863311 0 0.00055703305008553627 0.0064447625705719011 0 0.00068423844398908138 0.0068504356183712416 0 0.00096424210133175747 0.0066141685963863311 0 0.00055703305008553627 0.0064447625705719011 0 0.00041363828787100847 0.0068082693758468715 0 0.00030801957993141065 0.0064007688791709516 0 0.00055703305008553627 0.0064447625705719011 0 0.00041363828787100847 0.0068082693758468715 0 0.00068423844398908138 0.0068504356183712416 0 0.00041363828787100847 0.0068082693758468715 0 0.00055138792277531783 0.0071749616545168501 0 0.0002258387966683698 0.0071598321235961391 0 0.00041363828787100847 0.0068082693758468715 0 0.00068423844398908138 0.0068504356183712416 0 0.00055138792277531783 0.0071749616545168501 0 0.00068423844398908138 0.0068504356183712416 0 0.00096424210133175747 0.0066141685963863311 0 0.00095188210913290977 0.0072707865323620325 0 0.00068423844398908138 0.0068504356183712416 0 0.00095188210913290977 0.0072707865323620325 0 0.00055138792277531783 0.0071749616545168501 0 0.00049696126575414306 0.0065939107936663129 0 0.00034868550907463959 0.0082291979913728056 0 0.00037255404593014015 0.0090326023550930355 0 0.00034868550907463959 0.0082291979913728056 0 -1.7081701479495481e-05 0.0069517023174368456 0 0.0002638178289779965 0.0071619355827524066 0 -0.00011253449825812981 0.0074578889683039745 0 -1.7081701479495481e-05 0.0069517023174368456 0 0.00031817818222210098 0.0068712942314698841 0 0.0002638178289779965 0.0071619355827524066 0 0.00027852889776533549 0.0066400715309021079 0 -1.7081701479495481e-05 0.0069517023174368456 0 0.00031817818222210098 0.0068712942314698841 0 0.00060082014727056603 0.0068739928935035131 0 0.00031817818222210098 0.0068712942314698841 0 0.0002638178289779965 0.0071619355827524066 0 -0.0004866685368989669 0.0081089234325044182 0 0.00037255404593014015 0.0090326023550930355 0 0.00049976312021321489 0.010373858633194339 0 0.00031198587417796057 0.010546309107171463 0 0.00036718707948286494 0.010643889857230093 0 0.00031198587417796057 0.010546309107171463 0 0.00036718707948286494 0.010643889857230093 0 0.00027546653158433616 0.01069891542623647 0 -1.0096218950713697e-07 0.011811958370432717 0 1.4225044260603002e-06 0.0094119741516413419 0 0.0001738227861544193 0.0099537466739911401 0 -1.0096218950713697e-07 0.011811958370432717 0 0.0001738227861544193 0.0099537466739911401 0 0.0002145470933251911 0.010476338972521067 0 0.00039949340556038525 0.011340883941621815 0 0.00022445691238902904 0.011073455466432675 0 0.0001871291398524297 0.01153951961580659 0 0.00020840276718794889 0.011586329523720969 0 0.00027956114700463292 0.011514844463818284 0 0.00027546653158433616 0.01069891542623647 0 0.00023943654437911209 0.010785071202522587 0 0.00021918694091407914 0.010713555123341299 0 0.00031198587417796057 0.010546309107171463 0 0.00027546653158433616 0.01069891542623647 0 0.00021918694091407914 0.010713555123341299 0 0.00036718707948286494 0.010643889857230093 0 0.00027546653158433616 0.01069891542623647 0 0.00023943654437911209 0.010785071202522587 0 0.00026569962130824773 0.012076322111078668 0 0.00024969937314687541 0.011632268576279393 0 0.0001871291398524297 0.01153951961580659 0 0.00027956114700463292 0.011514844463818284 0 0.00022378780354801936 0.011494201585648178 0 -1.0096218950713697e-07 0.011811958370432717 0 0.00022378780354801936 0.011494201585648178 0 0.0002145470933251911 0.010476338972521067 0 0.00027956114700463292 0.011514844463818284 0 0.00022378780354801936 0.011494201585648178 0 0.0002145470933251911 0.010476338972521067 0 0.00022445691238902904 0.011073455466432675 0 0.00024675972427908206 0.010585876983209093 0 1.4225044260603002e-06 0.0094119741516413419 0 0.0001738227861544193 0.0099537466739911401 0 0.00027420152995057302 0.0088780754947442326 0 0.0001738227861544193 0.0099537466739911401 0 0.0002145470933251911 0.010476338972521067 0 0.00032535224426739017 0.010755228446493161 0 0.0001738227861544193 0.0099537466739911401 0 0.00027420152995057302 0.0088780754947442326 0 0.0010690916717334235 0.0082482195253361385 0 0.00023943654437911209 0.010785071202522587 0 0.0002145470933251911 0.010476338972521067 0 0.00032535224426739017 0.010755228446493161 0 0.00027871250703694403 0.0098663282412778854 0 0.00066509627294623766 0.0096336681654989962 0 1.4225044260603002e-06 0.0094119741516413419 0 0.00027420152995057302 0.0088780754947442326 0 0.00010142942358559263 0.008328084838764219 0 0.00027420152995057302 0.0088780754947442326 0 0.00045565923801459986 0.0081033325247628924 0 0.0010690916717334235 0.0082482195253361385 0 0.00027420152995057302 0.0088780754947442326 0 0.00045565923801459986 0.0081033325247628924 0 0.00010142942358559263 0.008328084838764219 0 0.00045565923801459986 0.0081033325247628924 0 0.0003159230682673827 0.0076278053477493602 0 0.00010142942358559263 0.008328084838764219 0 0.00045565923801459986 0.0081033325247628924 0 0.00067759697615867877 0.007561518741658264 0 0.0003159230682673827 0.0076278053477493602 0 0.00066509627294623766 0.0096336681654989962 0 0.00034868550907463959 0.0082291979913728056 0 0.00023943654437911209 0.010785071202522587 0 0.00032535224426739017 0.010755228446493161 0 0.00021918694091407914 0.010713555123341299 0 0.00067759697615867877 0.007561518741658264 0 0.0010690916717334235 0.0082482195253361385 0 0.0012531571601421617 0.0071462264016498734 0 0.00045565923801459986 0.0081033325247628924 0 0.00067759697615867877 0.007561518741658264 0 0.0010690916717334235 0.0082482195253361385 0 0.00067759697615867877 0.007561518741658264 0 0.00095188210913290977 0.0072707865323620325 0 0.00055138792277531783 0.0071749616545168501 0 0.0010335426084187504 0.0073147007186762543 0 0.00034868550907463959 0.0082291979913728056 0 0.0003159230682673827 0.0076278053477493602 0 0.00055138792277531783 0.0071749616545168501 0 0.0002258387966683698 0.0071598321235961391 0 0.00067759697615867877 0.007561518741658264 0 0.0003159230682673827 0.0076278053477493602 0 0.00055138792277531783 0.0071749616545168501 0 0.0002258387966683698 0.0071598321235961391 0 7.7822168241400034e-06 0.0071568415726815078 0 3.1552505799249962e-05 0.0075838602014665036 0 0.0003159230682673827 0.0076278053477493602 0 0.0002258387966683698 0.0071598321235961391 0 3.1552505799249962e-05 0.0075838602014665036 0 7.7822168241400034e-06 0.0071568415726815078 0 3.1552505799249962e-05 0.0075838602014665036 0 -7.6693724983757156e-05 0.0073277192679042855 0 3.1552505799249962e-05 0.0075838602014665036 0 -8.6752135680926007e-05 0.0078103204867511662 0 -7.6693724983757156e-05 0.0073277192679042855 0 0.0003159230682673827 0.0076278053477493602 0 3.1552505799249962e-05 0.0075838602014665036 0 0.00010142942358559263 0.008328084838764219 0 1.4225044260603002e-06 0.0094119741516413419 0 0.00010142942358559263 0.008328084838764219 0 -8.6752135680926007e-05 0.0078103204867511662 0 1.4225044260603002e-06 0.0094119741516413419 0 -7.2925062724245417e-07 0.007650311402042447 0 -8.6752135680926007e-05 0.0078103204867511662 0 3.1552505799249962e-05 0.0075838602014665036 0 0.00010142942358559263 0.008328084838764219 0 -8.6752135680926007e-05 0.0078103204867511662 0 -7.2925062724245417e-07 0.007650311402042447 0 -8.6752135680926007e-05 0.0078103204867511662 0 -0.00010011536519755281 0.0070996827012975777 0 -0.00010011536519755281 0.0070996827012975777 0 -0.00011966859666755326 0.0072136931630269203 0 -0.00017428490815688989 0.0067691891435049676 0 -8.6752135680926007e-05 0.0078103204867511662 0 -0.00011966859666755326 0.0072136931630269203 0 -7.6693724983757156e-05 0.0073277192679042855 0 -8.6752135680926007e-05 0.0078103204867511662 0 -0.00010011536519755281 0.0070996827012975777 0 -0.00011966859666755326 0.0072136931630269203 0 7.7822168241400034e-06 0.0071568415726815078 0 -7.6693724983757156e-05 0.0073277192679042855 0 -0.00012696287918895639 0.0068774629874752908 0 -0.00011966859666755326 0.0072136931630269203 0 -7.6693724983757156e-05 0.0073277192679042855 0 -0.00012696287918895639 0.0068774629874752908 0 -0.00012696287918895639 0.0068774629874752908 0 -0.00017428490815688989 0.0067691891435049676 0 -0.00017169801725362021 0.0066376641225440779 0 -0.00011966859666755326 0.0072136931630269203 0 -0.00012696287918895639 0.0068774629874752908 0 -0.00017428490815688989 0.0067691891435049676 0 -0.00021917729579268031 0.0065653788236960916 0 -0.00017169801725362021 0.0066376641225440779 0 -0.00020835187513548747 0.0064822255713928552 0 -0.00021917729579268031 0.0065653788236960916 0 -0.00017428490815688989 0.0067691891435049676 0 -0.00017169801725362021 0.0066376641225440779 0 -0.00020835187513548747 0.0064822255713928552 0 -8.033457379792475e-05 0.0065570990288515768 0 -0.00013267642157130288 0.0062884090150824535 0 -0.00017169801725362021 0.0066376641225440779 0 -0.00020835187513548747 0.0064822255713928552 0 -8.033457379792475e-05 0.0065570990288515768 0 -0.00012696287918895639 0.0068774629874752908 0 -0.00017169801725362021 0.0066376641225440779 0 -8.033457379792475e-05 0.0065570990288515768 0 -0.00012696287918895639 0.0068774629874752908 0 -8.033457379792475e-05 0.0065570990288515768 0 6.3440399223238454e-05 0.0067793501389542188 0 0.0002258387966683698 0.0071598321235961391 0 7.7822168241400034e-06 0.0071568415726815078 0 6.3440399223238454e-05 0.0067793501389542188 0 7.7822168241400034e-06 0.0071568415726815078 0 -0.00012696287918895639 0.0068774629874752908 0 6.3440399223238454e-05 0.0067793501389542188 0 0.00041363828787100847 0.0068082693758468715 0 0.0002258387966683698 0.0071598321235961391 0 6.3440399223238454e-05 0.0067793501389542188 0 0.00041363828787100847 0.0068082693758468715 0 6.3440399223238454e-05 0.0067793501389542188 0 0.00022029408502362641 0.0066299058999413022 0 0.00022029408502362641 0.0066299058999413022 0 6.5602273954599443e-05 0.0064071505748454563 0 0.00030801957993141065 0.0064007688791709516 0 6.3440399223238454e-05 0.0067793501389542188 0 0.00022029408502362641 0.0066299058999413022 0 6.5602273954599443e-05 0.0064071505748454563 0 0.00041363828787100847 0.0068082693758468715 0 0.00022029408502362641 0.0066299058999413022 0 0.00030801957993141065 0.0064007688791709516 0 -8.033457379792475e-05 0.0065570990288515768 0 6.3440399223238454e-05 0.0067793501389542188 0 6.5602273954599443e-05 0.0064071505748454563 0 -6.691065382077429e-05 0.0065416390656249483 0 0.00017865833367707278 0.0063201872577851349 0 0.00030715987438915824 0.0062445461880917168 0 0.00018179735490007472 0.0060730908753617065 0 0.00042035323641609654 0.0057840995131525292 0 -8.033457379792475e-05 0.0065570990288515768 0 0.00030715987438915824 0.0062445461880917168 0 4.2375304461009437e-05 0.0062214962917819059 0 0.00030715987438915824 0.0062445461880917168 0 0.00018179735490007472 0.0060730908753617065 0 4.2375304461009437e-05 0.0062214962917819059 0 0.00036877921732053989 0.0060742237508303806 0 6.5602273954599443e-05 0.0064071505748454563 0 0.00030801957993141065 0.0064007688791709516 0 0.00048756817237664802 0.0059592424593261813 0 0.00017865833367707278 0.0063201872577851349 0 0.00060326616277499529 0.0058309745127961745 0 0.00030715987438915824 0.0062445461880917168 0 0.00042035323641609654 0.0057840995131525292 0 0.00042035323641609654 0.0057840995131525292 0 0.00030167630884700756 0.0055980155748868929 0 0.00043309061760481399 0.0056096217355940453 0 0.00042035323641609654 0.0057840995131525292 0 0.00043309061760481399 0.0056096217355940453 0 0.00055967003220029924 0.0056964164157098972 0 0.00060326616277499529 0.0058309745127961745 0 0.00042035323641609654 0.0057840995131525292 0 0.00055967003220029924 0.0056964164157098972 0 0.00018179735490007472 0.0060730908753617065 0 0.00042035323641609654 0.0057840995131525292 0 -1.4330285279531506e-05 0.0060474335728001394 0 0.00042035323641609654 0.0057840995131525292 0 0.00015276997089363521 0.0056350447320186658 0 0.00030167630884700756 0.0055980155748868929 0 0.00042177162214108803 0.0057842064357319931 0 8.7312854110209974e-05 0.0058539628850678245 0 0.00015685222693567738 0.0055207361445011394 0 0.00015276997089363521 0.0056350447320186658 0 0.00030167630884700756 0.0055980155748868929 0 0.00015685222693567738 0.0055207361445011394 0 0.00015276997089363521 0.0056350447320186658 0 -1.8751330197539803e-05 0.0057271938746605569 0 -7.6549127337771378e-05 0.0058720868491818363 0 0.00015276997089363521 0.0056350447320186658 0 -1.8751330197539803e-05 0.0057271938746605569 0 0.00017072012906658727 0.0054964865297165112 0 3.6177006860123339e-05 0.0054534277308260727 0 -0.00021834929405164914 0.0062106570706523621 0 -1.4330285279531506e-05 0.0060474335728001394 0 -0.00013267642157130288 0.0062884090150824535 0 -0.00016364041877126487 0.006034762101185265 0 8.7312854110209974e-05 0.0058539628850678245 0 -0.00021547655841459821 0.0063198352618452202 0 -0.00020835187513548747 0.0064822255713928552 0 -0.00013267642157130288 0.0062884090150824535 0 -0.00021834929405164914 0.0062106570706523621 0 -0.00021547655841459821 0.0063198352618452202 0 -0.00013267642157130288 0.0062884090150824535 0 -1.4330285279531506e-05 0.0060474335728001394 0 -0.00013267642157130288 0.0062884090150824535 0 4.2375304461009437e-05 0.0062214962917819059 0 -8.033457379792475e-05 0.0065570990288515768 0 -0.00013267642157130288 0.0062884090150824535 0 4.2375304461009437e-05 0.0062214962917819059 0 0.00018179735490007472 0.0060730908753617065 0 -1.4330285279531506e-05 0.0060474335728001394 0 4.2375304461009437e-05 0.0062214962917819059 0 2.5963343516990209e-05 0.0051394228219762356 0 0.00019312260343170887 0.0053381910220915967 0 0.00010516475834232861 0.00511596601839975 0 -5.6924898279832407e-05 0.0049701881567998721 0 2.5963343516990209e-05 0.0051394228219762356 0 0.00010516475834232861 0.00511596601839975 0 0.00015685222693567738 0.0055207361445011394 0 4.7133329104879287e-06 0.0051818276627618592 0 6.2335226657107476e-05 0.0052795535413627803 0 2.5963343516990209e-05 0.0051394228219762356 0 7.8290395515649573e-06 0.0051377208983174518 0 6.2335226657107476e-05 0.0052795535413627803 0 -2.1465414939472608e-05 0.0050160110667208865 0 2.5963343516990209e-05 0.0051394228219762356 0 7.8290395515649573e-06 0.0051377208983174518 0 -1.2340500149589988e-05 0.0050261881868497648 0 4.7133329104879287e-06 0.0051818276627618592 0 7.8290395515649573e-06 0.0051377208983174518 0 4.7133329104879287e-06 0.0051818276627618592 0 7.8290395515649573e-06 0.0051377208983174518 0 6.2335226657107476e-05 0.0052795535413627803 0 2.5963343516990209e-05 0.0051394228219762356 0 6.2335226657107476e-05 0.0052795535413627803 0 0.00019312260343170887 0.0053381910220915967 0 0.00015685222693567738 0.0055207361445011394 0 6.2335226657107476e-05 0.0052795535413627803 0 0.00019312260343170887 0.0053381910220915967 0 0.00015685222693567738 0.0055207361445011394 0 0.00019312260343170887 0.0053381910220915967 0 0.00030167630884700756 0.0055980155748868929 0 0.00019312260343170887 0.0053381910220915967 0 0.00030167630884700756 0.0055980155748868929 0 0.00037309839866640803 0.0054742254778034237 0 0.00030167630884700756 0.0055980155748868929 0 0.00037309839866640803 0.0054742254778034237 0 0.00043309061760481399 0.0056096217355940453 0 0.00037309839866640803 0.0054742254778034237 0 0.00043309061760481399 0.0056096217355940453 0 0.00054313072643483726 0.0055602498924696613 0 0.00043309061760481399 0.0056096217355940453 0 0.00054313072643483726 0.0055602498924696613 0 0.00055967003220029924 0.0056964164157098972 0 0.00037309839866640803 0.0054742254778034237 0 0.00039603288313078654 0.0053113270612581828 0 0.00054313072643483726 0.0055602498924696613 0 0.00039603288313078654 0.0053113270612581828 0 0.0006156714573235597 0.0055837697576380241 0 0.00054313072643483726 0.0055602498924696613 0 0.00019312260343170887 0.0053381910220915967 0 0.00039603288313078654 0.0053113270612581828 0 0.00010516475834232861 0.00511596601839975 0 0.00019312260343170887 0.0053381910220915967 0 0.00037309839866640803 0.0054742254778034237 0 0.00039603288313078654 0.0053113270612581828 0 0.00053547458548042746 0.0054508155709041325 0 0.00035899073279054819 0.0053055958708388157 0 0.0006975174919702454 0.0055852098829771045 0 0.00067802722330105711 0.0057543026360677369 0 0.0006156714573235597 0.0055837697576380241 0 0.00053547458548042746 0.0054508155709041325 0 0.00059834004944048615 0.0055621807296380625 0 0.0006975174919702454 0.0055852098829771045 0 0.00067908841937846891 0.0056291187852966591 0 0.00067802722330105711 0.0057543026360677369 0 0.0006975174919702454 0.0055852098829771045 0 0.00067908841937846891 0.0056291187852966591 0 0.00065676139280022991 0.005505134355209172 0 0.0006975174919702454 0.0055852098829771045 0 0.00065676139280022991 0.005505134355209172 0 0.0006178883632269518 0.0054954703972364682 0 0.00017095641459852681 0.0051224989601313777 0 0.00035899073279054819 0.0053055958708388157 0 0.00037770184475478428 0.0053066769600616523 0 0.0006178883632269518 0.0054954703972364682 0 0.00052396821124488376 0.005338150393331461 0 0.00065676139280022991 0.005505134355209172 0 0.0006178883632269518 0.0054954703972364682 0 0.00052396821124488376 0.005338150393331461 0 0.00065676139280022991 0.005505134355209172 0 0.00052396821124488376 0.005338150393331461 0 0.00065808842206158884 0.0053644466485838751 0 0.00065676139280022991 0.005505134355209172 0 0.00065808842206158884 0.0053644466485838751 0 0.0006567042062017533 0.0055753616035135074 0 0.00065676139280022991 0.005505134355209172 0 0.0006567042062017533 0.0055753616035135074 0 0.00067439631521022995 0.0057109016553914963 0 0.0006567042062017533 0.0055753616035135074 0 0.00069268568073824633 0.0056426712732426058 0 0.00066103728205741351 0.0057449305627553533 0 0.0006567042062017533 0.0055753616035135074 0 0.00066103728205741351 0.0057449305627553533 0 0.00067439631521022995 0.0057109016553914963 0 0.00065808842206158884 0.0053644466485838751 0 0.0006567042062017533 0.0055753616035135074 0 0.00069268568073824633 0.0056426712732426058 0 0.0009126378958568208 0.0056020631324580324 0 0.00065808842206158884 0.0053644466485838751 0 0.00069268568073824633 0.0056426712732426058 0 0.0009126378958568208 0.0056020631324580324 0 0.00069268568073824633 0.0056426712732426058 0 0.00079858601451375543 0.0057833790070899102 0 0.00069268568073824633 0.0056426712732426058 0 0.00079858601451375543 0.0057833790070899102 0 0.00069690029025922006 0.0057894598710958867 0 0.00069268568073824633 0.0056426712732426058 0 0.00069690029025922006 0.0057894598710958867 0 0.00066103728205741351 0.0057449305627553533 0 0.00069690029025922006 0.0057894598710958867 0 0.00066103728205741351 0.0057449305627553533 0 0.00065754827833736486 0.0058794373252182234 0 0.0018151516081389156 0.0067799140930101332 0 0.0017016634409044024 0.0066766436796883953 0 0.00069690029025922006 0.0057894598710958867 0 0.00073793956677566444 0.005868763562399861 0 0.00065754827833736486 0.0058794373252182234 0 0.0030501446557787129 0.0075416270920554158 0 0.0026858663799482151 0.0074665515291654442 0 0.0029449530726699414 0.007728487130358834 0 0.0022861414293613731 0.0072432628990612979 0 0.0018151516081389156 0.0067799140930101332 0 0.00079858601451375543 0.0057833790070899102 0 0.00069690029025922006 0.0057894598710958867 0 0.00073793956677566444 0.005868763562399861 0 0.0015077622099849092 0.006098279278924537 0 0.0013770692226417779 0.0059448048456893689 0 0.0012365739748806653 0.0061835458245795994 0 0.0010938667096208573 0.0058364268245213171 0 0.0018151516081389156 0.0067799140930101332 0 0.0017016634409044024 0.0066766436796883953 0 0.0013663771166008689 0.006674376431163539 0 0.0025728854157091251 0.0076098251738776733 0 0.0022081420979380996 0.0074517507360501401 0 0.0022745639612004264 0.0073710489088373576 0 0.0041287260771636627 0.0085217968383862457 0 0.0031332884801955414 0.0080321843287397589 0 0.0025728854157091251 0.0076098251738776733 0 0.0026858663799482151 0.0074665515291654442 0 0.0022745639612004264 0.0073710489088373576 0 0.0053991802462309826 0.0093093500409113239 0 0.0039256301811038535 0.0085457605196019564 0 0.0041111722869121136 0.0097667802842830529 0 0.0025728854157091251 0.0076098251738776733 0 0.0026858663799482151 0.0074665515291654442 0 0.0028945280343523148 0.0077457090042138393 0 0.00066103728205741351 0.0057449305627553533 0 0.00065754827833736486 0.0058794373252182234 0 0.00066412672991641075 0.0058819178923736372 0 0.00066412672991641075 0.0058819178923736372 0 0.00067486020480445443 0.0059712797799864291 0 0.00066304499360355534 0.0060612142784176488 0 0.00065754827833736486 0.0058794373252182234 0 0.00066412672991641075 0.0058819178923736372 0 0.00066304499360355534 0.0060612142784176488 0 0.00066412672991641075 0.0058819178923736372 0 0.00067439631521022995 0.0057109016553914963 0 0.00067486020480445443 0.0059712797799864291 0 0.00066103728205741351 0.0057449305627553533 0 0.00066412672991641075 0.0058819178923736372 0 0.00067439631521022995 0.0057109016553914963 0 0.00067908841937846891 0.0056291187852966591 0 0.00065676139280022991 0.005505134355209172 0 0.00067439631521022995 0.0057109016553914963 0 0.00067439631521022995 0.0057109016553914963 0 0.00067486020480445443 0.0059712797799864291 0 0.00067802722330105711 0.0057543026360677369 0 0.00067908841937846891 0.0056291187852966591 0 0.00067439631521022995 0.0057109016553914963 0 0.00067802722330105711 0.0057543026360677369 0 0.00063370256012348968 0.0060297311794105237 0 0.00067486020480445443 0.0059712797799864291 0 0.00067802722330105711 0.0057543026360677369 0 0.00063370256012348968 0.0060297311794105237 0 0.00059645907175306066 0.0057970628481274029 0 0.00067802722330105711 0.0057543026360677369 0 0.00063370256012348968 0.0060297311794105237 0 0.00043150492238859669 0.0058760465415156208 0 0.00059645907175306066 0.0057970628481274029 0 0.00063370256012348968 0.0060297311794105237 0 0.00063351877021152175 0.0063096189279800222 0 0.00050590199540463698 0.0063966223783956154 0 0.00063351877021152175 0.0063096189279800222 0 0.00056539435222351022 0.0065729563375540034 0 0.00050590199540463698 0.0063966223783956154 0 0.00063370256012348968 0.0060297311794105237 0 0.00067486020480445443 0.0059712797799864291 0 0.00063351877021152175 0.0063096189279800222 0 0.0015384395984296033 0.0071591286518614917 0 0.0013663771166008689 0.006674376431163539 0 0.00067486020480445443 0.0059712797799864291 0 0.00063351877021152175 0.0063096189279800222 0 0.00066304499360355534 0.0060612142784176488 0 0.00063351877021152175 0.0063096189279800222 0 0.00061437266395456686 0.0064302259746451765 0 0.00066304499360355534 0.0060612142784176488 0 0.00063351877021152175 0.0063096189279800222 0 0.00061437266395456686 0.0064302259746451765 0 0.00056539435222351022 0.0065729563375540034 0 0.002278057385843562 0.007649429316247053 0 0.0026157176980819794 0.0092894945002865558 0 0.001252045773708867 0.0084218132768598131 0 0.002278057385843562 0.007649429316247053 0 0.0026157176980819794 0.0092894945002865558 0 0.0039256301811038535 0.0085457605196019564 0 0.0015384395984296033 0.0071591286518614917 0 0.0031332884801955414 0.0080321843287397589 0 0.0018018812832946071 0.007261290430348121 0 0.0022081420979380996 0.0074517507360501401 0 0.0022745639612004264 0.0073710489088373576 0 0.0026157176980819794 0.0092894945002865558 0 0.0039256301811038535 0.0085457605196019564 0 0.0041111722869121136 0.0097667802842830529 0 -0.00023851981524603116 0.0085041931699311318 0 0.001252045773708867 0.0084218132768598131 0 0.0010933017520862881 0.0096955208946025648 0 -0.00023851981524603116 0.0085041931699311318 0 0.001252045773708867 0.0084218132768598131 0 0.00044409709501160184 0.0071344183095300657 0 0.0026157176980819794 0.0092894945002865558 0 0.001252045773708867 0.0084218132768598131 0 0.0010933017520862881 0.0096955208946025648 0 0.00061437266395456686 0.0064302259746451765 0 0.00056539435222351022 0.0065729563375540034 0 0.00044409709501160184 0.0071344183095300657 0 0.002278057385843562 0.007649429316247053 0 0.001252045773708867 0.0084218132768598131 0 0.00044409709501160184 0.0071344183095300657 0 0.0015384395984296033 0.0071591286518614917 0 0.00042282544495855974 0.0070434344644991305 0 0.00056539435222351022 0.0065729563375540034 0 0.00044409709501160184 0.0071344183095300657 0 0.00050590199540463698 0.0063966223783956154 0 -0.00023851981524603116 0.0085041931699311318 0 0.00044409709501160184 0.0071344183095300657 0 -0.00066858247256984418 0.0072226883606400141 0 0.00044409709501160184 0.0071344183095300657 0 -0.00012911600502328423 0.0064545156339423614 0 -0.00066858247256984418 0.0072226883606400141 0 0.00044409709501160184 0.0071344183095300657 0 -0.00012911600502328423 0.0064545156339423614 0 0.00050590199540463698 0.0063966223783956154 0 -0.00012911600502328423 0.0064545156339423614 0 0.00050590199540463698 0.0063966223783956154 0 0.00043150492238859669 0.0058760465415156208 0 0.00063370256012348968 0.0060297311794105237 0 0.00050590199540463698 0.0063966223783956154 0 0.00043150492238859669 0.0058760465415156208 0 -0.00012911600502328423 0.0064545156339423614 0 0.00043150492238859669 0.0058760465415156208 0 -0.00047251331395433907 0.0060118480905460465 0 0.00042946174788230823 0.0058791838507308925 0 2.4303651619194405e-05 0.0057060306519501466 0 0.00043150492238859669 0.0058760465415156208 0 0.00045831968234967687 0.0057141057378568656 0 0.0004279468455856968 0.0057282555242381961 0 0.00043150492238859669 0.0058760465415156208 0 -0.00041684340782840833 0.0056629386779787957 0 -0.00047251331395433907 0.0060118480905460465 0 0.00045831968234967687 0.0057141057378568656 0 0.0004279468455856968 0.0057282555242381961 0 0.00050226465619342478 0.0058981663034451508 0 0.0004279468455856968 0.0057282555242381961 0 0.00059420285339130538 0.0056359352469155452 0 0.00053641549479749924 0.0057188524688393614 0 0.00043150492238859669 0.0058760465415156208 0 0.0004279468455856968 0.0057282555242381961 0 0.00053641549479749924 0.0057188524688393614 0 0.00043150492238859669 0.0058760465415156208 0 0.00053641549479749924 0.0057188524688393614 0 0.00059645907175306066 0.0057970628481274029 0 0.00053641549479749924 0.0057188524688393614 0 0.00059645907175306066 0.0057970628481274029 0 0.0006156714573235597 0.0055837697576380241 0 0.00059645907175306066 0.0057970628481274029 0 0.00067802722330105711 0.0057543026360677369 0 0.0006156714573235597 0.0055837697576380241 0 0.00059420285339130538 0.0056359352469155452 0 0.00053641549479749924 0.0057188524688393614 0 0.0006156714573235597 0.0055837697576380241 0 0.00059420285339130538 0.0056359352469155452 0 0.0006156714573235597 0.0055837697576380241 0 0.0006251466526222718 0.0056126932700314913 0 0.0006156714573235597 0.0055837697576380241 0 0.0006251466526222718 0.0056126932700314913 0 0.00054313072643483726 0.0055602498924696613 0 0.00054313072643483726 0.0055602498924696613 0 0.00055967003220029924 0.0056964164157098972 0 0.00067286084048522531 0.0057441986006996747 0 0.0006251466526222718 0.0056126932700314913 0 0.00054313072643483726 0.0055602498924696613 0 0.00067286084048522531 0.0057441986006996747 0 0.0006251466526222718 0.0056126932700314913 0 0.00067286084048522531 0.0057441986006996747 0 0.00070494296979213024 0.0056248911335242896 0 0.00092110814684968055 0.0060148912698842674 0 0.00067286084048522531 0.0057441986006996747 0 0.00070494296979213024 0.0056248911335242896 0 0.00049640777699855277 0.0063087935333677563 0 0.00047106965185538679 0.0058610901877304425 0 0.00039744580914217786 0.0063478341237875853 0 0.00023521915544352098 0.0060756104887978255 0 0.00048216405562635887 0.006112016141309658 0 0.00023521915544352098 0.0060756104887978255 0 0.00050226465619342478 0.0058981663034451508 0 0.00048216405562635887 0.006112016141309658 0 0.0004279468455856968 0.0057282555242381961 0 0.00023521915544352098 0.0060756104887978255 0 0.00050226465619342478 0.0058981663034451508 0 0.00043236458043323758 0.0057532620065176687 0 0.00047106965185538679 0.0058610901877304425 0 0.00059420285339130538 0.0056359352469155452 0 0.0006251466526222718 0.0056126932700314913 0 0.00070494296979213024 0.0056248911335242896 0 0.0004279468455856968 0.0057282555242381961 0 0.00059420285339130538 0.0056359352469155452 0 0.00070494296979213024 0.0056248911335242896 0 0.00080865207455279448 0.006079452766676559 0 0.00064244547499919423 0.0060342603593085097 0 0.00074165780680334522 0.0058388933028848226 0 0.00050226465619342478 0.0058981663034451508 0 0.00064244547499919423 0.0060342603593085097 0 0.00048216405562635887 0.006112016141309658 0 0.00050226465619342478 0.0058981663034451508 0 0.00064244547499919423 0.0060342603593085097 0 0.00074165780680334522 0.0058388933028848226 0 0.00039744580914217786 0.0063478341237875853 0 0.00048216405562635887 0.006112016141309658 0 0.00062199566423993971 0.0062190540489503177 0 0.00064244547499919423 0.0060342603593085097 0 0.00048216405562635887 0.006112016141309658 0 0.00062199566423993971 0.0062190540489503177 0 0.00080865207455279448 0.006079452766676559 0 0.00064244547499919423 0.0060342603593085097 0 0.00062199566423993971 0.0062190540489503177 0 0.00080865207455279448 0.006079452766676559 0 0.00062199566423993971 0.0062190540489503177 0 0.00074000834069061559 0.0063023737782752524 0 0.00080865207455279448 0.006079452766676559 0 0.00074000834069061559 0.0063023737782752524 0 0.00090163158237324659 0.0062618359337237965 0 -0.0014971474901820034 0.0064431337669040162 0 -0.0010561053364726467 0.0063705279119229937 0 -0.0012326197673015748 0.0059757947241565572 0 -0.0002508547658124612 0.0063508170438257745 0 -0.00052445517927163839 0.0060402833462292194 0 0.00080865207455279448 0.006079452766676559 0 0.00090163158237324659 0.0062618359337237965 0 0.0010359897643979722 0.0060133675608569758 0 -0.0010561053364726467 0.0063705279119229937 0 -0.0011482517778639732 0.0060344015714890054 0 -0.0012326197673015748 0.0059757947241565572 0 -0.00014126675596662852 0.011631525619660155 0 -0.00017072838210346905 0.011565053616446741 0 -0.00013480510736585841 0.01157939183139591 0 -0.0010561053364726467 0.0063705279119229937 0 -0.0010992306422659298 0.005956310021739018 0 -0.0010589268277504998 0.0058904449555249629 0 -0.0010926471439345825 0.0058334396791217486 0 -0.0011201909917053097 0.00587520254269996 0 -0.0010684637860273649 0.0058719177419951155 0 -0.0010561053364726467 0.0063705279119229937 0 -0.0011482517778639732 0.0060344015714890054 0 -0.0010992306422659298 0.005956310021739018 0 -0.00065048971869741275 0.009041859231712232 0 -0.00051371914316404902 0.0086704991372854121 0 -0.0011482517778639732 0.0060344015714890054 0 -0.0012242149289663393 0.0059833966420343556 0 -0.0011424892661695031 0.0059564434332073342 0 -0.0011482517778639732 0.0060344015714890054 0 -0.0011424892661695031 0.0059564434332073342 0 -0.0010992306422659298 0.005956310021739018 0 -0.00085410056541718952 0.0059235745844644951 0 -0.00052445517927163839 0.0060402833462292194 0 -0.0012242149289663393 0.0059833966420343556 0 -0.0011201909917053097 0.00587520254269996 0 -0.0011424892661695031 0.0059564434332073342 0 -0.00052445517927163839 0.0060402833462292194 0 -0.00078381516838446326 0.0060711986175656608 0 -0.0011201909917053097 0.00587520254269996 0 -0.0011424892661695031 0.0059564434332073342 0 -0.0010992306422659298 0.005956310021739018 0 -0.0011201909917053097 0.00587520254269996 0 -0.0010992306422659298 0.005956310021739018 0 -0.0011063386273892078 0.0058871189048728496 0 -0.0010992306422659298 0.005956310021739018 0 -0.0011063386273892078 0.0058871189048728496 0 -0.0010589268277504998 0.0058904449555249629 0 -0.00052445517927163839 0.0060402833462292194 0 3.2619740360605553e-05 0.0057928782811395435 0 0.00080865207455279448 0.006079452766676559 0 0.0010359897643979722 0.0060133675608569758 0 0.00074165780680334522 0.0058388933028848226 0 -0.0010926471439345825 0.0058334396791217486 0 -0.0010684637860273649 0.0058719177419951155 0 -0.00089553667718018405 0.0057369529475916753 0 -0.0010684637860273649 0.0058719177419951155 0 -0.00096583802903076673 0.0059193534512247091 0 -0.00089553667718018405 0.0057369529475916753 0 -0.0011201909917053097 0.00587520254269996 0 -0.0010684637860273649 0.0058719177419951155 0 -0.0011063386273892078 0.0058871189048728496 0 -0.0010684637860273649 0.0058719177419951155 0 -0.0011063386273892078 0.0058871189048728496 0 -0.0011393687334420801 0.0059258943704168432 0 -0.0011393687334420801 0.0059258943704168432 0 -0.00106808053581539 0.0060060191799482911 0 -0.001222380907597223 0.0060873606559373626 0 -0.0010684637860273649 0.0058719177419951155 0 -0.0011393687334420801 0.0059258943704168432 0 -0.00106808053581539 0.0060060191799482911 0 -0.00106808053581539 0.0060060191799482911 0 -0.00096583802903076673 0.0059193534512247091 0 -0.00092884966172416107 0.0060970495599770346 0 -0.0010684637860273649 0.0058719177419951155 0 -0.00106808053581539 0.0060060191799482911 0 -0.00096583802903076673 0.0059193534512247091 0 -0.00096583802903076673 0.0059193534512247091 0 -0.00085547247854214604 0.0059226415623758214 0 -0.00092884966172416107 0.0060970495599770346 0 -0.00096583802903076673 0.0059193534512247091 0 -0.00085547247854214604 0.0059226415623758214 0 -0.00089553667718018405 0.0057369529475916753 0 2.4303651619194405e-05 0.0057060306519501466 0 3.2619740360605553e-05 0.0057928782811395435 0 0.00045831968234967687 0.0057141057378568656 0 0.00050226465619342478 0.0058981663034451508 0 0.00074165780680334522 0.0058388933028848226 0 -0.00041684340782840833 0.0056629386779787957 0 -0.00085547247854214604 0.0059226415623758214 0 -0.00089553667718018405 0.0057369529475916753 0 -0.00041684340782840833 0.0056629386779787957 0 -0.00085547247854214604 0.0059226415623758214 0 -0.00047251331395433907 0.0060118480905460465 0 -0.00085547247854214604 0.0059226415623758214 0 -0.00047251331395433907 0.0060118480905460465 0 -0.0013877515933283194 0.0065489976443608355 0 -0.00085547247854214604 0.0059226415623758214 0 -0.00076523034638289556 0.0062909490607858023 0 -0.00092884966172416107 0.0060970495599770346 0 -0.00088923307987572367 0.0059400478900469384 0 -0.0010914143971543933 0.0065432997416648249 0 -0.00012911600502328423 0.0064545156339423614 0 -0.0013877515933283194 0.0065489976443608355 0 -0.00066858247256984418 0.0072226883606400141 0 -0.00012911600502328423 0.0064545156339423614 0 -0.00047251331395433907 0.0060118480905460465 0 -0.0013877515933283194 0.0065489976443608355 0 -0.00023851981524603116 0.0085041931699311318 0 -0.00066858247256984418 0.0072226883606400141 0 -0.0020412074473678144 0.0080060262864401818 0 -0.0010914143971543933 0.0065432997416648249 0 -0.0013845114537198145 0.00696102443805139 0 -0.0013877515933283194 0.0065489976443608355 0 -0.00066858247256984418 0.0072226883606400141 0 -0.0020412074473678144 0.0080060262864401818 0 -0.00076404462457901163 0.0066628388380395153 0 -0.00090191552731143875 0.0070648687005858942 0 -0.00079610138313756932 0.0071137161785511547 0 -0.0020412074473678144 0.0080060262864401818 0 -0.001278176712704139 0.0094188832464097497 0 -0.0025277695682159908 0.010004320632756169 0 -0.0013845114537198145 0.00696102443805139 0 -0.0014986420344198785 0.010457332336796184 0 -0.00023851981524603116 0.0085041931699311318 0 -0.001278176712704139 0.0094188832464097497 0 -0.00027575604097499547 0.0099258646938596568 0 -0.00023851981524603116 0.0085041931699311318 0 -0.0020412074473678144 0.0080060262864401818 0 -0.001278176712704139 0.0094188832464097497 0 -0.0008925816690792597 0.010659715451764204 0 -0.00095138756747880932 0.010733944167833034 0 -0.00080608369234433949 0.010781868303009394 0 -0.0008925816690792597 0.010659715451764204 0 -0.00095138756747880932 0.010733944167833034 0 -0.00096870998723310407 0.010633761999613639 0 -0.00076404462457901163 0.0066628388380395153 0 -0.0011481898798350217 0.0066701344875270442 0 -0.00090191552731143875 0.0070648687005858942 0 -0.0010025667621958846 0.0084033431890628268 0 -0.0013454563883436596 0.01064201732794655 0 -0.00076404462457901163 0.0066628388380395153 0 -0.0011481898798350217 0.0066701344875270442 0 -0.0010616339383100373 0.0062631088878207751 0 -0.0010025667621958846 0.0084033431890628268 0 -0.0011823951952009513 0.0083304993971529788 0 -0.0011481898798350217 0.0066701344875270442 0 -0.0010616339383100373 0.0062631088878207751 0 -0.0012905526101233981 0.0063547195019465555 0 -0.0008925816690792597 0.010659715451764204 0 -0.0009973581508295813 0.010496566912776025 0 -0.00096870998723310407 0.010633761999613639 0 -0.0010616339383100373 0.0062631088878207751 0 -0.001222380907597223 0.0060873606559373626 0 -0.0012905526101233981 0.0063547195019465555 0 -0.00076523034638289556 0.0062909490607858023 0 -0.00076404462457901163 0.0066628388380395153 0 -0.0010616339383100373 0.0062631088878207751 0 -0.00076523034638289556 0.0062909490607858023 0 -0.0010616339383100373 0.0062631088878207751 0 -0.00092884966172416107 0.0060970495599770346 0 -0.00106808053581539 0.0060060191799482911 0 -0.0010616339383100373 0.0062631088878207751 0 -0.00092884966172416107 0.0060970495599770346 0 -0.00106808053581539 0.0060060191799482911 0 -0.0010616339383100373 0.0062631088878207751 0 -0.001222380907597223 0.0060873606559373626 0 -0.001222380907597223 0.0060873606559373626 0 -0.0013932508683054832 0.0061433713147040535 0 -0.0012905526101233981 0.0063547195019465555 0 -0.0011887499533454941 0.0090164966906133986 0 -0.00087101241681077014 0.011395865924114876 0 -0.00032002273387579449 0.01084728239798185 0 -0.00070353461318968286 0.011727159636594172 0 -0.00066894288062302389 0.010745454742017319 0 -0.00038209887018766068 0.011916869219148789 0 -0.00035074962397972024 0.011513644672358141 0 -0.00032002273387579449 0.01084728239798185 0 -0.00066894288062302389 0.010745454742017319 0 -0.00058507887470534304 0.010530803275696379 0 -0.00012418760260098205 0.012740532318702502 0 -0.00011996769217545875 0.012081667014371878 0 5.1856946914926223e-05 0.012288582353485903 0 -0.0011887499533454941 0.0090164966906133986 0 -0.00035074962397972024 0.011513644672358141 0 -0.001146523792180925 0.010292878120323911 0 -0.0010853301506774996 0.010438706398723815 0 -0.0009973581508295813 0.010496566912776025 0 -0.0011887499533454941 0.0090164966906133986 0 -0.0011823951952009513 0.0083304993971529788 0 -0.001146523792180925 0.010292878120323911 0 -0.0010853301506774996 0.010438706398723815 0 -0.0012223446960663677 0.01046808769218998 0 -0.0011293635451240455 0.010547306230793526 0 -0.00087101241681077014 0.011395865924114876 0 -0.0010853301506774996 0.010438706398723815 0 -0.0011096359395867379 0.01056919890719365 0 -0.0012022037864951691 0.010480074322826004 0 -0.0010853301506774996 0.010438706398723815 0 -0.0009973581508295813 0.010496566912776025 0 -0.0011096359395867379 0.01056919890719365 0 -0.0009973581508295813 0.010496566912776025 0 -0.0010313007523059671 0.010633801132461112 0 -0.0011096359395867379 0.01056919890719365 0 -0.0009973581508295813 0.010496566912776025 0 -0.00096870998723310407 0.010633761999613639 0 -0.0010313007523059671 0.010633801132461112 0 -0.0010313007523059671 0.010633801132461112 0 -0.0011096359395867379 0.01056919890719365 0 -0.0011518983638353236 0.010682981786587994 0 -0.0011096359395867379 0.01056919890719365 0 -0.0011518983638353236 0.010682981786587994 0 -0.0012565877069641641 0.010634270274940209 0 -0.0011096359395867379 0.01056919890719365 0 -0.0012565877069641641 0.010634270274940209 0 -0.0012022037864951691 0.010480074322826004 0 -9.5217329361572893e-05 0.014717595881556831 0 2.7917307616522111e-06 0.014594374024481094 0 -0.00022114120834759921 0.01449474233112996 0 -0.00065931546471781355 0.01472023396477423 0 -9.5217329361572893e-05 0.014717595881556831 0 4.5987740722382477e-05 0.014739143267630645 0 -9.5217329361572893e-05 0.014717595881556831 0 -3.9676283603615341e-05 0.014699932374746209 0 2.7917307616522111e-06 0.014594374024481094 0 6.6539108413724701e-05 0.013902147621481117 0 -0.00056754663294774136 0.013155997998247466 0 -0.00065931546471781355 0.01472023396477423 0 -9.5217329361572893e-05 0.014717595881556831 0 -0.00022114120834759921 0.01449474233112996 0 -0.00078982418851383134 0.01293548722279666 0 -0.00056754663294774136 0.013155997998247466 0 -0.00095138756747880932 0.010733944167833034 0 -0.0010313007523059671 0.010633801132461112 0 -0.0011518983638353236 0.010682981786587994 0 -0.00095138756747880932 0.010733944167833034 0 -0.00096870998723310407 0.010633761999613639 0 -0.0010313007523059671 0.010633801132461112 0 1.1121117315942064e-05 0.01486100944155504 0 6.488974469382838e-05 0.014784192950150744 0 1.6706001922396306e-05 0.014941580968935587 0 3.6352743426533928e-06 0.014998374579058173 0 -7.3910922838859363e-09 0.0149999810630783 0 3.0101966904268965e-09 0.015000006063329368 0 -4.5394759680973265e-05 0.014977631625277276 0 -0.00029480507284511008 0.014205817887381884 0 3.6352743426533928e-06 0.014998374579058173 0 -7.3910922838859363e-09 0.0149999810630783 0 3.6121016069327851e-06 0.014989961865166924 0 -3.9676283603615341e-05 0.014699932374746209 0 2.7917307616522111e-06 0.014594374024481094 0 5.0143369214937226e-05 0.014693128535406384 0 2.7917307616522111e-06 0.014594374024481094 0 5.0143369214937226e-05 0.014693128535406384 0 5.7817748414148017e-05 0.014534904757992431 0 -0.00045293601681954931 0.013878011440644831 0 8.3456538929285119e-05 0.014899037178033876 0 -0.00062027760475583875 0.012690755351433772 0 -0.00087101241681077014 0.011395865924114876 0 1.1121117315942064e-05 0.01486100944155504 0 6.488974469382838e-05 0.014784192950150744 0 3.4536631613641112e-05 0.014772039374466871 0 -0.00070753313083339283 0.01292374937746887 0 -0.00091468231464662104 0.012810747406788475 0 -0.00070032853182319589 0.01224522700156489 0 -0.00080975783362802894 0.013116281195856888 0 -0.00093936773283622029 0.013410020362296981 0 -0.00046418987809279194 0.013446726535278449 0 -0.00062027760475583875 0.012690755351433772 0 -0.00035016401246080895 0.013520230532991315 0 -0.00093936773283622029 0.013410020362296981 0 -0.00046418987809279194 0.013446726535278449 0 -0.00014406550223049677 0.013847431257867681 0 -0.00045293601681954931 0.013878011440644831 0 -0.00062027760475583875 0.012690755351433772 0 -0.00045293601681954931 0.013878011440644831 0 -0.00029480507284511008 0.014205817887381884 0 -0.00046418987809279194 0.013446726535278449 0 1.5636881144691334e-05 0.013432868971494354 0 -0.00014406550223049677 0.013847431257867681 0 -0.00080975783362802894 0.013116281195856888 0 -0.00046418987809279194 0.013446726535278449 0 1.5636881144691334e-05 0.013432868971494354 0 -0.00029480507284511008 0.014205817887381884 0 -0.00035016401246080895 0.013520230532991315 0 -0.00056754663294774136 0.013155997998247466 0 -0.00062027760475583875 0.012690755351433772 0 -0.0007291455430859234 0.013235963519143796 0 -0.00030895419448792968 0.013397120776026896 0 -0.00033382623547287624 0.013453163555280093 0 -0.00056754663294774136 0.013155997998247466 0 -0.00045293601681954931 0.013878011440644831 0 -0.00035016401246080895 0.013520230532991315 0 -0.00058382318294380011 0.012671387545278478 0 -4.0899127027111965e-11 0.014999999123473677 0 -4.847452795084612e-07 0.014998865275268546 0 -7.2749970539184967e-10 0.014999997414956459 0 -0.00039406260984541709 0.013688319960270342 0 -0.00053330547472075064 0.013612817231008552 0 -0.00041867815806355239 0.013431172614787547 0 -9.9558462594012966e-05 0.01421378239777067 0 -0.00010487127273689918 0.014636088076159813 0 -0.00029480507284511008 0.014205817887381884 0 -0.00010487127273689918 0.014636088076159813 0 -0.00042286846888922532 0.013955216959672901 0 -0.00048018722124509676 0.014103837410139012 0 -9.6292276834822839e-05 0.014315650713656924 0 -0.00042286846888922532 0.013955216959672901 0 -9.6292276834822839e-05 0.014315650713656924 0 2.5009830436524824e-05 0.014127871190025435 0 -0.00035016401246080895 0.013520230532991315 0 -9.9558462594012966e-05 0.01421378239777067 0 1.0113170768959692e-05 0.014981856040242107 0 1.267258797687286e-06 0.01497937678160993 0 3.6121016069327851e-06 0.014989961865166924 0 3.6352743426533928e-06 0.014998374579058173 0 1.0113170768959692e-05 0.014981856040242107 0 3.6121016069327851e-06 0.014989961865166924 0 -1.1545064186457675e-07 0.015000150802573152 0 -0.00010487127273689918 0.014636088076159813 0 -7.3910922838859363e-09 0.0149999810630783 0 1.267258797687286e-06 0.01497937678160993 0 3.6121016069327851e-06 0.014989961865166924 0 -0.00010487127273689918 0.014636088076159813 0 1.1644794334250065e-07 0.014999813452187032 0 5.4259091521501861e-05 0.014994844582791732 0 -3.801984234269541e-08 0.014999971246721838 0 3.506447450148861e-08 0.014966936546858704 0 5.4259091521501861e-05 0.014994844582791732 0 4.3841357845521487e-05 0.015011020528508461 0 -3.801984234269541e-08 0.014999971246721838 0 -9.9558462594012966e-05 0.01421378239777067 0 3.0396902567475916e-05 0.014461711703705908 0 1.0842979141909163e-08 0.014966932042623973 0 -3.5190188301989333e-06 0.014977386361997896 0 2.1496168821196944e-10 0.014999963851132763 0 -0.00013636321896389511 0.014144577387179074 0 -4.6973165392716672e-05 0.014194518737658363 0 -0.00018513685935566212 0.014218547753042819 0 3.0396902567475916e-05 0.014461711703705908 0 -0.00030478893461266982 0.013908573315993976 0 1.0842979141909163e-08 0.014966932042623973 0 -3.5190188301989333e-06 0.014977386361997896 0 -9.8699348113574999e-06 0.014970079453635893 0 -9.9558462594012966e-05 0.01421378239777067 0 -0.00030478893461266982 0.013908573315993976 0 -3.5190188301989333e-06 0.014977386361997896 0 -9.8699348113574999e-06 0.014970079453635893 0 -4.7347690233673005e-06 0.014984229491734474 0 -0.0010727707319986156 0.01180117992763928 0 -0.00070353461318968286 0.011727159636594172 0 -0.00066894288062302389 0.010745454742017319 0 -0.00070753313083339283 0.01292374937746887 0 -0.00070032853182319589 0.01224522700156489 0 -0.00038609948651334951 0.012182585706391913 0 -0.00058382318294380011 0.012671387545278478 0 -0.00087101241681077014 0.011395865924114876 0 -0.00039406260984541709 0.013688319960270342 0 -0.00028674124398490343 0.013404068827337405 0 -0.00041867815806355239 0.013431172614787547 0 -0.00058382318294380011 0.012671387545278478 0 -0.00030478893461266982 0.013908573315993976 0 -9.8699348113574999e-06 0.014970079453635893 0 -8.8843032309259831e-06 0.014978175372350057 0 -4.7347690233673005e-06 0.014984229491734474 0 -0.00036424035323962602 0.013456885369167851 0 -0.00031105472822527913 0.013447485862612768 0 -0.00039389740799608872 0.013577840461092039 0 -0.00030478893461266982 0.013908573315993976 0 -0.00046049955468569696 0.013659663870221831 0 -0.00058382318294380011 0.012671387545278478 0 -0.00046049955468569696 0.013659663870221831 0 -8.8843032309259831e-06 0.014978175372350057 0 1.2520717578138227e-06 0.014992240964233674 0 -6.1150421821631367e-06 0.01498305145302556 0 -8.8843032309259831e-06 0.014978175372350057 0 -4.7347690233673005e-06 0.014984229491734474 0 1.2520717578138227e-06 0.014992240964233674 0 -0.00059716809934574151 0.012912400568807958 0 -0.00050844907883122769 0.012604969547476162 0 -0.00040160681458947583 0.012449056557392972 0 -0.00058382318294380011 0.012671387545278478 0 -0.00038209887018766068 0.011916869219148789 0 -0.00046049955468569696 0.013659663870221831 0 8.0585206769258238e-05 0.013402611041431367 0 -0.00060253924255672094 0.013477875623264203 0 -0.00012418760260098205 0.012740532318702502 0 -0.00011996769217545875 0.012081667014371878 0 -0.00046049955468569696 0.013659663870221831 0 -0.00038209887018766068 0.011916869219148789 0 -4.7347690233673005e-06 0.014984229491734474 0 2.1496168821196944e-10 0.014999963851132763 0 1.2520717578138227e-06 0.014992240964233674 0 -3.5190188301989333e-06 0.014977386361997896 0 -4.7347690233673005e-06 0.014984229491734474 0 2.1496168821196944e-10 0.014999963851132763 0 1.2520717578138227e-06 0.014992240964233674 0 1.1512146978867815e-05 0.01498964429628581 0 1.854501549048088e-08 0.015000023770411633 0 2.1496168821196944e-10 0.014999963851132763 0 1.2520717578138227e-06 0.014992240964233674 0 1.854501549048088e-08 0.015000023770411633 0 1.1512146978867815e-05 0.01498964429628581 0 1.854501549048088e-08 0.015000023770411633 0 -3.8661550437975579e-08 0.014999864129627593 0 1.1512146978867815e-05 0.01498964429628581 0 6.5485011869862814e-05 0.014971400353561152 0 2.9697412198531781e-05 0.014959951246787248 0 1.1512146978867815e-05 0.01498964429628581 0 4.2813335455840939e-05 0.014993522588260703 0 6.5485011869862814e-05 0.014971400353561152 0 1.2520717578138227e-06 0.014992240964233674 0 1.1512146978867815e-05 0.01498964429628581 0 -6.1150421821631367e-06 0.01498305145302556 0 0.00015597600212039606 0.015500967331225395 0 8.0585206769258238e-05 0.013402611041431367 0 -0.00029488930645657756 0.011997441422934147 0 -0.00027426058407082943 0.012022293915396588 0 -0.00017551261624228949 0.011766429886200296 0 -4.8016887712255147e-05 0.011369983135376195 0 -9.6022032866891591e-05 0.011456883422512753 0 -7.4384805014431998e-05 0.011476062768118843 0 8.0585206769258238e-05 0.013402611041431367 0 -0.00035074962397972024 0.011513644672358141 0 -0.0011887499533454941 0.0090164966906133986 0 -0.00081552322916050531 0.0071415102627901839 0 -0.00087972425718614773 0.0098671458199923612 0 -0.0010563322716723601 0.0096562701097630196 0 -0.00057485533399534634 0.0091798004641509105 0 -0.00035074962397972024 0.011513644672358141 0 -0.00039213014844971159 0.010335196294116056 0 -0.0010563322716723601 0.0096562701097630196 0 -0.00057485533399534634 0.0091798004641509105 0 -0.0006518800119228468 0.0090885442019590455 0 -0.00035074962397972024 0.011513644672358141 0 -0.00011891606651361773 0.011649312877531209 0 8.0585206769258238e-05 0.013402611041431367 0 -9.1497028695791777e-05 0.013376786231753169 0 -0.001222380907597223 0.0060873606559373626 0 -0.0013932508683054832 0.0061433713147040535 0 -0.0012578043578979007 0.0059564584799946052 0 -0.0011393687334420801 0.0059258943704168432 0 -0.001222380907597223 0.0060873606559373626 0 -0.0012578043578979007 0.0059564584799946052 0 -0.0011393687334420801 0.0059258943704168432 0 -0.0012578043578979007 0.0059564584799946052 0 -0.0010589268277504998 0.0058904449555249629 0 -0.00081552322916050531 0.0071415102627901839 0 -0.00051371914316404902 0.0086704991372854121 0 -9.6022032866891591e-05 0.011456883422512753 0 -7.4384805014431998e-05 0.011476062768118843 0 -0.00013424523450064971 0.011559847592888712 0 -0.0011063386273892078 0.0058871189048728496 0 -0.0011393687334420801 0.0059258943704168432 0 -0.0010589268277504998 0.0058904449555249629 0 -0.00039213014844971159 0.010335196294116056 0 -0.00051371914316404902 0.0086704991372854121 0 -0.00057485533399534634 0.0091798004641509105 0 -0.0006518800119228468 0.0090885442019590455 0 -0.0002814669293496759 0.0085232772868106769 0 -0.00029488930645657756 0.011997441422934147 0 -0.00017551261624228949 0.011766429886200296 0 -0.00018903600618922932 0.01170331184734978 0 -0.00017551261624228949 0.011766429886200296 0 -0.00018903600618922932 0.01170331184734978 0 -0.00011839344958202454 0.011591014062743188 0 -0.00018903600618922932 0.01170331184734978 0 -0.00011839344958202454 0.011591014062743188 0 -0.0001086909318106485 0.011561180139733727 0 6.5485011869862814e-05 0.014971400353561152 0 6.0899978147457455e-05 0.01492099597994157 0 0.00012319530007378398 0.014893187794142658 0 6.5485011869862814e-05 0.014971400353561152 0 6.0899978147457455e-05 0.01492099597994157 0 2.9697412198531781e-05 0.014959951246787248 0 -0.00011891606651361773 0.011649312877531209 0 -0.00011710871470151319 0.011584696500477314 0 -9.1497028695791777e-05 0.013376786231753169 0 2.0180127546335726e-05 0.01316267140300713 0 -0.00011839344958202454 0.011591014062743188 0 -0.00013424523450064971 0.011559847592888712 0 -0.0001086909318106485 0.011561180139733727 0 -7.4384805014431998e-05 0.011476062768118843 0 -0.00011839344958202454 0.011591014062743188 0 -0.00013424523450064971 0.011559847592888712 0 -0.00010710756536782396 0.011663100051547706 0 -0.0001086909318106485 0.011561180139733727 0 -0.00013480510736585841 0.01157939183139591 0 -0.00013424523450064971 0.011559847592888712 0 -0.0001086909318106485 0.011561180139733727 0 -0.00013480510736585841 0.01157939183139591 0 -0.00017072838210346905 0.011565053616446741 0 -0.00013424523450064971 0.011559847592888712 0 -0.00013480510736585841 0.01157939183139591 0 7.3536082480673613e-05 0.014830855580926911 0 6.0899978147457455e-05 0.01492099597994157 0 0.00012319530007378398 0.014893187794142658 0 7.3536082480673613e-05 0.014830855580926911 0 6.0899978147457455e-05 0.01492099597994157 0 1.660778412295288e-05 0.014916725682128993 0 7.8797719349781481e-06 0.015048001619721401 0 3.9389255916580006e-05 0.014943826682802442 0 3.9389255916580006e-05 0.014943826682802442 0 -1.172529258227078e-08 0.014999995992044253 0 1.9298819248615861e-08 0.015000000357141685 0 1.6616221531612521e-05 0.015009607036631751 0 6.8800252982188005e-12 0.01500002301011932 0 1.1512146978867815e-05 0.01498964429628581 0 -3.8661550437975579e-08 0.014999864129627593 0 2.9697412198531781e-05 0.014959951246787248 0 1.660778412295288e-05 0.014916725682128993 0 -3.8661550437975579e-08 0.014999864129627593 0 2.9697412198531781e-05 0.014959951246787248 0 6.0899978147457455e-05 0.01492099597994157 0 1.660778412295288e-05 0.014916725682128993 0 2.9697412198531781e-05 0.014959951246787248 0 3.8648571227775652e-05 0.015082207670774497 0 -0.00047460923697573208 0.013249016260898458 0 0.00024700846465788021 0.014761349128663519 0 0.00012058413590674234 0.014822582466904788 0 0.00015465912272965613 0.014910605664902266 0 -5.5583390181252461e-10 0.014999979459569967 0 -9.1001507517230259e-06 0.014980738990860476 0 -1.0860407980928635e-08 0.014999984672815925 0 -5.5583390181252461e-10 0.014999979459569967 0 -3.7595323674183034e-06 0.014990678866542187 0 -9.1001507517230259e-06 0.014980738990860476 0 -7.378863818382359e-08 0.014999968846283095 0 3.8648571227775652e-05 0.015082207670774497 0 -6.9885786654066635e-09 0.015000118414931868 0 -1.4191983248412957e-05 0.015013463233421591 0 -8.7029177780313507e-09 0.014999828938807995 0 0.00024700846465788021 0.014761349128663519 0 0.00012947057053300478 0.014686692084949068 0 0.00012058413590674234 0.014822582466904788 0 3.8648571227775652e-05 0.015082207670774497 0 0.00012326951330462999 0.014641904732476346 0 6.1403874235934277e-05 0.014795256104050868 0 0.00012947057053300478 0.014686692084949068 0 0.00012058413590674234 0.014822582466904788 0 6.1403874235934277e-05 0.014795256104050868 0 -5.9051315454525045e-05 0.01482893953847071 0 0.00011818558077558224 0.014507351319359599 0 -0.0013407168318352368 0.010498121751746312 0 -0.0015169430523759057 0.0096947408806215222 0 -0.0011252988155455836 0.010052247730194627 0 6.1403874235934277e-05 0.014795256104050868 0 -5.9051315454525045e-05 0.01482893953847071 0 2.7124606235400144e-05 0.014897696345370685 0 -0.0015169430523759057 0.0096947408806215222 0 -0.0011252988155455836 0.010052247730194627 0 -0.00086742774490905104 0.0097161499413393644 0 -0.00070621703873216632 0.012867669342855484 0 -0.00061695981689900833 0.011280067085251101 0 6.1403874235934277e-05 0.014795256104050868 0 0.00012058413590674234 0.014822582466904788 0 2.7124606235400144e-05 0.014897696345370685 0 0.00012058413590674234 0.014822582466904788 0 2.7124606235400144e-05 0.014897696345370685 0 0.00015465912272965613 0.014910605664902266 0 -0.00061695981689900833 0.011280067085251101 0 -0.00047460923697573208 0.013249016260898458 0 -0.0014915240290009448 0.0095551887776068375 0 -0.0011328398306770242 0.0095756485656415622 0 -0.0015436786805505657 0.0096832415462872676 0 -0.0011062296923598461 0.0096826883758022765 0 -0.0011328398306770242 0.0095756485656415622 0 -0.0015436786805505657 0.0096832415462872676 0 -0.0014915240290009448 0.0095551887776068375 0 -0.0011328398306770242 0.0095756485656415622 0 -0.0010252415360133486 0.0093374755983278331 0 -0.00074188899969845738 0.010976567545434312 0 -0.0012032442910158187 0.009267033832948017 0 -0.00061695981689900833 0.011280067085251101 0 -0.00090967784625765294 0.0096131018668266979 0 -0.00091586486311386354 0.0095354603157610761 0 -0.001110233892987125 0.0096766285972642273 0 -0.00066340359122193926 0.0096958802918235398 0 -0.00091586486311386354 0.0095354603157610761 0 -0.001110233892987125 0.0096766285972642273 0 -0.0011328398306770242 0.0095756485656415622 0 -0.00061695981689900833 0.011280067085251101 0 -0.00088794844954747385 0.010257847059622096 0 -0.00091586486311386354 0.0095354603157610761 0 -0.0011328398306770242 0.0095756485656415622 0 -0.0010252415360133486 0.0093374755983278331 0 -0.00091586486311386354 0.0095354603157610761 0 -0.0010252415360133486 0.0093374755983278331 0 -0.00069143370627344173 0.0094084928278361235 0 -0.0011403632054010542 0.009447398682158584 0 -0.0014943281750011059 0.0092006039080475711 0 -0.00084974144426418229 0.0089506537730678244 0 -0.0001760678296857764 0.011341377518753158 0 -0.0010181425774304009 0.010419432775507447 0 0.00024247595556921276 0.011977864096200889 0 0.00080098334894757625 0.01184812465301734 0 0.00046399121081643324 0.012429974908759188 0 -0.0016896694964469476 0.0096620371772372388 0 -0.0011403632054010542 0.009447398682158584 0 -0.0014943281750011059 0.0092006039080475711 0 -3.9582958209960137e-05 0.012349489783726403 0 9.7534464937866586e-05 0.012044493827637972 0 -0.0001526271958055157 0.012131213390176714 0 -0.00074188899969845738 0.010976567545434312 0 -0.0001760678296857764 0.011341377518753158 0 -0.0001760678296857764 0.011341377518753158 0 0.00044317004578297436 0.011965712174743993 0 0.00080098334894757625 0.01184812465301734 0 0.0012904126084342152 0.011712295258231869 0 0.00090697043730872547 0.012278373536449151 0 -0.0001526271958055157 0.012131213390176714 0 -0.00025060590338326461 0.012262801927569011 0 -0.00039764676427906352 0.012221072423855017 0 0.00044317004578297436 0.011965712174743993 0 0.00023991814632218564 0.013525944622302331 0 -0.00018528981726293207 0.012402954394059001 0 -8.7951754719949634e-05 0.012442181482313557 0 -0.0005334316155486908 0.012419127957438172 0 -3.9582958209960137e-05 0.012349489783726403 0 -0.0001526271958055157 0.012131213390176714 0 -0.00025060590338326461 0.012262801927569011 0 -3.9582958209960137e-05 0.012349489783726403 0 -0.00025060590338326461 0.012262801927569011 0 -0.00018528981726293207 0.012402954394059001 0 -5.0486130362506486e-05 0.012347889874508567 0 -0.00018528981726293207 0.012402954394059001 0 -8.7951754719949634e-05 0.012442181482313557 0 -0.00074188899969845738 0.010976567545434312 0 -0.00034794576981202684 0.011753271378744261 0 -0.00074188899969845738 0.010976567545434312 0 -0.00047460923697573208 0.013249016260898458 0 -0.00025060590338326461 0.012262801927569011 0 -0.00018528981726293207 0.012402954394059001 0 -0.0005334316155486908 0.012419127957438172 0 -0.00025060590338326461 0.012262801927569011 0 -0.0005334316155486908 0.012419127957438172 0 -0.00039764676427906352 0.012221072423855017 0 -0.00047460923697573208 0.013249016260898458 0 -0.00025521770768052303 0.013619491606273813 0 -3.4493469921616181e-07 0.014999019096572197 0 0.00023991814632218564 0.013525944622302331 0 -4.1284414734253975e-09 0.015000011881068181 0 9.4912883882736326e-09 0.014999971729594989 0 6.1713251614195378e-06 0.014991703235660325 0 -0.00025521770768052303 0.013619491606273813 0 0.00023991814632218564 0.013525944622302331 0 0.00023991814632218564 0.013525944622302331 0 0.00053499321769606288 0.013563556954868375 0 -1.7240130783904001e-08 0.01499990487231675 0 9.5663209668104024e-06 0.014999451662681313 0 8.2750100723096766e-06 0.014982541895409556 0 9.5663209668104024e-06 0.014999451662681313 0 8.2750100723096766e-06 0.014982541895409556 0 5.060816255696166e-05 0.014957064294355674 0 -1.7240130783904001e-08 0.01499990487231675 0 8.2750100723096766e-06 0.014982541895409556 0 4.5172962835622366e-08 0.015000153494361308 0 8.2750100723096766e-06 0.014982541895409556 0 1.1277765243525564e-05 0.014948970453602328 0 4.5172962835622366e-08 0.015000153494361308 0 1.1277765243525564e-05 0.014948970453602328 0 4.5172962835622366e-08 0.015000153494361308 0 9.0188879606467068e-06 0.014839378025243866 0 8.2750100723096766e-06 0.014982541895409556 0 1.1277765243525564e-05 0.014948970453602328 0 5.060816255696166e-05 0.014957064294355674 0 0.00053499321769606288 0.013563556954868375 0 0.00025432342556217695 0.013857344794946654 0 0.00090697043730872547 0.012278373536449151 0 0.00050593027223725143 0.012969885120723286 0 0.00046399121081643324 0.012429974908759188 0 1.1277765243525564e-05 0.014948970453602328 0 5.060816255696166e-05 0.014957064294355674 0 9.0188879606467068e-06 0.014839378025243866 0 0.00080098334894757625 0.01184812465301734 0 0.00090697043730872547 0.012278373536449151 0 0.00046399121081643324 0.012429974908759188 0 5.060816255696166e-05 0.014957064294355674 0 9.0188879606467068e-06 0.014839378025243866 0 0.00010732719921737216 0.014691910650969192 0 9.0188879606467068e-06 0.014839378025243866 0 3.7253399451667446e-05 0.014620391510451433 0 0.00010732719921737216 0.014691910650969192 0 3.7253399451667446e-05 0.014620391510451433 0 3.7151821365724395e-05 0.014395014706129725 0 0.00010732719921737216 0.014691910650969192 0 4.5172962835622366e-08 0.015000153494361308 0 9.0188879606467068e-06 0.014839378025243866 0 -2.5432228693539256e-07 0.014998757162439291 0 9.0188879606467068e-06 0.014839378025243866 0 -2.5432228693539256e-07 0.014998757162439291 0 3.7253399451667446e-05 0.014620391510451433 0 -3.6372941908765696e-08 0.015000345394199617 0 3.2336591358166081e-08 0.01499964160256545 0 1.6706001922396306e-05 0.014941580968935587 0 -2.5432228693539256e-07 0.014998757162439291 0 3.7253399451667446e-05 0.014620391510451433 0 5.7817748414148017e-05 0.014534904757992431 0 3.9067962925914847e-08 0.014999703787519254 0 8.3456538929285119e-05 0.014899037178033876 0 -3.7996130882508813e-09 0.015000002071698571 0 6.0343851589223587e-06 0.01496459874856932 0 3.7253399451667446e-05 0.014620391510451433 0 5.3749337614919748e-05 0.014425532572529889 0 3.7151821365724395e-05 0.014395014706129725 0 3.7253399451667446e-05 0.014620391510451433 0 5.7817748414148017e-05 0.014534904757992431 0 5.3749337614919748e-05 0.014425532572529889 0 2.7917307616522111e-06 0.014594374024481094 0 5.7817748414148017e-05 0.014534904757992431 0 5.3749337614919748e-05 0.014425532572529889 0 3.2336591358166081e-08 0.01499964160256545 0 1.6706001922396306e-05 0.014941580968935587 0 3.4627065661001305e-06 0.014955533354812837 0 1.1121117315942064e-05 0.01486100944155504 0 1.6706001922396306e-05 0.014941580968935587 0 3.4627065661001305e-06 0.014955533354812837 0 -1.4147108202554821e-09 0.014999997350271953 0 3.0101966904268965e-09 0.015000006063329368 0 6.7899921874499618e-07 0.015000046728986633 0 3.6352743426533928e-06 0.014998374579058173 0 3.0101966904268965e-09 0.015000006063329368 0 6.7899921874499618e-07 0.015000046728986633 0 -4.5394759680973265e-05 0.014977631625277276 0 6.0343851589223587e-06 0.01496459874856932 0 -0.00065931546471781355 0.01472023396477423 0 -0.00022114120834759921 0.01449474233112996 0 -0.00070128566600261997 0.014076525513032146 0 -0.00022114120834759921 0.01449474233112996 0 -6.971419018362337e-05 0.014011684089823668 0 -0.00070128566600261997 0.014076525513032146 0 -0.00022114120834759921 0.01449474233112996 0 5.3749337614919748e-05 0.014425532572529889 0 -6.971419018362337e-05 0.014011684089823668 0 2.7917307616522111e-06 0.014594374024481094 0 -0.00022114120834759921 0.01449474233112996 0 5.3749337614919748e-05 0.014425532572529889 0 3.7151821365724395e-05 0.014395014706129725 0 -6.971419018362337e-05 0.014011684089823668 0 0.00010732719921737216 0.014691910650969192 0 5.3749337614919748e-05 0.014425532572529889 0 3.7151821365724395e-05 0.014395014706129725 0 -6.971419018362337e-05 0.014011684089823668 0 -6.971419018362337e-05 0.014011684089823668 0 -0.00087999850831227107 0.013418575227142602 0 -0.00070128566600261997 0.014076525513032146 0 -6.971419018362337e-05 0.014011684089823668 0 -0.00031209841745242237 0.012937832287491102 0 -0.00087999850831227107 0.013418575227142602 0 -6.971419018362337e-05 0.014011684089823668 0 -0.00031209841745242237 0.012937832287491102 0 0.00050593027223725143 0.012969885120723286 0 -3.1757569972421075e-05 0.014048336895846279 0 0.00025432342556217695 0.013857344794946654 0 -0.00031209841745242237 0.012937832287491102 0 0.00050593027223725143 0.012969885120723286 0 0.00046399121081643324 0.012429974908759188 0 0.00024247595556921276 0.011977864096200889 0 -0.00031209841745242237 0.012937832287491102 0 0.00046399121081643324 0.012429974908759188 0 -0.0001760678296857764 0.011341377518753158 0 -0.00019639766235531264 0.013069041527101302 0 0.00024033888617799886 0.011696069832752136 0 -0.00031209841745242237 0.012937832287491102 0 -0.0010531641771184654 0.012105226397753495 0 -0.00031209841745242237 0.012937832287491102 0 -0.0010531641771184654 0.012105226397753495 0 -0.0014349392728169089 0.01274679872078913 0 -0.0010181425774304009 0.010419432775507447 0 -0.00098969352404527683 0.010644282469162696 0 -0.00084974144426418229 0.0089506537730678244 0 -0.00013034018281985244 0.0086479227466551706 0 -0.00055799744062997008 0.0092251684817332199 0 -0.00013034018281985244 0.0086479227466551706 0 9.0395338577345025e-05 0.0089646512150045599 0 -0.00055799744062997008 0.0092251684817332199 0 -0.0010531641771184654 0.012105226397753495 0 -0.0019698960326731615 0.012621507632630591 0 -0.0014349392728169089 0.01274679872078913 0 -0.0019698960326731615 0.012621507632630591 0 -0.0020688601175871827 0.01255668161782568 0 -0.0014349392728169089 0.01274679872078913 0 -0.0020688601175871827 0.01255668161782568 0 -0.0014349392728169089 0.01274679872078913 0 -0.0014826570936706111 0.013105683368780227 0 -0.00031209841745242237 0.012937832287491102 0 -0.0014349392728169089 0.01274679872078913 0 -0.00087999850831227107 0.013418575227142602 0 -0.0014349392728169089 0.01274679872078913 0 -0.00087999850831227107 0.013418575227142602 0 -0.0014826570936706111 0.013105683368780227 0 -0.00087999850831227107 0.013418575227142602 0 -0.0012171807763966542 0.013582824402071829 0 -0.00070128566600261997 0.014076525513032146 0 -0.0012171807763966542 0.013582824402071829 0 -0.00070128566600261997 0.014076525513032146 0 -0.0013296340018918973 0.014052572143412429 0 -0.00087999850831227107 0.013418575227142602 0 -0.0012171807763966542 0.013582824402071829 0 -0.0014826570936706111 0.013105683368780227 0 -0.0020688601175871827 0.01255668161782568 0 -0.0017808047067795374 0.013483185714910025 0 -0.0023912998579340575 0.014243167767385901 0 -0.0012171807763966542 0.013582824402071829 0 -0.0014826570936706111 0.013105683368780227 0 -0.0017808047067795374 0.013483185714910025 0 -0.0020688601175871827 0.01255668161782568 0 -0.0014826570936706111 0.013105683368780227 0 -0.0017808047067795374 0.013483185714910025 0 -0.0012171807763966542 0.013582824402071829 0 -0.0017808047067795374 0.013483185714910025 0 -0.0013296340018918973 0.014052572143412429 0 -0.0017808047067795374 0.013483185714910025 0 -0.0018888060927611211 0.014081211132557262 0 -0.0013296340018918973 0.014052572143412429 0 -0.0018888060927611211 0.014081211132557262 0 -0.0019795303917597503 0.014337726997841735 0 -0.0013296340018918973 0.014052572143412429 0 -0.0017808047067795374 0.013483185714910025 0 -0.0018888060927611211 0.014081211132557262 0 -0.0023912998579340575 0.014243167767385901 0 -0.0018888060927611211 0.014081211132557262 0 -0.0019795303917597503 0.014337726997841735 0 -0.0023912998579340575 0.014243167767385901 0 -0.0013454563883436596 0.01064201732794655 0 -0.0014986420344198785 0.010457332336796184 0 -0.00078982418851383134 0.01293548722279666 0 -0.0013454563883436596 0.01064201732794655 0 -0.00065931546471781355 0.01472023396477423 0 -0.00070128566600261997 0.014076525513032146 0 -0.0013296340018918973 0.014052572143412429 0 -0.00065931546471781355 0.01472023396477423 0 -0.0019795303917597503 0.014337726997841735 0 -0.0013296340018918973 0.014052572143412429 0 -0.0009405453023123507 0.0107868337566697 0 -5.9130835378980764e-05 0.011171023569813299 0 -0.00027575604097499547 0.0099258646938596568 0 -0.001278176712704139 0.0094188832464097497 0 -0.0009405453023123507 0.0107868337566697 0 -0.00027575604097499547 0.0099258646938596568 0 -0.0014986420344198785 0.010457332336796184 0 -0.0013440455169140817 0.010644337276137105 0 -0.001278176712704139 0.0094188832464097497 0 -0.0025277695682159908 0.010004320632756169 0 -0.0009405453023123507 0.0107868337566697 0 -0.0021847945928350648 0.010483304886166884 0 -0.0015643248055908249 0.011666985044128348 0 -0.0009405453023123507 0.0107868337566697 0 -0.0023240828765485255 0.013318537847830767 0 -0.0014986420344198785 0.010457332336796184 0 -0.0020688601175871827 0.01255668161782568 0 -0.0021847945928350648 0.010483304886166884 0 -0.0015643248055908249 0.011666985044128348 0 -0.0020688601175871827 0.01255668161782568 0 -0.0015643248055908249 0.011666985044128348 0 -0.0015734125647394893 0.012357269587471784 0 -0.0015643248055908249 0.011666985044128348 0 -0.000977398515892027 0.011844890773286864 0 -0.0015734125647394893 0.012357269587471784 0 -0.0015643248055908249 0.011666985044128348 0 -0.000977398515892027 0.011844890773286864 0 -0.0009405453023123507 0.0107868337566697 0 -0.000977398515892027 0.011844890773286864 0 -0.0009405453023123507 0.0107868337566697 0 -5.9130835378980764e-05 0.011171023569813299 0 -0.000977398515892027 0.011844890773286864 0 -0.0007464811229657152 0.012683400380003779 0 -5.9130835378980764e-05 0.011171023569813299 0 -0.000977398515892027 0.011844890773286864 0 -0.0007464811229657152 0.012683400380003779 0 -0.0015734125647394893 0.012357269587471784 0 -0.0019698960326731615 0.012621507632630591 0 -0.0020688601175871827 0.01255668161782568 0 -0.0015734125647394893 0.012357269587471784 0 -0.0019698960326731615 0.012621507632630591 0 -0.0007464811229657152 0.012683400380003779 0 -0.0015734125647394893 0.012357269587471784 0 -0.00098969352404527683 0.010644282469162696 0 -3.6632614860660234e-05 0.010489318492753226 0 -0.00013034018281985244 0.0086479227466551706 0 0.00066037099309110378 0.0083393516345064908 0 0.00034848433192180117 0.0086468427316715325 0 -0.00013034018281985244 0.0086479227466551706 0 9.0395338577345025e-05 0.0089646512150045599 0 0.00034848433192180117 0.0086468427316715325 0 0.00010719333771033709 0.0088916888333809493 0 0.00071690699650724067 0.0086583752296547096 0 9.0395338577345025e-05 0.0089646512150045599 0 0.00076431482328965616 0.0086354641255858549 0 0.00034848433192180117 0.0086468427316715325 0 0.00011870667735199037 0.0088232546634732893 0 0.00076431482328965616 0.0086354641255858549 0 0.00055115616016667703 0.0090190250616048653 0 0.00066037099309110378 0.0083393516345064908 0 0.00076431482328965616 0.0086354641255858549 0 0.00034848433192180117 0.0086468427316715325 0 0.00055115616016667703 0.0090190250616048653 0 0.0007087949820557747 0.0094462762624020809 0 0.0010290915467068907 0.0090772516816404591 0 0.00076431482328965616 0.0086354641255858549 0 0.00055115616016667703 0.0090190250616048653 0 0.00083041882152902599 0.0088774275699421631 0 0.0007087949820557747 0.0094462762624020809 0 0.00012468403928055235 0.0093177485957567641 0 0.00035711447975505102 0.0098838837867918188 0 0.00055115616016667703 0.0090190250616048653 0 0.0007087949820557747 0.0094462762624020809 0 0.00012468403928055235 0.0093177485957567641 0 0.00012468403928055235 0.0093177485957567641 0 -0.000176940474206495 0.0097398404599158828 0 0.00035711447975505102 0.0098838837867918188 0 0.00011870667735199037 0.0088232546634732893 0 0.00055115616016667703 0.0090190250616048653 0 0.00012468403928055235 0.0093177485957567641 0 0.00011870667735199037 0.0088232546634732893 0 0.00012468403928055235 0.0093177485957567641 0 -0.0001469630567179782 0.0091532031921219316 0 0.00011870667735199037 0.0088232546634732893 0 -0.0001469630567179782 0.0091532031921219316 0 -0.0005062481448104754 0.0090840317123652269 0 0.00010719333771033709 0.0088916888333809493 0 -0.00050874142392347797 0.0091638985549289554 0 -0.0001469630567179782 0.0091532031921219316 0 -0.0005062481448104754 0.0090840317123652269 0 -0.0003202756749719405 0.0093886418410557924 0 -0.0012032442910158187 0.009267033832948017 0 -0.00050874142392347797 0.0091638985549289554 0 -0.0011403632054010542 0.009447398682158584 0 -0.00084974144426418229 0.0089506537730678244 0 -0.00055799744062997008 0.0092251684817332199 0 -0.0010252415360133486 0.0093374755983278331 0 -0.0005062481448104754 0.0090840317123652269 0 -0.00069143370627344173 0.0094084928278361235 0 -0.0005062481448104754 0.0090840317123652269 0 -0.00069143370627344173 0.0094084928278361235 0 -0.0003202756749719405 0.0093886418410557924 0 -0.00069143370627344173 0.0094084928278361235 0 -0.0003202756749719405 0.0093886418410557924 0 -0.00066340359122193926 0.0096958802918235398 0 -0.00091586486311386354 0.0095354603157610761 0 -0.00069143370627344173 0.0094084928278361235 0 -0.00066340359122193926 0.0096958802918235398 0 0.00012468403928055235 0.0093177485957567641 0 -0.0001469630567179782 0.0091532031921219316 0 -0.0003202756749719405 0.0093886418410557924 0 -0.0003202756749719405 0.0093886418410557924 0 -0.000176940474206495 0.0097398404599158828 0 -0.00066340359122193926 0.0096958802918235398 0 0.00012468403928055235 0.0093177485957567641 0 -0.0003202756749719405 0.0093886418410557924 0 -0.000176940474206495 0.0097398404599158828 0 -0.000176940474206495 0.0097398404599158828 0 -0.00035657224211640195 0.010216247314432908 0 6.7903240313678913e-05 0.010354351329280627 0 -0.000176940474206495 0.0097398404599158828 0 -0.00086742774490905104 0.0097161499413393644 0 -0.00035657224211640195 0.010216247314432908 0 -0.00016582027052593752 0.0097509388133984742 0 -0.00090967784625765294 0.0096131018668266979 0 -0.0011252988155455836 0.010052247730194627 0 -0.00086742774490905104 0.0097161499413393644 0 -0.00083269010762739232 0.0103298990991227 0 -0.00086742774490905104 0.0097161499413393644 0 -0.00083269010762739232 0.0103298990991227 0 -0.00035657224211640195 0.010216247314432908 0 -0.0013407168318352368 0.010498121751746312 0 -0.00083269010762739232 0.0103298990991227 0 -0.00088731507801359088 0.010809750303746594 0 -0.0013407168318352368 0.010498121751746312 0 -0.0011252988155455836 0.010052247730194627 0 -0.00083269010762739232 0.0103298990991227 0 -0.00083269010762739232 0.0103298990991227 0 -0.00044830035174489227 0.010678917483384289 0 -0.00088731507801359088 0.010809750303746594 0 -0.00035657224211640195 0.010216247314432908 0 -0.00044830035174489227 0.010678917483384289 0 6.7903240313678913e-05 0.010354351329280627 0 -0.00083269010762739232 0.0103298990991227 0 -0.00035657224211640195 0.010216247314432908 0 -0.00044830035174489227 0.010678917483384289 0 6.7903240313678913e-05 0.010354351329280627 0 0.00050712065911148621 0.010557961543381358 0 0.00035711447975505102 0.0098838837867918188 0 0.00050712065911148621 0.010557961543381358 0 0.00035711447975505102 0.0098838837867918188 0 0.00089474490249074885 0.0099639816522499678 0 0.0007087949820557747 0.0094462762624020809 0 0.00035711447975505102 0.0098838837867918188 0 0.00089474490249074885 0.0099639816522499678 0 -0.000176940474206495 0.0097398404599158828 0 6.7903240313678913e-05 0.010354351329280627 0 0.00035711447975505102 0.0098838837867918188 0 0.0014941093323652471 0.0099711358185752032 0 0.0018399288048410521 0.0094702051324258105 0 0.0012535151769750357 0.0094998817582827039 0 0.0014941093323652471 0.0099711358185752032 0 0.00089474490249074885 0.0099639816522499678 0 0.0012535151769750357 0.0094998817582827039 0 0.00050712065911148621 0.010557961543381358 0 0.00089474490249074885 0.0099639816522499678 0 0.0011429268322713799 0.01046105682856467 0 0.0014941093323652471 0.0099711358185752032 0 0.00089474490249074885 0.0099639816522499678 0 0.0011429268322713799 0.01046105682856467 0 0.0014941093323652471 0.0099711358185752032 0 0.0011429268322713799 0.01046105682856467 0 0.0016795014736236467 0.010611930380469413 0 0.0014941093323652471 0.0099711358185752032 0 0.0019684937467732396 0.010168733429297612 0 0.0016795014736236467 0.010611930380469413 0 0.0014941093323652471 0.0099711358185752032 0 0.0019684937467732396 0.010168733429297612 0 0.0018821874443247649 0.0098273170037336596 0 0.0019684937467732396 0.010168733429297612 0 0.0022934162938380849 0.0097183294538131706 0 0.0025163087988039888 0.010171770644700156 0 0.0019684937467732396 0.010168733429297612 0 0.0022934162938380849 0.0097183294538131706 0 0.0018821874443247649 0.0098273170037336596 0 0.0022934162938380849 0.0097183294538131706 0 0.0018399288048410521 0.0094702051324258105 0 0.0022342170028634158 0.0092969104011974991 0 0.0022934162938380849 0.0097183294538131706 0 0.0018821874443247649 0.0098273170037336596 0 0.0018399288048410521 0.0094702051324258105 0 0.0014941093323652471 0.0099711358185752032 0 0.0018821874443247649 0.0098273170037336596 0 0.0018399288048410521 0.0094702051324258105 0 0.0018399288048410521 0.0094702051324258105 0 0.0019513402387534664 0.0089909818840112465 0 0.001537850466881915 0.0090371553747261267 0 0.0018399288048410521 0.0094702051324258105 0 0.0022342170028634158 0.0092969104011974991 0 0.0019513402387534664 0.0089909818840112465 0 0.0019513402387534664 0.0089909818840112465 0 0.0020291330549931531 0.0085547992914129425 0 0.0023549982551160941 0.0089245465638279568 0 0.0022342170028634158 0.0092969104011974991 0 0.0019513402387534664 0.0089909818840112465 0 0.0023549982551160941 0.0089245465638279568 0 0.0019513402387534664 0.0089909818840112465 0 0.001537850466881915 0.0090371553747261267 0 0.0016187380056093569 0.0086780096031197299 0 0.001537850466881915 0.0090371553747261267 0 0.0010290915467068907 0.0090772516816404591 0 0.001173020795517128 0.0086585079720958615 0 0.001537850466881915 0.0090371553747261267 0 0.0012535151769750357 0.0094998817582827039 0 0.0010290915467068907 0.0090772516816404591 0 0.0018399288048410521 0.0094702051324258105 0 0.001537850466881915 0.0090371553747261267 0 0.0012535151769750357 0.0094998817582827039 0 0.0007087949820557747 0.0094462762624020809 0 0.0012535151769750357 0.0094998817582827039 0 0.0010290915467068907 0.0090772516816404591 0 0.0007087949820557747 0.0094462762624020809 0 0.00089474490249074885 0.0099639816522499678 0 0.0012535151769750357 0.0094998817582827039 0 0.00055115616016667703 0.0090190250616048653 0 0.0010290915467068907 0.0090772516816404591 0 0.00083041882152902599 0.0088774275699421631 0 0.0010290915467068907 0.0090772516816404591 0 0.00083041882152902599 0.0088774275699421631 0 0.001173020795517128 0.0086585079720958615 0 0.00076431482328965616 0.0086354641255858549 0 0.00083041882152902599 0.0088774275699421631 0 0.001173020795517128 0.0086585079720958615 0 0.00066037099309110378 0.0083393516345064908 0 0.00076431482328965616 0.0086354641255858549 0 0.001173020795517128 0.0086585079720958615 0 0.001173020795517128 0.0086585079720958615 0 0.0013845916550323458 0.0081358851874228019 0 0.0016187380056093569 0.0086780096031197299 0 0.001537850466881915 0.0090371553747261267 0 0.001173020795517128 0.0086585079720958615 0 0.0016187380056093569 0.0086780096031197299 0 -3.6632614860660234e-05 0.010489318492753226 0 0.0013538546167259785 0.010065334789974902 0 -0.0007464811229657152 0.012683400380003779 0 0.0013269275119520995 0.011992459218571118 0 -5.9130835378980764e-05 0.011171023569813299 0 0.00066037099309110378 0.0083393516345064908 0 0.001173020795517128 0.0086585079720958615 0 0.0013845916550323458 0.0081358851874228019 0 0.0013269275119520995 0.011992459218571118 0 -5.9130835378980764e-05 0.011171023569813299 0 0.0010933017520862881 0.0096955208946025648 0 0.0013269275119520995 0.011992459218571118 0 0.0010933017520862881 0.0096955208946025648 0 0.0021350796992141946 0.010604863294313418 0 0.0026157176980819794 0.0092894945002865558 0 0.0010933017520862881 0.0096955208946025648 0 0.0021350796992141946 0.010604863294313418 0 -5.9130835378980764e-05 0.011171023569813299 0 0.0010933017520862881 0.0096955208946025648 0 -0.00027575604097499547 0.0099258646938596568 0 -0.00023851981524603116 0.0085041931699311318 0 0.0010933017520862881 0.0096955208946025648 0 -0.00027575604097499547 0.0099258646938596568 0 0.0026157176980819794 0.0092894945002865558 0 0.0041111722869121136 0.0097667802842830529 0 0.0033214358490867599 0.011214147048209083 0 0.0026157176980819794 0.0092894945002865558 0 0.0021350796992141946 0.010604863294313418 0 0.0033214358490867599 0.011214147048209083 0 0.0013538546167259785 0.010065334789974902 0 0.0026279665637198965 0.0096025236984369471 0 0.0013269275119520995 0.011992459218571118 0 0.0021350796992141946 0.010604863294313418 0 0.0033214358490867599 0.011214147048209083 0 0.0041111722869121136 0.0097667802842830529 0 0.0033214358490867599 0.011214147048209083 0 0.0051377763471945493 0.010492789275262919 0 0.0026279665637198965 0.0096025236984369471 0 0.0040368381176247728 0.0092119599208534738 0 0.0020353421050763399 0.0079816821595185238 0 0.0020291330549931531 0.0085547992914129425 0 0.0023940617568321484 0.0085004229388185356 0 0.0013845916550323458 0.0081358851874228019 0 0.0020353421050763399 0.0079816821595185238 0 0.0020291330549931531 0.0085547992914129425 0 0.0013845916550323458 0.0081358851874228019 0 0.0016187380056093569 0.0086780096031197299 0 0.0020291330549931531 0.0085547992914129425 0 0.0019513402387534664 0.0089909818840112465 0 0.0016187380056093569 0.0086780096031197299 0 0.0020291330549931531 0.0085547992914129425 0 0.0020291330549931531 0.0085547992914129425 0 0.0023940617568321484 0.0085004229388185356 0 0.0023549982551160941 0.0089245465638279568 0 0.0023940617568321484 0.0085004229388185356 0 0.0026786585614168327 0.0084907935054007993 0 0.0026423127615888328 0.0088000340215402244 0 0.0028961486194169061 0.0086008926847118642 0 0.0026786585614168327 0.0084907935054007993 0 0.0026423127615888328 0.0088000340215402244 0 0.0028961486194169061 0.0086008926847118642 0 0.0026786585614168327 0.0084907935054007993 0 0.002838672603591115 0.0083302104063140026 0 0.002838672603591115 0.0083302104063140026 0 0.0025790638858044813 0.0082202588205529722 0 0.0028907914756644533 0.0081313967897269183 0 0.0026786585614168327 0.0084907935054007993 0 0.002838672603591115 0.0083302104063140026 0 0.0025790638858044813 0.0082202588205529722 0 0.002838672603591115 0.0083302104063140026 0 0.0028907914756644533 0.0081313967897269183 0 0.0029734772595751361 0.0082246567172606765 0 0.0020353421050763399 0.0079816821595185238 0 0.0023940617568321484 0.0085004229388185356 0 0.0025790638858044813 0.0082202588205529722 0 0.0023940617568321484 0.0085004229388185356 0 0.0026786585614168327 0.0084907935054007993 0 0.0025790638858044813 0.0082202588205529722 0 0.0020353421050763399 0.0079816821595185238 0 0.0025790638858044813 0.0082202588205529722 0 0.0025881210352865793 0.007864476799754952 0 0.0025790638858044813 0.0082202588205529722 0 0.0025881210352865793 0.007864476799754952 0 0.0028907914756644533 0.0081313967897269183 0 0.0025881210352865793 0.007864476799754952 0 0.0028907914756644533 0.0081313967897269183 0 0.0031086801458543342 0.0077179837742034404 0 0.0040368381176247728 0.0092119599208534738 0 0.0040474675997574476 0.0084428541418294159 0 0.0053991802462309826 0.0093093500409113239 0 0.0051377763471945493 0.010492789275262919 0 0.0067512184706391967 0.0099198116112364475 0 0.0041287260771636627 0.0085217968383862457 0 0.0040474675997574476 0.0084428541418294159 0 0.0053991802462309826 0.0093093500409113239 0 0.0041111722869121136 0.0097667802842830529 0 0.0051377763471945493 0.010492789275262919 0 0.0023030400748403038 0.0074429008289302462 0 0.0024862566642946432 0.007480461963101836 0 0.0025615028869441833 0.0073696353298013575 0 0.0022861414293613731 0.0072432628990612979 0 0.0031587854278256446 0.008026923734856117 0 0.003007456800628631 0.0079725355929417558 0 0.003077075282421305 0.0080193841668208723 0 0.0031232328182869994 0.0079343993499262806 0 0.0031441280993647603 0.0079114476666639309 0 0.003007456800628631 0.0079725355929417558 0 0.0031232328182869994 0.0079343993499262806 0 0.003007456800628631 0.0079725355929417558 0 0.0030002115325422369 0.007984360754098651 0 0.003077075282421305 0.0080193841668208723 0 0.0032631424299913343 0.0080369033874632591 0 0.0029977701568868311 0.0079793885718290186 0 0.0018151516081389156 0.0067799140930101332 0 0.0031587854278256446 0.008026923734856117 0 0.0026858663799482151 0.0074665515291654442 0 0.0029449530726699414 0.007728487130358834 0 0.0028945280343523148 0.0077457090042138393 0 0.0031587854278256446 0.008026923734856117 0 0.0040474675997574476 0.0084428541418294159 0 0.0031587854278256446 0.008026923734856117 0 0.0032631424299913343 0.0080369033874632591 0 0.0035112429674791306 0.0081690866670237564 0 0.0032339095750340543 0.0082561280622217605 0 0.0034088970971751665 0.0083331583556070458 0 0.0040474675997574476 0.0084428541418294159 0 0.0032631424299913343 0.0080369033874632591 0 0.0028907914756644533 0.0081313967897269183 0 0.0031086801458543342 0.0077179837742034404 0 0.0031552959643910794 0.007738578667868483 0 0.0028907914756644533 0.0081313967897269183 0 0.003010307925687768 0.0079854315427168605 0 0.0030001605199373536 0.0081148154163574182 0 0.0028768224463931345 0.0080742832097699495 0 0.0032631424299913343 0.0080369033874632591 0 0.003010307925687768 0.0079854315427168605 0 0.0030001605199373536 0.0081148154163574182 0 0.003077075282421305 0.0080193841668208723 0 0.0030001605199373536 0.0081148154163574182 0 0.003077075282421305 0.0080193841668208723 0 0.0031169997045022487 0.0079926089068381341 0 0.0029803150749135904 0.008091613244349264 0 0.0032524154156105033 0.0080990985975313255 0 0.0030001605199373536 0.0081148154163574182 0 0.0031648235410501714 0.0081367024197494444 0 0.0032462646712479357 0.0080340604613387614 0 0.0030001605199373536 0.0081148154163574182 0 0.0031648235410501714 0.0081367024197494444 0 0.0030941300442665944 0.0082345419378236102 0 0.0031648235410501714 0.0081367024197494444 0 0.0032526842215295491 0.008135605498931461 0 0.0032462646712479357 0.0080340604613387614 0 0.0031648235410501714 0.0081367024197494444 0 0.0032156151162876716 0.0082144685185355868 0 0.0032526842215295491 0.008135605498931461 0 0.0031648235410501714 0.0081367024197494444 0 0.0032156151162876716 0.0082144685185355868 0 0.0030941300442665944 0.0082345419378236102 0 0.0032156151162876716 0.0082144685185355868 0 0.0030941300442665944 0.0082345419378236102 0 0.0031674879537815686 0.0083588872073660902 0 0.0030941300442665944 0.0082345419378236102 0 0.0030201878908178025 0.0083664814452776379 0 0.0031674879537815686 0.0083588872073660902 0 0.0032156151162876716 0.0082144685185355868 0 0.0031674879537815686 0.0083588872073660902 0 0.0032819491249121615 0.008302793176810111 0 0.0028907914756644533 0.0081313967897269183 0 0.0030001605199373536 0.0081148154163574182 0 0.0029734772595751361 0.0082246567172606765 0 0.0030001605199373536 0.0081148154163574182 0 0.0030941300442665944 0.0082345419378236102 0 0.0029734772595751361 0.0082246567172606765 0 0.0030941300442665944 0.0082345419378236102 0 0.0029734772595751361 0.0082246567172606765 0 0.0030201878908178025 0.0083664814452776379 0 0.002838672603591115 0.0083302104063140026 0 0.0029734772595751361 0.0082246567172606765 0 0.0030201878908178025 0.0083664814452776379 0 0.0028961486194169061 0.0086008926847118642 0 0.002838672603591115 0.0083302104063140026 0 0.0030201878908178025 0.0083664814452776379 0 0.0030201878908178025 0.0083664814452776379 0 0.0030855565544618746 0.0085609259389059188 0 0.0031674879537815686 0.0083588872073660902 0 0.0028961486194169061 0.0086008926847118642 0 0.0030201878908178025 0.0083664814452776379 0 0.0030855565544618746 0.0085609259389059188 0 0.0030855565544618746 0.0085609259389059188 0 0.0031674879537815686 0.0083588872073660902 0 0.0032557676266356615 0.0085292367588988144 0 0.0031674879537815686 0.0083588872073660902 0 0.0032557676266356615 0.0085292367588988144 0 0.0032819491249121615 0.008302793176810111 0 0.0032557676266356615 0.0085292367588988144 0 0.0032113251670119612 0.0087403479000727306 0 0.0033326029817352045 0.0086887702620976476 0 0.0030855565544618746 0.0085609259389059188 0 0.0032557676266356615 0.0085292367588988144 0 0.0032113251670119612 0.0087403479000727306 0 0.0032638982521228637 0.0090836786185646452 0 0.0038353860088305002 0.0090143194376933206 0 0.0035795874297279294 0.0093021475128512478 0 0.0032113251670119612 0.0087403479000727306 0 0.0032638982521228637 0.0090836786185646452 0 0.0033326029817352045 0.0086887702620976476 0 0.0032733399496861384 0.0090555355491432326 0 0.0035981779120038103 0.0089535872400022774 0 0.0032113251670119612 0.0087403479000727306 0 0.0032638982521228637 0.0090836786185646452 0 0.0030600504189635292 0.0088280645424213076 0 0.0032638982521228637 0.0090836786185646452 0 0.0030114748854853037 0.0091200996767616029 0 0.0030600504189635292 0.0088280645424213076 0 0.0030114748854853037 0.0091200996767616029 0 0.0030600504189635292 0.0088280645424213076 0 0.0028682222133319208 0.0088866752699479808 0 0.0030855565544618746 0.0085609259389059188 0 0.0032113251670119612 0.0087403479000727306 0 0.0030600504189635292 0.0088280645424213076 0 0.0028961486194169061 0.0086008926847118642 0 0.0030855565544618746 0.0085609259389059188 0 0.0030600504189635292 0.0088280645424213076 0 0.0028961486194169061 0.0086008926847118642 0 0.0030600504189635292 0.0088280645424213076 0 0.0028682222133319208 0.0088866752699479808 0 0.0028961486194169061 0.0086008926847118642 0 0.0028682222133319208 0.0088866752699479808 0 0.0026423127615888328 0.0088000340215402244 0 0.0028682222133319208 0.0088866752699479808 0 0.0026423127615888328 0.0088000340215402244 0 0.0026680226210480662 0.0092425110110099708 0 0.0023549982551160941 0.0089245465638279568 0 0.0026423127615888328 0.0088000340215402244 0 0.0026680226210480662 0.0092425110110099708 0 0.0023940617568321484 0.0085004229388185356 0 0.0023549982551160941 0.0089245465638279568 0 0.0026423127615888328 0.0088000340215402244 0 0.0022934162938380849 0.0097183294538131706 0 0.0022342170028634158 0.0092969104011974991 0 0.0026680226210480662 0.0092425110110099708 0 0.0022342170028634158 0.0092969104011974991 0 0.0023549982551160941 0.0089245465638279568 0 0.0026680226210480662 0.0092425110110099708 0 0.0030114748854853037 0.0091200996767616029 0 0.0026680226210480662 0.0092425110110099708 0 0.0030553729829161189 0.0095104246671491553 0 0.0030114748854853037 0.0091200996767616029 0 0.0028682222133319208 0.0088866752699479808 0 0.0026680226210480662 0.0092425110110099708 0 0.0026680226210480662 0.0092425110110099708 0 0.0027167003150935995 0.0096966449488517289 0 0.0030553729829161189 0.0095104246671491553 0 0.0022934162938380849 0.0097183294538131706 0 0.0026680226210480662 0.0092425110110099708 0 0.0027167003150935995 0.0096966449488517289 0 0.0027167003150935995 0.0096966449488517289 0 0.0025163087988039888 0.010171770644700156 0 0.0029967807739095945 0.0098927686297684489 0 0.0022934162938380849 0.0097183294538131706 0 0.0027167003150935995 0.0096966449488517289 0 0.0025163087988039888 0.010171770644700156 0 0.0027167003150935995 0.0096966449488517289 0 0.0029967807739095945 0.0098927686297684489 0 0.0030553729829161189 0.0095104246671491553 0 0.00302314037938366 0.0098480380378457143 0 0.0035404263625005111 0.0095832896393425113 0 0.0029967807739095945 0.0098927686297684489 0 0.0033176009588560601 0.0096434007501240461 0 0.0030553729829161189 0.0095104246671491553 0 0.0029967807739095945 0.0098927686297684489 0 0.003770112384972441 0.0094864149385462757 0 0.0037287577243008438 0.0099564918401049869 0 0.0032638982521228637 0.0090836786185646452 0 0.0033176009588560601 0.0096434007501240461 0 0.0035795874297279294 0.0093021475128512478 0 0.0032638982521228637 0.0090836786185646452 0 0.0033176009588560601 0.0096434007501240461 0 0.0030553729829161189 0.0095104246671491553 0 0.0032638982521228637 0.0090836786185646452 0 0.0030114748854853037 0.0091200996767616029 0 0.0030553729829161189 0.0095104246671491553 0 0.0032839764090455753 0.01030783460906479 0 0.0037118788222785404 0.01061092575238346 0 0.0032577218682922518 0.010309505064896307 0 0.0032813628170791313 0.011133106186400298 0 0.0037858313516741407 0.011127807533609903 0 0.0037287577243008438 0.0099564918401049869 0 0.0032577218682922518 0.010309505064896307 0 0.0037247988283337359 0.010190241400034052 0 0.0037287577243008438 0.0099564918401049869 0 0.0037247988283337359 0.010190241400034052 0 0.0040806389287992659 0.01000397683303871 0 0.0037287577243008438 0.0099564918401049869 0 0.0040806389287992659 0.01000397683303871 0 0.0041486928719870935 0.0096698848313904774 0 0.003770112384972441 0.0094864149385462757 0 0.0037287577243008438 0.0099564918401049869 0 0.0041486928719870935 0.0096698848313904774 0 0.0029967807739095945 0.0098927686297684489 0 0.0037287577243008438 0.0099564918401049869 0 0.0032577218682922518 0.010309505064896307 0 0.0029967807739095945 0.0098927686297684489 0 0.0032577218682922518 0.010309505064896307 0 0.0028457088431835956 0.010321303377538039 0 0.0032577218682922518 0.010309505064896307 0 0.0028457088431835956 0.010321303377538039 0 0.0026712254932985992 0.010839743050543778 0 0.0025163087988039888 0.010171770644700156 0 0.0026712254932985992 0.010839743050543778 0 0.0021640248624122858 0.010699581469053194 0 0.0025163087988039888 0.010171770644700156 0 0.0028457088431835956 0.010321303377538039 0 0.0026712254932985992 0.010839743050543778 0 0.0025163087988039888 0.010171770644700156 0 0.0029967807739095945 0.0098927686297684489 0 0.0028457088431835956 0.010321303377538039 0 0.0032577218682922518 0.010309505064896307 0 0.0026712254932985992 0.010839743050543778 0 0.0032813628170791313 0.011133106186400298 0 0.0029146279474984941 0.01149092868767396 0 0.0032813628170791313 0.011133106186400298 0 0.0033251882901686987 0.011826620805361123 0 0.0026712254932985992 0.010839743050543778 0 0.0029146279474984941 0.01149092868767396 0 0.0032813628170791313 0.011133106186400298 0 0.0026712254932985992 0.010839743050543778 0 0.0029146279474984941 0.01149092868767396 0 0.002387785821144797 0.011352243246154126 0 0.0029146279474984941 0.01149092868767396 0 0.0025611729060144172 0.011837117114698526 0 0.002387785821144797 0.011352243246154126 0 0.0029146279474984941 0.01149092868767396 0 0.0025611729060144172 0.011837117114698526 0 0.002938752804112483 0.012132658824432244 0 0.0025611729060144172 0.011837117114698526 0 0.002938752804112483 0.012132658824432244 0 0.0025079025634221447 0.012203062559101049 0 0.0029146279474984941 0.01149092868767396 0 0.0033251882901686987 0.011826620805361123 0 0.002938752804112483 0.012132658824432244 0 0.0033251882901686987 0.011826620805361123 0 0.0037851273388938085 0.01158499602508704 0 0.0037921681280878301 0.011995488477462344 0 0.0032813628170791313 0.011133106186400298 0 0.0037858313516741407 0.011127807533609903 0 0.0037851273388938085 0.01158499602508704 0 0.0032813628170791313 0.011133106186400298 0 0.0033251882901686987 0.011826620805361123 0 0.0037851273388938085 0.01158499602508704 0 0.0037247988283337359 0.010190241400034052 0 0.0040806389287992659 0.01000397683303871 0 0.0040584082381718801 0.010442100219292545 0 0.0037858313516741407 0.011127807533609903 0 0.0037851273388938085 0.01158499602508704 0 0.0041653775539606756 0.01164834905936794 0 0.0037118788222785404 0.01061092575238346 0 0.0041244941198617102 0.011253959518342913 0 0.0037921681280878301 0.011995488477462344 0 0.0041653775539606756 0.01164834905936794 0 0.0042128659836859041 0.012076546982571146 0 0.0037851273388938085 0.01158499602508704 0 0.0037921681280878301 0.011995488477462344 0 0.0041653775539606756 0.01164834905936794 0 0.0037921681280878301 0.011995488477462344 0 0.0036544377824478218 0.012639955400915908 0 0.004103387709127969 0.012374899311079594 0 0.0037921681280878301 0.011995488477462344 0 0.004103387709127969 0.012374899311079594 0 0.0042128659836859041 0.012076546982571146 0 0.0033251882901686987 0.011826620805361123 0 0.0037921681280878301 0.011995488477462344 0 0.0033227550706702567 0.012370421858681761 0 0.0037921681280878301 0.011995488477462344 0 0.003168806400382486 0.012319504315150042 0 0.0036544377824478218 0.012639955400915908 0 0.0037367810316472575 0.012031879019504857 0 0.0032622423666710449 0.012315370950270662 0 0.003168806400382486 0.012319504315150042 0 0.0031417622751388134 0.012811117556648556 0 0.0036544377824478218 0.012639955400915908 0 0.0036544377824478218 0.012639955400915908 0 0.0041585466260328427 0.012785075273692678 0 0.004103387709127969 0.012374899311079594 0 0.0036544377824478218 0.012639955400915908 0 0.0038597952769979862 0.013124208737421131 0 0.0041585466260328427 0.012785075273692678 0 0.0036544377824478218 0.012639955400915908 0 0.0038597952769979862 0.013124208737421131 0 0.0034397295617343612 0.013078610650067338 0 0.0038597952769979862 0.013124208737421131 0 0.0034397295617343612 0.013078610650067338 0 0.0035458550801452009 0.013507326583599266 0 0.0031417622751388134 0.012811117556648556 0 0.0036544377824478218 0.012639955400915908 0 0.0034397295617343612 0.013078610650067338 0 0.0031417622751388134 0.012811117556648556 0 0.0034397295617343612 0.013078610650067338 0 0.0030292153052165951 0.01339613405467596 0 0.0034397295617343612 0.013078610650067338 0 0.0035458550801452009 0.013507326583599266 0 0.0030292153052165951 0.01339613405467596 0 0.0035458550801452009 0.013507326583599266 0 0.0030292153052165951 0.01339613405467596 0 0.0032716079015399861 0.013892772858502135 0 0.0035458550801452009 0.013507326583599266 0 0.0040101988862248092 0.013585643234004513 0 0.0036880211854344344 0.013859504704722579 0 0.0038597952769979862 0.013124208737421131 0 0.0035458550801452009 0.013507326583599266 0 0.0040101988862248092 0.013585643234004513 0 0.0021320745146351122 0.013789469205574931 0 0.0026717246068591817 0.013772807045014187 0 0.0024149641795460077 0.013345994356403738 0 0.0021320745146351122 0.013789469205574931 0 0.0024149641795460077 0.013345994356403738 0 0.0018638879491656611 0.013256913000903019 0 0.0026717246068591817 0.013772807045014187 0 0.0030292153052165951 0.01339613405467596 0 0.0032716079015399861 0.013892772858502135 0 0.0026717246068591817 0.013772807045014187 0 0.0030292153052165951 0.01339613405467596 0 0.0024149641795460077 0.013345994356403738 0 0.0029343346993301145 0.013285527987076206 0 0.0027335322138459998 0.012917104834900606 0 0.0030292153052165951 0.01339613405467596 0 0.0024149641795460077 0.013345994356403738 0 0.0025063885946450724 0.012767069726855667 0 0.0031417622751388134 0.012811117556648556 0 0.0030292153052165951 0.01339613405467596 0 0.0025805491374845013 0.012687969728102311 0 0.0024149641795460077 0.013345994356403738 0 0.0025063885946450724 0.012767069726855667 0 0.0018638879491656611 0.013256913000903019 0 0.0027335322138459998 0.012917104834900606 0 0.0021298593889301051 0.01355802822517359 0 0.0027335322138459998 0.012917104834900606 0 0.0026112040894458117 0.012489355481403359 0 0.0030822315535615108 0.013383377704119357 0 0.0025184699041738753 0.013292535197557463 0 0.0023679774835529336 0.01382529301267185 0 0.0030822315535615108 0.013383377704119357 0 0.0026556960109739825 0.01272462032730368 0 0.0025184699041738753 0.013292535197557463 0 0.003168806400382486 0.012319504315150042 0 0.0031417622751388134 0.012811117556648556 0 0.0025805491374845013 0.012687969728102311 0 0.0032622423666710449 0.012315370950270662 0 0.0027335322138459998 0.012917104834900606 0 0.0033251882901686987 0.011826620805361123 0 0.0033227550706702567 0.012370421858681761 0 0.002938752804112483 0.012132658824432244 0 0.0033227550706702567 0.012370421858681761 0 0.0028499710066305344 0.012688961786641523 0 0.002938752804112483 0.012132658824432244 0 0.0028499710066305344 0.012688961786641523 0 0.002938752804112483 0.012132658824432244 0 0.0025079025634221447 0.012203062559101049 0 0.0026556960109739825 0.01272462032730368 0 0.0017317539349298099 0.012580898873862333 0 0.0019776376752009377 0.013221082447941511 0 0.0019776376752009377 0.013221082447941511 0 0.0025184699041738753 0.013292535197557463 0 0.0023679774835529336 0.01382529301267185 0 0.0026556960109739825 0.01272462032730368 0 0.0019776376752009377 0.013221082447941511 0 0.0025184699041738753 0.013292535197557463 0 0.0023679774835529336 0.01382529301267185 0 0.0016628788908060192 0.014178332390834212 0 0.0015816025312611586 0.013683173753076577 0 0.0019776376752009377 0.013221082447941511 0 0.0023679774835529336 0.01382529301267185 0 0.0015816025312611586 0.013683173753076577 0 0.0021298593889301051 0.01355802822517359 0 0.0015258763004177855 0.013984565377550337 0 0.0018638879491656611 0.013256913000903019 0 0.0013581438249955973 0.013817397259256081 0 0.00170942146580075 0.013916647411409936 0 0.0021320745146351122 0.013789469205574931 0 0.0018638879491656611 0.013256913000903019 0 0.00170942146580075 0.013916647411409936 0 0.001092645996362005 0.013949277293922709 0 0.00077547408878004349 0.014235749211069956 0 0.0010806734759352165 0.014327600094793136 0 0.001092645996362005 0.013949277293922709 0 0.00077449867263840394 0.014013023766813387 0 0.00077547408878004349 0.014235749211069956 0 0.0015258763004177855 0.013984565377550337 0 0.0011212034483271461 0.014293383540158112 0 0.0016628788908060192 0.014178332390834212 0 0.001092645996362005 0.013949277293922709 0 0.0010806734759352165 0.014327600094793136 0 0.0016628788908060192 0.014178332390834212 0 0.0015816025312611586 0.013683173753076577 0 0.001092645996362005 0.013949277293922709 0 0.0015816025312611586 0.013683173753076577 0 0.001092645996362005 0.013949277293922709 0 0.0012237414215014739 0.013214405282016745 0 0.001092645996362005 0.013949277293922709 0 0.0012237414215014739 0.013214405282016745 0 0.00072884357414585669 0.01365017171064955 0 0.0012237414215014739 0.013214405282016745 0 0.0007429047566566107 0.012983106335131533 0 0.00072884357414585669 0.01365017171064955 0 0.0019776376752009377 0.013221082447941511 0 0.0015816025312611586 0.013683173753076577 0 0.0012237414215014739 0.013214405282016745 0 0.0017317539349298099 0.012580898873862333 0 0.0012237414215014739 0.013214405282016745 0 0.001128503834830233 0.01258176611724174 0 0.0017317539349298099 0.012580898873862333 0 0.0019776376752009377 0.013221082447941511 0 0.0012237414215014739 0.013214405282016745 0 0.0012237414215014739 0.013214405282016745 0 0.001128503834830233 0.01258176611724174 0 0.0007429047566566107 0.012983106335131533 0 0.001128503834830233 0.01258176611724174 0 0.0013745012383728076 0.01186690445948381 0 0.00058278573602130667 0.012211908561058823 0 0.0013745012383728076 0.01186690445948381 0 0.00090626491649953137 0.011505420520738462 0 0.00058278573602130667 0.012211908561058823 0 0.0017317539349298099 0.012580898873862333 0 0.001128503834830233 0.01258176611724174 0 0.0013745012383728076 0.01186690445948381 0 0.0017317539349298099 0.012580898873862333 0 0.0013745012383728076 0.01186690445948381 0 0.0021717302998422896 0.011906984755936078 0 0.0026112040894458117 0.012489355481403359 0 0.0021791385299043012 0.011915937555976462 0 0.0026556960109739825 0.01272462032730368 0 0.0017317539349298099 0.012580898873862333 0 0.0021717302998422896 0.011906984755936078 0 0.0025611729060144172 0.011837117114698526 0 0.0025079025634221447 0.012203062559101049 0 0.0021717302998422896 0.011906984755936078 0 0.0021717302998422896 0.011906984755936078 0 0.002387785821144797 0.011352243246154126 0 0.0018312142868247754 0.011293541563752639 0 0.0025611729060144172 0.011837117114698526 0 0.0021717302998422896 0.011906984755936078 0 0.002387785821144797 0.011352243246154126 0 0.0013745012383728076 0.01186690445948381 0 0.0021717302998422896 0.011906984755936078 0 0.0018312142868247754 0.011293541563752639 0 0.002387785821144797 0.011352243246154126 0 0.0018312142868247754 0.011293541563752639 0 0.0021640248624122858 0.010699581469053194 0 0.0026712254932985992 0.010839743050543778 0 0.002387785821144797 0.011352243246154126 0 0.0021640248624122858 0.010699581469053194 0 0.0019684937467732396 0.010168733429297612 0 0.0025163087988039888 0.010171770644700156 0 0.0021640248624122858 0.010699581469053194 0 0.0019684937467732396 0.010168733429297612 0 0.0021640248624122858 0.010699581469053194 0 0.0016795014736236467 0.010611930380469413 0 0.0018312142868247754 0.011293541563752639 0 0.0021640248624122858 0.010699581469053194 0 0.0016795014736236467 0.010611930380469413 0 0.0011429268322713799 0.01046105682856467 0 0.0016795014736236467 0.010611930380469413 0 0.0013205120064576153 0.011011243515074777 0 0.0011429268322713799 0.01046105682856467 0 0.00086136827409383405 0.010952559772723556 0 0.0013205120064576153 0.011011243515074777 0 0.00050712065911148621 0.010557961543381358 0 0.0011429268322713799 0.01046105682856467 0 0.00086136827409383405 0.010952559772723556 0 0.00086136827409383405 0.010952559772723556 0 0.00090626491649953137 0.011505420520738462 0 0.0013205120064576153 0.011011243515074777 0 0.0013745012383728076 0.01186690445948381 0 0.00090626491649953137 0.011505420520738462 0 0.0013205120064576153 0.011011243515074777 0 0.0018312142868247754 0.011293541563752639 0 0.0016795014736236467 0.010611930380469413 0 0.0013205120064576153 0.011011243515074777 0 0.0013745012383728076 0.01186690445948381 0 0.0018312142868247754 0.011293541563752639 0 0.0013205120064576153 0.011011243515074777 0 0.00040882388968739201 0.011338778752132253 0 -0.00010284371859160963 0.01109457481613983 0 -0.00010638571675791933 0.011775143012806589 0 0.00086136827409383405 0.010952559772723556 0 0.00090626491649953137 0.011505420520738462 0 0.00040882388968739201 0.011338778752132253 0 0.00050712065911148621 0.010557961543381358 0 0.00086136827409383405 0.010952559772723556 0 0.00040882388968739201 0.011338778752132253 0 0.00050712065911148621 0.010557961543381358 0 0.00040882388968739201 0.011338778752132253 0 -0.00010284371859160963 0.01109457481613983 0 6.7903240313678913e-05 0.010354351329280627 0 0.00050712065911148621 0.010557961543381358 0 -0.00010284371859160963 0.01109457481613983 0 -0.00044830035174489227 0.010678917483384289 0 -0.00010284371859160963 0.01109457481613983 0 -0.00063957525957414742 0.011201799575943271 0 -0.00044830035174489227 0.010678917483384289 0 6.7903240313678913e-05 0.010354351329280627 0 -0.00010284371859160963 0.01109457481613983 0 -0.0013407168318352368 0.010498121751746312 0 -0.00088731507801359088 0.010809750303746594 0 -0.001170553089043096 0.01135288817628112 0 -0.00044830035174489227 0.010678917483384289 0 -0.00063957525957414742 0.011201799575943271 0 -0.00088731507801359088 0.010809750303746594 0 -0.00063957525957414742 0.011201799575943271 0 -0.00088731507801359088 0.010809750303746594 0 -0.001170553089043096 0.01135288817628112 0 -0.00082648048033492222 0.012608685739899433 0 -0.00082800098768578425 0.012360863855382898 0 -0.001170553089043096 0.01135288817628112 0 -0.00071379939552601178 0.011701367064817728 0 -0.00081048637991798891 0.012308516831585735 0 -0.00063957525957414742 0.011201799575943271 0 -0.001170553089043096 0.01135288817628112 0 -0.00071379939552601178 0.011701367064817728 0 -0.00010284371859160963 0.01109457481613983 0 -0.00044619308879797451 0.011605999389706582 0 -0.00010638571675791933 0.011775143012806589 0 -0.00010284371859160963 0.01109457481613983 0 -0.00063957525957414742 0.011201799575943271 0 -0.00044619308879797451 0.011605999389706582 0 -0.00063957525957414742 0.011201799575943271 0 -0.00071379939552601178 0.011701367064817728 0 -0.00044619308879797451 0.011605999389706582 0 -0.00071379939552601178 0.011701367064817728 0 -0.00044619308879797451 0.011605999389706582 0 -0.00052856006465038972 0.012000095957722386 0 -0.00052856006465038972 0.012000095957722386 0 -0.00039086484349028553 0.012355441718310102 0 -0.00010638571675791933 0.011775143012806589 0 -0.00052856006465038972 0.012000095957722386 0 -0.00081048637991798891 0.012308516831585735 0 -0.00039086484349028553 0.012355441718310102 0 -0.00044619308879797451 0.011605999389706582 0 -0.00052856006465038972 0.012000095957722386 0 -0.00010638571675791933 0.011775143012806589 0 -0.00081048637991798891 0.012308516831585735 0 -0.0007686611958070595 0.012137811017524539 0 -0.00011499105612326894 0.013092384541588429 0 -0.00071379939552601178 0.011701367064817728 0 -0.00052856006465038972 0.012000095957722386 0 -0.00081048637991798891 0.012308516831585735 0 -0.0005153642274474949 0.014011973552393486 0 -0.00081048637991798891 0.012308516831585735 0 -0.00011499105612326894 0.013092384541588429 0 -0.00029471736648168702 0.01295287647951297 0 -0.00073998169837564737 0.012761158048820298 0 -0.00058238069373988679 0.013291998936964023 0 -0.00029471736648168702 0.01295287647951297 0 -0.00073998169837564737 0.012761158048820298 0 4.6491445823796316e-05 0.012589707982069006 0 -0.00081048637991798891 0.012308516831585735 0 -0.0007686611958070595 0.012137811017524539 0 -0.00039086484349028553 0.012355441718310102 0 -0.00038128076861710324 0.013642341139146157 0 -0.000366953845979343 0.013928965507305541 0 -0.00038128076861710324 0.013642341139146157 0 -0.00020987398502428532 0.012297773635824016 0 -0.00029471736648168702 0.01295287647951297 0 4.6491445823796316e-05 0.012589707982069006 0 1.5948327286487422e-05 0.013236364461638235 0 4.6491445823796316e-05 0.012589707982069006 0 0.00035005998151833623 0.012874935671170389 0 1.5948327286487422e-05 0.013236364461638235 0 4.6491445823796316e-05 0.012589707982069006 0 0.00035005998151833623 0.012874935671170389 0 0.00058278573602130667 0.012211908561058823 0 -0.00020987398502428532 0.012297773635824016 0 0.00057850344142075137 0.012280911500218693 0 0.00040882388968739201 0.011338778752132253 0 -0.00010638571675791933 0.011775143012806589 0 0.00058278573602130667 0.012211908561058823 0 -0.00039086484349028553 0.012355441718310102 0 -0.00010638571675791933 0.011775143012806589 0 0.00058278573602130667 0.012211908561058823 0 0.00090626491649953137 0.011505420520738462 0 0.00040882388968739201 0.011338778752132253 0 0.00058278573602130667 0.012211908561058823 0 0.001128503834830233 0.01258176611724174 0 0.00058278573602130667 0.012211908561058823 0 0.0007429047566566107 0.012983106335131533 0 0.00035005998151833623 0.012874935671170389 0 0.00058278573602130667 0.012211908561058823 0 0.0007429047566566107 0.012983106335131533 0 0.00035005998151833623 0.012874935671170389 0 0.0007429047566566107 0.012983106335131533 0 0.00038617353516455689 0.013356282323817045 0 0.00035005998151833623 0.012874935671170389 0 0.00038617353516455689 0.013356282323817045 0 1.5948327286487422e-05 0.013236364461638235 0 0.00038617353516455689 0.013356282323817045 0 0.0003699091126382475 0.013820404756398331 0 9.5715152404500764e-05 0.013870359293833607 0 0.00038617353516455689 0.013356282323817045 0 0.0003699091126382475 0.013820404756398331 0 0.00072884357414585669 0.01365017171064955 0 0.0007429047566566107 0.012983106335131533 0 0.00038617353516455689 0.013356282323817045 0 0.00072884357414585669 0.01365017171064955 0 0.001092645996362005 0.013949277293922709 0 0.00072884357414585669 0.01365017171064955 0 0.00077449867263840394 0.014013023766813387 0 0.00072884357414585669 0.01365017171064955 0 0.00077449867263840394 0.014013023766813387 0 0.00050866199250427201 0.014065326120239953 0 0.00050866199250427201 0.014065326120239953 0 0.00028373018706379576 0.014313415849708829 0 0.00018994788574500121 0.014105476219541394 0 0.0003699091126382475 0.013820404756398331 0 0.00050866199250427201 0.014065326120239953 0 0.00018994788574500121 0.014105476219541394 0 0.0003699091126382475 0.013820404756398331 0 0.00072884357414585669 0.01365017171064955 0 0.00050866199250427201 0.014065326120239953 0 0.00050866199250427201 0.014065326120239953 0 0.00028373018706379576 0.014313415849708829 0 0.00045097966925654293 0.014450921638664307 0 0.00050866199250427201 0.014065326120239953 0 0.00077547408878004349 0.014235749211069956 0 0.00045097966925654293 0.014450921638664307 0 0.00077449867263840394 0.014013023766813387 0 0.00050866199250427201 0.014065326120239953 0 0.00077547408878004349 0.014235749211069956 0 3.1984442965182037e-06 0.014494479956588332 0 0.00010147862360750749 0.014366636042169445 0 -5.0937189457747305e-05 0.014245746163706432 0 3.1984442965182037e-06 0.014494479956588332 0 0.00010147862360750749 0.014366636042169445 0 0.00021619241072389433 0.014514176103762797 0 0.00028373018706379576 0.014313415849708829 0 0.00010147862360750749 0.014366636042169445 0 0.00018994788574500121 0.014105476219541394 0 0.00028373018706379576 0.014313415849708829 0 0.00010147862360750749 0.014366636042169445 0 0.00021619241072389433 0.014514176103762797 0 0.00018994788574500121 0.014105476219541394 0 -5.0937189457747305e-05 0.014245746163706432 0 9.5715152404500764e-05 0.013870359293833607 0 0.00010147862360750749 0.014366636042169445 0 0.00018994788574500121 0.014105476219541394 0 -5.0937189457747305e-05 0.014245746163706432 0 3.1984442965182037e-06 0.014494479956588332 0 -5.0937189457747305e-05 0.014245746163706432 0 -7.1572491196607055e-05 0.014405559313208409 0 -5.0937189457747305e-05 0.014245746163706432 0 -0.00021944470645505015 0.014065588747770287 0 -7.1572491196607055e-05 0.014405559313208409 0 -0.00021944470645505015 0.014065588747770287 0 9.5715152404500764e-05 0.013870359293833607 0 1.5948327286487422e-05 0.013236364461638235 0 0.0003699091126382475 0.013820404756398331 0 0.00018994788574500121 0.014105476219541394 0 9.5715152404500764e-05 0.013870359293833607 0 -5.0937189457747305e-05 0.014245746163706432 0 -0.00021944470645505015 0.014065588747770287 0 9.5715152404500764e-05 0.013870359293833607 0 0.00038617353516455689 0.013356282323817045 0 9.5715152404500764e-05 0.013870359293833607 0 1.5948327286487422e-05 0.013236364461638235 0 -0.00026733926431115744 0.014054561542099667 0 -0.000366953845979343 0.013928965507305541 0 -0.00029471736648168702 0.01295287647951297 0 1.5948327286487422e-05 0.013236364461638235 0 -0.00058238069373988679 0.013291998936964023 0 -0.00021944470645505015 0.014065588747770287 0 -0.00020807388399366307 0.01454598122340325 0 -6.0302436283126901e-05 0.014457146082755614 0 -0.00021944470645505015 0.014065588747770287 0 1.5948327286487422e-05 0.013236364461638235 0 -0.00058238069373988679 0.013291998936964023 0 -6.8429382912098112e-05 0.014620540969889625 0 -9.9710679411775692e-06 0.014667161659540212 0 -6.0302436283126901e-05 0.014457146082755614 0 -0.0001505810725241971 0.014714235520886142 0 -0.00020807388399366307 0.01454598122340325 0 -6.8429382912098112e-05 0.014620540969889625 0 -0.00020807388399366307 0.01454598122340325 0 -6.8429382912098112e-05 0.014620540969889625 0 -6.0302436283126901e-05 0.014457146082755614 0 -9.9710679411775692e-06 0.014667161659540212 0 6.4294241337883403e-06 0.014816490812496455 0 -1.394627168512285e-05 0.014712522831776592 0 -6.8429382912098112e-05 0.014620540969889625 0 -9.9710679411775692e-06 0.014667161659540212 0 -1.394627168512285e-05 0.014712522831776592 0 -9.9710679411775692e-06 0.014667161659540212 0 -2.9926372672173565e-05 0.014625464105760006 0 -3.4086675243682023e-06 0.014826125475378614 0 -9.9710679411775692e-06 0.014667161659540212 0 -2.9926372672173565e-05 0.014625464105760006 0 -6.0302436283126901e-05 0.014457146082755614 0 -0.00021944470645505015 0.014065588747770287 0 -6.0302436283126901e-05 0.014457146082755614 0 -7.1572491196607055e-05 0.014405559313208409 0 -2.9926372672173565e-05 0.014625464105760006 0 -6.0302436283126901e-05 0.014457146082755614 0 -7.1572491196607055e-05 0.014405559313208409 0 3.1984442965182037e-06 0.014494479956588332 0 -7.1572491196607055e-05 0.014405559313208409 0 -4.37204404049724e-05 0.014621118302281293 0 -2.9926372672173565e-05 0.014625464105760006 0 -7.1572491196607055e-05 0.014405559313208409 0 -4.37204404049724e-05 0.014621118302281293 0 -2.9926372672173565e-05 0.014625464105760006 0 -4.37204404049724e-05 0.014621118302281293 0 -2.1289338841843902e-05 0.014829794684178344 0 -4.37204404049724e-05 0.014621118302281293 0 -3.5742140172398988e-05 0.014795504787434625 0 -1.7752687133024493e-05 0.014660763401773812 0 3.1984442965182037e-06 0.014494479956588332 0 -4.37204404049724e-05 0.014621118302281293 0 -1.7752687133024493e-05 0.014660763401773812 0 -3.827013476515433e-08 0.014999777855546931 0 -3.5742140172398988e-05 0.014795504787434625 0 -2.1289338841843902e-05 0.014829794684178344 0 -4.37204404049724e-05 0.014621118302281293 0 -3.5742140172398988e-05 0.014795504787434625 0 -2.1289338841843902e-05 0.014829794684178344 0 -3.827013476515433e-08 0.014999777855546931 0 -2.1289338841843902e-05 0.014829794684178344 0 -3.9239238089065041e-09 0.014999770257277369 0 -2.1289338841843902e-05 0.014829794684178344 0 -3.9239238089065041e-09 0.014999770257277369 0 -3.4086675243682023e-06 0.014826125475378614 0 -2.9926372672173565e-05 0.014625464105760006 0 -2.1289338841843902e-05 0.014829794684178344 0 -3.4086675243682023e-06 0.014826125475378614 0 -9.9710679411775692e-06 0.014667161659540212 0 -3.4086675243682023e-06 0.014826125475378614 0 6.4294241337883403e-06 0.014816490812496455 0 -3.4086675243682023e-06 0.014826125475378614 0 4.9180843838552553e-09 0.014999714914432485 0 6.4294241337883403e-06 0.014816490812496455 0 -3.9239238089065041e-09 0.014999770257277369 0 -3.4086675243682023e-06 0.014826125475378614 0 4.9180843838552553e-09 0.014999714914432485 0 4.44630487619927e-08 0.014999953646671046 0 1.880616568599787e-05 0.014911477576677471 0 7.8577891728396046e-09 0.015000056058022284 0 6.8936003646812987e-06 0.014981922840385981 0 -3.0800954429248403e-08 0.014999876808537977 0 7.8577891728396046e-09 0.015000056058022284 0 6.8936003646812987e-06 0.014981922840385981 0 2.47657678089968e-05 0.015009304598372731 0 6.8936003646812987e-06 0.014981922840385981 0 -3.0800954429248403e-08 0.014999876808537977 0 9.8307814583403042e-06 0.01492646123950412 0 6.8936003646812987e-06 0.014981922840385981 0 9.8307814583403042e-06 0.01492646123950412 0 4.7006974943580996e-05 0.014950024531615241 0 9.8307814583403042e-06 0.01492646123950412 0 4.7006974943580996e-05 0.014950024531615241 0 6.1032391977530439e-05 0.014855450216767839 0 4.7006974943580996e-05 0.014950024531615241 0 2.47657678089968e-05 0.015009304598372731 0 0.00012847608393039853 0.015007246795837703 0 6.8936003646812987e-06 0.014981922840385981 0 4.7006974943580996e-05 0.014950024531615241 0 2.47657678089968e-05 0.015009304598372731 0 1.880616568599787e-05 0.014911477576677471 0 0.00012187958112720066 0.01493687521357619 0 0.00012847608393039853 0.015007246795837703 0 0.00019279261728486326 0.014937818708014156 0 0.00012458679165435477 0.014908508721824108 0 4.7006974943580996e-05 0.014950024531615241 0 0.00012847608393039853 0.015007246795837703 0 0.00012458679165435477 0.014908508721824108 0 -0.0001505810725241971 0.014714235520886142 0 -6.8429382912098112e-05 0.014620540969889625 0 -1.394627168512285e-05 0.014712522831776592 0 -0.00038128076861710324 0.013642341139146157 0 0.00012187958112720066 0.01493687521357619 0 0.00027242907279562411 0.014984566404116729 0 0.00012847608393039853 0.015007246795837703 0 0.00019279261728486326 0.014937818708014156 0 0.00027242907279562411 0.014984566404116729 0 0.00019279261728486326 0.014937818708014156 0 0.00025038151882811506 0.014837983899416089 0 -0.00038128076861710324 0.013642341139146157 0 4.8192500783558483e-05 0.013981422618422303 0 0.00019279261728486326 0.014937818708014156 0 0.00025038151882811506 0.014837983899416089 0 0.00012458679165435477 0.014908508721824108 0 0.00025038151882811506 0.014837983899416089 0 0.00012458679165435477 0.014908508721824108 0 0.00011260950595998991 0.01477419668170251 0 0.00012458679165435477 0.014908508721824108 0 0.00011260950595998991 0.01477419668170251 0 6.1032391977530439e-05 0.014855450216767839 0 4.7006974943580996e-05 0.014950024531615241 0 0.00012458679165435477 0.014908508721824108 0 6.1032391977530439e-05 0.014855450216767839 0 0.00011260950595998991 0.01477419668170251 0 8.1798049376609157e-05 0.01471754398090184 0 6.1032391977530439e-05 0.014855450216767839 0 0.00011260950595998991 0.01477419668170251 0 8.1798049376609157e-05 0.01471754398090184 0 0.00011818558077558224 0.014507351319359599 0 0.00025038151882811506 0.014837983899416089 0 0.00011260950595998991 0.01477419668170251 0 0.00011818558077558224 0.014507351319359599 0 -0.0005153642274474949 0.014011973552393486 0 -0.00011499105612326894 0.013092384541588429 0 0.00011818558077558224 0.014507351319359599 0 4.8192500783558483e-05 0.013981422618422303 0 0.00013065636172060406 0.014445142092741541 0 -0.00070621703873216632 0.012867669342855484 0 -0.00082648048033492222 0.012608685739899433 0 -5.9051315454525045e-05 0.01482893953847071 0 -0.0005153642274474949 0.014011973552393486 0 0.00011818558077558224 0.014507351319359599 0 6.1403874235934277e-05 0.014795256104050868 0 0.00012947057053300478 0.014686692084949068 0 0.00011818558077558224 0.014507351319359599 0 0.00012947057053300478 0.014686692084949068 0 8.1798049376609157e-05 0.01471754398090184 0 4.863953641981832e-05 0.014793095450170426 0 0.00012947057053300478 0.014686692084949068 0 8.1798049376609157e-05 0.01471754398090184 0 0.00011818558077558224 0.014507351319359599 0 6.8287013400113432e-06 0.01464758209148599 0 0.00012947057053300478 0.014686692084949068 0 4.863953641981832e-05 0.014793095450170426 0 3.8648571227775652e-05 0.015082207670774497 0 -1.5758316505937447e-05 0.014841936552947963 0 -1.4191983248412957e-05 0.015013463233421591 0 -8.7029177780313507e-09 0.014999828938807995 0 -1.7475350028349815e-05 0.014957403058482727 0 6.8287013400113432e-06 0.01464758209148599 0 4.863953641981832e-05 0.014793095450170426 0 -1.7475350028349815e-05 0.014957403058482727 0 -3.0800954429248403e-08 0.014999876808537977 0 -8.7029177780313507e-09 0.014999828938807995 0 -1.7475350028349815e-05 0.014957403058482727 0 -3.0800954429248403e-08 0.014999876808537977 0 9.8307814583403042e-06 0.01492646123950412 0 -1.7475350028349815e-05 0.014957403058482727 0 4.863953641981832e-05 0.014793095450170426 0 -1.7475350028349815e-05 0.014957403058482727 0 1.8091093450838834e-05 0.014884040938634564 0 9.8307814583403042e-06 0.01492646123950412 0 -1.7475350028349815e-05 0.014957403058482727 0 1.8091093450838834e-05 0.014884040938634564 0 9.8307814583403042e-06 0.01492646123950412 0 4.5534544016022661e-05 0.014817979108971004 0 1.8091093450838834e-05 0.014884040938634564 0 9.8307814583403042e-06 0.01492646123950412 0 6.1032391977530439e-05 0.014855450216767839 0 4.5534544016022661e-05 0.014817979108971004 0 8.1798049376609157e-05 0.01471754398090184 0 4.863953641981832e-05 0.014793095450170426 0 4.5534544016022661e-05 0.014817979108971004 0 8.1798049376609157e-05 0.01471754398090184 0 6.1032391977530439e-05 0.014855450216767839 0 4.5534544016022661e-05 0.014817979108971004 0 4.863953641981832e-05 0.014793095450170426 0 4.5534544016022661e-05 0.014817979108971004 0 1.8091093450838834e-05 0.014884040938634564 0 0.004333658841895606 0.0022450586319780626 0 0.0043885260438399293 0.0019922744778287497 0 0.0040347807616560273 0.002044274293348405 0 0.004333658841895606 0.0022450586319780626 0 0.0040543119841994863 0.0024621229027082373 0 0.0045939605114882825 0.0025012658690635329 0 0.004333658841895606 0.0022450586319780626 0 0.0045939605114882825 0.0025012658690635329 0 0.0045974992311738228 0.0022273965347585339 0 0.004333658841895606 0.0022450586319780626 0 0.0045974992311738228 0.0022273965347585339 0 0.0043885260438399293 0.0019922744778287497 0 0.004333658841895606 0.0022450586319780626 0 0.0040543119841994863 0.0024621229027082373 0 0.0040347807616560273 0.002044274293348405 0 0.0040543119841994863 0.0024621229027082373 0 0.0040347807616560273 0.002044274293348405 0 0.0036773876917807081 0.0021537066007973021 0 0.0038127541519490373 0.0023963051509587551 0 0.0035922593336812714 0.0025859412744346248 0 0.0037796572652732756 0.0026386316814637346 0 0.0038127541519490373 0.0023963051509587551 0 0.0040545236176711113 0.0025175756345508626 0 0.0037796572652732756 0.0026386316814637346 0 0.0039347204644581048 0.0024576156253987187 0 0.0043233096725957343 0.0021837815161631037 0 0.0038127541519490373 0.0023963051509587551 0 0.0040868811565069919 0.0023751205084735477 0 0.0040545236176711113 0.0025175756345508626 0 0.0042438522342503797 0.002395545086804278 0 0.0039648825247981627 0.0024375919956396101 0 0.0040868811565069919 0.0023751205084735477 0 0.0042767219216332157 0.002390771158412526 0 0.0040545236176711113 0.0025175756345508626 0 0.0043233096725957343 0.0021837815161631037 0 0.0048464734254688151 0.0045824386905410769 0 0.0042767219216332157 0.002390771158412526 0 0.0043174324884021125 0.0023267649312830613 0 0.0042898739406193719 0.0025874586964088828 0 0.0056887802822444102 0.0085384743297461738 0 0.0057660391546229522 0.0079320515716677503 0 0.0055406910820767208 0.0082816015549783701 0 0.0040868811565069919 0.0023751205084735477 0 0.0042767219216332157 0.002390771158412526 0 0.0043174324884021125 0.0023267649312830613 0 0.0048464734254688151 0.0045824386905410769 0 0.0050382117533524784 0.0055446918893691825 0 0.0045939605114882825 0.0025012658690635329 0 0.0051349124061222792 0.0025339200121598502 0 0.0048619114266827334 0.0023273575235322154 0 0.0048464734254688151 0.0045824386905410769 0 0.004991451764977616 0.0061974272432551852 0 0.0051349124061222792 0.0025339200121598502 0 0.0050243366272188939 0.0023064528283083022 0 0.0051736505917335876 0.0022327520258952301 0 0.0051349124061222792 0.0025339200121598502 0 0.0048619114266827334 0.0023273575235322154 0 0.0050243366272188939 0.0023064528283083022 0 0.0048619114266827334 0.0023273575235322154 0 0.0050243366272188939 0.0023064528283083022 0 0.004927495822778097 0.0021328837144192763 0 0.0050243366272188939 0.0023064528283083022 0 0.004927495822778097 0.0021328837144192763 0 0.0051736505917335876 0.0022327520258952301 0 0.0045939605114882825 0.0025012658690635329 0 0.0048619114266827334 0.0023273575235322154 0 0.0045974992311738228 0.0022273965347585339 0 0.0048619114266827334 0.0023273575235322154 0 0.004707328099414358 0.0020257722516957496 0 0.004927495822778097 0.0021328837144192763 0 0.0048619114266827334 0.0023273575235322154 0 0.0045974992311738228 0.0022273965347585339 0 0.004707328099414358 0.0020257722516957496 0 0.004707328099414358 0.0020257722516957496 0 0.0048466719008803697 0.0017181840182454108 0 0.0045088150769904464 0.0017773107523834286 0 0.0045974992311738228 0.0022273965347585339 0 0.004707328099414358 0.0020257722516957496 0 0.0043885260438399293 0.0019922744778287497 0 0.004707328099414358 0.0020257722516957496 0 0.004927495822778097 0.0021328837144192763 0 0.0048466719008803697 0.0017181840182454108 0 0.004707328099414358 0.0020257722516957496 0 0.0045088150769904464 0.0017773107523834286 0 0.0043885260438399293 0.0019922744778287497 0 0.004927495822778097 0.0021328837144192763 0 0.0048466719008803697 0.0017181840182454108 0 0.0051736505917335876 0.0022327520258952301 0 0.0051020452341429632 0.0059440752826667772 0 0.004991451764977616 0.0061974272432551852 0 0.0052632167554201945 0.0089383392994041126 0 0.0051602214141268435 0.0086150036762056049 0 0.005147478957379506 0.0090177857476913814 0 0.0052632167554201945 0.0089383392994041126 0 0.005443165955577897 0.0090632672626180209 0 0.0051602214141268435 0.0086150036762056049 0 0.005243285370821648 0.0091089323934410542 0 0.0053670877796776198 0.0090330640585136283 0 0.0054493618197581761 0.0091632916036936424 0 0.0052632167554201945 0.0089383392994041126 0 0.005243285370821648 0.0091089323934410542 0 0.005147478957379506 0.0090177857476913814 0 0.0059603334162157857 0.0087605629975413997 0 0.0051020452341429632 0.0059440752826667772 0 0.0052632167554201945 0.0089383392994041126 0 0.005243285370821648 0.0091089323934410542 0 0.0053670877796776198 0.0090330640585136283 0 0.0048466719008803697 0.0017181840182454108 0 0.0045668465329504688 0.0015054820448751332 0 0.0045088150769904464 0.0017773107523834286 0 0.0051020452341429632 0.0059440752826667772 0 0.0047534547321081144 0.0024404847976929678 0 0.0055097425164043227 0.0052056000222001752 0 0.0040157501455027273 0.0041153574490335448 0 0.0046558916986309037 0.0038959519715185968 0 0.0051020452341429632 0.0059440752826667772 0 0.004058426364886002 0.0054556679444523262 0 0.0045668465329504688 0.0015054820448751332 0 0.0045088150769904464 0.0017773107523834286 0 0.004041323727930618 0.0016466722064250982 0 0.0047865599508763448 0.0013269998550126394 0 0.0041612486044976631 0.0015387080735527556 0 0.0044503632810096293 0.0010784905506854563 0 0.0047534547321081144 0.0024404847976929678 0 0.004109437482806704 0.0014544019040965083 0 0.0045088150769904464 0.0017773107523834286 0 0.0043885260438399293 0.0019922744778287497 0 0.004041323727930618 0.0016466722064250982 0 0.0043885260438399293 0.0019922744778287497 0 0.0040347807616560273 0.002044274293348405 0 0.004041323727930618 0.0016466722064250982 0 0.0041612486044976631 0.0015387080735527556 0 0.0036746261225463588 0.0013383430594345576 0 0.0039463005106469629 0.0010403746394257573 0 0.004109437482806704 0.0014544019040965083 0 0.0035437642205516928 0.0017924963055878495 0 0.0041612486044976631 0.0015387080735527556 0 0.0036746261225463588 0.0013383430594345576 0 0.0035298825273678055 0.0017581992678075092 0 0.0036746261225463588 0.0013383430594345576 0 0.0032854858756186894 0.0013790033461342222 0 0.0035298825273678055 0.0017581992678075092 0 0.0032854858756186894 0.0013790033461342222 0 0.0035298825273678055 0.0017581992678075092 0 0.0031116056822103884 0.001799303798163262 0 0.0035298825273678055 0.0017581992678075092 0 0.0036773876917807081 0.0021537066007973021 0 0.0032960609603968471 0.0021028733595987205 0 0.0035298825273678055 0.0017581992678075092 0 0.0031116056822103884 0.001799303798163262 0 0.0032960609603968471 0.0021028733595987205 0 0.0040347807616560273 0.002044274293348405 0 0.004041323727930618 0.0016466722064250982 0 0.0035298825273678055 0.0017581992678075092 0 0.0040347807616560273 0.002044274293348405 0 0.0035298825273678055 0.0017581992678075092 0 0.0036773876917807081 0.0021537066007973021 0 0.0024596565451051266 0.0014220204638570482 0 0.0029306667984537261 0.001511909977628411 0 0.0029829755410877715 0.0009718060766395431 0 0.0024596565451051266 0.0014220204638570482 0 0.0029306667984537261 0.001511909977628411 0 0.0026377061607034545 0.001702839579084031 0 0.0026518479101797269 2.9890044847158651e-05 0 0.00281685019545959 0.00035337824233681631 0 0.0032854858756186894 0.0013790033461342222 0 0.0029306667984537261 0.001511909977628411 0 0.0031116056822103884 0.001799303798163262 0 0.0029306667984537261 0.001511909977628411 0 0.0031116056822103884 0.001799303798163262 0 0.002830387954101397 0.0019852481866887797 0 0.0031116056822103884 0.001799303798163262 0 0.002830387954101397 0.0019852481866887797 0 0.0032960609603968471 0.0021028733595987205 0 0.0029306667984537261 0.001511909977628411 0 0.002830387954101397 0.0019852481866887797 0 0.0026377061607034545 0.001702839579084031 0 0.0030122271978522681 0.00068048479889640798 0 0.00281685019545959 0.00035337824233681631 0 0.0028482312244554006 -0.00059584687304384872 0 0.0032193966884817519 -0.00061825187781192222 0 0.0029939108530365873 -0.0009902391755706205 0 0.0032193966884817519 -0.00061825187781192222 0 0.0036528569947664831 0.00010778018562470348 0 0.003033555685614385 -0.00012417951599187984 0 0.0028482312244554006 -0.00059584687304384872 0 0.0032193966884817519 -0.00061825187781192222 0 0.003033555685614385 -0.00012417951599187984 0 0.002830387954101397 0.0019852481866887797 0 0.0032046544327522042 0.0024557768899089237 0 0.0032960609603968471 0.0021028733595987205 0 0.0030122271978522681 0.00068048479889640798 0 0.0034957372468201013 0.001255552678188031 0 0.0026627158543030636 0.00023003398457183762 0 0.003033555685614385 -0.00012417951599187984 0 0.0032493877130201393 0.00048206469717376277 0 0.0036528569947664831 0.00010778018562470348 0 0.003033555685614385 -0.00012417951599187984 0 0.0032493877130201393 0.00048206469717376277 0 0.0040543119841994863 0.0024621229027082373 0 0.0036773876917807081 0.0021537066007973021 0 0.0034947684483220072 0.0024068307351725327 0 0.0036773876917807081 0.0021537066007973021 0 0.0032960609603968471 0.0021028733595987205 0 0.0034947684483220072 0.0024068307351725327 0 0.0032046544327522042 0.0024557768899089237 0 0.0034947684483220072 0.0024068307351725327 0 0.0035922593336812714 0.0025859412744346248 0 0.0032046544327522042 0.0024557768899089237 0 0.0032960609603968471 0.0021028733595987205 0 0.0034947684483220072 0.0024068307351725327 0 0.0039347204644581048 0.0024576156253987187 0 0.0035218438786753146 0.002405215572438015 0 0.0038127541519490373 0.0023963051509587551 0 0.0034947684483220072 0.0024068307351725327 0 0.0035922593336812714 0.0025859412744346248 0 0.0032787461358971754 0.0019971554542524434 0 0.0035148382282177057 0.0026401641197197636 0 0.0035922593336812714 0.0025859412744346248 0 0.0034533934433827727 0.0027598365716737135 0 0.0037796572652732756 0.0026386316814637346 0 0.0034957372468201013 0.001255552678188031 0 0.0032787461358971754 0.0019971554542524434 0 0.0032046544327522042 0.0024557768899089237 0 0.0035922593336812714 0.0025859412744346248 0 0.0034533934433827727 0.0027598365716737135 0 0.0025649571805140053 0.0022394339360819276 0 0.0028195589845045753 0.0026045859536961056 0 0.0023312936154479594 0.0026249049734623493 0 0.0028852038458184117 0.0025810504287435256 0 0.0033050864097316337 0.002749552640163435 0 0.0033396744126245638 0.0024572288440899842 0 0.0032787461358971754 0.0019971554542524434 0 0.0029299894406937068 0.0027619999829832076 0 0.0028852038458184117 0.0025810504287435256 0 0.0030565651152493832 0.0028562079679842543 0 0.0033050864097316337 0.002749552640163435 0 0.0028199033356365883 0.0007239428523995588 0 0.0032493877130201393 0.00048206469717376277 0 0.0033183750189175122 0.0010302884220836821 0 0.0026627158543030636 0.00023003398457183762 0 0.0028199033356365883 0.0007239428523995588 0 0.0032493877130201393 0.00048206469717376277 0 0.0036528569947664831 0.00010778018562470348 0 0.0040837374486442481 0.00081938630858958148 0 0.0032493877130201393 0.00048206469717376277 0 0.0040837374486442481 0.00081938630858958148 0 0.0032493877130201393 0.00048206469717376277 0 0.0033183750189175122 0.0010302884220836821 0 0.0025649571805140053 0.0022394339360819276 0 0.0020114849311644745 0.0024427116789183007 0 0.0023312936154479594 0.0026249049734623493 0 0.0032787461358971754 0.0019971554542524434 0 0.0026938676239909851 0.0016753034971646523 0 0.0020977129884214474 0.0018955619726489042 0 0.0026938676239909851 0.0016753034971646523 0 0.0028199033356365883 0.0007239428523995588 0 0.00254076673209702 0.0012409701461675239 0 0.0033183750189175122 0.0010302884220836821 0 0.0016785149644593308 0.0026021445136367722 0 0.0020114849311644745 0.0024427116789183007 0 0.0018486968678801236 0.0028278202432678676 0 0.0018486968678801236 0.0028278202432678676 0 0.0023312936154479594 0.0026249049734623493 0 0.0023107382007030563 0.0030677423131869725 0 0.0020114849311644745 0.0024427116789183007 0 0.0018486968678801236 0.0028278202432678676 0 0.0023312936154479594 0.0026249049734623493 0 0.00172942594773371 0.0032095292393583179 0 0.0018486968678801236 0.0028278202432678676 0 0.0023107382007030563 0.0030677423131869725 0 0.0029299894406937068 0.0027619999829832076 0 0.0031337439269912863 0.0030542232457361623 0 0.0030565651152493832 0.0028562079679842543 0 0.0031514887475848231 0.0030924544187538 0 0.0033050864097316337 0.002749552640163435 0 0.0028195589845045753 0.0026045859536961056 0 0.0027508394634809539 0.0032410529144199802 0 0.0031514887475848231 0.0030924544187538 0 0.0028195589845045753 0.0026045859536961056 0 0.0023312936154479594 0.0026249049734623493 0 0.0023107382007030563 0.0030677423131869725 0 0.0028195589845045753 0.0026045859536961056 0 0.0023107382007030563 0.0030677423131869725 0 0.0027508394634809539 0.0032410529144199802 0 0.003066330421200299 0.0036139514598251352 0 0.0027508394634809539 0.0032410529144199802 0 0.0031514887475848231 0.0030924544187538 0 0.003066330421200299 0.0036139514598251352 0 0.0031514887475848231 0.0030924544187538 0 0.0035581958336895598 0.0034431424809815117 0 0.0031514887475848231 0.0030924544187538 0 0.0035581958336895598 0.0034431424809815117 0 0.0035318056917793875 0.00304303893902473 0 0.0035581958336895598 0.0034431424809815117 0 0.0035318056917793875 0.00304303893902473 0 0.0038965830164283347 0.0032366838505392278 0 0.0040654606129598174 0.003738625418139515 0 0.0035581958336895598 0.0034431424809815117 0 0.0038965830164283347 0.0032366838505392278 0 0.0035318056917793875 0.00304303893902473 0 0.0036308432972503601 0.0028011930473288709 0 0.0038912697166549213 0.0029502490055733511 0 0.0035318056917793875 0.00304303893902473 0 0.0038912697166549213 0.0029502490055733511 0 0.0038965830164283347 0.0032366838505392278 0 0.0031514887475848231 0.0030924544187538 0 0.0035318056917793875 0.00304303893902473 0 0.0033050864097316337 0.002749552640163435 0 0.0035318056917793875 0.00304303893902473 0 0.0033050864097316337 0.002749552640163435 0 0.0036308432972503601 0.0028011930473288709 0 0.0033050864097316337 0.002749552640163435 0 0.0036308432972503601 0.0028011930473288709 0 0.0036165862916263578 0.0025997249013618752 0 0.0033050864097316337 0.002749552640163435 0 0.0036165862916263578 0.0025997249013618752 0 0.0033396744126245638 0.0024572288440899842 0 0.0036308432972503601 0.0028011930473288709 0 0.0036165862916263578 0.0025997249013618752 0 0.0039388491912606743 0.0026310067429480099 0 0.0036308432972503601 0.0028011930473288709 0 0.0039388491912606743 0.0026310067429480099 0 0.0038912697166549213 0.0029502490055733511 0 0.0036165862916263578 0.0025997249013618752 0 0.0038607931308196211 0.0023755728394626021 0 0.0033396744126245638 0.0024572288440899842 0 0.0036165862916263578 0.0025997249013618752 0 0.0038607931308196211 0.0023755728394626021 0 0.0039388491912606743 0.0026310067429480099 0 0.0039648825247981627 0.0024375919956396101 0 0.0035148382282177057 0.0026401641197197636 0 0.0042767219216332157 0.002390771158412526 0 0.0042898739406193719 0.0025874586964088828 0 0.0041112007208729089 0.0025214109645259608 0 0.0042898739406193719 0.0025874586964088828 0 0.0041112007208729089 0.0025214109645259608 0 0.0041448157468847689 0.0026924272282771652 0 0.0042767219216332157 0.002390771158412526 0 0.0038607931308196211 0.0023755728394626021 0 0.0041112007208729089 0.0025214109645259608 0 0.0038607931308196211 0.0023755728394626021 0 0.0041112007208729089 0.0025214109645259608 0 0.0039388491912606743 0.0026310067429480099 0 0.0041112007208729089 0.0025214109645259608 0 0.0039388491912606743 0.0026310067429480099 0 0.0041448157468847689 0.0026924272282771652 0 0.0039388491912606743 0.0026310067429480099 0 0.0040984347410917407 0.0028263550151955094 0 0.0041448157468847689 0.0026924272282771652 0 0.0039388491912606743 0.0026310067429480099 0 0.0040984347410917407 0.0028263550151955094 0 0.0038912697166549213 0.0029502490055733511 0 0.0042898739406193719 0.0025874586964088828 0 0.0041448157468847689 0.0026924272282771652 0 0.0042707983084578965 0.0029627749172069242 0 0.0057660391546229522 0.0079320515716677503 0 0.0058236403368317792 0.0073473273373809503 0 0.0056056074759638138 0.0076240989403352716 0 0.0050382117533524784 0.0055446918893691825 0 0.0049325010201990817 0.0046099594440068689 0 0.0040984347410917407 0.0028263550151955094 0 0.0041448157468847689 0.0026924272282771652 0 0.0042707983084578965 0.0029627749172069242 0 0.0049325010201990817 0.0046099594440068689 0 0.0049085874339740683 0.0039807873657576763 0 0.0043805192163226762 0.0029846668362158457 0 0.0043751870078393195 0.0030716903706991434 0 0.0041675102393523619 0.0030013072175526828 0 0.003753904587702318 0.0027714054698898594 0 0.0049325010201990817 0.0046099594440068689 0 0.0040984347410917407 0.0028263550151955094 0 0.0043805192163226762 0.0029846668362158457 0 0.0041675102393523619 0.0030013072175526828 0 0.0043751870078393195 0.0030716903706991434 0 0.0041675102393523619 0.0030013072175526828 0 0.0042207259685764905 0.0032989089823870802 0 0.0040984347410917407 0.0028263550151955094 0 0.0038912697166549213 0.0029502490055733511 0 0.0041675102393523619 0.0030013072175526828 0 0.0041675102393523619 0.0030013072175526828 0 0.0038965830164283347 0.0032366838505392278 0 0.0042207259685764905 0.0032989089823870802 0 0.0038912697166549213 0.0029502490055733511 0 0.0041675102393523619 0.0030013072175526828 0 0.0038965830164283347 0.0032366838505392278 0 0.0040654606129598174 0.003738625418139515 0 0.0038965830164283347 0.0032366838505392278 0 0.0042207259685764905 0.0032989089823870802 0 0.0040654606129598174 0.003738625418139515 0 0.0042207259685764905 0.0032989089823870802 0 0.0044794115112104871 0.0035557221205295584 0 0.0045012677200543874 0.0033286590227468308 0 0.0042207259685764905 0.0032989089823870802 0 0.0044794115112104871 0.0035557221205295584 0 0.0043751870078393195 0.0030716903706991434 0 0.0045012677200543874 0.0033286590227468308 0 0.0042207259685764905 0.0032989089823870802 0 0.0043751870078393195 0.0030716903706991434 0 0.0045012677200543874 0.0033286590227468308 0 0.004936691239411828 0.0033876365369613702 0 0.0045012677200543874 0.0033286590227468308 0 0.0044794115112104871 0.0035557221205295584 0 0.004936691239411828 0.0033876365369613702 0 0.0046458695248217767 0.0045092964073424353 0 0.0043913498255754146 0.0042948449245593604 0 0.00464886984216071 0.0043264007258382482 0 0.0043948910829892402 0.0038256473034377985 0 0.0053097917118426312 0.0052129811234887967 0 0.0058236403368317792 0.0073473273373809503 0 0.0055104103264232551 0.0073538755406475668 0 0.0052777772571259204 0.0069727235060363987 0 0.0043858716856325971 0.0029882064873037848 0 0.0043751870078393195 0.0030716903706991434 0 0.004936691239411828 0.0033876365369613702 0 0.0049325010201990817 0.0046099594440068689 0 0.0053097917118426312 0.0052129811234887967 0 0.0055104103264232551 0.0073538755406475668 0 0.005286742519874695 0.0072435904258853125 0 0.0052777772571259204 0.0069727235060363987 0 0.0053371869880712991 0.0074721057761630372 0 0.0055104103264232551 0.0073538755406475668 0 0.005286742519874695 0.0072435904258853125 0 0.0053371869880712991 0.0074721057761630372 0 0.0055104103264232551 0.0073538755406475668 0 0.0054629332478592502 0.0075349801326420234 0 0.0058236403368317792 0.0073473273373809503 0 0.0055104103264232551 0.0073538755406475668 0 0.0056056074759638138 0.0076240989403352716 0 0.005286742519874695 0.0072435904258853125 0 0.0052777772571259204 0.0069727235060363987 0 0.0049287093941835997 0.0071373498232345772 0 0.0051061022785063338 0.007398219845644695 0 0.005286742519874695 0.0072435904258853125 0 0.0049287093941835997 0.0071373498232345772 0 0.0051061022785063338 0.007398219845644695 0 0.0049287093941835997 0.0071373498232345772 0 0.0048802351098353632 0.0074639835489118912 0 0.0053371869880712991 0.0074721057761630372 0 0.0051061022785063338 0.007398219845644695 0 0.005286742519874695 0.0072435904258853125 0 0.0058267282831387232 0.0057391154379815386 0 0.0067005831581668316 0.0063794976919108737 0 0.00567350739636731 0.0068219702116818267 0 0.0053097917118426312 0.0052129811234887967 0 0.0053027980347375081 0.0069840480384530173 0 0.0048063533086565424 0.0045613640134852468 0 0.0046458695248217767 0.0045092964073424353 0 0.00464886984216071 0.0043264007258382482 0 0.0053341000544624428 0.0051889328091689231 0 0.0053097917118426312 0.0052129811234887967 0 0.0051680363734914964 0.0062237545895677147 0 0.0046246316315379614 0.0072338024079518356 0 0.00567350739636731 0.0068219702116818267 0 0.0058267282831387232 0.0057391154379815386 0 0.0051680363734914964 0.0062237545895677147 0 0.00567350739636731 0.0068219702116818267 0 0.0044697876363054296 0.0061081058307252967 0 0.0046246316315379614 0.0072338024079518356 0 0.0039020874952284384 0.0068783767958245949 0 0.0051680363734914964 0.0062237545895677147 0 0.0044697876363054296 0.0061081058307252967 0 0.0046246316315379614 0.0072338024079518356 0 0.0046246316315379614 0.0072338024079518356 0 0.0039020874952284384 0.0068783767958245949 0 0.0041187686741831772 0.0075660258300948337 0 0.0046246316315379614 0.0072338024079518356 0 0.0048802351098353632 0.0074639835489118912 0 0.0045728668549458104 0.0077037145730239343 0 0.0046984466524112138 0.0072116107284886195 0 0.0053027980347375081 0.0069840480384530173 0 0.0046246316315379614 0.0072338024079518356 0 0.0049287093941835997 0.0071373498232345772 0 0.0048802351098353632 0.0074639835489118912 0 0.0048802351098353632 0.0074639835489118912 0 0.004826012680221722 0.007728232026023827 0 0.0051087970168053045 0.0076889976231409593 0 0.0048802351098353632 0.0074639835489118912 0 0.004826012680221722 0.007728232026023827 0 0.0045728668549458104 0.0077037145730239343 0 0.004826012680221722 0.007728232026023827 0 0.0045728668549458104 0.0077037145730239343 0 0.0046419851545696804 0.0080573284200383052 0 0.0046246316315379614 0.0072338024079518356 0 0.0045728668549458104 0.0077037145730239343 0 0.0041187686741831772 0.0075660258300948337 0 0.0045728668549458104 0.0077037145730239343 0 0.0041187686741831772 0.0075660258300948337 0 0.0041482622560624792 0.0081066425219917734 0 0.0045728668549458104 0.0077037145730239343 0 0.0046419851545696804 0.0080573284200383052 0 0.0041482622560624792 0.0081066425219917734 0 0.0046419851545696804 0.0080573284200383052 0 0.0041482622560624792 0.0081066425219917734 0 0.0043521181028223829 0.0084672532732952051 0 0.004826012680221722 0.007728232026023827 0 0.0049200912568697127 0.0079189961351852911 0 0.0046419851545696804 0.0080573284200383052 0 0.0049200912568697127 0.0079189961351852911 0 0.0046419851545696804 0.0080573284200383052 0 0.0049133241940587371 0.0082101505951392671 0 0.0046419851545696804 0.0080573284200383052 0 0.0049133241940587371 0.0082101505951392671 0 0.0046939901015775913 0.0083897213460417917 0 0.0049133241940587371 0.0082101505951392671 0 0.005111243366346249 0.0082139637131371339 0 0.0050216898558746049 0.0083691185687369742 0 0.0049133241940587371 0.0082101505951392671 0 0.0050920138915898343 0.0079918769314008299 0 0.005111243366346249 0.0082139637131371339 0 0.0049200912568697127 0.0079189961351852911 0 0.0049133241940587371 0.0082101505951392671 0 0.0050920138915898343 0.0079918769314008299 0 0.0050920138915898343 0.0079918769314008299 0 0.0052676222279216568 0.0078771711928746681 0 0.0052489760618915846 0.0080742619372956292 0 0.0050920138915898343 0.0079918769314008299 0 0.0052489760618915846 0.0080742619372956292 0 0.005111243366346249 0.0082139637131371339 0 0.0052489760618915846 0.0080742619372956292 0 0.005111243366346249 0.0082139637131371339 0 0.0052525367554349988 0.0082222915423108365 0 0.0052489760618915846 0.0080742619372956292 0 0.0052525367554349988 0.0082222915423108365 0 0.0054089666848693473 0.0081471356386158354 0 0.0052525367554349988 0.0082222915423108365 0 0.0054089666848693473 0.0081471356386158354 0 0.0053384546513145061 0.0083208029583219951 0 0.0057660391546229522 0.0079320515716677503 0 0.0054089666848693473 0.0081471356386158354 0 0.0055406910820767208 0.0082816015549783701 0 0.0057660391546229522 0.0079320515716677503 0 0.0054089666848693473 0.0081471356386158354 0 0.0054474665785213287 0.0078918819576775986 0 0.0052676222279216568 0.0078771711928746681 0 0.0052489760618915846 0.0080742619372956292 0 0.0054474665785213287 0.0078918819576775986 0 0.0052489760618915846 0.0080742619372956292 0 0.0054089666848693473 0.0081471356386158354 0 0.0054474665785213287 0.0078918819576775986 0 0.0052676222279216568 0.0078771711928746681 0 0.0054474665785213287 0.0078918819576775986 0 0.0053982574670766448 0.0076924814335482946 0 0.0054474665785213287 0.0078918819576775986 0 0.0053982574670766448 0.0076924814335482946 0 0.0056056074759638138 0.0076240989403352716 0 0.0057660391546229522 0.0079320515716677503 0 0.0054474665785213287 0.0078918819576775986 0 0.0056056074759638138 0.0076240989403352716 0 0.0055104103264232551 0.0073538755406475668 0 0.0056056074759638138 0.0076240989403352716 0 0.0054629332478592502 0.0075349801326420234 0 0.0053982574670766448 0.0076924814335482946 0 0.0056056074759638138 0.0076240989403352716 0 0.0054629332478592502 0.0075349801326420234 0 0.0053371869880712991 0.0074721057761630372 0 0.0053982574670766448 0.0076924814335482946 0 0.0054629332478592502 0.0075349801326420234 0 0.0053371869880712991 0.0074721057761630372 0 0.0051061022785063338 0.007398219845644695 0 0.0051087970168053045 0.0076889976231409593 0 0.0053371869880712991 0.0074721057761630372 0 0.0053982574670766448 0.0076924814335482946 0 0.0051087970168053045 0.0076889976231409593 0 0.0051061022785063338 0.007398219845644695 0 0.0048802351098353632 0.0074639835489118912 0 0.0051087970168053045 0.0076889976231409593 0 0.0049200912568697127 0.0079189961351852911 0 0.0050920138915898343 0.0079918769314008299 0 0.0051087970168053045 0.0076889976231409593 0 0.004826012680221722 0.007728232026023827 0 0.0049200912568697127 0.0079189961351852911 0 0.0051087970168053045 0.0076889976231409593 0 0.0050920138915898343 0.0079918769314008299 0 0.0052676222279216568 0.0078771711928746681 0 0.0051087970168053045 0.0076889976231409593 0 0.0052676222279216568 0.0078771711928746681 0 0.0053982574670766448 0.0076924814335482946 0 0.0051087970168053045 0.0076889976231409593 0 0.0033084627695566722 0.0081105804975620359 0 0.0032462646712479357 0.0080340604613387614 0 0.0033763077672806087 0.0080549794545581224 0 0.0033084627695566722 0.0081105804975620359 0 0.0033584324745707501 0.0081505850309674249 0 0.0033055747909357981 0.008184214815909991 0 0.0032526842215295491 0.008135605498931461 0 0.0033084627695566722 0.0081105804975620359 0 0.0033055747909357981 0.008184214815909991 0 0.0032526842215295491 0.008135605498931461 0 0.0033084627695566722 0.0081105804975620359 0 0.0032462646712479357 0.0080340604613387614 0 0.0031591008421114949 0.00790218560545136 0 0.0031169997045022487 0.0079926089068381341 0 0.0031232328182869994 0.0079343993499262806 0 0.0032524154156105033 0.0080990985975313255 0 0.0028233362180795666 0.0072814196597505943 0 0.0031591008421114949 0.00790218560545136 0 0.0031169997045022487 0.0079926089068381341 0 0.003209233941648093 0.0079092949486349665 0 0.003077075282421305 0.0080193841668208723 0 0.0031169997045022487 0.0079926089068381341 0 0.0031232328182869994 0.0079343993499262806 0 0.0025442173131994534 0.0071513620407123845 0 0.0030036551750096587 0.0076420435075205528 0 0.0031441280993647603 0.0079114476666639309 0 0.003166207732182348 0.0078997407590310365 0 0.0031232328182869994 0.0079343993499262806 0 0.0024969133056485966 0.006188421850414798 0 0.0031226256513381353 0.0075020511862052995 0 0.0032462646712479357 0.0080340604613387614 0 0.0033860738147451445 0.0080348828293701317 0 0.0033763077672806087 0.0080549794545581224 0 0.0032462646712479357 0.0080340604613387614 0 0.0033958921166792498 0.0079521121947534155 0 0.0033860738147451445 0.0080348828293701317 0 0.0029558566043875779 0.0067582550750151333 0 0.0027201052556003677 0.0068849118835537498 0 0.0026607828449684576 0.0072872378711242259 0 0.0028233362180795666 0.0072814196597505943 0 0.0031226256513381353 0.0075020511862052995 0 0.0031226256513381353 0.0075020511862052995 0 0.0031079424360440189 0.0076300406946102333 0 0.0032266452555134765 0.007018670242726845 0 0.0031871464832111513 0.0075409013971456792 0 0.0034565255898409467 0.0073098847815734501 0 0.0033903554961204601 0.0080342851092068453 0 0.0033763077672806087 0.0080549794545581224 0 0.0033584324745707501 0.0081505850309674249 0 0.0031226256513381353 0.0075020511862052995 0 0.0032862729420116347 0.0078408372808598525 0 0.0033084627695566722 0.0081105804975620359 0 0.0033763077672806087 0.0080549794545581224 0 0.0033584324745707501 0.0081505850309674249 0 0.0031871464832111513 0.0075409013971456792 0 0.0034565255898409467 0.0073098847815734501 0 0.0034960452377629306 0.0076907440291378174 0 0.0034565255898409467 0.0073098847815734501 0 0.0037086297725194314 0.0075999467861441721 0 0.0034960452377629306 0.0076907440291378174 0 0.0034565255898409467 0.0073098847815734501 0 0.0036852785327485425 0.0071641994842194237 0 0.0037086297725194314 0.0075999467861441721 0 0.0034565255898409467 0.0073098847815734501 0 0.0036852785327485425 0.0071641994842194237 0 0.0034730301521564404 0.0069989904774704417 0 0.0032266452555134765 0.007018670242726845 0 0.0034565255898409467 0.0073098847815734501 0 0.0034730301521564404 0.0069989904774704417 0 0.0034680819229368047 0.0066489488643201259 0 0.0034730301521564404 0.0069989904774704417 0 0.0036096921409763858 0.0068508616643473113 0 0.0034680819229368047 0.0066489488643201259 0 0.0032266452555134765 0.007018670242726845 0 0.0034730301521564404 0.0069989904774704417 0 0.0035344527685496176 0.0066272611890721275 0 0.0036096921409763858 0.0068508616643473113 0 0.0039020874952284384 0.0068783767958245949 0 0.0034680819229368047 0.0066489488643201259 0 0.0035344527685496176 0.0066272611890721275 0 0.0036096921409763858 0.0068508616643473113 0 0.0036852785327485425 0.0071641994842194237 0 0.0034730301521564404 0.0069989904774704417 0 0.0036096921409763858 0.0068508616643473113 0 0.0037120247176822786 0.0057514568874459252 0 0.0044697876363054296 0.0061081058307252967 0 0.0039020874952284384 0.0068783767958245949 0 0.0023622185699423352 0.0057700645549798001 0 0.0041181551228499829 0.0070201861870146931 0 0.0037120247176822786 0.0057514568874459252 0 0.0025481215570635147 0.0055693744305008123 0 0.0039020874952284384 0.0068783767958245949 0 0.0036852785327485425 0.0071641994842194237 0 0.0036096921409763858 0.0068508616643473113 0 0.0039020874952284384 0.0068783767958245949 0 0.0036852785327485425 0.0071641994842194237 0 0.0041187686741831772 0.0075660258300948337 0 0.0037086297725194314 0.0075999467861441721 0 0.0036852785327485425 0.0071641994842194237 0 0.0039020874952284384 0.0068783767958245949 0 0.0041187686741831772 0.0075660258300948337 0 0.0041187686741831772 0.0075660258300948337 0 0.0038840945732958642 0.0078995751683379641 0 0.0037086297725194314 0.0075999467861441721 0 0.0041187686741831772 0.0075660258300948337 0 0.0038840945732958642 0.0078995751683379641 0 0.0041482622560624792 0.0081066425219917734 0 0.0038840945732958642 0.0078995751683379641 0 0.0041482622560624792 0.0081066425219917734 0 0.0036836054832165002 0.0083906535331121652 0 0.0038840945732958642 0.0078995751683379641 0 0.0036192048710197611 0.0080089858543739983 0 0.0036836054832165002 0.0083906535331121652 0 0.0036192048710197611 0.0080089858543739983 0 0.0033255639183661025 0.0081739624014745063 0 0.0036836054832165002 0.0083906535331121652 0 0.0038840945732958642 0.0078995751683379641 0 0.0036192048710197611 0.0080089858543739983 0 0.0037086297725194314 0.0075999467861441721 0 0.0036192048710197611 0.0080089858543739983 0 0.0037086297725194314 0.0075999467861441721 0 0.0034960452377629306 0.0076907440291378174 0 0.0033584324745707501 0.0081505850309674249 0 0.0033255639183661025 0.0081739624014745063 0 0.0033055747909357981 0.008184214815909991 0 0.0032862729420116347 0.0078408372808598525 0 0.0032997163003308416 0.0081075380757694351 0 0.0031871464832111513 0.0075409013971456792 0 0.0034960452377629306 0.0076907440291378174 0 0.0033255639183661025 0.0081739624014745063 0 0.0036192048710197611 0.0080089858543739983 0 0.0034960452377629306 0.0076907440291378174 0 0.0033255639183661025 0.0081739624014745063 0 0.0033255639183661025 0.0081739624014745063 0 0.003390802319962681 0.0084837147216217934 0 0.0036836054832165002 0.0083906535331121652 0 0.0032557676266356615 0.0085292367588988144 0 0.0032819491249121615 0.008302793176810111 0 0.003390802319962681 0.0084837147216217934 0 0.0033255639183661025 0.0081739624014745063 0 0.0032819491249121615 0.008302793176810111 0 0.003390802319962681 0.0084837147216217934 0 0.0032156151162876716 0.0082144685185355868 0 0.0032819491249121615 0.008302793176810111 0 0.0033055747909357981 0.008184214815909991 0 0.0033255639183661025 0.0081739624014745063 0 0.0032819491249121615 0.008302793176810111 0 0.0033055747909357981 0.008184214815909991 0 0.0032156151162876716 0.0082144685185355868 0 0.0032526842215295491 0.008135605498931461 0 0.0033055747909357981 0.008184214815909991 0 0.0033774880210855353 0.0088614587682465749 0 0.0033326029817352045 0.0086887702620976476 0 0.0034772793087346409 0.0086949578666843282 0 0.0032638982521228637 0.0090836786185646452 0 0.0033774880210855353 0.0088614587682465749 0 0.0033326029817352045 0.0086887702620976476 0 0.0032557676266356615 0.0085292367588988144 0 0.0033326029817352045 0.0086887702620976476 0 0.003390802319962681 0.0084837147216217934 0 0.0034772793087346409 0.0086949578666843282 0 0.003390802319962681 0.0084837147216217934 0 0.0036836054832165002 0.0083906535331121652 0 0.0033326029817352045 0.0086887702620976476 0 0.0034772793087346409 0.0086949578666843282 0 0.003390802319962681 0.0084837147216217934 0 0.0033774880210855353 0.0088614587682465749 0 0.0034772793087346409 0.0086949578666843282 0 0.0036552074227530606 0.0088322548220043148 0 0.0038353860088305002 0.0090143194376933206 0 0.0042930452200331927 0.008987208185142842 0 0.00411409108769001 0.0091673588488786414 0 0.0035981779120038103 0.0089535872400022774 0 0.0039743355182704082 0.008909101732449607 0 0.0036552074227530606 0.0088322548220043148 0 0.0036836054832165002 0.0083906535331121652 0 0.0039185744387413611 0.0085876825579135722 0 0.0034772793087346409 0.0086949578666843282 0 0.0036552074227530606 0.0088322548220043148 0 0.0036836054832165002 0.0083906535331121652 0 0.0041482622560624792 0.0081066425219917734 0 0.0039185744387413611 0.0085876825579135722 0 0.0043521181028223829 0.0084672532732952051 0 0.0041482622560624792 0.0081066425219917734 0 0.0036836054832165002 0.0083906535331121652 0 0.0039185744387413611 0.0085876825579135722 0 0.0039185744387413611 0.0085876825579135722 0 0.0041263444619264473 0.0088233948921967072 0 0.0043521181028223829 0.0084672532732952051 0 0.0039743355182704082 0.008909101732449607 0 0.0043336856446731043 0.0088733121783078506 0 0.0036552074227530606 0.0088322548220043148 0 0.0039185744387413611 0.0085876825579135722 0 0.0041263444619264473 0.0088233948921967072 0 0.0042930452200331927 0.008987208185142842 0 0.0045179929971201349 0.0089425528732099361 0 0.0044766056866450913 0.0091072252520445814 0 0.0044766056866450913 0.0091072252520445814 0 0.0044858086042546784 0.009268869090728547 0 0.0046204068025938218 0.0090461368865344498 0 0.0044766056866450913 0.0091072252520445814 0 0.0044858086042546784 0.009268869090728547 0 0.0044002755725817107 0.009218285617071777 0 0.0045179929971201349 0.0089425528732099361 0 0.0044766056866450913 0.0091072252520445814 0 0.0046204068025938218 0.0090461368865344498 0 0.0044858086042546784 0.009268869090728547 0 0.0044263923689726896 0.009442754173486393 0 0.0044606055430648703 0.0093952724341020821 0 0.0044858086042546784 0.009268869090728547 0 0.0044263923689726896 0.009442754173486393 0 0.0044002755725817107 0.009218285617071777 0 0.0042930452200331927 0.008987208185142842 0 0.0044002755725817107 0.009218285617071777 0 0.00411409108769001 0.0091673588488786414 0 0.0042930452200331927 0.008987208185142842 0 0.0044766056866450913 0.0091072252520445814 0 0.0044002755725817107 0.009218285617071777 0 0.0043839178163324706 0.0092394040164120173 0 0.0040610715803595047 0.0093805267293605461 0 0.0044002755725817107 0.009218285617071777 0 0.00411409108769001 0.0091673588488786414 0 0.0038920156457802457 0.0094503769105999964 0 0.0038353860088305002 0.0090143194376933206 0 0.00411409108769001 0.0091673588488786414 0 0.0038920156457802457 0.0094503769105999964 0 0.0044263923689726896 0.009442754173486393 0 0.0044002755725817107 0.009218285617071777 0 0.0042332687453361115 0.0093238279455532969 0 0.0044263923689726896 0.009442754173486393 0 0.0042332687453361115 0.0093238279455532969 0 0.0041486928719870935 0.0096698848313904774 0 0.0035404263625005111 0.0095832896393425113 0 0.0040610715803595047 0.0093805267293605461 0 0.003770112384972441 0.0094864149385462757 0 0.0042332687453361115 0.0093238279455532969 0 0.0041486928719870935 0.0096698848313904774 0 0.0033176009588560601 0.0096434007501240461 0 0.0038920156457802457 0.0094503769105999964 0 0.0035795874297279294 0.0093021475128512478 0 0.0038353860088305002 0.0090143194376933206 0 0.0038920156457802457 0.0094503769105999964 0 0.0035795874297279294 0.0093021475128512478 0 0.0049863184573713561 0.0087455287844772286 0 0.0051387508344226587 0.0087181366191951583 0 0.0051495823414077395 0.0086058104879185148 0 0.0049863184573713561 0.0087455287844772286 0 0.0048112657003378427 0.0089367040217833774 0 0.0049716603899941023 0.0089316733584859104 0 0.0049863184573713561 0.0087455287844772286 0 0.0050952332032176192 0.0088238900359320031 0 0.0049716603899941023 0.0089316733584859104 0 0.0049863184573713561 0.0087455287844772286 0 0.0050952332032176192 0.0088238900359320031 0 0.0051387508344226587 0.0087181366191951583 0 0.0050952332032176192 0.0088238900359320031 0 0.0052398065749462864 0.0088053875824503029 0 0.0051387508344226587 0.0087181366191951583 0 0.0050952332032176192 0.0088238900359320031 0 0.0052398065749462864 0.0088053875824503029 0 0.0050996272840047197 0.0089259354954508881 0 0.0052398065749462864 0.0088053875824503029 0 0.0051387508344226587 0.0087181366191951583 0 0.0051857022293986107 0.0086269005081468474 0 0.004941079705342852 0.006270527388599581 0 0.0049683084803258219 0.0060290943291506161 0 0.0051293299256470982 0.0062725806393592494 0 0.004991451764977616 0.0061974272432551852 0 0.0054821364827373183 0.0076297314052568609 0 0.0051387508344226587 0.0087181366191951583 0 0.0051857022293986107 0.0086269005081468474 0 0.0051495823414077395 0.0086058104879185148 0 0.0054821364827373183 0.0076297314052568609 0 0.0052257523033605998 0.0080116157949587912 0 0.0054221003730824963 0.0086083239000242506 0 0.0053417330434774946 0.0084879385049942222 0 0.0051495823414077395 0.0086058104879185148 0 0.0054821364827373183 0.0076297314052568609 0 0.005578529017816785 0.0079319858312554958 0 0.0054024590310801802 0.008563771639751111 0 0.0053417330434774946 0.0084879385049942222 0 0.0054574021152841365 0.008424289699334649 0 0.0053417330434774946 0.0084879385049942222 0 0.0052017525194581722 0.0084647513509506604 0 0.0051495823414077395 0.0086058104879185148 0 0.0056887802822444102 0.0085384743297461738 0 0.0054024590310801802 0.008563771639751111 0 0.0054574021152841365 0.008424289699334649 0 0.0048464734254688151 0.0045824386905410769 0 0.0054821364827373183 0.0076297314052568609 0 0.0056887802822444102 0.0085384743297461738 0 0.0055406910820767208 0.0082816015549783701 0 0.0054574021152841365 0.008424289699334649 0 0.0054089666848693473 0.0081471356386158354 0 0.0055406910820767208 0.0082816015549783701 0 0.0053384546513145061 0.0083208029583219951 0 0.0055406910820767208 0.0082816015549783701 0 0.0054574021152841365 0.008424289699334649 0 0.0053384546513145061 0.0083208029583219951 0 0.0053417330434774946 0.0084879385049942222 0 0.0053384546513145061 0.0083208029583219951 0 0.0052017525194581722 0.0084647513509506604 0 0.0053417330434774946 0.0084879385049942222 0 0.0054574021152841365 0.008424289699334649 0 0.0053384546513145061 0.0083208029583219951 0 0.005111243366346249 0.0082139637131371339 0 0.0052525367554349988 0.0082222915423108365 0 0.0051568933928037566 0.0083614338102366362 0 0.0052525367554349988 0.0082222915423108365 0 0.0053384546513145061 0.0083208029583219951 0 0.0051568933928037566 0.0083614338102366362 0 0.005111243366346249 0.0082139637131371339 0 0.0051568933928037566 0.0083614338102366362 0 0.0050216898558746049 0.0083691185687369742 0 0.0051568933928037566 0.0083614338102366362 0 0.0050465343598355052 0.0085314287425964988 0 0.0050216898558746049 0.0083691185687369742 0 0.0051568933928037566 0.0083614338102366362 0 0.0052017525194581722 0.0084647513509506604 0 0.0050465343598355052 0.0085314287425964988 0 0.0053384546513145061 0.0083208029583219951 0 0.0051568933928037566 0.0083614338102366362 0 0.0052017525194581722 0.0084647513509506604 0 0.0049863184573713561 0.0087455287844772286 0 0.0050465343598355052 0.0085314287425964988 0 0.0051495823414077395 0.0086058104879185148 0 0.0052017525194581722 0.0084647513509506604 0 0.0050465343598355052 0.0085314287425964988 0 0.0051495823414077395 0.0086058104879185148 0 0.0049863184573713561 0.0087455287844772286 0 0.0050465343598355052 0.0085314287425964988 0 0.0048895447387336706 0.0085183547357747524 0 0.0050465343598355052 0.0085314287425964988 0 0.0050216898558746049 0.0083691185687369742 0 0.0048895447387336706 0.0085183547357747524 0 0.0049133241940587371 0.0082101505951392671 0 0.0050216898558746049 0.0083691185687369742 0 0.0048895447387336706 0.0085183547357747524 0 0.0046939901015775913 0.0083897213460417917 0 0.0043521181028223829 0.0084672532732952051 0 0.0047022541093199761 0.0087833141317994398 0 0.0046939901015775913 0.0083897213460417917 0 0.0048895447387336706 0.0085183547357747524 0 0.0047022541093199761 0.0087833141317994398 0 0.0049133241940587371 0.0082101505951392671 0 0.0046939901015775913 0.0083897213460417917 0 0.0048895447387336706 0.0085183547357747524 0 0.0046419851545696804 0.0080573284200383052 0 0.0046939901015775913 0.0083897213460417917 0 0.0043521181028223829 0.0084672532732952051 0 0.0043336856446731043 0.0088733121783078506 0 0.0046858783936109269 0.0088006438781950708 0 0.0041263444619264473 0.0088233948921967072 0 0.0043521181028223829 0.0084672532732952051 0 0.0047022541093199761 0.0087833141317994398 0 0.0045179929971201349 0.0089425528732099361 0 0.0047022541093199761 0.0087833141317994398 0 0.0046204068025938218 0.0090461368865344498 0 0.0049863184573713561 0.0087455287844772286 0 0.0047022541093199761 0.0087833141317994398 0 0.0048112657003378427 0.0089367040217833774 0 0.0049863184573713561 0.0087455287844772286 0 0.0048895447387336706 0.0085183547357747524 0 0.0047022541093199761 0.0087833141317994398 0 0.0047022541093199761 0.0087833141317994398 0 0.0048112657003378427 0.0089367040217833774 0 0.0046204068025938218 0.0090461368865344498 0 0.0046204068025938218 0.0090461368865344498 0 0.0046143020991906069 0.0092138623271594 0 0.0047946094530793961 0.0090965083230972934 0 0.0048112657003378427 0.0089367040217833774 0 0.0046204068025938218 0.0090461368865344498 0 0.0047946094530793961 0.0090965083230972934 0 0.0044858086042546784 0.009268869090728547 0 0.0046143020991906069 0.0092138623271594 0 0.0044715823777524795 0.0093825597337256934 0 0.0044858086042546784 0.009268869090728547 0 0.0046204068025938218 0.0090461368865344498 0 0.0046143020991906069 0.0092138623271594 0 0.0047946094530793961 0.0090965083230972934 0 0.004883293858117678 0.0092037851219657126 0 0.0046985610902183766 0.0093027636734501675 0 0.0046143020991906069 0.0092138623271594 0 0.0047946094530793961 0.0090965083230972934 0 0.0046985610902183766 0.0093027636734501675 0 0.0047946094530793961 0.0090965083230972934 0 0.004883293858117678 0.0092037851219657126 0 0.004996621086675211 0.0090573652808720734 0 0.004883293858117678 0.0092037851219657126 0 0.004996621086675211 0.0090573652808720734 0 0.005048040553641611 0.0091856200791348413 0 0.0047946094530793961 0.0090965083230972934 0 0.004996621086675211 0.0090573652808720734 0 0.0049716603899941023 0.0089316733584859104 0 0.004996621086675211 0.0090573652808720734 0 0.0049716603899941023 0.0089316733584859104 0 0.0050996272840047197 0.0089259354954508881 0 0.0050952332032176192 0.0088238900359320031 0 0.0049716603899941023 0.0089316733584859104 0 0.0050996272840047197 0.0089259354954508881 0 0.0048112657003378427 0.0089367040217833774 0 0.0047946094530793961 0.0090965083230972934 0 0.0049716603899941023 0.0089316733584859104 0 0.0052398065749462864 0.0088053875824503029 0 0.0050996272840047197 0.0089259354954508881 0 0.005147478957379506 0.0090177857476913814 0 0.004991451764977616 0.0061974272432551852 0 0.0051026572768880932 0.0099245907376457627 0 0.004996621086675211 0.0090573652808720734 0 0.0050996272840047197 0.0089259354954508881 0 0.005147478957379506 0.0090177857476913814 0 0.005243285370821648 0.0091089323934410542 0 0.005147478957379506 0.0090177857476913814 0 0.005048040553641611 0.0091856200791348413 0 0.004996621086675211 0.0090573652808720734 0 0.005147478957379506 0.0090177857476913814 0 0.005048040553641611 0.0091856200791348413 0 0.005048040553641611 0.0091856200791348413 0 0.0051673482516981168 0.0093087117272368045 0 0.0048623537309667262 0.0094223856653207066 0 0.005243285370821648 0.0091089323934410542 0 0.005048040553641611 0.0091856200791348413 0 0.0051673482516981168 0.0093087117272368045 0 0.0036743811779337897 0.0096912550801768159 0 0.0040859022410768579 0.0091600210137267411 0 0.0025891301235605397 0.0091484055595574421 0 0.0028713467386673273 0.0087398563083337759 0 0.0025067571239684424 0.0086183585267869053 0 0.0025891301235605397 0.0091484055595574421 0 0.0028713467386673273 0.0087398563083337759 0 0.0031844445120276237 0.009026166501600737 0 0.0028713467386673273 0.0087398563083337759 0 0.0031844445120276237 0.009026166501600737 0 0.0033050349469405252 0.0088124411005035003 0 0.004883293858117678 0.0092037851219657126 0 0.005048040553641611 0.0091856200791348413 0 0.0048623537309667262 0.0094223856653207066 0 0.004883293858117678 0.0092037851219657126 0 0.0048623537309667262 0.0094223856653207066 0 0.0046985610902183766 0.0093027636734501675 0 0.0046985610902183766 0.0093027636734501675 0 0.0044715823777524795 0.0093825597337256934 0 0.0045524605515395973 0.0094357984170439554 0 0.0046143020991906069 0.0092138623271594 0 0.0046985610902183766 0.0093027636734501675 0 0.0044715823777524795 0.0093825597337256934 0 0.0044715823777524795 0.0093825597337256934 0 0.0045524605515395973 0.0094357984170439554 0 0.0043008219336907599 0.0092375301655117648 0 0.0041455728225114055 0.0092328917767251686 0 0.0043283114380474053 0.0092132397196822736 0 0.0048623537309667262 0.0094223856653207066 0 0.0046985610902183766 0.0093027636734501675 0 0.0045524605515395973 0.0094357984170439554 0 0.0031844445120276237 0.009026166501600737 0 0.0033050349469405252 0.0088124411005035003 0 0.0037136213294388515 0.0090219930660007611 0 0.0040859022410768579 0.0091600210137267411 0 0.0041455728225114055 0.0092328917767251686 0 0.0033050349469405252 0.0088124411005035003 0 0.0037136213294388515 0.0090219930660007611 0 0.0035432510365366954 0.0087567406901591545 0 0.0035432510365366954 0.0087567406901591545 0 0.0033617505894802521 0.0083421295129002659 0 0.0035393399870797572 0.0080804605920351547 0 0.0037136213294388515 0.0090219930660007611 0 0.0035432510365366954 0.0087567406901591545 0 0.0038971534338533309 0.0088565705245571055 0 0.0035432510365366954 0.0087567406901591545 0 0.0038971534338533309 0.0088565705245571055 0 0.0037962588589210288 0.0085103173767478672 0 0.0037136213294388515 0.0090219930660007611 0 0.0038971534338533309 0.0088565705245571055 0 0.0043008219336907599 0.0092375301655117648 0 0.0038971534338533309 0.0088565705245571055 0 0.0037962588589210288 0.0085103173767478672 0 0.0042736070396666636 0.0087303944258995594 0 0.0035432510365366954 0.0087567406901591545 0 0.0040446098040753135 0.0078518799360518653 0 0.0035393399870797572 0.0080804605920351547 0 0.0035580967058224207 0.0087409295534130998 0 0.003904674455471263 0.0081788859553769619 0 0.0040446098040753135 0.0078518799360518653 0 0.0035393399870797572 0.0080804605920351547 0 0.0034697096736898323 0.0077728559726857552 0 0.0033617505894802521 0.0083421295129002659 0 0.0035393399870797572 0.0080804605920351547 0 0.0032512801931578678 0.0080709114419812312 0 0.0035393399870797572 0.0080804605920351547 0 0.0032512801931578678 0.0080709114419812312 0 0.0034697096736898323 0.0077728559726857552 0 0.0032512801931578678 0.0080709114419812312 0 0.00315893249595786 0.007773156532693371 0 0.0034697096736898323 0.0077728559726857552 0 0.0033617505894802521 0.0083421295129002659 0 0.0032512801931578678 0.0080709114419812312 0 0.0031431105196501503 0.0084682242441430217 0 0.0032512801931578678 0.0080709114419812312 0 0.0029288831591469376 0.0081347981525867266 0 0.0031431105196501503 0.0084682242441430217 0 0.0029288831591469376 0.0081347981525867266 0 0.0027697114722748349 0.0077862319088917477 0 0.00315893249595786 0.007773156532693371 0 0.0032512801931578678 0.0080709114419812312 0 0.0029288831591469376 0.0081347981525867266 0 0.00315893249595786 0.007773156532693371 0 0.0029288831591469376 0.0081347981525867266 0 0.002606473756494893 0.0082227212354488051 0 0.0027697114722748349 0.0077862319088917477 0 0.0027988706365590994 0.0075638123083441077 0 0.002465305581432967 0.0077059745062541488 0 0.0029288831591469376 0.0081347981525867266 0 0.0027971688586465905 0.0084217317150147367 0 0.002606473756494893 0.0082227212354488051 0 0.0028713467386673273 0.0087398563083337759 0 0.0027971688586465905 0.0084217317150147367 0 0.0025067571239684424 0.0086183585267869053 0 0.0027971688586465905 0.0084217317150147367 0 0.002606473756494893 0.0082227212354488051 0 0.0025067571239684424 0.0086183585267869053 0 0.0028713467386673273 0.0087398563083337759 0 0.0027971688586465905 0.0084217317150147367 0 0.0031431105196501503 0.0084682242441430217 0 0.0028713467386673273 0.0087398563083337759 0 0.0033050349469405252 0.0088124411005035003 0 0.0031431105196501503 0.0084682242441430217 0 0.0033050349469405252 0.0088124411005035003 0 0.0035432510365366954 0.0087567406901591545 0 0.0031431105196501503 0.0084682242441430217 0 0.0035432510365366954 0.0087567406901591545 0 0.0033617505894802521 0.0083421295129002659 0 0.0031431105196501503 0.0084682242441430217 0 0.0029288831591469376 0.0081347981525867266 0 0.0027971688586465905 0.0084217317150147367 0 0.0031431105196501503 0.0084682242441430217 0 0.0040806389287992659 0.01000397683303871 0 0.0041486928719870935 0.0096698848313904774 0 0.0045484348761222716 0.0096675964767255623 0 0.0044263923689726896 0.009442754173486393 0 0.0041486928719870935 0.0096698848313904774 0 0.0045484348761222716 0.0096675964767255623 0 0.0045484348761222716 0.0096675964767255623 0 0.0044591031085381714 0.0094758830017597408 0 0.0045481202560478558 0.009180678354926107 0 0.0044591031085381714 0.0094758830017597408 0 0.0043008219336907599 0.0092375301655117648 0 0.0045481202560478558 0.009180678354926107 0 0.0044263923689726896 0.009442754173486393 0 0.0044591031085381714 0.0094758830017597408 0 0.0044606055430648703 0.0093952724341020821 0 0.0044263923689726896 0.009442754173486393 0 0.0045484348761222716 0.0096675964767255623 0 0.0044591031085381714 0.0094758830017597408 0 0.0044715823777524795 0.0093825597337256934 0 0.0044591031085381714 0.0094758830017597408 0 0.0044606055430648703 0.0093952724341020821 0 0.0044858086042546784 0.009268869090728547 0 0.0044715823777524795 0.0093825597337256934 0 0.0044606055430648703 0.0093952724341020821 0 0.0044715823777524795 0.0093825597337256934 0 0.0044591031085381714 0.0094758830017597408 0 0.0043008219336907599 0.0092375301655117648 0 0.0038971534338533309 0.0088565705245571055 0 0.0043008219336907599 0.0092375301655117648 0 0.0042736070396666636 0.0087303944258995594 0 0.0043008219336907599 0.0092375301655117648 0 0.0042736070396666636 0.0087303944258995594 0 0.0045481202560478558 0.009180678354926107 0 0.0037962588589210288 0.0085103173767478672 0 0.0042736070396666636 0.0087303944258995594 0 0.004198018424274765 0.0082745701271306916 0 0.004781171133261498 0.0085521238422935804 0 0.0045481202560478558 0.009180678354926107 0 0.0049942033424790313 0.0089893929988780694 0 0.0042736070396666636 0.0087303944258995594 0 0.004781171133261498 0.0085521238422935804 0 0.0045481202560478558 0.009180678354926107 0 0.0042736070396666636 0.0087303944258995594 0 0.004781171133261498 0.0085521238422935804 0 0.0045436503603685828 0.0082584284624993062 0 0.0040806389287992659 0.01000397683303871 0 0.0045484348761222716 0.0096675964767255623 0 0.0044899207202506643 0.010343848693972668 0 0.004591430762826647 0.0097038261351035625 0 0.0047322449392972667 0.0095133538567926685 0 0.0045484348761222716 0.0096675964767255623 0 0.0045481202560478558 0.009180678354926107 0 0.0049942033424790313 0.0089893929988780694 0 0.0047322449392972667 0.0095133538567926685 0 0.0048980310067807935 0.010136731685741755 0 0.0044899207202506643 0.010343848693972668 0 0.0040584082381718801 0.010442100219292545 0 0.0044444095813258458 0.010819123612923358 0 0.004781171133261498 0.0085521238422935804 0 0.0049942033424790313 0.0089893929988780694 0 0.005246688442599381 0.0082392429554110167 0 0.0041244941198617102 0.011253959518342913 0 0.0048980310067807935 0.010136731685741755 0 0.0041653775539606756 0.01164834905936794 0 0.0042128659836859041 0.012076546982571146 0 0.0046250701388088162 0.012113300659244479 0 0.0040806389287992659 0.01000397683303871 0 0.0044899207202506643 0.010343848693972668 0 0.0040584082381718801 0.010442100219292545 0 0.0041585466260328427 0.012785075273692678 0 0.0043775569083075927 0.012512737080264161 0 0.0045674077210639125 0.012803668927087918 0 0.0043775569083075927 0.012512737080264161 0 0.004103387709127969 0.012374899311079594 0 0.0043348800333359305 0.012279534620048518 0 0.0041585466260328427 0.012785075273692678 0 0.0043775569083075927 0.012512737080264161 0 0.004103387709127969 0.012374899311079594 0 0.004103387709127969 0.012374899311079594 0 0.0042128659836859041 0.012076546982571146 0 0.0043348800333359305 0.012279534620048518 0 0.0042128659836859041 0.012076546982571146 0 0.0043348800333359305 0.012279534620048518 0 0.0046250701388088162 0.012113300659244479 0 0.0043775569083075927 0.012512737080264161 0 0.0043348800333359305 0.012279534620048518 0 0.0046250701388088162 0.012113300659244479 0 0.0048980310067807935 0.010136731685741755 0 0.0046445510416835379 0.0094145715893450624 0 0.004781171133261498 0.0085521238422935804 0 0.005246688442599381 0.0082392429554110167 0 0.0049163571875243594 0.00818594167018993 0 0.0053050641943009633 0.0082699971529067561 0 0.0051655699819338555 0.0081175624326862462 0 0.0051316168752609179 0.0076857453643268603 0 0.0049163571875243594 0.00818594167018993 0 0.0051655699819338555 0.0081175624326862462 0 0.0049995133978834507 0.0079743622451064859 0 0.0051655699819338555 0.0081175624326862462 0 0.0049995133978834507 0.0079743622451064859 0 0.0051316168752609179 0.0076857453643268603 0 0.005246688442599381 0.0082392429554110167 0 0.0049163571875243594 0.00818594167018993 0 0.0051655699819338555 0.0081175624326862462 0 0.0053050641943009633 0.0082699971529067561 0 0.0051316168752609179 0.0076857453643268603 0 0.0054788443368016309 0.0071771218516777759 0 0.0048980310067807935 0.010136731685741755 0 0.0049974533900666801 0.0099483622751593264 0 0.0049995133978834507 0.0079743622451064859 0 0.0051316168752609179 0.0076857453643268603 0 0.0047952956776204292 0.007896288853333034 0 0.0043775569083075927 0.012512737080264161 0 0.0046250701388088162 0.012113300659244479 0 0.0045674077210639125 0.012803668927087918 0 0.0051316168752609179 0.0076857453643268603 0 0.0047249505986263034 0.0074374406945688755 0 0.0051001159419576695 0.0069534125762150071 0 0.0051316168752609179 0.0076857453643268603 0 0.0051001159419576695 0.0069534125762150071 0 0.0054788443368016309 0.0071771218516777759 0 0.0047249505986263034 0.0074374406945688755 0 0.0044415331448048956 0.0079442753037498905 0 0.0041043778521697516 0.0076418903269278148 0 0.0047249505986263034 0.0074374406945688755 0 0.0047952956776204292 0.007896288853333034 0 0.0044415331448048956 0.0079442753037498905 0 0.0051316168752609179 0.0076857453643268603 0 0.0047249505986263034 0.0074374406945688755 0 0.0047952956776204292 0.007896288853333034 0 0.0049163571875243594 0.00818594167018993 0 0.0049995133978834507 0.0079743622451064859 0 0.0047952956776204292 0.007896288853333034 0 0.0049163571875243594 0.00818594167018993 0 0.0047952956776204292 0.007896288853333034 0 0.0045436503603685828 0.0082584284624993062 0 0.004781171133261498 0.0085521238422935804 0 0.0049163571875243594 0.00818594167018993 0 0.0045436503603685828 0.0082584284624993062 0 0.0047952956776204292 0.007896288853333034 0 0.0045436503603685828 0.0082584284624993062 0 0.0044415331448048956 0.0079442753037498905 0 0.0044415331448048956 0.0079442753037498905 0 0.004198018424274765 0.0082745701271306916 0 0.0041043778521697516 0.0076418903269278148 0 0.003904674455471263 0.0081788859553769619 0 0.0042794717754589488 0.0073419363018921747 0 0.0042736070396666636 0.0087303944258995594 0 0.0045436503603685828 0.0082584284624993062 0 0.004198018424274765 0.0082745701271306916 0 0.0045436503603685828 0.0082584284624993062 0 0.0044415331448048956 0.0079442753037498905 0 0.004198018424274765 0.0082745701271306916 0 0.0037962588589210288 0.0085103173767478672 0 0.004198018424274765 0.0082745701271306916 0 0.0041043778521697516 0.0076418903269278148 0 0.0044156888164917293 0.0070619284730868417 0 0.0044204718717607717 0.0067530147969196205 0 0.0039092809464317292 0.0070780684541069836 0 0.0044156888164917293 0.0070619284730868417 0 0.0044204718717607717 0.0067530147969196205 0 0.0047821065127997449 0.0064782302343323979 0 0.0044204718717607717 0.0067530147969196205 0 0.0044489949323097116 0.0062938164169868121 0 0.0047821065127997449 0.0064782302343323979 0 0.0044204718717607717 0.0067530147969196205 0 0.0044489949323097116 0.0062938164169868121 0 0.0040528232330748499 0.0064740013384166697 0 0.0044204718717607717 0.0067530147969196205 0 0.0040118284890971632 0.0066977501841005245 0 0.0040528232330748499 0.0064740013384166697 0 0.0044489949323097116 0.0062938164169868121 0 0.0040610216894816442 0.0060857017349061869 0 0.0044573712267857446 0.0058214735608521119 0 0.0044489949323097116 0.0062938164169868121 0 0.0040528232330748499 0.0064740013384166697 0 0.0040610216894816442 0.0060857017349061869 0 0.0044489949323097116 0.0062938164169868121 0 0.0047963720633689587 0.0060408010824405866 0 0.0047821065127997449 0.0064782302343323979 0 0.0044489949323097116 0.0062938164169868121 0 0.0047963720633689587 0.0060408010824405866 0 0.0044573712267857446 0.0058214735608521119 0 0.0047963720633689587 0.0060408010824405866 0 0.0050560108828946364 0.0063984483906754219 0 0.0051735856779040468 0.0059180226554888266 0 0.0047963720633689587 0.0060408010824405866 0 0.0047821065127997449 0.0064782302343323979 0 0.0050560108828946364 0.0063984483906754219 0 0.0042794717754589488 0.0073419363018921747 0 0.0047599037133114154 0.0065184129693545683 0 0.0047249505986263034 0.0074374406945688755 0 0.0041043778521697516 0.0076418903269278148 0 0.0047821065127997449 0.0064782302343323979 0 0.0047821065127997449 0.0064782302343323979 0 0.0051001159419576695 0.0069534125762150071 0 0.0050560108828946364 0.0063984483906754219 0 0.0047249505986263034 0.0074374406945688755 0 0.0047821065127997449 0.0064782302343323979 0 0.0051001159419576695 0.0069534125762150071 0 0.0049974533900666801 0.0099483622751593264 0 0.0052333900640246867 0.010210617074928841 0 0.0054788443368016309 0.0071771218516777759 0 0.0054997093424268657 0.0063273660262373795 0 0.005424268794524947 0.0066335471608819528 0 0.0051001159419576695 0.0069534125762150071 0 0.0054788443368016309 0.0071771218516777759 0 0.005424268794524947 0.0066335471608819528 0 0.0051001159419576695 0.0069534125762150071 0 0.0050560108828946364 0.0063984483906754219 0 0.005424268794524947 0.0066335471608819528 0 0.0050560108828946364 0.0063984483906754219 0 0.005424268794524947 0.0066335471608819528 0 0.0051735856779040468 0.0059180226554888266 0 0.0053650401925152934 0.0064710547602766615 0 0.005311861987471962 0.0063131483176551489 0 0.0054997093424268657 0.0063273660262373795 0 0.005424268794524947 0.0066335471608819528 0 0.0052278048424483532 0.0061445118831251234 0 0.0040101988862248092 0.013585643234004513 0 0.0044688753695857134 0.013534264907041439 0 0.0042018227473360377 0.013831225367333314 0 0.0040101988862248092 0.013585643234004513 0 0.0044688753695857134 0.013534264907041439 0 0.0042181534281091441 0.013169004141233707 0 0.0038597952769979862 0.013124208737421131 0 0.0040101988862248092 0.013585643234004513 0 0.0042181534281091441 0.013169004141233707 0 0.0045674077210639125 0.012803668927087918 0 0.0044688753695857134 0.013534264907041439 0 0.0042181534281091441 0.013169004141233707 0 0.0041585466260328427 0.012785075273692678 0 0.0045674077210639125 0.012803668927087918 0 0.0042181534281091441 0.013169004141233707 0 0.0038597952769979862 0.013124208737421131 0 0.0041585466260328427 0.012785075273692678 0 0.0042181534281091441 0.013169004141233707 0 0.0030609591549460328 0.0068884399526126169 0 0.0032867774883660089 0.0069332656030376581 0 0.0032872611267169903 0.00678980519328102 0 0.0032867774883660089 0.0069332656030376581 0 0.0032872611267169903 0.00678980519328102 0 0.0034866129422261396 0.0066734197803224584 0 0.0030609591549460328 0.0068884399526126169 0 0.0032143423687105146 0.0067211080314026062 0 0.0032872611267169903 0.00678980519328102 0 0.0032143423687105146 0.0067211080314026062 0 0.0032872611267169903 0.00678980519328102 0 0.0033340544855981931 0.0066928753660811342 0 0.0032143423687105146 0.0067211080314026062 0 0.0033340544855981931 0.0066928753660811342 0 0.0033225562614590579 0.0065548502083855355 0 0.0032143423687105146 0.0067211080314026062 0 0.0030412303346169104 0.0066826778136841077 0 0.0031594692503600689 0.006560693538784702 0 0.0030609591549460328 0.0068884399526126169 0 0.0032143423687105146 0.0067211080314026062 0 0.0030412303346169104 0.0066826778136841077 0 0.0030609591549460328 0.0068884399526126169 0 0.0030412303346169104 0.0066826778136841077 0 0.0029186234779738688 0.0067763033459835474 0 0.0030412303346169104 0.0066826778136841077 0 0.0028974276930690398 0.0066272657121108245 0 0.0029186234779738688 0.0067763033459835474 0 0.0030412303346169104 0.0066826778136841077 0 0.0028974276930690398 0.0066272657121108245 0 0.0030030069866241824 0.0065087591803609235 0 0.0028974276930690398 0.0066272657121108245 0 0.0027207293280711777 0.0066871767661466196 0 0.0028275906018098698 0.0064681563941994345 0 0.0028974276930690398 0.0066272657121108245 0 0.0029186234779738688 0.0067763033459835474 0 0.0027207293280711777 0.0066871767661466196 0 0.0027207293280711777 0.0066871767661466196 0 0.0027715744963952419 0.0069878368506170255 0 0.0024334210823015834 0.0068516290484020399 0 0.0029186234779738688 0.0067763033459835474 0 0.0027207293280711777 0.0066871767661466196 0 0.0027715744963952419 0.0069878368506170255 0 0.0030609591549460328 0.0068884399526126169 0 0.0029186234779738688 0.0067763033459835474 0 0.0027715744963952419 0.0069878368506170255 0 0.0030609591549460328 0.0068884399526126169 0 0.0027715744963952419 0.0069878368506170255 0 0.0028452803459768574 0.0073633494020705148 0 0.0027715744963952419 0.0069878368506170255 0 0.0028452803459768574 0.0073633494020705148 0 0.0025579869446767265 0.0072941944757614558 0 0.0028452803459768574 0.0073633494020705148 0 0.0025579869446767265 0.0072941944757614558 0 0.0024663397653795125 0.0076196318815038152 0 0.0032191697959047085 0.0070823851648236279 0 0.0027208765633818101 0.0075106196924565145 0 0.0032782791859955838 0.0072177780836503933 0 0.0027988706365590994 0.0075638123083441077 0 0.0032832410119722623 0.0073432301380580225 0 0.0027697114722748349 0.0077862319088917477 0 0.0033121897496070731 0.0074467100419615762 0 0.00315893249595786 0.007773156532693371 0 0.0030609591549460328 0.0068884399526126169 0 0.0032867774883660089 0.0069332656030376581 0 0.0028452803459768574 0.0073633494020705148 0 0.003267094325275559 0.006989351809644391 0 0.0027988706365590994 0.0075638123083441077 0 0.00315893249595786 0.007773156532693371 0 0.0033625927522936876 0.0076326507308167946 0 0.0034697096736898323 0.0077728559726857552 0 0.0033121897496070731 0.0074467100419615762 0 0.00315893249595786 0.007773156532693371 0 0.0033625927522936876 0.0076326507308167946 0 0.0040446098040753135 0.0078518799360518653 0 0.0034697096736898323 0.0077728559726857552 0 0.0037356147902261219 0.0075589132103076329 0 0.0033625927522936876 0.0076326507308167946 0 0.0034697096736898323 0.0077728559726857552 0 0.0035586058900369784 0.0074978880228784451 0 0.0034697096736898323 0.0077728559726857552 0 0.0037356147902261219 0.0075589132103076329 0 0.0035586058900369784 0.0074978880228784451 0 0.0037356147902261219 0.0075589132103076329 0 0.0035586058900369784 0.0074978880228784451 0 0.0039092809464317292 0.0070780684541069836 0 0.0033121897496070731 0.0074467100419615762 0 0.0033625927522936876 0.0076326507308167946 0 0.0035586058900369784 0.0074978880228784451 0 0.0040446098040753135 0.0078518799360518653 0 0.0044156888164917293 0.0070619284730868417 0 0.0039092809464317292 0.0070780684541069836 0 0.0040446098040753135 0.0078518799360518653 0 0.0037356147902261219 0.0075589132103076329 0 0.0039092809464317292 0.0070780684541069836 0 0.0043893828105742499 0.0067608278009121722 0 0.003895499094556915 0.0069988036599122764 0 0.0044204718717607717 0.0067530147969196205 0 0.0038490063744038095 0.0069226484747762175 0 0.0040118284890971632 0.0066977501841005245 0 0.0038490063744038095 0.0069226484747762175 0 0.0037321512975530889 0.006641906587228844 0 0.0040118284890971632 0.0066977501841005245 0 0.003267094325275559 0.006989351809644391 0 0.0036988862027974422 0.006663534017475904 0 0.0033121897496070731 0.0074467100419615762 0 0.0035586058900369784 0.0074978880228784451 0 0.0039092809464317292 0.0070780684541069836 0 0.0032867774883660089 0.0069332656030376581 0 0.0034866129422261396 0.0066734197803224584 0 0.0037321512975530889 0.006641906587228844 0 0.0032832410119722623 0.0073432301380580225 0 0.003895499094556915 0.0069988036599122764 0 0.0032191697959047085 0.0070823851648236279 0 0.0032782791859955838 0.0072177780836503933 0 0.0038490063744038095 0.0069226484747762175 0 0.0032191697959047085 0.0070823851648236279 0 0.0038490063744038095 0.0069226484747762175 0 0.0037321512975530889 0.006641906587228844 0 0.0032872611267169903 0.00678980519328102 0 0.0033340544855981931 0.0066928753660811342 0 0.0034866129422261396 0.0066734197803224584 0 0.0034866129422261396 0.0066734197803224584 0 0.0035094109805545505 0.0064518151831115785 0 0.0033225562614590579 0.0065548502083855355 0 0.0033340544855981931 0.0066928753660811342 0 0.0034866129422261396 0.0066734197803224584 0 0.0033225562614590579 0.0065548502083855355 0 0.0034866129422261396 0.0066734197803224584 0 0.0037321512975530889 0.006641906587228844 0 0.0035094109805545505 0.0064518151831115785 0 0.0037321512975530889 0.006641906587228844 0 0.0035094109805545505 0.0064518151831115785 0 0.0037435869862508277 0.0062893030625004618 0 0.0035094109805545505 0.0064518151831115785 0 0.0037435869862508277 0.0062893030625004618 0 0.0034338997234388273 0.0061687552752571111 0 0.0035094109805545505 0.0064518151831115785 0 0.0034338997234388273 0.0061687552752571111 0 0.003323384021736109 0.0063530777631820093 0 0.0035094109805545505 0.0064518151831115785 0 0.003323384021736109 0.0063530777631820093 0 0.0033225562614590579 0.0065548502083855355 0 0.0037321512975530889 0.006641906587228844 0 0.0040118284890971632 0.0066977501841005245 0 0.0040528232330748499 0.0064740013384166697 0 0.0037321512975530889 0.006641906587228844 0 0.0040528232330748499 0.0064740013384166697 0 0.0037435869862508277 0.0062893030625004618 0 0.0040528232330748499 0.0064740013384166697 0 0.0037435869862508277 0.0062893030625004618 0 0.0040610216894816442 0.0060857017349061869 0 0.0037435869862508277 0.0062893030625004618 0 0.0040610216894816442 0.0060857017349061869 0 0.0036634391372912219 0.0058754379710475183 0 0.0037435869862508277 0.0062893030625004618 0 0.0034338997234388273 0.0061687552752571111 0 0.0036634391372912219 0.0058754379710475183 0 0.0034338997234388273 0.0061687552752571111 0 0.0034002977586551266 0.0058824574909304836 0 0.0032339416155659135 0.0060027471823700437 0 0.0034338997234388273 0.0061687552752571111 0 0.0034002977586551266 0.0058824574909304836 0 0.0036634391372912219 0.0058754379710475183 0 0.0032339416155659135 0.0060027471823700437 0 0.0030858799551729777 0.005859427194608551 0 0.0032234444200403291 0.0057715804350686869 0 0.0034002977586551266 0.0058824574909304836 0 0.0032339416155659135 0.0060027471823700437 0 0.0032234444200403291 0.0057715804350686869 0 0.0030858799551729777 0.005859427194608551 0 0.0029682761655063605 0.0059185477086393387 0 0.0029374358187364536 0.005785997710861193 0 0.0032339416155659135 0.0060027471823700437 0 0.0030858799551729777 0.005859427194608551 0 0.0030779397529002621 0.0060389083897292601 0 0.0030858799551729777 0.005859427194608551 0 0.0029682761655063605 0.0059185477086393387 0 0.0030779397529002621 0.0060389083897292601 0 0.0029682761655063605 0.0059185477086393387 0 0.0030779397529002621 0.0060389083897292601 0 0.0029229342549219146 0.0060587545907889572 0 0.0030779397529002621 0.0060389083897292601 0 0.0030413136712978588 0.0062061216563831911 0 0.0029229342549219146 0.0060587545907889572 0 0.0030779397529002621 0.0060389083897292601 0 0.0030413136712978588 0.0062061216563831911 0 0.0032011672589336289 0.0061987523368636239 0 0.0034338997234388273 0.0061687552752571111 0 0.0032011672589336289 0.0061987523368636239 0 0.003323384021736109 0.0063530777631820093 0 0.0034338997234388273 0.0061687552752571111 0 0.0032339416155659135 0.0060027471823700437 0 0.0032011672589336289 0.0061987523368636239 0 0.0032339416155659135 0.0060027471823700437 0 0.0030779397529002621 0.0060389083897292601 0 0.0032011672589336289 0.0061987523368636239 0 0.003323384021736109 0.0063530777631820093 0 0.0031507831970460356 0.0063860624380933572 0 0.0033225562614590579 0.0065548502083855355 0 0.0032011672589336289 0.0061987523368636239 0 0.003323384021736109 0.0063530777631820093 0 0.0031507831970460356 0.0063860624380933572 0 0.0030413136712978588 0.0062061216563831911 0 0.0032011672589336289 0.0061987523368636239 0 0.0031507831970460356 0.0063860624380933572 0 0.0030413136712978588 0.0062061216563831911 0 0.002968452817160933 0.0063338831482255258 0 0.0029159772693538337 0.006194151052703491 0 0.0030413136712978588 0.0062061216563831911 0 0.0031507831970460356 0.0063860624380933572 0 0.002968452817160933 0.0063338831482255258 0 0.0031507831970460356 0.0063860624380933572 0 0.0030030069866241824 0.0065087591803609235 0 0.002968452817160933 0.0063338831482255258 0 0.0031507831970460356 0.0063860624380933572 0 0.0030030069866241824 0.0065087591803609235 0 0.0031594692503600689 0.006560693538784702 0 0.0030412303346169104 0.0066826778136841077 0 0.0030030069866241824 0.0065087591803609235 0 0.0031594692503600689 0.006560693538784702 0 0.0032143423687105146 0.0067211080314026062 0 0.0031594692503600689 0.006560693538784702 0 0.0033225562614590579 0.0065548502083855355 0 0.0031507831970460356 0.0063860624380933572 0 0.0031594692503600689 0.006560693538784702 0 0.0033225562614590579 0.0065548502083855355 0 0.0027207293280711777 0.0066871767661466196 0 0.0025626676825743992 0.0063933492942076587 0 0.0024919566818255067 0.0066144632140777383 0 0.0028275906018098698 0.0064681563941994345 0 0.0028061723828291065 0.0062646177864127102 0 0.0025626676825743992 0.0063933492942076587 0 0.0027207293280711777 0.0066871767661466196 0 0.0028275906018098698 0.0064681563941994345 0 0.0025626676825743992 0.0063933492942076587 0 0.0028974276930690398 0.0066272657121108245 0 0.0030030069866241824 0.0065087591803609235 0 0.0028275906018098698 0.0064681563941994345 0 0.0030030069866241824 0.0065087591803609235 0 0.0028275906018098698 0.0064681563941994345 0 0.002968452817160933 0.0063338831482255258 0 0.0028275906018098698 0.0064681563941994345 0 0.002968452817160933 0.0063338831482255258 0 0.0028061723828291065 0.0062646177864127102 0 0.002968452817160933 0.0063338831482255258 0 0.0029159772693538337 0.006194151052703491 0 0.0028061723828291065 0.0062646177864127102 0 0.0028061723828291065 0.0062646177864127102 0 0.0025948650204884989 0.0060802167998128499 0 0.0025626676825743992 0.0063933492942076587 0 0.0028061723828291065 0.0062646177864127102 0 0.0025948650204884989 0.0060802167998128499 0 0.0027946903453577965 0.0060611088737969237 0 0.0025948650204884989 0.0060802167998128499 0 0.0027946903453577965 0.0060611088737969237 0 0.0026733092047030089 0.0058678887041517455 0 0.0030413136712978588 0.0062061216563831911 0 0.0029159772693538337 0.006194151052703491 0 0.0029229342549219146 0.0060587545907889572 0 0.0029159772693538337 0.006194151052703491 0 0.0027946903453577965 0.0060611088737969237 0 0.0029229342549219146 0.0060587545907889572 0 0.0029159772693538337 0.006194151052703491 0 0.0028061723828291065 0.0062646177864127102 0 0.0027946903453577965 0.0060611088737969237 0 0.0027946903453577965 0.0060611088737969237 0 0.0029229342549219146 0.0060587545907889572 0 0.0028473025689826764 0.0059056807031167072 0 0.0029682761655063605 0.0059185477086393387 0 0.0029229342549219146 0.0060587545907889572 0 0.0028473025689826764 0.0059056807031167072 0 0.0027946903453577965 0.0060611088737969237 0 0.0028473025689826764 0.0059056807031167072 0 0.0026733092047030089 0.0058678887041517455 0 0.0028473025689826764 0.0059056807031167072 0 0.0026733092047030089 0.0058678887041517455 0 0.0027885757424503904 0.0057431156722026538 0 0.0029682761655063605 0.0059185477086393387 0 0.0028473025689826764 0.0059056807031167072 0 0.0029374358187364536 0.005785997710861193 0 0.0028473025689826764 0.0059056807031167072 0 0.0029374358187364536 0.005785997710861193 0 0.0027885757424503904 0.0057431156722026538 0 0.0026733092047030089 0.0058678887041517455 0 0.0024260574097104163 0.0057565323458806513 0 0.0026139436169255984 0.0056810116738041762 0 0.0026733092047030089 0.0058678887041517455 0 0.0026139436169255984 0.0056810116738041762 0 0.0027885757424503904 0.0057431156722026538 0 0.0025948650204884989 0.0060802167998128499 0 0.0024260574097104163 0.0057565323458806513 0 0.0022451314658373947 0.0061526481641482498 0 0.0024260574097104163 0.0057565323458806513 0 0.0019890611916077252 0.0058395469837438669 0 0.0022451314658373947 0.0061526481641482498 0 0.0024260574097104163 0.0057565323458806513 0 0.0019890611916077252 0.0058395469837438669 0 0.0022649057610321576 0.005516666513271872 0 0.0025948650204884989 0.0060802167998128499 0 0.0026733092047030089 0.0058678887041517455 0 0.0024260574097104163 0.0057565323458806513 0 0.002057863216251813 0.0056172054941121072 0 0.0016140363897786121 0.0067766095721243647 0 0.0017312303217940543 0.0064580557886925079 0 0.0022497875865132313 0.0065256372276112223 0 0.0022451314658373947 0.0061526481641482498 0 0.0019890611916077252 0.0058395469837438669 0 0.0017312303217940543 0.0064580557886925079 0 0.0022451314658373947 0.0061526481641482498 0 0.0022497875865132313 0.0065256372276112223 0 0.0025626676825743992 0.0063933492942076587 0 0.0022451314658373947 0.0061526481641482498 0 0.0022497875865132313 0.0065256372276112223 0 0.0025626676825743992 0.0063933492942076587 0 0.0024919566818255067 0.0066144632140777383 0 0.0025948650204884989 0.0060802167998128499 0 0.0025626676825743992 0.0063933492942076587 0 0.0022451314658373947 0.0061526481641482498 0 0.0029704938745117797 -0.0030558263144258822 0 0.0031635413389460385 -0.0029447492505827312 0 0.0030472034576959767 -0.0026375195323571363 0 0.0024516249288531779 0.0012885573587751295 0 0.0022706955044562872 0.00016443100217803307 0 0.0018295243176279321 0.0056590657110028699 0 0.001795303082047591 0.0057911611907182628 0 0.0016442290083326463 0.0055084282177166677 0 0.0019890611916077252 0.0058395469837438669 0 0.0018295243176279321 0.0056590657110028699 0 0.001795303082047591 0.0057911611907182628 0 0.0019890611916077252 0.0058395469837438669 0 0.0018751679199994419 0.0058207308409372882 0 0.001795303082047591 0.0057911611907182628 0 0.0029704938745117797 -0.0030558263144258822 0 0.0031840681369494778 -0.003222161082463192 0 0.0031635413389460385 -0.0029447492505827312 0 0.0029704938745117797 -0.0030558263144258822 0 0.0031840681369494778 -0.003222161082463192 0 0.0030789488290342902 -0.0033047357185704202 0 0.0030789488290342902 -0.0033047357185704202 0 0.0029070607860464193 -0.0034022278556380013 0 0.0031367466468872843 -0.0034496962038584331 0 0.0031903062177202923 -0.0033879011775495215 0 0.0030789488290342902 -0.0033047357185704202 0 0.0031367466468872843 -0.0034496962038584331 0 0.0031903062177202923 -0.0033879011775495215 0 0.0031367466468872843 -0.0034496962038584331 0 0.0033051715985190915 -0.0034787472954749413 0 0.0031840681369494778 -0.003222161082463192 0 0.0031903062177202923 -0.0033879011775495215 0 0.0030789488290342902 -0.0033047357185704202 0 0.0017312303217940543 0.0064580557886925079 0 0.0017065115026166885 0.0070093739344528122 0 0.0015242708736474444 0.0069727108945447126 0 0.0029704938745117797 -0.0030558263144258822 0 0.0030789488290342902 -0.0033047357185704202 0 0.0029070607860464193 -0.0034022278556380013 0 0.0024516249288531779 0.0012885573587751295 0 0.001905396534591073 0.002898532504528518 0 0.0016140363897786121 0.0067766095721243647 0 0.001905396534591073 0.002898532504528518 0 0.0018751679199994419 0.0058207308409372882 0 0.001795303082047591 0.0057911611907182628 0 0.0018650067533955621 0.0058083830271960573 0 0.0029070607860464193 -0.0034022278556380013 0 0.0029620701298010851 -0.0035269465377678498 0 0.0031367466468872843 -0.0034496962038584331 0 0.001905396534591073 0.002898532504528518 0 0.0019423117699060397 0.0055968465236080484 0 0.0017065115026166885 0.0070093739344528122 0 0.0015242708736474444 0.0069727108945447126 0 0.0015935053263786694 0.0071987021915053805 0 0.0019423117699060397 0.0055968465236080484 0 0.0026967484612874779 0.0016096348267510465 0 0.0015566724404213216 0.0070682910233253989 0 0.0013106581735500603 0.007094277347599885 0 0.001389068355957535 0.0075740846726776064 0 0.001818695902540166 0.0033673935243112127 0 0.0018356343503237638 0.0034176759345931266 0 0.0018015226300970514 0.0034171178601143182 0 0.001905396534591073 0.002898532504528518 0 0.0026967484612874779 0.0016096348267510465 0 0.0029620701298010851 -0.0035269465377678498 0 0.0031367466468872843 -0.0034496962038584331 0 0.0033787466469696352 -0.0035572543304876096 0 0.004240630805356924 -0.0022792291199941021 0 0.0039275030674234563 -0.0021753297174119681 0 0.0037505222526379349 -0.0023035585984774007 0 0.0026967484612874779 0.0016096348267510465 0 0.0038047020662998802 -0.0035869785562937856 0 0.0024334210823015834 0.0068516290484020399 0 0.002127237278291727 0.0068022230724039167 0 0.0022614527682198442 0.0071684271595859736 0 0.0022497875865132313 0.0065256372276112223 0 0.0024334210823015834 0.0068516290484020399 0 0.0024919566818255067 0.0066144632140777383 0 0.0027207293280711777 0.0066871767661466196 0 0.0024334210823015834 0.0068516290484020399 0 0.0024919566818255067 0.0066144632140777383 0 0.0022497875865132313 0.0065256372276112223 0 0.0024334210823015834 0.0068516290484020399 0 0.002127237278291727 0.0068022230724039167 0 0.0017312303217940543 0.0064580557886925079 0 0.002127237278291727 0.0068022230724039167 0 0.0019044650267375065 0.0069949676607895432 0 0.0017312303217940543 0.0064580557886925079 0 0.0017065115026166885 0.0070093739344528122 0 0.0019044650267375065 0.0069949676607895432 0 0.0017312303217940543 0.0064580557886925079 0 0.0022497875865132313 0.0065256372276112223 0 0.002127237278291727 0.0068022230724039167 0 0.0015935053263786694 0.0071987021915053805 0 0.0019044650267375065 0.0069949676607895432 0 0.0022614527682198442 0.0071684271595859736 0 0.0019423117699060397 0.0055968465236080484 0 0.0020306771953570979 0.0074975451078313606 0 0.002127237278291727 0.0068022230724039167 0 0.0019044650267375065 0.0069949676607895432 0 0.0022614527682198442 0.0071684271595859736 0 0.0015322051990040756 0.0072599991276460531 0 0.001964074882135233 0.0074341068571420893 0 0.0022614527682198442 0.0071684271595859736 0 0.0017065115026166885 0.0070093739344528122 0 0.0015935053263786694 0.0071987021915053805 0 0.0019044650267375065 0.0069949676607895432 0 0.0015322051990040756 0.0072599991276460531 0 0.001964074882135233 0.0074341068571420893 0 0.0018822475536637235 0.0076485482297170039 0 0.001964074882135233 0.0074341068571420893 0 0.0022614527682198442 0.0071684271595859736 0 0.0021556126703199075 0.007598283663074701 0 0.0027715744963952419 0.0069878368506170255 0 0.0024334210823015834 0.0068516290484020399 0 0.0025579869446767265 0.0072941944757614558 0 0.0024334210823015834 0.0068516290484020399 0 0.0022614527682198442 0.0071684271595859736 0 0.0025579869446767265 0.0072941944757614558 0 0.0022614527682198442 0.0071684271595859736 0 0.0025579869446767265 0.0072941944757614558 0 0.0024663397653795125 0.0076196318815038152 0 0.0029088128931339789 0.0075713518794606255 0 0.0024692505191084117 0.007797060315509247 0 0.0022857405242128212 0.0080923106317726881 0 0.0027988706365590994 0.0075638123083441077 0 0.0023160028313055536 0.0081128002438002021 0 0.002606473756494893 0.0082227212354488051 0 0.0027697114722748349 0.0077862319088917477 0 0.0022857405242128212 0.0080923106317726881 0 0.0022614527682198442 0.0071684271595859736 0 0.0024663397653795125 0.0076196318815038152 0 0.0021556126703199075 0.007598283663074701 0 0.0024663397653795125 0.0076196318815038152 0 0.0020261947544099029 0.007940616557952359 0 0.0021556126703199075 0.007598283663074701 0 0.0024692505191084117 0.007797060315509247 0 0.0022857405242128212 0.0080923106317726881 0 0.0020261947544099029 0.007940616557952359 0 0.002465305581432967 0.0077059745062541488 0 0.0020653215646708558 0.0079190385403505262 0 0.002606473756494893 0.0082227212354488051 0 0.0022857405242128212 0.0080923106317726881 0 0.002334567084800435 0.0083462381065552444 0 0.0022857405242128212 0.0080923106317726881 0 0.002334567084800435 0.0083462381065552444 0 0.0021104501149684729 0.0082309473233421349 0 0.002334567084800435 0.0083462381065552444 0 0.0025067571239684424 0.0086183585267869053 0 0.0021000747908371765 0.0085221421772364216 0 0.002334567084800435 0.0083462381065552444 0 0.0021104501149684729 0.0082309473233421349 0 0.0021000747908371765 0.0085221421772364216 0 0.002606473756494893 0.0082227212354488051 0 0.002334567084800435 0.0083462381065552444 0 0.0025067571239684424 0.0086183585267869053 0 0.0018363013347679718 0.0082147581053511141 0 0.0015010430768573485 0.0082023521699419837 0 0.0017742882058205973 0.0084941656216867001 0 0.0018363013347679718 0.0082147581053511141 0 0.0021000747908371765 0.0085221421772364216 0 0.0017742882058205973 0.0084941656216867001 0 0.0021104501149684729 0.0082309473233421349 0 0.0018363013347679718 0.0082147581053511141 0 0.0021000747908371765 0.0085221421772364216 0 0.0021104501149684729 0.0082309473233421349 0 0.0018363013347679718 0.0082147581053511141 0 0.0020261947544099029 0.007940616557952359 0 0.0022857405242128212 0.0080923106317726881 0 0.0021104501149684729 0.0082309473233421349 0 0.0020261947544099029 0.007940616557952359 0 0.0018363013347679718 0.0082147581053511141 0 0.0017244707714966152 0.007831523556731038 0 0.0020261947544099029 0.007940616557952359 0 0.0017244707714966152 0.007831523556731038 0 0.0020261947544099029 0.007940616557952359 0 0.0018822475536637235 0.0076485482297170039 0 0.0015322051990040756 0.0072599991276460531 0 0.0017244707714966152 0.007831523556731038 0 0.0018822475536637235 0.0076485482297170039 0 0.0020261947544099029 0.007940616557952359 0 0.0021556126703199075 0.007598283663074701 0 0.0018822475536637235 0.0076485482297170039 0 0.001964074882135233 0.0074341068571420893 0 0.0021556126703199075 0.007598283663074701 0 0.0018822475536637235 0.0076485482297170039 0 0.0019423117699060397 0.0055968465236080484 0 0.0018030572009523043 0.0082585211142417198 0 0.0015566724404213216 0.0070682910233253989 0 0.0017244707714966152 0.007831523556731038 0 0.001389068355957535 0.0075740846726776064 0 0.0013106581735500603 0.007094277347599885 0 0.001389068355957535 0.0075740846726776064 0 0.00097575385057882579 0.0079777860276581732 0 0.001389068355957535 0.0075740846726776064 0 0.0014010459462744148 0.0078967195252360647 0 0.00097575385057882579 0.0079777860276581732 0 0.0017244707714966152 0.007831523556731038 0 0.001389068355957535 0.0075740846726776064 0 0.0014010459462744148 0.0078967195252360647 0 0.0026967484612874779 0.0016096348267510465 0 0.0035050812223181411 0.0015351626021831131 0 0.004240630805356924 -0.0022792291199941021 0 0.0039275030674234563 -0.0021753297174119681 0 0.0040817609204022625 -0.0018863019014583732 0 0.0035056895141151031 -0.0028375123944319736 0 0.0035050812223181411 0.0015351626021831131 0 0.0039275030674234563 -0.0021753297174119681 0 0.0042162731351095889 -0.0018822710520430346 0 0.0039032918143166234 -0.0019673188659769807 0 0.0043943491557394488 -0.0021354988823710339 0 0.0041342425935508064 -0.0014979386894587222 0 0.0045600505369619224 -0.0012348262664290093 0 0.0042162731351095889 -0.0018822710520430346 0 0.0038792029652091001 -0.0016959690631624031 0 0.0039032918143166234 -0.0019673188659769807 0 0.0035050812223181411 0.0015351626021831131 0 0.0045980421314417135 -0.0024620788016115895 0 0.0042162731351095889 -0.0018822710520430346 0 0.0041342425935508064 -0.0014979386894587222 0 0.0038792029652091001 -0.0016959690631624031 0 0.00097575385057882579 0.0079777860276581732 0 0.0015010430768573485 0.0082023521699419837 0 0.0014992956136716713 0.00872477719444416 0 0.0035050812223181411 0.0015351626021831131 0 0.0032257965607186451 0.0039356821810402213 0 0.0043943491557394488 -0.0021354988823710339 0 0.0051531092002571801 -0.0010422181533634796 0 0.0045600505369619224 -0.0012348262664290093 0 0.0018363013347679718 0.0082147581053511141 0 0.0017244707714966152 0.007831523556731038 0 0.0015010430768573485 0.0082023521699419837 0 0.0017244707714966152 0.007831523556731038 0 0.0014010459462744148 0.0078967195252360647 0 0.0015010430768573485 0.0082023521699419837 0 0.0014010459462744148 0.0078967195252360647 0 0.00097575385057882579 0.0079777860276581732 0 0.0015010430768573485 0.0082023521699419837 0 0.0015010430768573485 0.0082023521699419837 0 0.0014992956136716713 0.00872477719444416 0 0.0017742882058205973 0.0084941656216867001 0 0.0051531092002571801 -0.0010422181533634796 0 0.0045600505369619224 -0.0012348262664290093 0 0.004931587916563035 -0.0005577421750017909 0 0.0041342425935508064 -0.0014979386894587222 0 0.0042018895805585165 -0.00086122602966688254 0 0.0039479137330976711 -0.0014349979910896794 0 0.0041342425935508064 -0.0014979386894587222 0 0.0045600505369619224 -0.0012348262664290093 0 0.0042018895805585165 -0.00086122602966688254 0 0.0045600505369619224 -0.0012348262664290093 0 0.0042018895805585165 -0.00086122602966688254 0 0.004931587916563035 -0.0005577421750017909 0 0.0042961581556638416 -0.0010726989625902729 0 0.0039925953644679999 -0.0007575578670965126 0 0.003966817438170127 -0.0011676917203892829 0 0.0041612486044976631 0.0015387080735527556 0 0.0044503632810096293 0.0010784905506854563 0 0.0039463005106469629 0.0010403746394257573 0 0.0046691889279650688 -5.8761415725735014e-05 0 0.0039693711381195845 0.00015475783924449611 0 0.0042961581556638416 -0.0010726989625902729 0 0.0048186851776517063 -0.00068731313684734763 0 0.0039925953644679999 -0.0007575578670965126 0 0.0042018895805585165 -0.00086122602966688254 0 0.004931587916563035 -0.0005577421750017909 0 0.004861464466223998 -0.00024642073185258815 0 0.0042391423960842813 -0.00096932184944251664 0 0.0046691889279650688 -5.8761415725735014e-05 0 0.004931587916563035 -0.0005577421750017909 0 0.004861464466223998 -0.00024642073185258815 0 0.0059906111830336775 0.00027394317233754958 0 0.0056531377523870146 0.00038471979036887397 0 0.004861464466223998 -0.00024642073185258815 0 0.0059906111830336775 0.00027394317233754958 0 0.0051531092002571801 -0.0010422181533634796 0 0.004931587916563035 -0.0005577421750017909 0 0.0059906111830336775 0.00027394317233754958 0 0.0047534547321081144 0.0024404847976929678 0 0.0046691889279650688 -5.8761415725735014e-05 0 0.0014992956136716713 0.00872477719444416 0 0.0019548861528425033 0.0093363940027303884 0 0.0019092565620405046 0.0087893158922345109 0 0.0019548861528425033 0.0093363940027303884 0 0.002281965976081365 0.008848860325407935 0 0.0019092565620405046 0.0087893158922345109 0 0.0032257965607186451 0.0039356821810402213 0 0.004058426364886002 0.0054556679444523262 0 0.0047534547321081144 0.0024404847976929678 0 0.004058426364886002 0.0054556679444523262 0 0.005243285370821648 0.0091089323934410542 0 0.0051673482516981168 0.0093087117272368045 0 0.0054493618197581761 0.0091632916036936424 0 0.0025891301235605397 0.0091484055595574421 0 0.0019548861528425033 0.0093363940027303884 0 0.002281965976081365 0.008848860325407935 0 0.0036743811779337897 0.0096912550801768159 0 0.004058426364886002 0.0054556679444523262 0 0.0025891301235605397 0.0091484055595574421 0 0.002281965976081365 0.008848860325407935 0 0.0025067571239684424 0.0086183585267869053 0 0.002281965976081365 0.008848860325407935 0 0.0025067571239684424 0.0086183585267869053 0 0.0021000747908371765 0.0085221421772364216 0 0.002281965976081365 0.008848860325407935 0 0.0021000747908371765 0.0085221421772364216 0 0.0019092565620405046 0.0087893158922345109 0 0.0021000747908371765 0.0085221421772364216 0 0.0017742882058205973 0.0084941656216867001 0 0.0019092565620405046 0.0087893158922345109 0 0.0014992956136716713 0.00872477719444416 0 0.0017742882058205973 0.0084941656216867001 0 0.0019092565620405046 0.0087893158922345109 0 0.0032908981521030966 -0.0016214325990871923 0 0.003109721572414357 -0.0013697814599411471 0 0.0031321928920383193 -0.0017448601392596602 0 0.0028983084574647111 -0.0016232973532289221 0 0.003109721572414357 -0.0013697814599411471 0 0.0031321928920383193 -0.0017448601392596602 0 0.0032908981521030966 -0.0016214325990871923 0 0.003109721572414357 -0.0013697814599411471 0 0.0034263572577834028 -0.0015079757909388027 0 0.0028114400641593507 -0.00048371850506157726 0 0.0032855161934188209 -0.0013663864699813798 0 0.0028983084574647111 -0.0016232973532289221 0 0.0027103670157358111 -0.0013924274968231502 0 0.003109721572414357 -0.0013697814599411471 0 0.0025321721824580219 -0.0016962244415696993 0 0.0028983084574647111 -0.0016232973532289221 0 0.0028417278783353459 -0.0019376455582511005 0 0.0025321721824580219 -0.0016962244415696993 0 0.0028983084574647111 -0.0016232973532289221 0 0.0027103670157358111 -0.0013924274968231502 0 0.0023569414554871063 0.0012399291199124804 0 0.0024596565451051266 0.0014220204638570482 0 0.0029829755410877715 0.0009718060766395431 0 0.002658364679800167 -0.0012089404328072192 0 0.0028114400641593507 -0.00048371850506157726 0 0.0023734654634474739 -0.00079216556182226368 0 0.0025357597205684663 -0.0010239298364086858 0 0.0028456738154941765 -0.00099676446192532289 0 0.0023891848183334738 -0.00054732265282806205 0 0.0028114400641593507 -0.00048371850506157726 0 0.0032854858756186894 0.0013790033461342222 0 0.0029306667984537261 0.001511909977628411 0 0.0029829755410877715 0.0009718060766395431 0 0.0028114400641593507 -0.00048371850506157726 0 0.0033059351846160601 0.00012171266689530675 0 0.0032854858756186894 0.0013790033461342222 0 0.0029829755410877715 0.0009718060766395431 0 0.0034533105686292459 0.0010096047316585754 0 0.0036746261225463588 0.0013383430594345576 0 0.0032854858756186894 0.0013790033461342222 0 0.0034533105686292459 0.0010096047316585754 0 0.0036746261225463588 0.0013383430594345576 0 0.0034533105686292459 0.0010096047316585754 0 0.0039463005106469629 0.0010403746394257573 0 0.0031882299428300323 -0.00082303967834778432 0 0.0039925953644679999 -0.0007575578670965126 0 0.0035783054423775278 -0.0010013537758799249 0 0.0033059351846160601 0.00012171266689530675 0 0.0039693711381195845 0.00015475783924449611 0 0.0039925953644679999 -0.0007575578670965126 0 0.0037831686288967636 -0.0010852534007513945 0 0.0035783054423775278 -0.0010013537758799249 0 0.0035910408036595458 -0.0012290015353494401 0 0.0037195751751980307 -0.001495042920256132 0 0.0030499744650732056 -0.0011694455835927467 0 0.0042961581556638416 -0.0010726989625902729 0 0.003966817438170127 -0.0011676917203892829 0 0.003764696372208806 -0.0014411745936404484 0 0.0042391423960842813 -0.00096932184944251664 0 0.0038324697269185061 -0.0013463076222359545 0 0.0039925953644679999 -0.0007575578670965126 0 0.003966817438170127 -0.0011676917203892829 0 0.0037831686288967636 -0.0010852534007513945 0 0.003966817438170127 -0.0011676917203892829 0 0.0037831686288967636 -0.0010852534007513945 0 0.0037892871010898402 -0.0012703071446040319 0 0.0037831686288967636 -0.0010852534007513945 0 0.0035910408036595458 -0.0012290015353494401 0 0.0037892871010898402 -0.0012703071446040319 0 0.0037831686288967636 -0.0010852534007513945 0 0.0035783054423775278 -0.0010013537758799249 0 0.0035910408036595458 -0.0012290015353494401 0 0.0035783054423775278 -0.0010013537758799249 0 0.0035910408036595458 -0.0012290015353494401 0 0.0033335817422645328 -0.0010580312228636714 0 0.0036006185400849181 -0.0015508820212580049 0 0.0035655089429687137 -0.0016120180388374018 0 0.0037038153711258549 -0.0016152527017990609 0 0.0037195751751980307 -0.001495042920256132 0 0.0037996046726986518 -0.0015362072438120681 0 0.0037038153711258549 -0.0016152527017990609 0 0.0036006185400849181 -0.0015508820212580049 0 0.0037195751751980307 -0.001495042920256132 0 0.0037038153711258549 -0.0016152527017990609 0 0.0037195751751980307 -0.001495042920256132 0 0.0037332709755158737 -0.0013655812692639291 0 0.003764696372208806 -0.0014411745936404484 0 0.0035910408036595458 -0.0012290015353494401 0 0.0037195751751980307 -0.001495042920256132 0 0.0037332709755158737 -0.0013655812692639291 0 0.0035910408036595458 -0.0012290015353494401 0 0.0037332709755158737 -0.0013655812692639291 0 0.0037892871010898402 -0.0012703071446040319 0 0.0042018895805585165 -0.00086122602966688254 0 0.003764696372208806 -0.0014411745936404484 0 0.0039479137330976711 -0.0014349979910896794 0 0.003966817438170127 -0.0011676917203892829 0 0.0037892871010898402 -0.0012703071446040319 0 0.003764696372208806 -0.0014411745936404484 0 0.0037332709755158737 -0.0013655812692639291 0 0.0037892871010898402 -0.0012703071446040319 0 0.003764696372208806 -0.0014411745936404484 0 0.003764696372208806 -0.0014411745936404484 0 0.0039479137330976711 -0.0014349979910896794 0 0.0037996046726986518 -0.0015362072438120681 0 0.0037195751751980307 -0.001495042920256132 0 0.003764696372208806 -0.0014411745936404484 0 0.0037996046726986518 -0.0015362072438120681 0 0.0036006185400849181 -0.0015508820212580049 0 0.0037195751751980307 -0.001495042920256132 0 0.0034263572577834028 -0.0015079757909388027 0 0.0024157677945060795 -0.00087660326270325043 0 0.0031882299428300323 -0.00082303967834778432 0 0.0030499744650732056 -0.0011694455835927467 0 0.0036639060473696817 -0.001487355043450917 0 0.0032855161934188209 -0.0013663864699813798 0 0.0031882299428300323 -0.00082303967834778432 0 0.0030499744650732056 -0.0011694455835927467 0 0.0033335817422645328 -0.0010580312228636714 0 0.0031882299428300323 -0.00082303967834778432 0 0.0035783054423775278 -0.0010013537758799249 0 0.0033335817422645328 -0.0010580312228636714 0 0.0035910408036595458 -0.0012290015353494401 0 0.0030499744650732056 -0.0011694455835927467 0 0.0033335817422645328 -0.0010580312228636714 0 0.0036006185400849181 -0.0015508820212580049 0 0.0034263572577834028 -0.0015079757909388027 0 0.0035655089429687137 -0.0016120180388374018 0 0.0034263572577834028 -0.0015079757909388027 0 0.0035655089429687137 -0.0016120180388374018 0 0.0034290839628860789 -0.0016543771782835737 0 0.0032908981521030966 -0.0016214325990871923 0 0.0034263572577834028 -0.0015079757909388027 0 0.0034290839628860789 -0.0016543771782835737 0 0.0032908981521030966 -0.0016214325990871923 0 0.0034290839628860789 -0.0016543771782835737 0 0.0033331359815604012 -0.0018154893594196412 0 0.0033331359815604012 -0.0018154893594196412 0 0.0034949671235486356 -0.001726231223931559 0 0.0035095753650343981 -0.0019007459197146533 0 0.0034290839628860789 -0.0016543771782835737 0 0.0033331359815604012 -0.0018154893594196412 0 0.0034949671235486356 -0.001726231223931559 0 0.0034949671235486356 -0.001726231223931559 0 0.0035095753650343981 -0.0019007459197146533 0 0.0036647004135061593 -0.0017537385561824438 0 0.0035655089429687137 -0.0016120180388374018 0 0.0034949671235486356 -0.001726231223931559 0 0.0036647004135061593 -0.0017537385561824438 0 0.0035655089429687137 -0.0016120180388374018 0 0.0034290839628860789 -0.0016543771782835737 0 0.0034949671235486356 -0.001726231223931559 0 0.0033331359815604012 -0.0018154893594196412 0 0.0035095753650343981 -0.0019007459197146533 0 0.0033346316051320168 -0.0020535419350309458 0 0.0039479137330976711 -0.0014349979910896794 0 0.0038792029652091001 -0.0016959690631624031 0 0.0037996046726986518 -0.0015362072438120681 0 0.0041342425935508064 -0.0014979386894587222 0 0.0039479137330976711 -0.0014349979910896794 0 0.0038792029652091001 -0.0016959690631624031 0 0.0038792029652091001 -0.0016959690631624031 0 0.0037996046726986518 -0.0015362072438120681 0 0.0037038153711258549 -0.0016152527017990609 0 0.0038792029652091001 -0.0016959690631624031 0 0.0037038153711258549 -0.0016152527017990609 0 0.0036647004135061593 -0.0017537385561824438 0 0.0035655089429687137 -0.0016120180388374018 0 0.0037038153711258549 -0.0016152527017990609 0 0.0036647004135061593 -0.0017537385561824438 0 0.0036647004135061593 -0.0017537385561824438 0 0.0037900673030092872 -0.0018534737342994726 0 0.0036999194262947684 -0.0019533973692163601 0 0.0035095753650343981 -0.0019007459197146533 0 0.0036647004135061593 -0.0017537385561824438 0 0.0036999194262947684 -0.0019533973692163601 0 0.0038792029652091001 -0.0016959690631624031 0 0.0036647004135061593 -0.0017537385561824438 0 0.0037900673030092872 -0.0018534737342994726 0 0.0037900673030092872 -0.0018534737342994726 0 0.0039032918143166234 -0.0019673188659769807 0 0.0036999194262947684 -0.0019533973692163601 0 0.0038792029652091001 -0.0016959690631624031 0 0.0037900673030092872 -0.0018534737342994726 0 0.0039032918143166234 -0.0019673188659769807 0 0.0039032918143166234 -0.0019673188659769807 0 0.0036999194262947684 -0.0019533973692163601 0 0.0037604986610530722 -0.0021235446531380781 0 0.0039275030674234563 -0.0021753297174119681 0 0.0039032918143166234 -0.0019673188659769807 0 0.0037604986610530722 -0.0021235446531380781 0 0.0036999194262947684 -0.0019533973692163601 0 0.0037604986610530722 -0.0021235446531380781 0 0.0035472522415360076 -0.0021087278663703456 0 0.0037604986610530722 -0.0021235446531380781 0 0.0035472522415360076 -0.0021087278663703456 0 0.0037505222526379349 -0.0023035585984774007 0 0.0039275030674234563 -0.0021753297174119681 0 0.0037604986610530722 -0.0021235446531380781 0 0.0037505222526379349 -0.0023035585984774007 0 0.0033346316051320168 -0.0020535419350309458 0 0.0035472522415360076 -0.0021087278663703456 0 0.003173856094000524 -0.0023464862966299676 0 0.0035472522415360076 -0.0021087278663703456 0 0.003173856094000524 -0.0023464862966299676 0 0.0037505222526379349 -0.0023035585984774007 0 0.0035095753650343981 -0.0019007459197146533 0 0.0033346316051320168 -0.0020535419350309458 0 0.0035472522415360076 -0.0021087278663703456 0 0.0035095753650343981 -0.0019007459197146533 0 0.0036999194262947684 -0.0019533973692163601 0 0.0035472522415360076 -0.0021087278663703456 0 0.0033346316051320168 -0.0020535419350309458 0 0.003173856094000524 -0.0023464862966299676 0 0.0030790005797207234 -0.0020753796869639267 0 0.0033331359815604012 -0.0018154893594196412 0 0.0033346316051320168 -0.0020535419350309458 0 0.0030790005797207234 -0.0020753796869639267 0 0.0032908981521030966 -0.0016214325990871923 0 0.0033331359815604012 -0.0018154893594196412 0 0.0031321928920383193 -0.0017448601392596602 0 0.0033331359815604012 -0.0018154893594196412 0 0.0030790005797207234 -0.0020753796869639267 0 0.0031321928920383193 -0.0017448601392596602 0 0.0028983084574647111 -0.0016232973532289221 0 0.0031321928920383193 -0.0017448601392596602 0 0.0028417278783353459 -0.0019376455582511005 0 0.0030790005797207234 -0.0020753796869639267 0 0.0031321928920383193 -0.0017448601392596602 0 0.0028417278783353459 -0.0019376455582511005 0 0.0026319843730523615 -0.0024713607374285216 0 0.003173856094000524 -0.0023464862966299676 0 0.0030790005797207234 -0.0020753796869639267 0 0.0026319843730523615 -0.0024713607374285216 0 0.0030790005797207234 -0.0020753796869639267 0 0.0028417278783353459 -0.0019376455582511005 0 0.0027881544218785474 -0.0028412723402517115 0 0.0032754494942316844 -0.0027808503521153287 0 0.0029780151585192941 -0.0031728273241336635 0 0.0035379981672013267 -0.0034117939900098057 0 0.0031798685868894986 -0.0037300959550601218 0 0.0035379981672013267 -0.0034117939900098057 0 0.0036138417273310964 -0.0035710842004311929 0 0.0031798685868894986 -0.0037300959550601218 0 0.0036138417273310964 -0.0035710842004311929 0 0.0031798685868894986 -0.0037300959550601218 0 0.0033726453370482739 -0.0043587614080268251 0 0.0031367466468872843 -0.0034496962038584331 0 0.0033051715985190915 -0.0034787472954749413 0 0.0033787466469696352 -0.0035572543304876096 0 0.0033051715985190915 -0.0034787472954749413 0 0.0033787466469696352 -0.0035572543304876096 0 0.0034337472157957589 -0.0034784791840361162 0 0.0032754494942316844 -0.0027808503521153287 0 0.0038047020662998802 -0.0035869785562937856 0 0.0035379981672013267 -0.0034117939900098057 0 0.0036138417273310964 -0.0035710842004311929 0 0.0034337472157957589 -0.0034784791840361162 0 0.0035379981672013267 -0.0034117939900098057 0 0.0033787466469696352 -0.0035572543304876096 0 0.0034337472157957589 -0.0034784791840361162 0 0.0036138417273310964 -0.0035710842004311929 0 0.0034337472157957589 -0.0034784791840361162 0 0.0033471817995997665 -0.0031700511494001412 0 0.0031903062177202923 -0.0033879011775495215 0 0.0033051715985190915 -0.0034787472954749413 0 0.0034337472157957589 -0.0034784791840361162 0 0.0031840681369494778 -0.003222161082463192 0 0.0031903062177202923 -0.0033879011775495215 0 0.0034337472157957589 -0.0034784791840361162 0 0.0031840681369494778 -0.003222161082463192 0 0.0033471817995997665 -0.0031700511494001412 0 0.0031635413389460385 -0.0029447492505827312 0 0.0031840681369494778 -0.003222161082463192 0 0.0034337472157957589 -0.0034784791840361162 0 0.0033471817995997665 -0.0031700511494001412 0 0.0036138417273310964 -0.0035710842004311929 0 0.0033471817995997665 -0.0031700511494001412 0 0.0036384724593270883 -0.0030498988484793568 0 0.0036384724593270883 -0.0030498988484793568 0 0.0038730285711243632 -0.0026928919825592547 0 0.0034092781036653475 -0.0026858992809394872 0 0.0033471817995997665 -0.0031700511494001412 0 0.0036384724593270883 -0.0030498988484793568 0 0.0034092781036653475 -0.0026858992809394872 0 0.0033471817995997665 -0.0031700511494001412 0 0.0031635413389460385 -0.0029447492505827312 0 0.0034092781036653475 -0.0026858992809394872 0 0.0031635413389460385 -0.0029447492505827312 0 0.0034092781036653475 -0.0026858992809394872 0 0.0030472034576959767 -0.0026375195323571363 0 0.0029681292445111773 -0.004444093342895656 0 0.0031798685868894986 -0.0037300959550601218 0 0.0033726453370482739 -0.0043587614080268251 0 0.00356770715562178 -0.0036646847414006012 0 0.0038450814049382229 -0.0036161653008202643 0 0.0036138417273310964 -0.0035710842004311929 0 0.0036384724593270883 -0.0030498988484793568 0 0.0040755955641180938 -0.0031143397219267508 0 0.0036384724593270883 -0.0030498988484793568 0 0.0040755955641180938 -0.0031143397219267508 0 0.0038730285711243632 -0.0026928919825592547 0 0.0038450814049382229 -0.0036161653008202643 0 0.0030551876801679211 -0.0043338466889784599 0 0.0040755955641180938 -0.0031143397219267508 0 0.0038730285711243632 -0.0026928919825592547 0 0.0044790643912138795 -0.0027030016638704374 0 0.0038730285711243632 -0.0026928919825592547 0 0.0041095430605035494 -0.002297958129918733 0 0.0044790643912138795 -0.0027030016638704374 0 0.001829844407730303 -0.005258032223434894 0 0.0019722927519990794 -0.0052787659048286638 0 0.0020258755091538297 -0.00543968844185905 0 0.0029820812028917456 -0.0037505241995487971 0 0.0030551876801679211 -0.0043338466889784599 0 0.0038730285711243632 -0.0026928919825592547 0 0.0041095430605035494 -0.002297958129918733 0 0.0035991624117082265 -0.0022790640597100554 0 0.0029820812028917456 -0.0037505241995487971 0 0.0026893634905935369 -0.0034277997911782831 0 0.0041095430605035494 -0.002297958129918733 0 0.0035991624117082265 -0.0022790640597100554 0 0.003712925839229568 -0.0018711505642289199 0 0.001829844407730303 -0.005258032223434894 0 0.0018649070792688947 -0.0050908626041144449 0 0.0019722927519990794 -0.0052787659048286638 0 0.001829844407730303 -0.005258032223434894 0 0.0018649070792688947 -0.0050908626041144449 0 0.0016170383511417124 -0.0050629272051458613 0 0.0034092781036653475 -0.0026858992809394872 0 0.0031860975833841385 -0.00223464492027837 0 0.0027201199732634603 -0.0025116392221590494 0 0.0037335716564363616 -0.0033521360887065034 0 0.0022706955044562872 0.00016443100217803307 0 0.0034092781036653475 -0.0026858992809394872 0 0.0035991624117082265 -0.0022790640597100554 0 0.0031860975833841385 -0.00223464492027837 0 0.0038730285711243632 -0.0026928919825592547 0 0.0034092781036653475 -0.0026858992809394872 0 0.0035991624117082265 -0.0022790640597100554 0 0.0035991624117082265 -0.0022790640597100554 0 0.0031860975833841385 -0.00223464492027837 0 0.0032476412818675296 -0.0018895115400140057 0 0.0035991624117082265 -0.0022790640597100554 0 0.0032476412818675296 -0.0018895115400140057 0 0.003712925839229568 -0.0018711505642289199 0 0.0031860975833841385 -0.00223464492027837 0 0.0032476412818675296 -0.0018895115400140057 0 0.0029565663804017512 -0.0019459043647912452 0 0.0031860975833841385 -0.00223464492027837 0 0.0028378407719188859 -0.0021502172379928831 0 0.0027201199732634603 -0.0025116392221590494 0 0.0031860975833841385 -0.00223464492027837 0 0.0029565663804017512 -0.0019459043647912452 0 0.0028378407719188859 -0.0021502172379928831 0 0.0032476412818675296 -0.0018895115400140057 0 0.0029565663804017512 -0.0019459043647912452 0 0.0028303540992476602 -0.0016070717689940096 0 0.0032476412818675296 -0.0018895115400140057 0 0.0032960762675839309 -0.0014800379561422357 0 0.0028303540992476602 -0.0016070717689940096 0 0.0020610101137504022 -0.0035550614086998803 0 0.0026893634905935369 -0.0034277997911782831 0 0.0032476412818675296 -0.0018895115400140057 0 0.0032960762675839309 -0.0014800379561422357 0 0.003712925839229568 -0.0018711505642289199 0 0.0014220566234149662 -0.0048629147167388951 0 0.0016170383511417124 -0.0050629272051458613 0 0.0016003354409868107 -0.0048237449202633382 0 0.0020610101137504022 -0.0035550614086998803 0 0.0012557660248386825 -0.0049481169718526121 0 0.0020610101137504022 -0.0035550614086998803 0 0.0025791830619061856 -0.0020586341256217159 0 0.0018478739699387774 -0.0028130560279987053 0 0.001956071972480863 -0.0029227220993217205 0 0.0020325836850853215 -0.0027549976048978921 0 0.0020610101137504022 -0.0035550614086998803 0 0.0015689615535691287 -0.0038352025143813047 0 0.0018649070792688947 -0.0050908626041144449 0 0.0017358687373633659 -0.0049454348209796327 0 0.0018712955320173005 -0.0049468696844324148 0 0.0018649070792688947 -0.0050908626041144449 0 0.0018712955320173005 -0.0049468696844324148 0 0.0019748751732083765 -0.0049896710218070043 0 0.0018649070792688947 -0.0050908626041144449 0 0.0016170383511417124 -0.0050629272051458613 0 0.0017358687373633659 -0.0049454348209796327 0 0.0016170383511417124 -0.0050629272051458613 0 0.0017358687373633659 -0.0049454348209796327 0 0.0016003354409868107 -0.0048237449202633382 0 0.0017358687373633659 -0.0049454348209796327 0 0.0016003354409868107 -0.0048237449202633382 0 0.0017873679590132117 -0.0048250459186081089 0 0.0017358687373633659 -0.0049454348209796327 0 0.0017873679590132117 -0.0048250459186081089 0 0.0018712955320173005 -0.0049468696844324148 0 0.0018712955320173005 -0.0049468696844324148 0 0.001948229593585883 -0.0048443207786443903 0 0.0019748751732083765 -0.0049896710218070043 0 0.0017873679590132117 -0.0048250459186081089 0 0.0018712955320173005 -0.0049468696844324148 0 0.001948229593585883 -0.0048443207786443903 0 0.0017873679590132117 -0.0048250459186081089 0 0.0018735303680773611 -0.0047015660813807944 0 0.001948229593585883 -0.0048443207786443903 0 0.0017873679590132117 -0.0048250459186081089 0 0.0018735303680773611 -0.0047015660813807944 0 0.0016902125307979644 -0.0046835959120644227 0 0.0018735303680773611 -0.0047015660813807944 0 0.001800238301629667 -0.0045423895535376888 0 0.0016902125307979644 -0.0046835959120644227 0 0.001800238301629667 -0.0045423895535376888 0 0.0018921948070151819 -0.0043852420624327215 0 0.001651290251474716 -0.0043084061726291912 0 0.0018735303680773611 -0.0047015660813807944 0 0.001800238301629667 -0.0045423895535376888 0 0.0019829728746160098 -0.0045765883127400087 0 0.001800238301629667 -0.0045423895535376888 0 0.0018921948070151819 -0.0043852420624327215 0 0.0019829728746160098 -0.0045765883127400087 0 0.001800238301629667 -0.0045423895535376888 0 0.0016043965206006443 -0.0045110494911505088 0 0.001651290251474716 -0.0043084061726291912 0 0.0016043965206006443 -0.0045110494911505088 0 0.0014331457238448047 -0.004427316520998305 0 0.001651290251474716 -0.0043084061726291912 0 0.001800238301629667 -0.0045423895535376888 0 0.0016043965206006443 -0.0045110494911505088 0 0.0016902125307979644 -0.0046835959120644227 0 0.0016043965206006443 -0.0045110494911505088 0 0.0016902125307979644 -0.0046835959120644227 0 0.001409199748416914 -0.0046380780237010076 0 0.0016003354409868107 -0.0048237449202633382 0 0.0016902125307979644 -0.0046835959120644227 0 0.001409199748416914 -0.0046380780237010076 0 0.0016003354409868107 -0.0048237449202633382 0 0.0017873679590132117 -0.0048250459186081089 0 0.0016902125307979644 -0.0046835959120644227 0 0.0013487983673445977 -0.004879484402170748 0 0.0016003354409868107 -0.0048237449202633382 0 0.001409199748416914 -0.0046380780237010076 0 0.001409199748416914 -0.0046380780237010076 0 0.0011752346814911622 -0.0047008985896708636 0 0.0012297867408048405 -0.0043763038274007692 0 0.0013487983673445977 -0.004879484402170748 0 0.001409199748416914 -0.0046380780237010076 0 0.0011752346814911622 -0.0047008985896708636 0 0.0013585753245222384 -0.0040254388027416545 0 0.0015994797289441542 -0.0034079653576271382 0 0.0011752346814911622 -0.0047008985896708636 0 0.0012297867408048405 -0.0043763038274007692 0 0.0010126445151771349 -0.0045280267875065141 0 0.0016043965206006443 -0.0045110494911505088 0 0.001409199748416914 -0.0046380780237010076 0 0.0014331457238448047 -0.004427316520998305 0 0.001409199748416914 -0.0046380780237010076 0 0.0012297867408048405 -0.0043763038274007692 0 0.0014331457238448047 -0.004427316520998305 0 0.0013585753245222384 -0.0040254388027416545 0 0.0015437891855010473 -0.003917746350533771 0 0.0012297867408048405 -0.0043763038274007692 0 0.0014331457238448047 -0.004427316520998305 0 0.0014253809948033341 -0.0042013379683184821 0 0.0016323731167603385 -0.0035154903776190901 0 0.0016338261614579342 -0.0036278911600588757 0 0.0016864577083627104 -0.0035073806533028099 0 0.0016323731167603385 -0.0035154903776190901 0 0.0015891727345923674 -0.0036781583963300599 0 0.0016338261614579342 -0.0036278911600588757 0 0.0016338261614579342 -0.0036278911600588757 0 0.0016716087349571639 -0.0035896162443758541 0 0.0016406261390223525 -0.0037184371760594559 0 0.0016338261614579342 -0.0036278911600588757 0 0.0015955281529516179 -0.0037470854744949622 0 0.0016406261390223525 -0.0037184371760594559 0 0.0015891727345923674 -0.0036781583963300599 0 0.0016338261614579342 -0.0036278911600588757 0 0.0015955281529516179 -0.0037470854744949622 0 0.0015891727345923674 -0.0036781583963300599 0 0.0016621458357343405 -0.0039111253303949212 0 0.0015955281529516179 -0.0037470854744949622 0 0.0015437891855010473 -0.003917746350533771 0 0.0016528247503278435 -0.0038978256580797796 0 0.0018094544086807867 -0.0041466132425778592 0 0.0018703164401211944 -0.0038252041738790067 0 0.0019771273850933543 -0.0041542459055417605 0 0.0016621458357343405 -0.0039111253303949212 0 0.0018094544086807867 -0.0041466132425778592 0 0.0018703164401211944 -0.0038252041738790067 0 0.0018094544086807867 -0.0041466132425778592 0 0.0018921948070151819 -0.0043852420624327215 0 0.001651290251474716 -0.0043084061726291912 0 0.0018094544086807867 -0.0041466132425778592 0 0.0018921948070151819 -0.0043852420624327215 0 0.0019771273850933543 -0.0041542459055417605 0 0.0014253809948033341 -0.0042013379683184821 0 0.0016621458357343405 -0.0039111253303949212 0 0.001651290251474716 -0.0043084061726291912 0 0.0014331457238448047 -0.004427316520998305 0 0.0014253809948033341 -0.0042013379683184821 0 0.001651290251474716 -0.0043084061726291912 0 0.0016621458357343405 -0.0039111253303949212 0 0.0018094544086807867 -0.0041466132425778592 0 0.001651290251474716 -0.0043084061726291912 0 0.0017667492343872218 -0.0032665453285240465 0 0.0019607428446307327 -0.0029085813089195101 0 0.0019549014101550677 -0.0031773493291945396 0 0.0017667492343872218 -0.0032665453285240465 0 0.0019607428446307327 -0.0029085813089195101 0 0.0017156287843176526 -0.0028357698128502048 0 0.0019607428446307327 -0.0029085813089195101 0 0.0021056619552776074 -0.0030254443221042425 0 0.0022173088580080547 -0.0026692322429141303 0 0.0019607428446307327 -0.0029085813089195101 0 0.0021056619552776074 -0.0030254443221042425 0 0.0019549014101550677 -0.0031773493291945396 0 0.0021056619552776074 -0.0030254443221042425 0 0.0019549014101550677 -0.0031773493291945396 0 0.0020844982841406305 -0.0032954006714513446 0 0.0020844982841406305 -0.0032954006714513446 0 0.0023169485453671188 -0.0030788028078392025 0 0.0022658341156157821 -0.0034456128851861729 0 0.0019549014101550677 -0.0031773493291945396 0 0.0020844982841406305 -0.0032954006714513446 0 0.0018633730485247471 -0.0033937604448748783 0 0.0021056619552776074 -0.0030254443221042425 0 0.0020844982841406305 -0.0032954006714513446 0 0.0023169485453671188 -0.0030788028078392025 0 0.0020844982841406305 -0.0032954006714513446 0 0.0018633730485247471 -0.0033937604448748783 0 0.0020012352769454094 -0.0035531506180134036 0 0.0017667492343872218 -0.0032665453285240465 0 0.0018633730485247471 -0.0033937604448748783 0 0.0017223521867112642 -0.0034548774786576811 0 0.0018633730485247471 -0.0033937604448748783 0 0.0017223521867112642 -0.0034548774786576811 0 0.0018172127961451358 -0.0035973228762141559 0 0.0017667492343872218 -0.0032665453285240465 0 0.0019549014101550677 -0.0031773493291945396 0 0.0018633730485247471 -0.0033937604448748783 0 0.0017223521867112642 -0.0034548774786576811 0 0.0016716087349571639 -0.0035896162443758541 0 0.0016864577083627104 -0.0035073806533028099 0 0.0016338261614579342 -0.0036278911600588757 0 0.0016716087349571639 -0.0035896162443758541 0 0.0016864577083627104 -0.0035073806533028099 0 0.0017223521867112642 -0.0034548774786576811 0 0.0016864577083627104 -0.0035073806533028099 0 0.0017216933614138861 -0.0034296343464704964 0 0.0017667492343872218 -0.0032665453285240465 0 0.0017223521867112642 -0.0034548774786576811 0 0.0017216933614138861 -0.0034296343464704964 0 0.0017713804460154148 -0.0032938116515662929 0 0.0015367022739425633 -0.0030921251998434736 0 0.0017667492343872218 -0.0032665453285240465 0 0.0014298567230720028 -0.0028710491542238486 0 0.0017156287843176526 -0.0028357698128502048 0 0.0014298567230720028 -0.0028710491542238486 0 0.0015583114588210731 -0.0026333634144779391 0 0.0017156287843176526 -0.0028357698128502048 0 0.0014298567230720028 -0.0028710491542238486 0 0.0015583114588210731 -0.0026333634144779391 0 0.0011608835835039213 -0.0025865096651749371 0 0.0016323731167603385 -0.0035154903776190901 0 0.0016864577083627104 -0.0035073806533028099 0 0.0016859370617972617 -0.003434932307769578 0 0.0016864577083627104 -0.0035073806533028099 0 0.0017216933614138861 -0.0034296343464704964 0 0.0016859370617972617 -0.003434932307769578 0 0.0015367022739425633 -0.0030921251998434736 0 0.0015994797289441542 -0.0034079653576271382 0 0.001956071972480863 -0.0029227220993217205 0 0.0020656070438313905 -0.0030363520415577043 0 0.0021118453193924298 -0.0028579058053160035 0 0.0015689615535691287 -0.0038352025143813047 0 0.0015994797289441542 -0.0034079653576271382 0 0.0015994797289441542 -0.0034079653576271382 0 0.0018978842892928168 -0.0023919483449999991 0 0.0015583114588210731 -0.0026333634144779391 0 0.0011608835835039213 -0.0025865096651749371 0 0.0016703733275871943 -0.0022328546568905878 0 0.0020656070438313905 -0.0030363520415577043 0 0.0022868990901684038 -0.002876366970748096 0 0.0021118453193924298 -0.0028579058053160035 0 0.0015583114588210731 -0.0026333634144779391 0 0.0016703733275871943 -0.0022328546568905878 0 0.0018167121048842771 -0.0025982010955843027 0 0.0018978842892928168 -0.0023919483449999991 0 0.001816190371470281 -0.0025407200784416288 0 0.0017625965098012003 -0.002274037559754099 0 0.0018417325461776691 -0.0025310713776616777 0 0.0020207292011471568 -0.0023328281449266912 0 0.0019607428446307327 -0.0029085813089195101 0 0.0018167121048842771 -0.0025982010955843027 0 0.0017156287843176526 -0.0028357698128502048 0 0.0019549117113757493 -0.0028896459884237349 0 0.001816190371470281 -0.0025407200784416288 0 0.0015583114588210731 -0.0026333634144779391 0 0.0018167121048842771 -0.0025982010955843027 0 0.0017156287843176526 -0.0028357698128502048 0 0.0019607428446307327 -0.0029085813089195101 0 0.0018417325461776691 -0.0025310713776616777 0 0.0020819749292013438 -0.0025408284483034618 0 0.0019607428446307327 -0.0029085813089195101 0 0.0020819749292013438 -0.0025408284483034618 0 0.0022173088580080547 -0.0026692322429141303 0 0.0020207292011471568 -0.0023328281449266912 0 0.0021549630110454985 -0.0021878966049747959 0 0.0022749178170721517 -0.0023569775171719729 0 0.0020819749292013438 -0.0025408284483034618 0 0.0020207292011471568 -0.0023328281449266912 0 0.0022749178170721517 -0.0023569775171719729 0 0.0018417325461776691 -0.0025310713776616777 0 0.0020819749292013438 -0.0025408284483034618 0 0.0020207292011471568 -0.0023328281449266912 0 0.0020207292011471568 -0.0023328281449266912 0 0.0021549630110454985 -0.0021878966049747959 0 0.0020255188388154368 -0.0021189975589202543 0 0.0021549630110454985 -0.0021878966049747959 0 0.0020255188388154368 -0.0021189975589202543 0 0.0021378472309028724 -0.0020561100443058783 0 0.0017625965098012003 -0.002274037559754099 0 0.0020207292011471568 -0.0023328281449266912 0 0.0020255188388154368 -0.0021189975589202543 0 0.0018687737432825449 -0.0022266266140437752 0 0.0019078475113437237 -0.0020927479317343492 0 0.0017968851462739181 -0.0020451553707533632 0 0.0018687737432825449 -0.0022266266140437752 0 0.0020255188388154368 -0.0021189975589202543 0 0.0019078475113437237 -0.0020927479317343492 0 0.0018978842892928168 -0.0023919483449999991 0 0.0019993803874104096 -0.0021091604620675818 0 0.002303807513717347 -0.001875545186080164 0 0.0025133947981351833 -0.0018041194857759597 0 0.0024204702613948308 -0.0019720747675628647 0 0.0020255188388154368 -0.0021189975589202543 0 0.0019078475113437237 -0.0020927479317343492 0 0.0019837738442669865 -0.0019880590647960556 0 0.0019078475113437237 -0.0020927479317343492 0 0.0019837738442669865 -0.0019880590647960556 0 0.0017968851462739181 -0.0020451553707533632 0 0.0021300511885348956 -0.0019252155273158131 0 0.0022942543585453496 -0.0021146581394218779 0 0.002303807513717347 -0.001875545186080164 0 0.0022490054304592907 -0.0019385995813003436 0 0.0022135856811923735 -0.0019404554963664323 0 0.0021300511885348956 -0.0019252155273158131 0 0.0022137717393749486 -0.0019347724819232255 0 0.0019837738442669865 -0.0019880590647960556 0 0.0021378472309028724 -0.0020561100443058783 0 0.0022135856811923735 -0.0019404554963664323 0 0.0020255188388154368 -0.0021189975589202543 0 0.0019837738442669865 -0.0019880590647960556 0 0.0021378472309028724 -0.0020561100443058783 0 0.0021118453193924298 -0.0028579058053160035 0 0.0020325836850853215 -0.0027549976048978921 0 0.0022196905546701153 -0.0026986089839749427 0 0.001956071972480863 -0.0029227220993217205 0 0.0021118453193924298 -0.0028579058053160035 0 0.0020325836850853215 -0.0027549976048978921 0 0.0022868990901684038 -0.002876366970748096 0 0.0021118453193924298 -0.0028579058053160035 0 0.0022196905546701153 -0.0026986089839749427 0 0.0018978842892928168 -0.0023919483449999991 0 0.0022942543585453496 -0.0021146581394218779 0 0.0024559302030861645 -0.001734926667119601 0 0.0027261173066509183 -0.0018850994250345541 0 0.0026272382423390473 -0.0020959824599202773 0 0.0022942543585453496 -0.0021146581394218779 0 0.0026359790075920196 -0.0019568255716011979 0 0.0029565663804017512 -0.0019459043647912452 0 0.0028303540992476602 -0.0016070717689940096 0 0.0027261173066509183 -0.0018850994250345541 0 0.0025791830619061856 -0.0020586341256217159 0 0.0022942543585453496 -0.0021146581394218779 0 0.0028303540992476602 -0.0016070717689940096 0 0.0024559302030861645 -0.001734926667119601 0 0.0027261173066509183 -0.0018850994250345541 0 0.0029565663804017512 -0.0019459043647912452 0 0.0027261173066509183 -0.0018850994250345541 0 0.0028378407719188859 -0.0021502172379928831 0 0.0027261173066509183 -0.0018850994250345541 0 0.0028378407719188859 -0.0021502172379928831 0 0.0026272382423390473 -0.0020959824599202773 0 0.0028378407719188859 -0.0021502172379928831 0 0.0026272382423390473 -0.0020959824599202773 0 0.0027525430342508839 -0.0022641826270722275 0 0.0025133947981351833 -0.0018041194857759597 0 0.0026272382423390473 -0.0020959824599202773 0 0.0024204702613948308 -0.0019720747675628647 0 0.0026272382423390473 -0.0020959824599202773 0 0.0024204702613948308 -0.0019720747675628647 0 0.0023927478559581561 -0.0021125069595539624 0 0.0018295243176279321 0.0056590657110028699 0 0.0016442290083326463 0.0055084282177166677 0 0.0019735498395755239 0.005435556518041792 0 0.0026272382423390473 -0.0020959824599202773 0 0.0027525430342508839 -0.0022641826270722275 0 0.0023927478559581561 -0.0021125069595539624 0 0.0022706955044562872 0.00016443100217803307 0 0.0021658966275518946 0.0020141626006940617 0 0.0024632883052846189 -0.0026922782825465632 0 0.0022706955044562872 0.00016443100217803307 0 0.0021658966275518946 0.0020141626006940617 0 0.0023269051234147959 0.00078106311291508042 0 0.0022216823627555101 -0.0019556753919588456 0 0.0023148656052034019 -0.0019731842447707313 0 0.0023927478559581561 -0.0021125069595539624 0 0.0022216823627555101 -0.0019556753919588456 0 0.0023927478559581561 -0.0021125069595539624 0 0.0021811085362391219 -0.0019288663293234747 0 0.0022614687321311066 7.2083108585865377e-05 0 0.0023269051234147959 0.00078106311291508042 0 0.0022490054304592907 -0.0019385995813003436 0 0.0022257364931351723 -0.0019338357917660191 0 0.0022135856811923735 -0.0019404554963664323 0 0.0022216823627555101 -0.0019556753919588456 0 0.0022490054304592907 -0.0019385995813003436 0 0.0022257364931351723 -0.0019338357917660191 0 0.002303807513717347 -0.001875545186080164 0 0.0022490054304592907 -0.0019385995813003436 0 0.0023148656052034019 -0.0019731842447707313 0 0.0022216823627555101 -0.0019556753919588456 0 0.0022490054304592907 -0.0019385995813003436 0 0.0023148656052034019 -0.0019731842447707313 0 0.002303807513717347 -0.001875545186080164 0 0.0023148656052034019 -0.0019731842447707313 0 0.0024204702613948308 -0.0019720747675628647 0 0.0023148656052034019 -0.0019731842447707313 0 0.0024204702613948308 -0.0019720747675628647 0 0.0023927478559581561 -0.0021125069595539624 0 0.0019890611916077252 0.0058395469837438669 0 0.0018295243176279321 0.0056590657110028699 0 0.0019735498395755239 0.005435556518041792 0 0.0019890611916077252 0.0058395469837438669 0 0.0019735498395755239 0.005435556518041792 0 0.0022649057610321576 0.005516666513271872 0 0.0024260574097104163 0.0057565323458806513 0 0.0022649057610321576 0.005516666513271872 0 0.0024212866130643106 0.0055692256598136487 0 0.0019735498395755239 0.005435556518041792 0 0.0022649057610321576 0.005516666513271872 0 0.0026037889470439972 0.00528095398694474 0 0.0025209226679615317 0.0054601850504235085 0 0.0024212866130643106 0.0055692256598136487 0 0.002664237839274932 0.0055258080110371696 0 0.0022649057610321576 0.005516666513271872 0 0.0025209226679615317 0.0054601850504235085 0 0.0024212866130643106 0.0055692256598136487 0 0.0022649057610321576 0.005516666513271872 0 0.0025209226679615317 0.0054601850504235085 0 0.0026037889470439972 0.00528095398694474 0 0.0024260574097104163 0.0057565323458806513 0 0.0024212866130643106 0.0055692256598136487 0 0.0026139436169255984 0.0056810116738041762 0 0.0024212866130643106 0.0055692256598136487 0 0.0026139436169255984 0.0056810116738041762 0 0.002664237839274932 0.0055258080110371696 0 0.0026139436169255984 0.0056810116738041762 0 0.0027885757424503904 0.0057431156722026538 0 0.0027806092046307311 0.0056115258613704654 0 0.0026139436169255984 0.0056810116738041762 0 0.0027806092046307311 0.0056115258613704654 0 0.002664237839274932 0.0055258080110371696 0 0.0029374358187364536 0.005785997710861193 0 0.0027885757424503904 0.0057431156722026538 0 0.0028913984562270209 0.0056665946809098585 0 0.0027885757424503904 0.0057431156722026538 0 0.0027806092046307311 0.0056115258613704654 0 0.0028913984562270209 0.0056665946809098585 0 0.0027806092046307311 0.0056115258613704654 0 0.0028913984562270209 0.0056665946809098585 0 0.0029255590364836844 0.0055649860552137859 0 0.0027806092046307311 0.0056115258613704654 0 0.0029255590364836844 0.0055649860552137859 0 0.0028318237877609388 0.0054755379383117711 0 0.0029255590364836844 0.0055649860552137859 0 0.0028318237877609388 0.0054755379383117711 0 0.0029498588535810102 0.0054714465978719182 0 0.0027806092046307311 0.0056115258613704654 0 0.0028318237877609388 0.0054755379383117711 0 0.002664237839274932 0.0055258080110371696 0 0.0027865341478315046 0.0053811256031462609 0 0.0028318237877609388 0.0054755379383117711 0 0.002685258850845119 0.0054203210508177143 0 0.0027865341478315046 0.0053811256031462609 0 0.0028318237877609388 0.0054755379383117711 0 0.0028831461456087976 0.0054120502350424489 0 0.0028318237877609388 0.0054755379383117711 0 0.0028831461456087976 0.0054120502350424489 0 0.0029498588535810102 0.0054714465978719182 0 0.0028831461456087976 0.0054120502350424489 0 0.0029498588535810102 0.0054714465978719182 0 0.0029604598412427438 0.0053920677569433808 0 0.0025209226679615317 0.0054601850504235085 0 0.002664237839274932 0.0055258080110371696 0 0.002685258850845119 0.0054203210508177143 0 0.0028318237877609388 0.0054755379383117711 0 0.002664237839274932 0.0055258080110371696 0 0.002685258850845119 0.0054203210508177143 0 0.0025209226679615317 0.0054601850504235085 0 0.002685258850845119 0.0054203210508177143 0 0.0026037889470439972 0.00528095398694474 0 0.0022216823627555101 -0.0019556753919588456 0 0.0022301892222253194 -0.0019163029495356139 0 0.0022376906494196674 -0.0019114224376530883 0 0.0022405408032294587 -0.0019122564154479763 0 0.0022947600052167947 -0.0018611046801341122 0 0.0023001135634639668 -0.0020299504167112488 0 0.0022216823627555101 -0.0019556753919588456 0 0.0022376906494196674 -0.0019114224376530883 0 0.0022257364931351723 -0.0019338357917660191 0 0.0027865341478315046 0.0053811256031462609 0 0.002685258850845119 0.0054203210508177143 0 0.0026037889470439972 0.00528095398694474 0 0.0022376906494196674 -0.0019114224376530883 0 0.0022405408032294587 -0.0019122564154479763 0 0.0022947600052167947 -0.0018611046801341122 0 0.0027865341478315046 0.0053811256031462609 0 0.0026037889470439972 0.00528095398694474 0 0.0028878618617258832 0.0053392900222967096 0 0.0026037889470439972 0.00528095398694474 0 0.0028878618617258832 0.0053392900222967096 0 0.0030006443020727416 0.0052883668213867729 0 0.0023269051234147959 0.00078106311291508042 0 0.0028087236932692141 0.0013604333821891335 0 0.0022301892222253194 -0.0019163029495356139 0 0.0022376906494196674 -0.0019114224376530883 0 0.0022947600052167947 -0.0018611046801341122 0 0.0027865341478315046 0.0053811256031462609 0 0.0028831461456087976 0.0054120502350424489 0 0.0028878618617258832 0.0053392900222967096 0 0.0028831461456087976 0.0054120502350424489 0 0.0028878618617258832 0.0053392900222967096 0 0.0029604598412427438 0.0053920677569433808 0 0.0028878618617258832 0.0053392900222967096 0 0.0029667589012904666 0.0053414804530463036 0 0.0029604598412427438 0.0053920677569433808 0 0.0022257364931351723 -0.0019338357917660191 0 0.0022405408032294587 -0.0019122564154479763 0 0.0022135856811923735 -0.0019404554963664323 0 0.0022376906494196674 -0.0019114224376530883 0 0.0022257364931351723 -0.0019338357917660191 0 0.0022405408032294587 -0.0019122564154479763 0 0.0025288967319912294 0.00077869539326834024 0 0.0035872871056161983 0.0007801988648298507 0 0.0029627425365472281 8.0227627631073472e-05 0 0.0028087236932692141 0.0013604333821891335 0 0.0035488322819568498 0.0032473149886408162 0 0.0028878618617258832 0.0053392900222967096 0 0.0030006443020727416 0.0052883668213867729 0 0.0029667589012904666 0.0053414804530463036 0 0.0030006443020727416 0.0052883668213867729 0 0.0030105450389403534 0.0053459708234124366 0 0.0029667589012904666 0.0053414804530463036 0 0.0028087236932692141 0.0013604333821891335 0 0.0028867952608328498 0.0018650459531469846 0 0.0030105450389403534 0.0053459708234124366 0 0.0029667589012904666 0.0053414804530463036 0 0.0029604598412427438 0.0053920677569433808 0 0.0030011659128836559 0.0052962055138960091 0 0.0031349149166887426 0.0055365782957485258 0 0.0034479169442816399 0.0055924974572225568 0 0.0030011659128836559 0.0052962055138960091 0 0.0030105450389403534 0.0053459708234124366 0 0.0031349149166887426 0.0055365782957485258 0 0.0030105450389403534 0.0053459708234124366 0 0.0029604598412427438 0.0053920677569433808 0 0.0030155862429867312 0.0054572251953529235 0 0.0029498588535810102 0.0054714465978719182 0 0.0029604598412427438 0.0053920677569433808 0 0.0030155862429867312 0.0054572251953529235 0 0.0029498588535810102 0.0054714465978719182 0 0.0030155862429867312 0.0054572251953529235 0 0.0030211819661379604 0.0055392125156789682 0 0.0030105450389403534 0.0053459708234124366 0 0.0030155862429867312 0.0054572251953529235 0 0.0031349149166887426 0.0055365782957485258 0 0.0031349149166887426 0.0055365782957485258 0 0.0030211819661379604 0.0055392125156789682 0 0.0030402447023166342 0.0056668544115319776 0 0.0030155862429867312 0.0054572251953529235 0 0.0031349149166887426 0.0055365782957485258 0 0.0030211819661379604 0.0055392125156789682 0 0.0029255590364836844 0.0055649860552137859 0 0.0030211819661379604 0.0055392125156789682 0 0.0030402447023166342 0.0056668544115319776 0 0.0029255590364836844 0.0055649860552137859 0 0.0029498588535810102 0.0054714465978719182 0 0.0030211819661379604 0.0055392125156789682 0 0.0031349149166887426 0.0055365782957485258 0 0.0030402447023166342 0.0056668544115319776 0 0.0032234444200403291 0.0057715804350686869 0 0.0028913984562270209 0.0056665946809098585 0 0.0029255590364836844 0.0055649860552137859 0 0.0030402447023166342 0.0056668544115319776 0 0.0030858799551729777 0.005859427194608551 0 0.0030402447023166342 0.0056668544115319776 0 0.0032234444200403291 0.0057715804350686869 0 0.0030858799551729777 0.005859427194608551 0 0.0029374358187364536 0.005785997710861193 0 0.0030402447023166342 0.0056668544115319776 0 0.0029374358187364536 0.005785997710861193 0 0.0028913984562270209 0.0056665946809098585 0 0.0030402447023166342 0.0056668544115319776 0 0.0031349149166887426 0.0055365782957485258 0 0.0032234444200403291 0.0057715804350686869 0 0.0034479169442816399 0.0055924974572225568 0 0.0034002977586551266 0.0058824574909304836 0 0.0036634391372912219 0.0058754379710475183 0 0.0034479169442816399 0.0055924974572225568 0 0.0036634391372912219 0.0058754379710475183 0 0.0034479169442816399 0.0055924974572225568 0 0.003615789826864516 0.0053560309841405897 0 0.0034002977586551266 0.0058824574909304836 0 0.0032234444200403291 0.0057715804350686869 0 0.0034479169442816399 0.0055924974572225568 0 0.004003423319942646 0.0057032723512666309 0 0.003615789826864516 0.0053560309841405897 0 0.0042421010022856854 0.0053855349768795321 0 0.0036634391372912219 0.0058754379710475183 0 0.004003423319942646 0.0057032723512666309 0 0.003615789826864516 0.0053560309841405897 0 0.0040610216894816442 0.0060857017349061869 0 0.0036634391372912219 0.0058754379710475183 0 0.004003423319942646 0.0057032723512666309 0 0.0035488322819568498 0.0032473149886408162 0 0.0046271481644546237 0.0029647262058222408 0 0.0035872871056161983 0.0007801988648298507 0 0.0042741886915607964 -0.00016671297844525346 0 0.0046233543091286919 0.00080104759789039013 0 0.0030011659128836559 0.0052962055138960091 0 0.0034479169442816399 0.0055924974572225568 0 0.003615789826864516 0.0053560309841405897 0 0.0035872871056161983 0.0007801988648298507 0 0.003493227676156496 -0.00036699616934554786 0 0.0029627425365472281 8.0227627631073472e-05 0 0.0035872871056161983 0.0007801988648298507 0 0.003493227676156496 -0.00036699616934554786 0 0.0042741886915607964 -0.00016671297844525346 0 0.0042741886915607964 -0.00016671297844525346 0 0.0039451244799928722 -0.00084646647056228134 0 0.004868022597047981 -0.0011366598759373887 0 0.003493227676156496 -0.00036699616934554786 0 0.0042741886915607964 -0.00016671297844525346 0 0.0039451244799928722 -0.00084646647056228134 0 0.003493227676156496 -0.00036699616934554786 0 0.0033011742442335731 -0.00096290445955286245 0 0.0028627128706409759 -0.00077955177636273058 0 0.003493227676156496 -0.00036699616934554786 0 0.0039451244799928722 -0.00084646647056228134 0 0.0033011742442335731 -0.00096290445955286245 0 0.0033011742442335731 -0.00096290445955286245 0 0.0028627128706409759 -0.00077955177636273058 0 0.0029325194986610952 -0.0015422508563137894 0 0.0028627128706409759 -0.00077955177636273058 0 0.0023213590392138854 -0.00035615258986586149 0 0.0021788429347084234 -0.0015181288121849977 0 0.0022279295576023059 -0.0016149619383430799 0 0.0022549046204150725 -0.0018430618667916272 0 0.0021549630110454985 -0.0021878966049747959 0 0.0021378472309028724 -0.0020561100443058783 0 0.0023001135634639668 -0.0020299504167112488 0 0.0021549630110454985 -0.0021878966049747959 0 0.0023001135634639668 -0.0020299504167112488 0 0.0022749178170721517 -0.0023569775171719729 0 0.0022405408032294587 -0.0019122564154479763 0 0.0023001135634639668 -0.0020299504167112488 0 0.0022135856811923735 -0.0019404554963664323 0 0.0021378472309028724 -0.0020561100443058783 0 0.0023001135634639668 -0.0020299504167112488 0 0.0022135856811923735 -0.0019404554963664323 0 0.0028087236932692141 0.0013604333821891335 0 0.0022279295576023059 -0.0016149619383430799 0 0.0028627128706409759 -0.00077955177636273058 0 0.0023213590392138854 -0.00035615258986586149 0 0.0029627425365472281 8.0227627631073472e-05 0 0.003493227676156496 -0.00036699616934554786 0 0.0028627128706409759 -0.00077955177636273058 0 0.0029627425365472281 8.0227627631073472e-05 0 0.0025288967319912294 0.00077869539326834024 0 0.0023213590392138854 -0.00035615258986586149 0 0.0029627425365472281 8.0227627631073472e-05 0 0.0011812816725521875 0.0067331432197933038 0 0.0012827467185248882 0.0066199765198882389 0 0.0013885860622879272 0.0067360358799924839 0 0.002484643039642449 0.0085866465865344892 0 0.002886351487553486 0.011867570205090425 0 0.0011812816725521875 0.0067331432197933038 0 0.0011844928362921166 0.0065999384710677652 0 0.0012827467185248882 0.0066199765198882389 0 0.002484643039642449 0.0085866465865344892 0 0.0015106562591526468 0.0062423769713816392 0 0.0052333900640246867 0.010210617074928841 0 0.002484643039642449 0.0085866465865344892 0 0.0044688753695857134 0.013534264907041439 0 0.0043422707984818697 0.01418433084878431 0 0.0042018227473360377 0.013831225367333314 0 0.0043422707984818697 0.01418433084878431 0 0.0042018227473360377 0.013831225367333314 0 0.0039744338634840849 0.01400202928086744 0 0.0040101988862248092 0.013585643234004513 0 0.0042018227473360377 0.013831225367333314 0 0.0039744338634840849 0.01400202928086744 0 0.0054997093424268657 0.0063273660262373795 0 0.0054782270415658554 0.0057903237871730143 0 0.0052278048424483532 0.0061445118831251234 0 0.005311861987471962 0.0063131483176551489 0 0.0044259842403786059 0.0041927070392380012 0 0.0054782270415658554 0.0057903237871730143 0 0.0052278048424483532 0.0061445118831251234 0 0.0050616059883382631 0.0057807009713571845 0 0.0011856280184318222 0.0066953229611331983 0 0.001030084567080365 0.0066783109022200884 0 0.0010651514918264312 0.0065665571196005948 0 0.002484643039642449 0.0085866465865344892 0 0.0044259842403786059 0.0041927070392380012 0 0.0011856280184318222 0.0066953229611331983 0 0.0010651514918264312 0.0065665571196005948 0 0.0011844928362921166 0.0065999384710677652 0 0.005666725347603852 0.00083011097268625609 0 0.0046233543091286919 0.00080104759789039013 0 0.0052727549351148737 -0.00015633765154641127 0 0.0044259842403786059 0.0041927070392380012 0 0.002957208118620457 0.0030122562927242949 0 0.0044259842403786059 0.0041927070392380012 0 0.0046271481644546237 0.0029647262058222408 0 0.0047963720633689587 0.0060408010824405866 0 0.0051735856779040468 0.0059180226554888266 0 0.0049371735105507349 0.0053745979680518861 0 0.0047963720633689587 0.0060408010824405866 0 0.0049371735105507349 0.0053745979680518861 0 0.0044573712267857446 0.0058214735608521119 0 0.004003423319942646 0.0057032723512666309 0 0.0044573712267857446 0.0058214735608521119 0 0.0042421010022856854 0.0053855349768795321 0 0.0049371735105507349 0.0053745979680518861 0 0.0044573712267857446 0.0058214735608521119 0 0.0042421010022856854 0.0053855349768795321 0 0.0040610216894816442 0.0060857017349061869 0 0.004003423319942646 0.0057032723512666309 0 0.0044573712267857446 0.0058214735608521119 0 0.0042741886915607964 -0.00016671297844525346 0 0.0046233543091286919 0.00080104759789039013 0 0.0052727549351148737 -0.00015633765154641127 0 0.0042741886915607964 -0.00016671297844525346 0 0.0052727549351148737 -0.00015633765154641127 0 0.004868022597047981 -0.0011366598759373887 0 0.002957208118620457 0.0030122562927242949 0 0.0028185980125935445 0.0026832787766179855 0 0.00097965378467868925 0.0063023103246684902 0 0.00092309557296289227 0.0064803598247124361 0 0.00081335610239501347 0.0062458291300886044 0 0.00097965378467868925 0.0063023103246684902 0 0.00092309557296289227 0.0064803598247124361 0 0.0010819739979714361 0.0064292787502342186 0 0.001030084567080365 0.0066783109022200884 0 0.00092309557296289227 0.0064803598247124361 0 0.0010651514918264312 0.0065665571196005948 0 0.00092309557296289227 0.0064803598247124361 0 0.0010651514918264312 0.0065665571196005948 0 0.0010819739979714361 0.0064292787502342186 0 0.0010651514918264312 0.0065665571196005948 0 0.0010819739979714361 0.0064292787502342186 0 0.0011844928362921166 0.0065999384710677652 0 0.0010819739979714361 0.0064292787502342186 0 0.0012320459835141679 0.0064687948167036092 0 0.0010994579590700882 0.0062522235723529293 0 0.00097965378467868925 0.0063023103246684902 0 0.0010819739979714361 0.0064292787502342186 0 0.0010994579590700882 0.0062522235723529293 0 0.0012320459835141679 0.0064687948167036092 0 0.0011844928362921166 0.0065999384710677652 0 0.0012827467185248882 0.0066199765198882389 0 0.0010819739979714361 0.0064292787502342186 0 0.0012320459835141679 0.0064687948167036092 0 0.0011844928362921166 0.0065999384710677652 0 0.0011951634774186885 0.006136193076837302 0 0.0013185052996694977 0.0063335028353054736 0 0.001336046734677868 0.0059661458265745856 0 0.0011951634774186885 0.006136193076837302 0 0.0010248747661544733 0.0059819883561702918 0 0.001336046734677868 0.0059661458265745856 0 0.0011951634774186885 0.006136193076837302 0 0.0010994579590700882 0.0062522235723529293 0 0.0013185052996694977 0.0063335028353054736 0 0.0012320459835141679 0.0064687948167036092 0 0.0010994579590700882 0.0062522235723529293 0 0.0013185052996694977 0.0063335028353054736 0 0.0010706836670937355 0.0062054117234571389 0 0.0008920596801387247 0.0062647904059547959 0 0.0011951634774186885 0.006136193076837302 0 0.0010994579590700882 0.0062522235723529293 0 0.0010248747661544733 0.0059819883561702918 0 0.0010994579590700882 0.0062522235723529293 0 0.0010248747661544733 0.0059819883561702918 0 0.00085242448486300636 0.0061257082912501018 0 0.0010248747661544733 0.0059819883561702918 0 0.00083179655164328139 0.0059941512122073945 0 0.00085242448486300636 0.0061257082912501018 0 0.00083179655164328139 0.0059941512122073945 0 0.00085242448486300636 0.0061257082912501018 0 0.00064217427219893984 0.0059999301441753068 0 0.00097965378467868925 0.0063023103246684902 0 0.0010994579590700882 0.0062522235723529293 0 0.00095420597546446177 0.0060930879988849726 0 0.00097965378467868925 0.0063023103246684902 0 0.00095420597546446177 0.0060930879988849726 0 0.00081335610239501347 0.0062458291300886044 0 0.00095420597546446177 0.0060930879988849726 0 0.00081335610239501347 0.0062458291300886044 0 0.00070966795070631866 0.0059600288830450043 0 0.0028185980125935445 0.0026832787766179855 0 0.0031940455146737701 0.0013124728204181237 0 0.0008920596801387247 0.0062647904059547959 0 0.0013908594885658106 0.0039026464131489439 0 0.00095420597546446177 0.0060930879988849726 0 0.00070966795070631866 0.0059600288830450043 0 0.00074793138800993014 0.0059308668401341436 0 0.0013908594885658106 0.0039026464131489439 0 0.0028084618729383739 0.00092739304090083577 0 0.0027200652466920533 0.0027422187212169259 0 0.0031895439280661777 0.0023648333704378156 0 0.0024009706683658896 0.0019751433148548804 0 0.0031940455146737701 0.0013124728204181237 0 0.0013908594885658106 0.0039026464131489439 0 0.001297635411336218 0.0053471845141294062 0 0.0012760740594319094 0.005451416376468482 0 0.0012467493589053387 0.0053641335967081595 0 0.00083179655164328139 0.0059941512122073945 0 0.00064217427219893984 0.0059999301441753068 0 0.0008139193513691346 0.0058673082630596876 0 0.0013080058438152647 0.0052724976206497166 0 0.001297635411336218 0.0053471845141294062 0 0.0012467493589053387 0.0053641335967081595 0 0.0013908594885658106 0.0039026464131489439 0 0.0008536263848407037 0.0058323840247088464 0 0.0013080058438152647 0.0052724976206497166 0 0.001297635411336218 0.0053471845141294062 0 0.0013358499567653016 0.0052834365330790964 0 0.001297635411336218 0.0053471845141294062 0 0.0012760740594319094 0.005451416376468482 0 0.0013503047911358303 0.0053843577783403186 0 0.0012760740594319094 0.005451416376468482 0 0.0012467493589053387 0.0053641335967081595 0 0.0012092218388779171 0.0054533906845296645 0 0.0012760740594319094 0.005451416376468482 0 0.0012092218388779171 0.0054533906845296645 0 0.0012190232455700047 0.0055263036505308416 0 0.0010248747661544733 0.0059819883561702918 0 0.00083179655164328139 0.0059941512122073945 0 0.0008139193513691346 0.0058673082630596876 0 0.0008536263848407037 0.0058323840247088464 0 0.0011514213556941685 0.0055458949577616287 0 0.0010248747661544733 0.0059819883561702918 0 0.00099733421971368963 0.0057128237272581536 0 0.0011650231109342128 0.0057869796476328322 0 0.0010248747661544733 0.0059819883561702918 0 0.0008139193513691346 0.0058673082630596876 0 0.00099733421971368963 0.0057128237272581536 0 0.0011514213556941685 0.0055458949577616287 0 0.0011641720501185005 0.0055792574404614189 0 0.00099733421971368963 0.0057128237272581536 0 0.0011650231109342128 0.0057869796476328322 0 0.0011901618975239127 0.0055746540387521413 0 0.0012092218388779171 0.0054533906845296645 0 0.0011901618975239127 0.0055746540387521413 0 0.0012190232455700047 0.0055263036505308416 0 0.0011650231109342128 0.0057869796476328322 0 0.0011901618975239127 0.0055746540387521413 0 0.0012660805846822622 0.0056290397830650405 0 0.0011650231109342128 0.0057869796476328322 0 0.0012660805846822622 0.0056290397830650405 0 0.001336046734677868 0.0059661458265745856 0 0.0010248747661544733 0.0059819883561702918 0 0.0011650231109342128 0.0057869796476328322 0 0.001336046734677868 0.0059661458265745856 0 0.0027095275158055387 -0.0023544234385612229 0 0.0029325194986610952 -0.0015422508563137894 0 0.0032952102413596088 -0.0022267541070860476 0 0.0020819749292013438 -0.0025408284483034618 0 0.0022749178170721517 -0.0023569775171719729 0 0.0022173088580080547 -0.0026692322429141303 0 0.0022549046204150725 -0.0018430618667916272 0 0.0021945291250615659 -0.0026496875854290823 0 0.0027095275158055387 -0.0023544234385612229 0 0.0021788429347084234 -0.0015181288121849977 0 0.0022173088580080547 -0.0026692322429141303 0 0.0028627128706409759 -0.00077955177636273058 0 0.0021788429347084234 -0.0015181288121849977 0 0.0029325194986610952 -0.0015422508563137894 0 0.0027095275158055387 -0.0023544234385612229 0 0.0021788429347084234 -0.0015181288121849977 0 0.0029325194986610952 -0.0015422508563137894 0 0.0033011742442335731 -0.00096290445955286245 0 0.0029325194986610952 -0.0015422508563137894 0 0.0037996484769543698 -0.0015945600281736096 0 0.0029325194986610952 -0.0015422508563137894 0 0.0037996484769543698 -0.0015945600281736096 0 0.0032952102413596088 -0.0022267541070860476 0 0.0039451244799928722 -0.00084646647056228134 0 0.0033011742442335731 -0.00096290445955286245 0 0.0037996484769543698 -0.0015945600281736096 0 0.004868022597047981 -0.0011366598759373887 0 0.0044565615140402613 -0.0020783634551970348 0 0.0037996484769543698 -0.0015945600281736096 0 0.0039451244799928722 -0.00084646647056228134 0 0.004868022597047981 -0.0011366598759373887 0 0.0037996484769543698 -0.0015945600281736096 0 0.0031940455146737701 0.0013124728204181237 0 0.004642262132135865 -0.002494406523795407 0 0.0044159832483442411 -0.0021151476396630005 0 0.0037996484769543698 -0.0015945600281736096 0 0.0039086550186269269 -0.0021874382844436053 0 0.0039086550186269269 -0.0021874382844436053 0 0.004320924838032896 -0.0023452408902752105 0 0.0037067333559054456 -0.0026502553332061118 0 0.0044159832483442411 -0.0021151476396630005 0 0.0039086550186269269 -0.0021874382844436053 0 0.004320924838032896 -0.0023452408902752105 0 0.0031940455146737701 0.0013124728204181237 0 0.0028084618729383739 0.00092739304090083577 0 0.0037996484769543698 -0.0015945600281736096 0 0.0039086550186269269 -0.0021874382844436053 0 0.0032952102413596088 -0.0022267541070860476 0 0.0039086550186269269 -0.0021874382844436053 0 0.0032952102413596088 -0.0022267541070860476 0 0.0037067333559054456 -0.0026502553332061118 0 0.0032952102413596088 -0.0022267541070860476 0 0.0037067333559054456 -0.0026502553332061118 0 0.0030429797708651377 -0.0029039215862237183 0 0.0031305764607504872 -0.0028209299807931054 0 0.0031669837464231945 -0.0030306566627265083 0 0.0030791919432170416 -0.003014799779083286 0 0.0031305764607504872 -0.0028209299807931054 0 0.0030429797708651377 -0.0029039215862237183 0 0.0030791919432170416 -0.003014799779083286 0 0.0032911315343901069 -0.0026915359312000798 0 0.0031254537091812955 -0.0028637541352724721 0 0.0028084618729383739 0.00092739304090083577 0 0.0022028327742767998 0.0012167080763684248 0 0.001297635411336218 0.0053471845141294062 0 0.0013358499567653016 0.0052834365330790964 0 0.0013503047911358303 0.0053843577783403186 0 0.0033416980594405525 -0.0026831666682776908 0 0.0031305764607504872 -0.0028209299807931054 0 0.0031669837464231945 -0.0030306566627265083 0 0.0028084618729383739 0.00092739304090083577 0 0.0032911315343901069 -0.0026915359312000798 0 0.0012760740594319094 0.005451416376468482 0 0.0013503047911358303 0.0053843577783403186 0 0.0013181597108178952 0.0054496782491681777 0 0.0030429797708651377 -0.0029039215862237183 0 0.0030791919432170416 -0.003014799779083286 0 0.0028580739734913219 -0.0031175736100522698 0 0.0031669837464231945 -0.0030306566627265083 0 0.0030791919432170416 -0.003014799779083286 0 0.0030560416159750455 -0.0031193078889940164 0 0.0030791919432170416 -0.003014799779083286 0 0.0028580739734913219 -0.0031175736100522698 0 0.0030560416159750455 -0.0031193078889940164 0 0.0030429797708651377 -0.0029039215862237183 0 0.0028580739734913219 -0.0031175736100522698 0 0.0026067223483337886 -0.002907038020092369 0 0.0028580739734913219 -0.0031175736100522698 0 0.0026067223483337886 -0.002907038020092369 0 0.0025671698430159281 -0.003232646849669446 0 0.0027095275158055387 -0.0023544234385612229 0 0.0030429797708651377 -0.0029039215862237183 0 0.0026067223483337886 -0.002907038020092369 0 0.0027095275158055387 -0.0023544234385612229 0 0.0032952102413596088 -0.0022267541070860476 0 0.0030429797708651377 -0.0029039215862237183 0 0.0026067223483337886 -0.002907038020092369 0 0.0022173088580080547 -0.0026692322429141303 0 0.0023169485453671188 -0.0030788028078392025 0 0.0021056619552776074 -0.0030254443221042425 0 0.0022173088580080547 -0.0026692322429141303 0 0.0023169485453671188 -0.0030788028078392025 0 0.0027095275158055387 -0.0023544234385612229 0 0.0026067223483337886 -0.002907038020092369 0 0.0022173088580080547 -0.0026692322429141303 0 0.0023169485453671188 -0.0030788028078392025 0 0.0025671698430159281 -0.003232646849669446 0 0.0022658341156157821 -0.0034456128851861729 0 0.0026067223483337886 -0.002907038020092369 0 0.0023169485453671188 -0.0030788028078392025 0 0.0025671698430159281 -0.003232646849669446 0 0.0022658341156157821 -0.0034456128851861729 0 0.0025646204051389507 -0.0036194232926517692 0 0.0021473479291556955 -0.0037555153544484841 0 0.0025699896275399679 -0.0033538115682481785 0 0.0024482149825900347 -0.0032784466307888963 0 0.0025671698430159281 -0.003232646849669446 0 0.0022658341156157821 -0.0034456128851861729 0 0.0025646204051389507 -0.0036194232926517692 0 0.0010212534673983509 -0.0040739184851512917 0 0.0010989707865457533 -0.0038811631241540893 0 0.0012031428241825938 -0.0039976460388113965 0 0.0024482149825900347 -0.0032784466307888963 0 0.0015397664952571531 -0.003951041799233489 0 0.0010212534673983509 -0.0040739184851512917 0 0.0010989707865457533 -0.0038811631241540893 0 0.00097208927794471519 -0.003792986940681716 0 0.0024482149825900347 -0.0032784466307888963 0 0.002361920040336681 -0.0032126486654873287 0 0.0037560140095246326 -0.0028916216641996042 0 0.0034458097432782946 -0.0024379856545340712 0 0.0032304789297713278 -0.0028974844578165335 0 0.0037560140095246326 -0.0028916216641996042 0 0.0034458097432782946 -0.0024379856545340712 0 0.0037029945595837685 -0.0018753628577707513 0 0.0034458097432782946 -0.0024379856545340712 0 0.0032304789297713278 -0.0028974844578165335 0 0.0030979258641271124 -0.002054439752470604 0 0.0028580739734913219 -0.0031175736100522698 0 0.0026317893313012766 -0.0034870129557527502 0 0.0030560416159750455 -0.0031193078889940164 0 0.0024482149825900347 -0.0032784466307888963 0 0.0033544364809000764 -0.0030609177958254978 0 0.0037560140095246326 -0.0028916216641996042 0 0.0030560416159750455 -0.0031193078889940164 0 0.0032304789297713278 -0.0028974844578165335 0 0.0028580739734913219 -0.0031175736100522698 0 0.0025671698430159281 -0.003232646849669446 0 0.0026317893313012766 -0.0034870129557527502 0 0.0031669837464231945 -0.0030306566627265083 0 0.0030560416159750455 -0.0031193078889940164 0 0.0029567760020279719 -0.0029462457186059865 0 0.0030560416159750455 -0.0031193078889940164 0 0.0029567760020279719 -0.0029462457186059865 0 0.0032304789297713278 -0.0028974844578165335 0 0.0013503047911358303 0.0053843577783403186 0 0.001333356188833914 0.00545092681026128 0 0.0013181597108178952 0.0054496782491681777 0 0.0022028327742767998 0.0012167080763684248 0 0.0021890175289144276 0.0013925812964168571 0 0.001333356188833914 0.00545092681026128 0 0.0013181597108178952 0.0054496782491681777 0 0.0013003466479998029 0.0054985908786451369 0 0.001333356188833914 0.00545092681026128 0 0.0013047814407750129 0.0054943526140026544 0 0.0013003466479998029 0.0054985908786451369 0 0.0034099623223288328 -0.0040784005091001338 0 0.0022378294264738226 0.00098869293340028675 0 0.0021890175289144276 0.0013925812964168571 0 0.0022378294264738226 0.00098869293340028675 0 0.001333356188833914 0.00545092681026128 0 0.0013047814407750129 0.0054943526140026544 0 0.0012953376491690969 0.0054763001524274517 0 0.0029567760020279719 -0.0029462457186059865 0 0.0032304789297713278 -0.0028974844578165335 0 0.0031807093885266812 -0.0021395440214765173 0 0.0013047814407750129 0.0054943526140026544 0 0.0012953376491690969 0.0054763001524274517 0 0.0012837141653870856 0.005494161662709638 0 0.0012953376491690969 0.0054763001524274517 0 0.0012837141653870856 0.005494161662709638 0 0.0012330548559354169 0.0054796339648425386 0 0.0022378294264738226 0.00098869293340028675 0 0.0011153469607158332 0.004988041231802803 0 0.0013047814407750129 0.0054943526140026544 0 0.0013132027884952362 0.0055215510894626799 0 0.0013003466479998029 0.0054985908786451369 0 0.0013047814407750129 0.0054943526140026544 0 0.0012837141653870856 0.005494161662709638 0 0.0013132027884952362 0.0055215510894626799 0 0.0013132027884952362 0.0055215510894626799 0 0.0012771068335905391 0.0054857160838447903 0 0.0012819821656910092 0.005450822661036709 0 0.0013132027884952362 0.0055215510894626799 0 0.0013683561943861539 0.0055022526789633907 0 0.0012819821656910092 0.005450822661036709 0 0.0012837141653870856 0.005494161662709638 0 0.0013132027884952362 0.0055215510894626799 0 0.0012771068335905391 0.0054857160838447903 0 0.0012771068335905391 0.0054857160838447903 0 0.0012330548559354169 0.0054796339648425386 0 0.0012819821656910092 0.005450822661036709 0 0.0012837141653870856 0.005494161662709638 0 0.0012771068335905391 0.0054857160838447903 0 0.0012330548559354169 0.0054796339648425386 0 0.0011460118885176364 0.0033632378702260195 0 0.0015187166271289094 0.0031484906894522452 0 0.0017748858458787357 0.0038910479596387512 0 0.0025081170930736779 0.0010743175138685154 0 0.0020794670650281745 -0.00052509051682448976 0 0.0033278301173342308 -0.0014128452410472996 0 0.0037029945595837685 -0.0018753628577707513 0 0.0035791997446948162 -0.00075481601853615227 0 0.002361920040336681 -0.0032126486654873287 0 0.0020794670650281745 -0.00052509051682448976 0 0.0010369861825717814 -0.0035814970171115495 0 0.0010937847086434041 -0.0037303294647737795 0 0.00097208927794471519 -0.003792986940681716 0 0.0010369861825717814 -0.0035814970171115495 0 0.00097208927794471519 -0.003792986940681716 0 0.00090896860778596957 -0.0034690945323156168 0 0.0010369861825717814 -0.0035814970171115495 0 0.0010747776580259146 -0.0034533105942935209 0 0.001180861973721387 -0.0035908600391962859 0 0.0010369861825717814 -0.0035814970171115495 0 0.0010937847086434041 -0.0037303294647737795 0 0.001180861973721387 -0.0035908600391962859 0 0.0010937847086434041 -0.0037303294647737795 0 0.0010989707865457533 -0.0038811631241540893 0 0.0012093739788606494 -0.0037994262887759409 0 0.0010937847086434041 -0.0037303294647737795 0 0.0010989707865457533 -0.0038811631241540893 0 0.00097208927794471519 -0.003792986940681716 0 0.0034458097432782946 -0.0024379856545340712 0 0.0030979258641271124 -0.002054439752470604 0 0.0037029945595837685 -0.0018753628577707513 0 0.0012108340762620148 0.0023498571803613672 0 0.0011460118885176364 0.0033632378702260195 0 0.0015187166271289094 0.0031484906894522452 0 0.0022378294264738226 0.00098869293340028675 0 0.0025081170930736779 0.0010743175138685154 0 0.0030979258641271124 -0.002054439752470604 0 0.0033278301173342308 -0.0014128452410472996 0 0.0037029945595837685 -0.0018753628577707513 0 0.0012004949001155423 0.0056053184611382437 0 0.0011711838044774856 0.0056258873030471963 0 0.0011945625399921967 0.0056258922177476771 0 0.0012004949001155423 0.0056053184611382437 0 0.0011711838044774856 0.0056258873030471963 0 0.001201979527056941 0.0055803744530854736 0 0.0011711838044774856 0.0056258873030471963 0 0.0011901618975239127 0.0055746540387521413 0 0.001201979527056941 0.0055803744530854736 0 0.0011779218452387167 0.0056432446758187364 0 0.0012204218805547998 0.0058159239311593247 0 0.0011711838044774856 0.0056258873030471963 0 0.0011901618975239127 0.0055746540387521413 0 0.0012660805846822622 0.0056290397830650405 0 0.001201979527056941 0.0055803744530854736 0 0.0012190232455700047 0.0055263036505308416 0 0.0012305069562951964 0.0055658161428687649 0 0.0012190232455700047 0.0055263036505308416 0 0.0012305069562951964 0.0055658161428687649 0 0.0012612748025252845 0.0055200005656529071 0 0.0011901618975239127 0.0055746540387521413 0 0.001201979527056941 0.0055803744530854736 0 0.0012190232455700047 0.0055263036505308416 0 0.0012004949001155423 0.0056053184611382437 0 0.0012305069562951964 0.0055658161428687649 0 0.0012351989268685336 0.0055926521547220425 0 0.0012305069562951964 0.0055658161428687649 0 0.0012766090696399591 0.0055440732436220514 0 0.0012351989268685336 0.0055926521547220425 0 0.0012004949001155423 0.0056053184611382437 0 0.001201979527056941 0.0055803744530854736 0 0.0012305069562951964 0.0055658161428687649 0 0.0012305069562951964 0.0055658161428687649 0 0.0012766090696399591 0.0055440732436220514 0 0.0012612748025252845 0.0055200005656529071 0 0.0012760740594319094 0.005451416376468482 0 0.0012190232455700047 0.0055263036505308416 0 0.0012612748025252845 0.0055200005656529071 0 0.0012760740594319094 0.005451416376468482 0 0.0013181597108178952 0.0054496782491681777 0 0.0013003466479998029 0.0054985908786451369 0 0.0012760740594319094 0.005451416376468482 0 0.0012612748025252845 0.0055200005656529071 0 0.0013003466479998029 0.0054985908786451369 0 0.0012766090696399591 0.0055440732436220514 0 0.0012612748025252845 0.0055200005656529071 0 0.0013003466479998029 0.0054985908786451369 0 0.0013132027884952362 0.0055215510894626799 0 0.0012766090696399591 0.0055440732436220514 0 0.001296458440019123 0.0055599687020598176 0 0.0013132027884952362 0.0055215510894626799 0 0.0012766090696399591 0.0055440732436220514 0 0.0013003466479998029 0.0054985908786451369 0 0.0013132027884952362 0.0055215510894626799 0 0.001296458440019123 0.0055599687020598176 0 0.0013683561943861539 0.0055022526789633907 0 0.0012766090696399591 0.0055440732436220514 0 0.001296458440019123 0.0055599687020598176 0 0.0012351989268685336 0.0055926521547220425 0 0.001296458440019123 0.0055599687020598176 0 0.00123932627747819 0.0056265394089666642 0 0.0012688175081446223 0.0056478780822234566 0 0.001296458440019123 0.0055599687020598176 0 0.0012351989268685336 0.0055926521547220425 0 0.00123932627747819 0.0056265394089666642 0 0.00123932627747819 0.0056265394089666642 0 0.0012037147436403958 0.0056510523735679788 0 0.0011971611435360051 0.0056975735364332928 0 0.0012351989268685336 0.0055926521547220425 0 0.00123932627747819 0.0056265394089666642 0 0.0012037147436403958 0.0056510523735679788 0 0.0012037147436403958 0.0056510523735679788 0 0.0011971611435360051 0.0056975735364332928 0 0.0011732555341439988 0.0057010326738856044 0 0.0012037147436403958 0.0056510523735679788 0 0.0011987592707658091 0.0056288248145783008 0 0.0011862054426463415 0.0056622761252544188 0 0.0012004949001155423 0.0056053184611382437 0 0.0012351989268685336 0.0055926521547220425 0 0.0011987592707658091 0.0056288248145783008 0 0.0012351989268685336 0.0055926521547220425 0 0.0012037147436403958 0.0056510523735679788 0 0.0011987592707658091 0.0056288248145783008 0 0.0012004949001155423 0.0056053184611382437 0 0.0011987592707658091 0.0056288248145783008 0 0.0011945625399921967 0.0056258922177476771 0 0.0011975998656453299 0.0057436702154823804 0 0.0011971611435360051 0.0056975735364332928 0 0.0011741631372040125 0.0057793379228694907 0 0.0011975998656453299 0.0057436702154823804 0 0.0011971611435360051 0.0056975735364332928 0 0.0012688175081446223 0.0056478780822234566 0 0.00123932627747819 0.0056265394089666642 0 0.0011971611435360051 0.0056975735364332928 0 0.0012688175081446223 0.0056478780822234566 0 0.0011975998656453299 0.0057436702154823804 0 0.0012688175081446223 0.0056478780822234566 0 0.0012739386974198357 0.0057880310923296855 0 0.0012688175081446223 0.0056478780822234566 0 0.0013756806480740517 0.0057629064609837173 0 0.0013683561943861539 0.0055022526789633907 0 0.0012688175081446223 0.0056478780822234566 0 0.0013756806480740517 0.0057629064609837173 0 0.0012739386974198357 0.0057880310923296855 0 0.001296458440019123 0.0055599687020598176 0 0.0012688175081446223 0.0056478780822234566 0 0.0013683561943861539 0.0055022526789633907 0 0.0014164761408188829 0.0051952122206359152 0 0.0013683561943861539 0.0055022526789633907 0 0.001320887825515463 0.0052269822762707743 0 0.0013593322479733886 0.0055592861674336243 0 0.0013823176807909727 0.0054775814042661384 0 0.0014164761408188829 0.0051952122206359152 0 0.0013747958586055181 0.0051650015592281349 0 0.001320887825515463 0.0052269822762707743 0 0.0013747958586055181 0.0051650015592281349 0 0.001320887825515463 0.0052269822762707743 0 0.0013089220891983311 0.0051421543044136092 0 0.0013747958586055181 0.0051650015592281349 0 0.0013366508523867588 0.0051431677273358345 0 0.0013089220891983311 0.0051421543044136092 0 0.0013366508523867588 0.0051431677273358345 0 0.0013729278850756505 0.0051741876855279116 0 0.0013264159967469912 0.0050982266131184154 0 0.0013747958586055181 0.0051650015592281349 0 0.0013366508523867588 0.0051431677273358345 0 0.0013729278850756505 0.0051741876855279116 0 0.0013729278850756505 0.0051741876855279116 0 0.0012701810301224174 0.0051778675822556188 0 0.0013386914429429388 0.0053975165902382695 0 0.0013747958586055181 0.0051650015592281349 0 0.0013729278850756505 0.0051741876855279116 0 0.0012701810301224174 0.0051778675822556188 0 0.0013593322479733886 0.0055592861674336243 0 0.0014167821832908722 0.0053028953723692155 0 0.0013756806480740517 0.0057629064609837173 0 0.0013526738610886832 0.0059990682609221526 0 0.0012939232293404611 0.0058923672970773357 0 0.0013756806480740517 0.0057629064609837173 0 0.0012739386974198357 0.0057880310923296855 0 0.0012939232293404611 0.0058923672970773357 0 0.0014164761408188829 0.0051952122206359152 0 0.0013747958586055181 0.0051650015592281349 0 0.0012701810301224174 0.0051778675822556188 0 0.0012739386974198357 0.0057880310923296855 0 0.0012939232293404611 0.0058923672970773357 0 0.0012084670204993815 0.0059277473747309222 0 0.0011975998656453299 0.0057436702154823804 0 0.0012739386974198357 0.0057880310923296855 0 0.0012084670204993815 0.0059277473747309222 0 0.0012939232293404611 0.0058923672970773357 0 0.0012543512598976803 0.0059878963366140747 0 0.0012084670204993815 0.0059277473747309222 0 0.0013526738610886832 0.0059990682609221526 0 0.0012939232293404611 0.0058923672970773357 0 0.0012543512598976803 0.0059878963366140747 0 0.0013526738610886832 0.0059990682609221526 0 0.0012543512598976803 0.0059878963366140747 0 0.0012797053851334992 0.0060847094147402862 0 0.0012543512598976803 0.0059878963366140747 0 0.0012797053851334992 0.0060847094147402862 0 0.0011565498034819392 0.0060538990687640385 0 0.0012543512598976803 0.0059878963366140747 0 0.0012084670204993815 0.0059277473747309222 0 0.0011565498034819392 0.0060538990687640385 0 0.0011565498034819392 0.0060538990687640385 0 0.0010685312658694894 0.006056803326779615 0 0.001068619124915893 0.0059009447067978607 0 0.0012084670204993815 0.0059277473747309222 0 0.0011565498034819392 0.0060538990687640385 0 0.001068619124915893 0.0059009447067978607 0 0.0011545578449408882 0.0058378316644948853 0 0.0011997478078860358 0.0056503975138995051 0 0.0011975998656453299 0.0057436702154823804 0 0.0011953209719701655 0.0058298318359999218 0 0.0011741631372040125 0.0057793379228694907 0 0.0011975998656453299 0.0057436702154823804 0 0.0012084670204993815 0.0059277473747309222 0 0.001068619124915893 0.0059009447067978607 0 0.00095247045969333957 -0.0032768943262332564 0 0.00091744160442277546 -0.0034376317893053273 0 0.00081888062433356913 -0.0031064787591986833 0 0.0017748858458787357 0.0038910479596387512 0 0.0011252880365599947 0.0042802500471937665 0 0.0015317393535017926 0.0050117010102241908 0 0.0020794670650281745 -0.00052509051682448976 0 0.00109676209533427 0.0012895570282325337 0 0.0010422149170253095 -0.0031756314244180636 0 0.00095247045969333957 -0.0032768943262332564 0 0.00081888062433356913 -0.0031064787591986833 0 0.0010422149170253095 -0.0031756314244180636 0 0.0011084738765724258 -0.0033138656977390107 0 0.00095247045969333957 -0.0032768943262332564 0 0.0011084738765724258 -0.0033138656977390107 0 0.00095247045969333957 -0.0032768943262332564 0 0.00099965983907474129 -0.0033833089379539365 0 0.00095247045969333957 -0.0032768943262332564 0 0.00099965983907474129 -0.0033833089379539365 0 0.00091744160442277546 -0.0034376317893053273 0 0.0011084738765724258 -0.0033138656977390107 0 0.00099965983907474129 -0.0033833089379539365 0 0.0010747776580259146 -0.0034533105942935209 0 0.0011084738765724258 -0.0033138656977390107 0 0.0010747776580259146 -0.0034533105942935209 0 0.0011990879222008319 -0.0034427200677009887 0 0.0010369861825717814 -0.0035814970171115495 0 0.0010747776580259146 -0.0034533105942935209 0 0.00098762324901190135 -0.003465380660933064 0 0.0010369861825717814 -0.0035814970171115495 0 0.00098762324901190135 -0.003465380660933064 0 0.00090896860778596957 -0.0034690945323156168 0 0.00099965983907474129 -0.0033833089379539365 0 0.00098762324901190135 -0.003465380660933064 0 0.00091744160442277546 -0.0034376317893053273 0 0.00099965983907474129 -0.0033833089379539365 0 0.0010747776580259146 -0.0034533105942935209 0 0.00098762324901190135 -0.003465380660933064 0 0.0011460118885176364 0.0033632378702260195 0 0.0017748858458787357 0.0038910479596387512 0 0.0011252880365599947 0.0042802500471937665 0 0.00090900083287166462 -0.0034686946431490566 0 0.00091744160442277546 -0.0034376317893053273 0 0.00081888062433356913 -0.0031064787591986833 0 0.00098762324901190135 -0.003465380660933064 0 0.00090896860778596957 -0.0034690945323156168 0 0.00091744160442277546 -0.0034376317893053273 0 0.0020794670650281745 -0.00052509051682448976 0 0.0017673752238842248 -0.0012839836223080586 0 0.0012330548559354169 0.0054796339648425386 0 0.001165366774867591 0.0053522554185155531 0 0.0012819821656910092 0.005450822661036709 0 0.001165366774867591 0.0053522554185155531 0 0.0012819821656910092 0.005450822661036709 0 0.0012525012483091272 0.0052396769378803163 0 0.0011153469607158332 0.004988041231802803 0 0.0011675867327759163 0.0046914127128386282 0 0.0013683561943861539 0.0055022526789633907 0 0.0012819821656910092 0.005450822661036709 0 0.001320887825515463 0.0052269822762707743 0 0.0012819821656910092 0.005450822661036709 0 0.001320887825515463 0.0052269822762707743 0 0.0012525012483091272 0.0052396769378803163 0 0.001320887825515463 0.0052269822762707743 0 0.0012525012483091272 0.0052396769378803163 0 0.0012581097073434131 0.0051270006346121897 0 0.0011252880365599947 0.0042802500471937665 0 0.0011975241700798714 0.0050607457767442325 0 0.0015317393535017926 0.0050117010102241908 0 0.0011675867327759163 0.0046914127128386282 0 0.0011770666320445658 0.0050776737140594448 0 0.0012525012483091272 0.0052396769378803163 0 0.0011975241700798714 0.0050607457767442325 0 0.0012581097073434131 0.0051270006346121897 0 0.001165366774867591 0.0053522554185155531 0 0.0012525012483091272 0.0052396769378803163 0 0.0011975241700798714 0.0050607457767442325 0 0.0011975241700798714 0.0050607457767442325 0 0.0012772086757120943 0.0051232824564474378 0 0.0015317393535017926 0.0050117010102241908 0 0.0012772086757120943 0.0051232824564474378 0 0.0012581097073434131 0.0051270006346121897 0 0.0012656224793955707 0.005137365878290375 0 0.0011975241700798714 0.0050607457767442325 0 0.0012772086757120943 0.0051232824564474378 0 0.0012581097073434131 0.0051270006346121897 0 0.001320887825515463 0.0052269822762707743 0 0.0012581097073434131 0.0051270006346121897 0 0.0013089220891983311 0.0051421543044136092 0 0.0012581097073434131 0.0051270006346121897 0 0.0013089220891983311 0.0051421543044136092 0 0.0012656224793955707 0.005137365878290375 0 0.0013089220891983311 0.0051421543044136092 0 0.0012656224793955707 0.005137365878290375 0 0.001293639485758432 0.0051158746513552487 0 0.0013366508523867588 0.0051431677273358345 0 0.0013089220891983311 0.0051421543044136092 0 0.001293639485758432 0.0051158746513552487 0 0.0012772086757120943 0.0051232824564474378 0 0.0012656224793955707 0.005137365878290375 0 0.0013332756402717604 0.0051690656575859271 0 0.00074759019461079484 -0.0026300610438503872 0 0.00081888062433356913 -0.0031064787591986833 0 0.0009613846097900298 -0.0028358160745318938 0 0.00080649585153006679 0.00038570522918954323 0 0.0012182099781901828 -0.0030603174097284746 0 0.0012772086757120943 0.0051232824564474378 0 0.0013332756402717604 0.0051690656575859271 0 0.0015317393535017926 0.0050117010102241908 0 0.00080649585153006679 0.00038570522918954323 0 0.00109676209533427 0.0012895570282325337 0 0.0010422149170253095 -0.0031756314244180636 0 0.0009613846097900298 -0.0028358160745318938 0 0.0011199722528720812 -0.0030553965802032931 0 0.0010422149170253095 -0.0031756314244180636 0 0.00081888062433356913 -0.0031064787591986833 0 0.0009613846097900298 -0.0028358160745318938 0 0.0012182099781901828 -0.0030603174097284746 0 0.0010168239677372588 -0.002959474268434307 0 0.00093014309758105795 -0.002940923621031712 0 0.0011175643623418821 -0.0029395156597137369 0 0.0011199722528720812 -0.0030553965802032931 0 0.00072927455470591556 -0.0027686194748825807 0 0.00093014309758105795 -0.002940923621031712 0 0.001114082447117867 -0.0027245102368660813 0 0.00093014309758105795 -0.002940923621031712 0 0.0011175643623418821 -0.0029395156597137369 0 0.001114082447117867 -0.0027245102368660813 0 0.0014162775801500114 -0.0029050251247722085 0 0.0012901384888433589 -0.0030217276603986929 0 0.001114082447117867 -0.0027245102368660813 0 0.0012013076572876999 -0.0028565705840896943 0 0.00064634531634751805 -0.0028932827931698146 0 0.0011175643623418821 -0.0029395156597137369 0 0.0012901384888433589 -0.0030217276603986929 0 0.001114082447117867 -0.0027245102368660813 0 0.0014162775801500114 -0.0029050251247722085 0 0.0012901384888433589 -0.0030217276603986929 0 0.0015164548854351837 -0.0031617545303113314 0 0.0012901384888433589 -0.0030217276603986929 0 0.0013719057117923209 -0.0032095712054517008 0 0.0015164548854351837 -0.0031617545303113314 0 0.0012901384888433589 -0.0030217276603986929 0 0.0012242255803619018 -0.0031739034607291376 0 0.0013719057117923209 -0.0032095712054517008 0 0.0010422149170253095 -0.0031756314244180636 0 0.0011199722528720812 -0.0030553965802032931 0 0.0012242255803619018 -0.0031739034607291376 0 0.0011175643623418821 -0.0029395156597137369 0 0.0012901384888433589 -0.0030217276603986929 0 0.0011199722528720812 -0.0030553965802032931 0 0.0012901384888433589 -0.0030217276603986929 0 0.0011199722528720812 -0.0030553965802032931 0 0.0012242255803619018 -0.0031739034607291376 0 0.0011084738765724258 -0.0033138656977390107 0 0.0012242255803619018 -0.0031739034607291376 0 0.0012902173539303769 -0.0033367885230390013 0 0.0010422149170253095 -0.0031756314244180636 0 0.0011084738765724258 -0.0033138656977390107 0 0.0012242255803619018 -0.0031739034607291376 0 0.0012902173539303769 -0.0033367885230390013 0 0.0014596812107611444 -0.0033838687528860187 0 0.0013719057117923209 -0.0032095712054517008 0 0.0012242255803619018 -0.0031739034607291376 0 0.0012902173539303769 -0.0033367885230390013 0 0.0013719057117923209 -0.0032095712054517008 0 0.0014596812107611444 -0.0033838687528860187 0 0.0013719057117923209 -0.0032095712054517008 0 0.0015164548854351837 -0.0031617545303113314 0 0.0014596812107611444 -0.0033838687528860187 0 0.0013460675490478326 -0.0035064519376970579 0 0.0015925580362879713 -0.0036188482036600654 0 0.0012902173539303769 -0.0033367885230390013 0 0.0014596812107611444 -0.0033838687528860187 0 0.0013460675490478326 -0.0035064519376970579 0 0.0013460675490478326 -0.0035064519376970579 0 0.0011990879222008319 -0.0034427200677009887 0 0.001180861973721387 -0.0035908600391962859 0 0.0011084738765724258 -0.0033138656977390107 0 0.0012902173539303769 -0.0033367885230390013 0 0.0011990879222008319 -0.0034427200677009887 0 0.0010747776580259146 -0.0034533105942935209 0 0.0011990879222008319 -0.0034427200677009887 0 0.001180861973721387 -0.0035908600391962859 0 0.0012902173539303769 -0.0033367885230390013 0 0.0013460675490478326 -0.0035064519376970579 0 0.0011990879222008319 -0.0034427200677009887 0 0.0017124025170323722 -0.0035568428148095963 0 0.0016125544435661751 -0.0033838900722360345 0 0.0015925580362879713 -0.0036188482036600654 0 0.0014596812107611444 -0.0033838687528860187 0 0.0016125544435661751 -0.0033838900722360345 0 0.0015925580362879713 -0.0036188482036600654 0 0.0014596812107611444 -0.0033838687528860187 0 0.0016125544435661751 -0.0033838900722360345 0 0.0015164548854351837 -0.0031617545303113314 0 0.0016125544435661751 -0.0033838900722360345 0 0.0017130652106644572 -0.0032471524703240446 0 0.0017946669798906188 -0.0034230267428172435 0 0.0016125544435661751 -0.0033838900722360345 0 0.0017130652106644572 -0.0032471524703240446 0 0.0015164548854351837 -0.0031617545303113314 0 0.0017124025170323722 -0.0035568428148095963 0 0.0016125544435661751 -0.0033838900722360345 0 0.0017946669798906188 -0.0034230267428172435 0 0.0017130652106644572 -0.0032471524703240446 0 0.0016474139191526723 -0.0030520718060861925 0 0.0018440608143710233 -0.0031537941907037823 0 0.0017130652106644572 -0.0032471524703240446 0 0.0015164548854351837 -0.0031617545303113314 0 0.0016474139191526723 -0.0030520718060861925 0 0.0014162775801500114 -0.0029050251247722085 0 0.0015164548854351837 -0.0031617545303113314 0 0.0016474139191526723 -0.0030520718060861925 0 0.00099440182718326157 -0.0028727081055102224 0 0.0016474139191526723 -0.0030520718060861925 0 0.0014511101971224623 -0.0025447250260186441 0 0.0012013076572876999 -0.0028565705840896943 0 0.0016258472239273724 -0.0030493186030873453 0 0.0016474139191526723 -0.0030520718060861925 0 0.0019044926241260666 -0.0029203288997147513 0 0.0014511101971224623 -0.0025447250260186441 0 0.0016474139191526723 -0.0030520718060861925 0 0.0019044926241260666 -0.0029203288997147513 0 0.0018440608143710233 -0.0031537941907037823 0 0.0019044926241260666 -0.0029203288997147513 0 0.0019826649374385537 -0.0031833858539139 0 0.0018440608143710233 -0.0031537941907037823 0 0.0016822226815075608 -0.002719583274946904 0 0.0019381640176313311 -0.0026532812056803941 0 0.0018326428072579606 -0.0025738043374982917 0 0.0018058657264194982 -0.0028454896990033887 0 0.0022326243224103852 -0.0029669685394208573 0 0.0019381640176313311 -0.0026532812056803941 0 0.0021821555415232952 -0.0027952277974247191 0 0.0019671446592855061 -0.0024738248280735489 0 0.0021821555415232952 -0.0027952277974247191 0 0.0025492453030343991 -0.0026713871181209443 0 0.0019671446592855061 -0.0024738248280735489 0 0.0016822226815075608 -0.002719583274946904 0 0.0021821555415232952 -0.0027952277974247191 0 0.0023905302363640183 -0.0031324552773070273 0 0.0016822226815075608 -0.002719583274946904 0 0.0019381640176313311 -0.0026532812056803941 0 0.0021821555415232952 -0.0027952277974247191 0 0.0019044926241260666 -0.0029203288997147513 0 0.0019826649374385537 -0.0031833858539139 0 0.0021620568730128195 -0.0031511231390632362 0 0.0019826649374385537 -0.0031833858539139 0 0.0021620568730128195 -0.0031511231390632362 0 0.0020924433404747003 -0.0033757033212423303 0 0.0019826649374385537 -0.0031833858539139 0 0.0019059726101938769 -0.0033081068169512752 0 0.0020924433404747003 -0.0033757033212423303 0 0.0019826649374385537 -0.0031833858539139 0 0.0018440608143710233 -0.0031537941907037823 0 0.0019059726101938769 -0.0033081068169512752 0 0.0017130652106644572 -0.0032471524703240446 0 0.0018440608143710233 -0.0031537941907037823 0 0.0019059726101938769 -0.0033081068169512752 0 0.0023024410840732533 -0.0035769271236853603 0 0.0026237557415527317 -0.0060318437520456326 0 0.0021623528835431147 -0.0048776607063188877 0 0.0021753792852471695 -0.0048726988933457897 0 0.0021919681082734487 -0.0049013575633956377 0 0.002496566643978662 -0.00477081917904007 0 0.0021918699958626622 -0.0043421314530167577 0 0.002932451679325552 -0.0046060336449936018 0 0.0028642093185394916 -0.0031027075895289327 0 0.0024927586395874397 -0.0029242064997212643 0 0.0023905302363640183 -0.0031324552773070273 0 0.0026738030730086974 -0.0039245320141455481 0 0.0023024410840732533 -0.0035769271236853603 0 0.0028642093185394916 -0.0031027075895289327 0 0.0025492453030343991 -0.0026713871181209443 0 0.0024927586395874397 -0.0029242064997212643 0 0.0021821555415232952 -0.0027952277974247191 0 0.0025492453030343991 -0.0026713871181209443 0 0.0024927586395874397 -0.0029242064997212643 0 0.0021821555415232952 -0.0027952277974247191 0 0.0024927586395874397 -0.0029242064997212643 0 0.0023905302363640183 -0.0031324552773070273 0 0.0021620568730128195 -0.0031511231390632362 0 0.0022747427220739884 -0.0033808181455533652 0 0.0020924433404747003 -0.0033757033212423303 0 0.0028642093185394916 -0.0031027075895289327 0 0.0023905302363640183 -0.0031324552773070273 0 0.0031774860269780875 -0.0035592427536568342 0 0.0021620568730128195 -0.0031511231390632362 0 0.0025123909276738143 -0.0033463503676909746 0 0.0022747427220739884 -0.0033808181455533652 0 0.0022326243224103852 -0.0029669685394208573 0 0.0028841750400734468 -0.0045298314742784965 0 0.002496566643978662 -0.00477081917904007 0 0.0028014389582659907 -0.0051922351122426639 0 0.002932451679325552 -0.0046060336449936018 0 0.0026738030730086974 -0.0039245320141455481 0 0.0028841750400734468 -0.0045298314742784965 0 0.0025123909276738143 -0.0033463503676909746 0 0.0023917297929451236 -0.0034639881870969363 0 0.0022747427220739884 -0.0033808181455533652 0 0.0023266730590004417 -0.0033214880226744882 0 0.0031983282246267905 -0.0048625246949720756 0 0.0023917297929451236 -0.0034639881870969363 0 0.0024455917791708251 -0.0038657911879913338 0 0.0025524372820295359 -0.0033892081011467636 0 0.0025123909276738143 -0.0033463503676909746 0 0.0023917297929451236 -0.0034639881870969363 0 0.0025524372820295359 -0.0033892081011467636 0 0.0023917297929451236 -0.0034639881870969363 0 0.0022398876140082703 -0.0035654514281938687 0 0.0022747427220739884 -0.0033808181455533652 0 0.0022398876140082703 -0.0035654514281938687 0 0.0020924433404747003 -0.0033757033212423303 0 0.0020637073659949259 -0.0036374263720519665 0 0.0022398876140082703 -0.0035654514281938687 0 0.0022747427220739884 -0.0033808181455533652 0 0.0020924433404747003 -0.0033757033212423303 0 0.0022398876140082703 -0.0035654514281938687 0 0.0022556137349365305 -0.0037934816039470131 0 0.0020637073659949259 -0.0036374263720519665 0 0.0022556137349365305 -0.0037934816039470131 0 0.0020637073659949259 -0.0036374263720519665 0 0.0021452916856597019 -0.0038837089753852652 0 0.0022398876140082703 -0.0035654514281938687 0 0.0022556137349365305 -0.0037934816039470131 0 0.0024455917791708251 -0.0038657911879913338 0 0.0023917297929451236 -0.0034639881870969363 0 0.0022398876140082703 -0.0035654514281938687 0 0.0024455917791708251 -0.0038657911879913338 0 0.0017130652106644572 -0.0032471524703240446 0 0.0017946669798906188 -0.0034230267428172435 0 0.0019059726101938769 -0.0033081068169512752 0 0.0017946669798906188 -0.0034230267428172435 0 0.0019542704974336972 -0.0034651054096041687 0 0.0018581542760068613 -0.0035900053209675172 0 0.0017946669798906188 -0.0034230267428172435 0 0.0019059726101938769 -0.0033081068169512752 0 0.0019542704974336972 -0.0034651054096041687 0 0.0020924433404747003 -0.0033757033212423303 0 0.0019542704974336972 -0.0034651054096041687 0 0.0020637073659949259 -0.0036374263720519665 0 0.0019059726101938769 -0.0033081068169512752 0 0.0020924433404747003 -0.0033757033212423303 0 0.0019542704974336972 -0.0034651054096041687 0 0.0020637073659949259 -0.0036374263720519665 0 0.0018581542760068613 -0.0035900053209675172 0 0.001944751326334191 -0.0037594839254287164 0 0.0019542704974336972 -0.0034651054096041687 0 0.0020637073659949259 -0.0036374263720519665 0 0.0018581542760068613 -0.0035900053209675172 0 0.0017124025170323722 -0.0035568428148095963 0 0.0017946669798906188 -0.0034230267428172435 0 0.0018581542760068613 -0.0035900053209675172 0 0.0017124025170323722 -0.0035568428148095963 0 0.0018581542760068613 -0.0035900053209675172 0 0.0017566825636230179 -0.0037605898842384897 0 0.0018581542760068613 -0.0035900053209675172 0 0.0017566825636230179 -0.0037605898842384897 0 0.001944751326334191 -0.0037594839254287164 0 0.0017566825636230179 -0.0037605898842384897 0 0.001944751326334191 -0.0037594839254287164 0 0.0019381013621734427 -0.0039042716554775758 0 0.001944751326334191 -0.0037594839254287164 0 0.0019381013621734427 -0.0039042716554775758 0 0.0021452916856597019 -0.0038837089753852652 0 0.0020637073659949259 -0.0036374263720519665 0 0.001944751326334191 -0.0037594839254287164 0 0.0021452916856597019 -0.0038837089753852652 0 0.0019381013621734427 -0.0039042716554775758 0 0.0021571005726666662 -0.0040459392988802592 0 0.0020496557041727731 -0.0041539612503170061 0 0.0017566825636230179 -0.0037605898842384897 0 0.0019381013621734427 -0.0039042716554775758 0 0.0016998225588110195 -0.0038598976332296967 0 0.0023826854580562972 -0.0039971053131377214 0 0.0021452916856597019 -0.0038837089753852652 0 0.0023259216349706649 -0.0040858814358866753 0 0.0022556137349365305 -0.0037934816039470131 0 0.0024455917791708251 -0.0038657911879913338 0 0.0023826854580562972 -0.0039971053131377214 0 0.0022556137349365305 -0.0037934816039470131 0 0.0023826854580562972 -0.0039971053131377214 0 0.0021452916856597019 -0.0038837089753852652 0 0.0019381013621734427 -0.0039042716554775758 0 0.0021452916856597019 -0.0038837089753852652 0 0.0021571005726666662 -0.0040459392988802592 0 0.0021452916856597019 -0.0038837089753852652 0 0.0021571005726666662 -0.0040459392988802592 0 0.0023259216349706649 -0.0040858814358866753 0 0.0021571005726666662 -0.0040459392988802592 0 0.0023259216349706649 -0.0040858814358866753 0 0.0023114669799738528 -0.0042109737474650289 0 0.0023259216349706649 -0.0040858814358866753 0 0.0024127032877800493 -0.0041936945335851114 0 0.0023114669799738528 -0.0042109737474650289 0 0.0023259216349706649 -0.0040858814358866753 0 0.0024127032877800493 -0.0041936945335851114 0 0.0024782076653179063 -0.004166950157881405 0 0.0023826854580562972 -0.0039971053131377214 0 0.0023259216349706649 -0.0040858814358866753 0 0.0024782076653179063 -0.004166950157881405 0 0.0024127032877800493 -0.0041936945335851114 0 0.0024132937333155042 -0.0042848591712776425 0 0.0023114669799738528 -0.0042109737474650289 0 0.0024127032877800493 -0.0041936945335851114 0 0.0024132937333155042 -0.0042848591712776425 0 0.0025089683744490073 -0.0042384112754650779 0 0.002403285429129379 -0.0039869948758928277 0 0.002409279558657728 -0.0041326439229573304 0 0.0021571005726666662 -0.0040459392988802592 0 0.0023114669799738528 -0.0042109737474650289 0 0.0020496557041727731 -0.0041539612503170061 0 0.002403285429129379 -0.0039869948758928277 0 0.0017743826546120622 -0.0039193968643293402 0 0.0024065024800785997 -0.004299154627360852 0 0.0023114669799738528 -0.0042109737474650289 0 0.0020496557041727731 -0.0041539612503170061 0 0.0018259972087422364 -0.0035807220444892588 0 0.0016733534066659256 -0.0037401668833117727 0 0.0015887899608029738 -0.0037151641881638885 0 0.0016621458357343405 -0.0039111253303949212 0 0.0016733534066659256 -0.0037401668833117727 0 0.0015955281529516179 -0.0037470854744949622 0 0.0016733534066659256 -0.0037401668833117727 0 0.0015887899608029738 -0.0037151641881638885 0 0.0015955281529516179 -0.0037470854744949622 0 0.0016621458357343405 -0.0039111253303949212 0 0.0016733534066659256 -0.0037401668833117727 0 0.0018703164401211944 -0.0038252041738790067 0 0.0018259972087422364 -0.0035807220444892588 0 0.0016733534066659256 -0.0037401668833117727 0 0.0018703164401211944 -0.0038252041738790067 0 0.0016998225588110195 -0.0038598976332296967 0 0.0015887899608029738 -0.0037151641881638885 0 0.0016406261390223525 -0.0037184371760594559 0 0.0019381013621734427 -0.0039042716554775758 0 0.0016998225588110195 -0.0038598976332296967 0 0.0020496557041727731 -0.0041539612503170061 0 0.0017515353224602291 -0.003877917715311127 0 0.0017743826546120622 -0.0039193968643293402 0 0.0015887899608029738 -0.0037151641881638885 0 0.0015955281529516179 -0.0037470854744949622 0 0.0016406261390223525 -0.0037184371760594559 0 0.0016716087349571639 -0.0035896162443758541 0 0.0016406261390223525 -0.0037184371760594559 0 0.001694372028481516 -0.0037178108025491129 0 0.0016998225588110195 -0.0038598976332296967 0 0.0016406261390223525 -0.0037184371760594559 0 0.001694372028481516 -0.0037178108025491129 0 0.0016998225588110195 -0.0038598976332296967 0 0.001694372028481516 -0.0037178108025491129 0 0.0016567954912038224 -0.0038330214349800102 0 0.001694372028481516 -0.0037178108025491129 0 0.0018172127961451358 -0.0035973228762141559 0 0.0018486235971995036 -0.0038136017879979952 0 0.001694372028481516 -0.0037178108025491129 0 0.0018486235971995036 -0.0038136017879979952 0 0.0016567954912038224 -0.0038330214349800102 0 0.0017223521867112642 -0.0034548774786576811 0 0.001694372028481516 -0.0037178108025491129 0 0.0018172127961451358 -0.0035973228762141559 0 0.0017223521867112642 -0.0034548774786576811 0 0.0016716087349571639 -0.0035896162443758541 0 0.001694372028481516 -0.0037178108025491129 0 0.0018172127961451358 -0.0035973228762141559 0 0.0020012352769454094 -0.0035531506180134036 0 0.0018486235971995036 -0.0038136017879979952 0 0.0018633730485247471 -0.0033937604448748783 0 0.0018172127961451358 -0.0035973228762141559 0 0.0020012352769454094 -0.0035531506180134036 0 0.0022658341156157821 -0.0034456128851861729 0 0.0020012352769454094 -0.0035531506180134036 0 0.0021473479291556955 -0.0037555153544484841 0 0.0020844982841406305 -0.0032954006714513446 0 0.0022658341156157821 -0.0034456128851861729 0 0.0020012352769454094 -0.0035531506180134036 0 0.0015397664952571531 -0.003951041799233489 0 0.0016672906382420671 -0.0038520388367263591 0 0.0010989707865457533 -0.0038811631241540893 0 0.0012031428241825938 -0.0039976460388113965 0 0.0012093739788606494 -0.0037994262887759409 0 0.0020012352769454094 -0.0035531506180134036 0 0.0021473479291556955 -0.0037555153544484841 0 0.0018486235971995036 -0.0038136017879979952 0 0.0012031428241825938 -0.0039976460388113965 0 0.0014104828732898671 -0.0039257955759925463 0 0.0012093739788606494 -0.0037994262887759409 0 0.0014104828732898671 -0.0039257955759925463 0 0.0012093739788606494 -0.0037994262887759409 0 0.0014008423154978813 -0.0037066626385649434 0 0.0014104828732898671 -0.0039257955759925463 0 0.0014008423154978813 -0.0037066626385649434 0 0.0016567954912038224 -0.0038330214349800102 0 0.0012093739788606494 -0.0037994262887759409 0 0.001180861973721387 -0.0035908600391962859 0 0.0014008423154978813 -0.0037066626385649434 0 0.0010937847086434041 -0.0037303294647737795 0 0.0012093739788606494 -0.0037994262887759409 0 0.001180861973721387 -0.0035908600391962859 0 0.0013460675490478326 -0.0035064519376970579 0 0.001180861973721387 -0.0035908600391962859 0 0.0014008423154978813 -0.0037066626385649434 0 0.0013460675490478326 -0.0035064519376970579 0 0.0014008423154978813 -0.0037066626385649434 0 0.0015925580362879713 -0.0036188482036600654 0 0.0014008423154978813 -0.0037066626385649434 0 0.0015925580362879713 -0.0036188482036600654 0 0.0016567954912038224 -0.0038330214349800102 0 0.0017566825636230179 -0.0037605898842384897 0 0.0015925580362879713 -0.0036188482036600654 0 0.0016567954912038224 -0.0038330214349800102 0 0.0017124025170323722 -0.0035568428148095963 0 0.0017566825636230179 -0.0037605898842384897 0 0.0015925580362879713 -0.0036188482036600654 0 0.0017566825636230179 -0.0037605898842384897 0 0.0016998225588110195 -0.0038598976332296967 0 0.0016567954912038224 -0.0038330214349800102 0 0.0016672906382420671 -0.0038520388367263591 0 0.001648088390800605 -0.003843516247325051 0 3.0779995812707621e-05 0.015044465012212713 0 2.1110470526033561e-05 0.015015447381135081 0 5.0246727845846269e-05 0.015025065424088472 0 -2.3017801521214503e-06 0.014996892377362188 0 4.6195151420669231e-07 0.01499953843798525 0 1.3487066399189343e-06 0.01500370059873595 0 0.00013572052827345746 0.014769170243455405 0 -4.7943262893512179e-06 0.01504521654027866 0 3.0779995812707621e-05 0.015044465012212713 0 2.1110470526033561e-05 0.015015447381135081 0 1.3487066399189343e-06 0.01500370059873595 0 4.6195151420669231e-07 0.01499953843798525 0 -4.1487970005570113e-10 0.015000009961500074 0 1.3487066399189343e-06 0.01500370059873595 0 4.6195151420669231e-07 0.01499953843798525 0 -4.1487970005570113e-10 0.015000009961500074 0 9.8923601657294556e-07 0.014998429790694942 0 2.4376563542626405e-07 0.014999518026202852 0 4.6195151420669231e-07 0.01499953843798525 0 9.8923601657294556e-07 0.014998429790694942 0 0.00013572052827345746 0.014769170243455405 0 -2.3804071998548129e-05 0.01495978591191399 0 9.8923601657294556e-07 0.014998429790694942 0 1.3384495797907221e-06 0.014994681264831458 0 6.2548025911664898e-09 0.014999987082969903 0 -4.1487970005570113e-10 0.015000009961500074 0 9.8923601657294556e-07 0.014998429790694942 0 6.2548025911664898e-09 0.014999987082969903 0 2.4376563542626405e-07 0.014999518026202852 0 -6.2867602456644476e-06 0.014997298059566306 0 1.3384495797907221e-06 0.014994681264831458 0 2.4376563542626405e-07 0.014999518026202852 0 9.8923601657294556e-07 0.014998429790694942 0 1.3384495797907221e-06 0.014994681264831458 0 0.00013572052827345746 0.014769170243455405 0 0.00021517877260636387 0.014567771979269135 0 0.00041594227356506864 0.014180959436494632 0 0.00043452548499645359 0.014178749105014049 0 0.00043518637463472261 0.014173076112943482 0 0.00043831739478243512 0.014175251417557565 0 0.00043452548499645359 0.014178749105014049 0 0.00043518637463472261 0.014173076112943482 0 0.00043831739478243512 0.014175251417557565 0 0.00043452548499645359 0.014178749105014049 0 0.000440583444550149 0.014165199304050503 0 0.00043831739478243512 0.014175251417557565 0 0.00043877649978230554 0.014170780112407511 0 0.000440583444550149 0.014165199304050503 0 0.00043831739478243512 0.014175251417557565 0 0.00043518637463472261 0.014173076112943482 0 0.00045569865945035753 0.014172192617321744 0 0.00021517877260636387 0.014567771979269135 0 0.00016004670840084759 0.014659178880853864 0 0.00036568954531081911 0.014183609082315212 0 0.00065917892022356386 0.014083676036550153 0 9.9661262137621133e-05 0.015037200832018423 0 7.7195271197681535e-05 0.015053025039294602 0 0.00013042037794057311 0.015052322819095514 0 0.00020958349267908346 0.01463201097509511 0 0.00065917892022356386 0.014083676036550153 0 9.9661262137621133e-05 0.015037200832018423 0 0.00011779742077583664 0.015026242863544356 0 0.00013042037794057311 0.015052322819095514 0 0.0015532854643508596 0.013883558452683875 0 0.0013576029023227893 0.01376202441948938 0 0.0014242054541962104 0.013554129193368437 0 0.00046818115376629236 0.014603462868284692 0 0.00065917892022356386 0.014083676036550153 0 0.00010044803389607759 0.015032559598358888 0 9.9661262137621133e-05 0.015037200832018423 0 8.7587425159209461e-05 0.015029752580771282 0 9.9661262137621133e-05 0.015037200832018423 0 7.6262100754355565e-05 0.015033688353801387 0 8.7587425159209461e-05 0.015029752580771282 0 0.00010044803389607759 0.015032559598358888 0 9.9661262137621133e-05 0.015037200832018423 0 0.00010544001472452834 0.015033827403913352 0 0.00010044803389607759 0.015032559598358888 0 0.00010544001472452834 0.015033827403913352 0 0.00010590069825411523 0.015029138419141738 0 9.8426685764861708e-05 0.014878248151917205 0 0.00046818115376629236 0.014603462868284692 0 3.0779995812707621e-05 0.015044465012212713 0 7.7195271197681535e-05 0.015053025039294602 0 5.0246727845846269e-05 0.015025065424088472 0 0.00013572052827345746 0.014769170243455405 0 0.00020958349267908346 0.01463201097509511 0 9.9661262137621133e-05 0.015037200832018423 0 7.7195271197681535e-05 0.015053025039294602 0 7.6262100754355565e-05 0.015033688353801387 0 7.7195271197681535e-05 0.015053025039294602 0 7.6262100754355565e-05 0.015033688353801387 0 5.0246727845846269e-05 0.015025065424088472 0 6.5648978644942678e-05 0.015022894524888726 0 5.1837610196324281e-05 0.015005813336537848 0 5.0246727845846269e-05 0.015025065424088472 0 7.6262100754355565e-05 0.015033688353801387 0 6.5648978644942678e-05 0.015022894524888726 0 5.0246727845846269e-05 0.015025065424088472 0 6.5648978644942678e-05 0.015022894524888726 0 8.7587425159209461e-05 0.015029752580771282 0 8.3836711936450143e-05 0.015012579318576779 0 7.6262100754355565e-05 0.015033688353801387 0 6.5648978644942678e-05 0.015022894524888726 0 8.7587425159209461e-05 0.015029752580771282 0 6.5648978644942678e-05 0.015022894524888726 0 5.1837610196324281e-05 0.015005813336537848 0 8.3836711936450143e-05 0.015012579318576779 0 0.00010590069825411523 0.015029138419141738 0 0.00011934577032249946 0.015021179149210827 0 0.00013654924768819834 0.015032161367669251 0 0.00046818115376629236 0.014603462868284692 0 0.00031925157680915371 0.014963464896280055 0 0.00011913444499355954 0.01505507503962932 0 0.00010590069825411523 0.015029138419141738 0 0.00013654924768819834 0.015032161367669251 0 0.00010590069825411523 0.015029138419141738 0 8.7587425159209461e-05 0.015029752580771282 0 8.3836711936450143e-05 0.015012579318576779 0 0.00010044803389607759 0.015032559598358888 0 0.00010590069825411523 0.015029138419141738 0 8.7587425159209461e-05 0.015029752580771282 0 0.00010590069825411523 0.015029138419141738 0 8.3836711936450143e-05 0.015012579318576779 0 0.00011934577032249946 0.015021179149210827 0 6.2715585457543432e-05 0.014981112519374439 0 0.00014204989192338885 0.015025520727998315 0 4.2503298184834662e-05 0.014979160299570381 0 0.00012268017648297367 0.014974304242632436 0 0.00014952157785548135 0.015028195606735443 0 0.00011934577032249946 0.015021179149210827 0 7.7964690001777504e-05 0.014981304792489537 0 0.00014952157785548135 0.015028195606735443 0 8.3836711936450143e-05 0.015012579318576779 0 0.00011934577032249946 0.015021179149210827 0 7.7964690001777504e-05 0.014981304792489537 0 5.1837610196324281e-05 0.015005813336537848 0 7.7964690001777504e-05 0.014981304792489537 0 3.7061464220090472e-05 0.014993106109483366 0 7.7964690001777504e-05 0.014981304792489537 0 3.7061464220090472e-05 0.014993106109483366 0 2.8884381201484986e-05 0.014980533121092226 0 5.1837610196324281e-05 0.015005813336537848 0 8.3836711936450143e-05 0.015012579318576779 0 7.7964690001777504e-05 0.014981304792489537 0 3.7061464220090472e-05 0.014993106109483366 0 2.5653845505351838e-05 0.015003586469623794 0 1.2207583137975175e-05 0.014994997683504575 0 5.1837610196324281e-05 0.015005813336537848 0 3.7061464220090472e-05 0.014993106109483366 0 2.5653845505351838e-05 0.015003586469623794 0 5.1837610196324281e-05 0.015005813336537848 0 2.5653845505351838e-05 0.015003586469623794 0 5.0246727845846269e-05 0.015025065424088472 0 2.5653845505351838e-05 0.015003586469623794 0 2.1110470526033561e-05 0.015015447381135081 0 5.0246727845846269e-05 0.015025065424088472 0 1.3487066399189343e-06 0.01500370059873595 0 1.0169046980196694e-05 0.015004858093764293 0 1.7967127577759514e-08 0.015000021495125736 0 -4.1487970005570113e-10 0.015000009961500074 0 1.3487066399189343e-06 0.01500370059873595 0 1.7967127577759514e-08 0.015000021495125736 0 2.1110470526033561e-05 0.015015447381135081 0 1.3487066399189343e-06 0.01500370059873595 0 1.0169046980196694e-05 0.015004858093764293 0 2.5653845505351838e-05 0.015003586469623794 0 2.1110470526033561e-05 0.015015447381135081 0 1.0169046980196694e-05 0.015004858093764293 0 2.5653845505351838e-05 0.015003586469623794 0 1.0169046980196694e-05 0.015004858093764293 0 1.2207583137975175e-05 0.014994997683504575 0 1.2207583137975175e-05 0.014994997683504575 0 1.7967127577759514e-08 0.015000021495125736 0 -1.4665342050354483e-08 0.014999930905134197 0 1.0169046980196694e-05 0.015004858093764293 0 1.2207583137975175e-05 0.014994997683504575 0 1.7967127577759514e-08 0.015000021495125736 0 1.2207583137975175e-05 0.014994997683504575 0 -1.4665342050354483e-08 0.014999930905134197 0 2.8884381201484986e-05 0.014980533121092226 0 3.7061464220090472e-05 0.014993106109483366 0 1.2207583137975175e-05 0.014994997683504575 0 2.8884381201484986e-05 0.014980533121092226 0 -2.9410491076100514e-05 0.0149185667635483 0 -2.3941786760863987e-05 0.014918781333601047 0 -4.0462772738321156e-06 0.014879534514312818 0 -2.3941786760863987e-05 0.014918781333601047 0 -2.5221778590043913e-05 0.014865044125418522 0 -4.0462772738321156e-06 0.014879534514312818 0 -2.9410491076100514e-05 0.0149185667635483 0 -2.3941786760863987e-05 0.014918781333601047 0 -3.7979516206100663e-06 0.014980644163214063 0 7.974240922421354e-07 0.014953301861302148 0 -3.4104064760915149e-06 0.014974055257298467 0 -1.4665342050354483e-08 0.014999930905134197 0 2.8884381201484986e-05 0.014980533121092226 0 -3.7979516206100663e-06 0.014980644163214063 0 -1.4665342050354483e-08 0.014999930905134197 0 -3.7979516206100663e-06 0.014980644163214063 0 -2.5444114929110208e-08 0.014999853912899767 0 -2.3941786760863987e-05 0.014918781333601047 0 -3.7979516206100663e-06 0.014980644163214063 0 -2.0557371384064398e-05 0.014936579850758578 0 -3.7979516206100663e-06 0.014980644163214063 0 -2.5444114929110208e-08 0.014999853912899767 0 -2.0557371384064398e-05 0.014936579850758578 0 -2.5444114929110208e-08 0.014999853912899767 0 -2.0557371384064398e-05 0.014936579850758578 0 -2.7505486025926263e-05 0.014898711033826031 0 -2.3941786760863987e-05 0.014918781333601047 0 -2.0557371384064398e-05 0.014936579850758578 0 -2.5221778590043913e-05 0.014865044125418522 0 -2.5221778590043913e-05 0.014865044125418522 0 -2.7505486025926263e-05 0.014898711033826031 0 -2.6851671826533703e-05 0.014791068042964714 0 -2.0557371384064398e-05 0.014936579850758578 0 -2.5221778590043913e-05 0.014865044125418522 0 -2.7505486025926263e-05 0.014898711033826031 0 -3.5742140172398988e-05 0.014795504787434625 0 -2.7505486025926263e-05 0.014898711033826031 0 -2.6851671826533703e-05 0.014791068042964714 0 -3.827013476515433e-08 0.014999777855546931 0 -3.5742140172398988e-05 0.014795504787434625 0 -2.7505486025926263e-05 0.014898711033826031 0 -3.827013476515433e-08 0.014999777855546931 0 -2.5444114929110208e-08 0.014999853912899767 0 -2.7505486025926263e-05 0.014898711033826031 0 3.1984442965182037e-06 0.014494479956588332 0 -1.7752687133024493e-05 0.014660763401773812 0 9.0117919713008407e-05 0.014683045298040672 0 -1.7752687133024493e-05 0.014660763401773812 0 7.6954223264870227e-06 0.01477722716691416 0 9.0117919713008407e-05 0.014683045298040672 0 -1.7752687133024493e-05 0.014660763401773812 0 -2.6851671826533703e-05 0.014791068042964714 0 7.6954223264870227e-06 0.01477722716691416 0 -3.5742140172398988e-05 0.014795504787434625 0 -1.7752687133024493e-05 0.014660763401773812 0 -2.6851671826533703e-05 0.014791068042964714 0 -2.5221778590043913e-05 0.014865044125418522 0 -2.6851671826533703e-05 0.014791068042964714 0 7.6954223264870227e-06 0.01477722716691416 0 -2.5221778590043913e-05 0.014865044125418522 0 7.6954223264870227e-06 0.01477722716691416 0 -4.0462772738321156e-06 0.014879534514312818 0 7.6954223264870227e-06 0.01477722716691416 0 6.3730027289865085e-05 0.014845386714741685 0 9.0117919713008407e-05 0.014683045298040672 0 6.3730027289865085e-05 0.014845386714741685 0 4.5461488070855897e-05 0.014917213618644001 0 0.00014005923432305688 0.014905783617470291 0 7.6954223264870227e-06 0.01477722716691416 0 6.3730027289865085e-05 0.014845386714741685 0 -4.0462772738321156e-06 0.014879534514312818 0 6.3730027289865085e-05 0.014845386714741685 0 -4.0462772738321156e-06 0.014879534514312818 0 4.5461488070855897e-05 0.014917213618644001 0 6.2715585457543432e-05 0.014981112519374439 0 7.974240922421354e-07 0.014953301861302148 0 -2.9410491076100514e-05 0.0149185667635483 0 -4.0462772738321156e-06 0.014879534514312818 0 4.5461488070855897e-05 0.014917213618644001 0 4.2503298184834662e-05 0.014979160299570381 0 -2.9410491076100514e-05 0.0149185667635483 0 4.5461488070855897e-05 0.014917213618644001 0 4.5461488070855897e-05 0.014917213618644001 0 0.00014005923432305688 0.014905783617470291 0 0.00012268017648297367 0.014974304242632436 0 4.2503298184834662e-05 0.014979160299570381 0 4.5461488070855897e-05 0.014917213618644001 0 0.00012268017648297367 0.014974304242632436 0 0.00014005923432305688 0.014905783617470291 0 0.00020545695052637193 0.014991730485863016 0 0.00012268017648297367 0.014974304242632436 0 0.00014005923432305688 0.014905783617470291 0 0.00027238025521902893 0.014903962405339585 0 0.00020545695052637193 0.014991730485863016 0 0.00050789624105708746 0.014715865679246851 0 0.00055622265097293863 0.0147124260941442 0 0.00053313654552853361 0.014723740343774753 0 0.0003944599667308952 0.014776817546421496 0 0.00032545717793316947 0.014952892664320183 0 0.00027238025521902893 0.014903962405339585 0 0.00017882621620797943 0.014815811510236612 0 0.00038791385049358591 0.014702387031678036 0 0.0003944599667308952 0.014776817546421496 0 0.00039436810425142485 0.014710282758055188 0 0.00050789624105708746 0.014715865679246851 0 0.00038791385049358591 0.014702387031678036 0 0.00054211311148853248 0.014711737479877963 0 0.00014005923432305688 0.014905783617470291 0 0.00027238025521902893 0.014903962405339585 0 0.00017882621620797943 0.014815811510236612 0 6.3730027289865085e-05 0.014845386714741685 0 0.00014005923432305688 0.014905783617470291 0 0.00017882621620797943 0.014815811510236612 0 6.3730027289865085e-05 0.014845386714741685 0 0.00017882621620797943 0.014815811510236612 0 9.0117919713008407e-05 0.014683045298040672 0 0.00017882621620797943 0.014815811510236612 0 9.0117919713008407e-05 0.014683045298040672 0 0.00038791385049358591 0.014702387031678036 0 9.0117919713008407e-05 0.014683045298040672 0 0.00038791385049358591 0.014702387031678036 0 0.00021619241072389433 0.014514176103762797 0 0.00038791385049358591 0.014702387031678036 0 0.00021619241072389433 0.014514176103762797 0 0.00045097966925654293 0.014450921638664307 0 0.00028373018706379576 0.014313415849708829 0 0.00021619241072389433 0.014514176103762797 0 0.00045097966925654293 0.014450921638664307 0 3.1984442965182037e-06 0.014494479956588332 0 9.0117919713008407e-05 0.014683045298040672 0 0.00021619241072389433 0.014514176103762797 0 0.00077547408878004349 0.014235749211069956 0 0.00045097966925654293 0.014450921638664307 0 0.00078842008818095556 0.014525957322299858 0 0.00038791385049358591 0.014702387031678036 0 0.00045097966925654293 0.014450921638664307 0 0.00055752251800677926 0.014628063973470268 0 0.00055752251800677926 0.014628063973470268 0 0.00078842008818095556 0.014525957322299858 0 0.00064191476833279945 0.014688231774726942 0 0.00045097966925654293 0.014450921638664307 0 0.00055752251800677926 0.014628063973470268 0 0.00078842008818095556 0.014525957322299858 0 0.00064191476833279945 0.014688231774726942 0 0.00054211311148853248 0.014711737479877963 0 0.00062901640916303227 0.014685049290563388 0 0.00064191476833279945 0.014688231774726942 0 0.00062901640916303227 0.014685049290563388 0 0.00065053309741963964 0.014738328180714232 0 0.00055752251800677926 0.014628063973470268 0 0.00064191476833279945 0.014688231774726942 0 0.00054211311148853248 0.014711737479877963 0 0.00038791385049358591 0.014702387031678036 0 0.00055752251800677926 0.014628063973470268 0 0.00054211311148853248 0.014711737479877963 0 0.00050789624105708746 0.014715865679246851 0 0.00054211311148853248 0.014711737479877963 0 0.00055622265097293863 0.0147124260941442 0 0.00054211311148853248 0.014711737479877963 0 0.00055622265097293863 0.0147124260941442 0 0.00062901640916303227 0.014685049290563388 0 0.00062901640916303227 0.014685049290563388 0 0.00060685578091667356 0.014701883666268635 0 0.0006236473915841353 0.014578755688610208 0 0.00055622265097293863 0.0147124260941442 0 0.00062901640916303227 0.014685049290563388 0 0.00060685578091667356 0.014701883666268635 0 0.001370817971852561 0.014215470789311801 0 0.0010729858669382799 0.013816838395824543 0 0.00082658510069370231 0.014096882168784765 0 0.0010729858669382799 0.013816838395824543 0 0.0013930625655658693 0.013559426130644316 0 0.00084495611981596391 0.013329302436013168 0 0.001370817971852561 0.014215470789311801 0 0.0010729858669382799 0.013816838395824543 0 0.0013930625655658693 0.013559426130644316 0 0.001370817971852561 0.014215470789311801 0 0.0013930625655658693 0.013559426130644316 0 0.0020071137688759014 0.013882876474621872 0 0.0013930625655658693 0.013559426130644316 0 0.0020071137688759014 0.013882876474621872 0 0.0019022181691095031 0.013278444806747705 0 0.00095913235289452395 0.014463061703815146 0 0.001353111104564675 0.014283430011568907 0 0.00055622265097293863 0.0147124260941442 0 0.00060685578091667356 0.014701883666268635 0 0.00055576317701156201 0.014732139820540705 0 0.00055622265097293863 0.0147124260941442 0 0.00055576317701156201 0.014732139820540705 0 0.00053313654552853361 0.014723740343774753 0 0.00020545695052637193 0.014991730485863016 0 0.00012268017648297367 0.014974304242632436 0 0.00014952157785548135 0.015028195606735443 0 0.00053313654552853361 0.014723740343774753 0 0.00054040609102657528 0.014733496379594199 0 0.00054114336482265549 0.014733887527614654 0 0.00020545695052637193 0.014991730485863016 0 0.00014952157785548135 0.015028195606735443 0 0.00017218927960139122 0.015051418809811789 0 0.00032545717793316947 0.014952892664320183 0 0.00082069829733959362 0.014461885816883759 0 0.00011913444499355954 0.01505507503962932 0 0.00016852602616120109 0.015030413672094296 0 0.00013654924768819834 0.015032161367669251 0 2.1697219728078949e-05 0.014958240346312308 0 0.00082069829733959362 0.014461885816883759 0 0.00011934577032249946 0.015021179149210827 0 0.00014952157785548135 0.015028195606735443 0 0.00017218927960139122 0.015051418809811789 0 0.00016956941114896264 0.015025303545424674 0 0.00016852602616120109 0.015030413672094296 0 0.00013654924768819834 0.015032161367669251 0 0.0013069391839704717 0.013466446827286694 0 0.0012972123669443818 0.013470757048294719 0 0.001309341690690584 0.013519960323012638 0 0.0007887767491474313 0.014299979753720422 0 0.00074516659523420493 0.014281912237498624 0 0.00080046696205917061 0.014255868853759259 0 0.00082069829733959362 0.014461885816883759 0 0.00095300336371260843 0.014265292433884885 0 0.0011978603115494395 0.014228293752141189 0 0.00095300336371260843 0.014265292433884885 0 0.00082069829733959362 0.014461885816883759 0 0.0011978603115494395 0.014228293752141189 0 0.00011934577032249946 0.015021179149210827 0 0.00016956941114896264 0.015025303545424674 0 0.00013654924768819834 0.015032161367669251 0 0.001353111104564675 0.014283430011568907 0 0.0011978603115494395 0.014228293752141189 0 0.00055576317701156201 0.014732139820540705 0 0.00053313654552853361 0.014723740343774753 0 0.00054114336482265549 0.014733887527614654 0 0.0020071137688759014 0.013882876474621872 0 0.0026068399384373058 0.013595948675674862 0 0.0019022181691095031 0.013278444806747705 0 0.0013069391839704717 0.013466446827286694 0 0.0013563250552972163 0.013520756177030744 0 0.0014193299992852633 0.013504844320902929 0 0.0011978603115494395 0.014228293752141189 0 0.0017917545849937041 0.013373999567151884 0 0.0013563250552972163 0.013520756177030744 0 0.0012771897827565249 0.013566089026031018 0 0.0014075815327409084 0.013551085277630187 0 0.0013069391839704717 0.013466446827286694 0 0.0013563250552972163 0.013520756177030744 0 0.001309341690690584 0.013519960323012638 0 0.0015532854643508596 0.013883558452683875 0 0.0011219096504336073 0.01408374535236619 0 0.0013576029023227893 0.01376202441948938 0 0.0011219096504336073 0.01408374535236619 0 0.0013576029023227893 0.01376202441948938 0 0.0012739285828981938 0.013563527850597661 0 0.00095300336371260843 0.014265292433884885 0 0.0013279469721233742 0.013393917726886972 0 0.0012972123669443818 0.013470757048294719 0 0.001309341690690584 0.013519960323012638 0 0.0012739285828981938 0.013563527850597661 0 0.00046818115376629236 0.014603462868284692 0 0.00095300336371260843 0.014265292433884885 0 0.001309341690690584 0.013519960323012638 0 0.0012739285828981938 0.013563527850597661 0 0.0012771897827565249 0.013566089026031018 0 0.0013563250552972163 0.013520756177030744 0 0.001309341690690584 0.013519960323012638 0 0.0012771897827565249 0.013566089026031018 0 0.0013576029023227893 0.01376202441948938 0 0.0012739285828981938 0.013563527850597661 0 0.0013059517773926553 0.01354177177414909 0 0.0013576029023227893 0.01376202441948938 0 0.0014242054541962104 0.013554129193368437 0 0.0013079971546950185 0.013539287701449937 0 0.0015461002150333851 0.013636848620083382 0 0.0016488409734178387 0.013174718592503685 0 0.0025751675408647559 0.012379675640182903 0 0.0023174386372122502 0.01211062136963042 0 0.0024467476871516585 0.011764852097118587 0 0.0012192318547177968 0.013713974571101312 0 0.0011060423170323802 0.013699654936896037 0 0.00097169372574396691 0.013071836052928814 0 0.00043877649978230554 0.014170780112407511 0 0.00043621611271037902 0.014154129933402681 0 0.000440583444550149 0.014165199304050503 0 0.0016488409734178387 0.013174718592503685 0 0.001133396889174663 0.013036303886902471 0 0.00065917892022356386 0.014083676036550153 0 0.001133396889174663 0.013036303886902471 0 0.00065917892022356386 0.014083676036550153 0 0.0016488409734178387 0.013174718592503685 0 0.0012739285828981938 0.013563527850597661 0 0.0013059517773926553 0.01354177177414909 0 0.0012771897827565249 0.013566089026031018 0 0.0016488409734178387 0.013174718592503685 0 0.0019661620260893291 0.012909307647445144 0 0.0025751675408647559 0.012379675640182903 0 0.0024986455262086854 0.012369110326342893 0 0.0023174386372122502 0.01211062136963042 0 0.0019661620260893291 0.012909307647445144 0 0.0016186125028965826 0.01298584596509348 0 0.0024771328438625128 0.012368007149440596 0 0.0020722421668297811 0.012312446802417632 0 0.0018552769770038529 0.012389564683191554 0 0.0024986455262086854 0.012369110326342893 0 0.0023174386372122502 0.01211062136963042 0 0.0020722421668297811 0.012312446802417632 0 0.0019661620260893291 0.012909307647445144 0 0.0022660786242132604 0.012347167977730293 0 0.0020722421668297811 0.012312446802417632 0 0.0018937893005578127 0.012132369140425028 0 0.0018552769770038529 0.012389564683191554 0 0.0023174386372122502 0.01211062136963042 0 0.0020722421668297811 0.012312446802417632 0 0.0020798294075295002 0.012027655048432201 0 0.0020722421668297811 0.012312446802417632 0 0.0020798294075295002 0.012027655048432201 0 0.0018937893005578127 0.012132369140425028 0 0.0018552769770038529 0.012389564683191554 0 0.0016321547174044753 0.012043428093106445 0 0.0012092047055372135 0.012421987082432414 0 0.0018937893005578127 0.012132369140425028 0 0.0016321547174044753 0.012043428093106445 0 0.0019025486217192065 0.011820348427665913 0 0.0018937893005578127 0.012132369140425028 0 0.0018552769770038529 0.012389564683191554 0 0.0016321547174044753 0.012043428093106445 0 0.0016321547174044753 0.012043428093106445 0 0.0012092047055372135 0.012421987082432414 0 0.0012663008504633188 0.011873983095674822 0 0.0012092047055372135 0.012421987082432414 0 0.00099824199817050542 0.011930576913934629 0 0.0012663008504633188 0.011873983095674822 0 0.0013930625655658693 0.013559426130644316 0 0.0011492821927148618 0.012922342608191081 0 0.0019022181691095031 0.013278444806747705 0 0.0013930625655658693 0.013559426130644316 0 0.0011492821927148618 0.012922342608191081 0 0.00084495611981596391 0.013329302436013168 0 0.0013233217089585257 0.0128992419711407 0 0.0017917545849937041 0.013373999567151884 0 0.0014075815327409084 0.013551085277630187 0 0.0015111248281416936 0.013530761818064835 0 0.0014193299992852633 0.013504844320902929 0 0.0016186125028965826 0.01298584596509348 0 0.0013233217089585257 0.0128992419711407 0 0.0013563250552972163 0.013520756177030744 0 0.0014075815327409084 0.013551085277630187 0 0.0014193299992852633 0.013504844320902929 0 0.00050722814720223681 0.012790267735262787 0 -0.000350152216871327 0.012812652648228798 0 0.00060995290697653649 0.012700032083223487 0 8.8668910593434462e-05 0.012424446825915312 0 -0.0004089301385614047 0.012804883579279254 0 0.00041968724607356633 0.012896680958365082 0 6.394036124751526e-05 0.013305457416371659 0 -0.0004089301385614047 0.012804883579279254 0 0.00041968724607356633 0.012896680958365082 0 6.394036124751526e-05 0.013305457416371659 0 0.00044395525838319814 0.013340246042541318 0 0.0011492821927148618 0.012922342608191081 0 0.00041968724607356633 0.012896680958365082 0 0.00084495611981596391 0.013329302436013168 0 0.0013233217089585257 0.0128992419711407 0 0.00050722814720223681 0.012790267735262787 0 0.00041968724607356633 0.012896680958365082 0 0.00044395525838319814 0.013340246042541318 0 0.00084495611981596391 0.013329302436013168 0 0.0016489169235673294 0.012650367930676242 0 0.00060995290697653649 0.012700032083223487 0 0.00066644252757237007 0.012238691205322347 0 0.0012092047055372135 0.012421987082432414 0 0.000779916745481158 0.012085503727070705 0 0.00099824199817050542 0.011930576913934629 0 0.0012092047055372135 0.012421987082432414 0 0.000779916745481158 0.012085503727070705 0 0.00066644252757237007 0.012238691205322347 0 0.0013233217089585257 0.0128992419711407 0 0.00072565599755182865 0.012203935855040442 0 0.000779916745481158 0.012085503727070705 0 0.00037648744827175891 0.012081404499343033 0 0.00066644252757237007 0.012238691205322347 0 0.000779916745481158 0.012085503727070705 0 0.00037648744827175891 0.012081404499343033 0 0.00020792781386225017 0.01147512699669527 0 0.00060995290697653649 0.012700032083223487 0 0.00066644252757237007 0.012238691205322347 0 0.00043465565632462371 0.012359543653519902 0 0.00060995290697653649 0.012700032083223487 0 0.00043465565632462371 0.012359543653519902 0 8.8668910593434462e-05 0.012424446825915312 0 0.00037648744827175891 0.012081404499343033 0 0.00066644252757237007 0.012238691205322347 0 0.00043465565632462371 0.012359543653519902 0 0.00037648744827175891 0.012081404499343033 0 0.00043465565632462371 0.012359543653519902 0 8.8668910593434462e-05 0.012424446825915312 0 0.00037648744827175891 0.012081404499343033 0 8.8668910593434462e-05 0.012424446825915312 0 6.3250198192053717e-05 0.011815343442460978 0 8.8668910593434462e-05 0.012424446825915312 0 -0.0004089301385614047 0.012804883579279254 0 -0.00054983872153400819 0.011728706978646818 0 8.8668910593434462e-05 0.012424446825915312 0 -0.00054983872153400819 0.011728706978646818 0 6.3250198192053717e-05 0.011815343442460978 0 -0.00092922636646133481 0.012865294842974169 0 -0.0004089301385614047 0.012804883579279254 0 -0.00054983872153400819 0.011728706978646818 0 0.0012346063673138701 0.010158139077071858 0 0.00054226405062096617 0.0089159812460804597 0 0.0016929316019737423 0.0060997176058861045 0 0.001754464349925329 0.0062373300466086442 0 0.0018047755633328031 0.0060225012394820943 0 0.00097239539474536728 0.0056113607586564078 0 0.0012346063673138701 0.010158139077071858 0 0.0017459746847959126 0.0062016460601465187 0 0.0016750615121194485 0.0063879376675256587 0 0.0016624320580389891 0.0061916990189229649 0 0.0016929316019737423 0.0060997176058861045 0 0.0017459746847959126 0.0062016460601465187 0 0.0016624320580389891 0.0061916990189229649 0 0.0012346063673138701 0.010158139077071858 0 0.00065568258845303271 0.014782432578002117 0 -0.00092922636646133481 0.012865294842974169 0 -0.0004089301385614047 0.012804883579279254 0 -0.00030330023108631843 0.0138303804109075 0 6.394036124751526e-05 0.013305457416371659 0 -0.0004089301385614047 0.012804883579279254 0 -0.00030330023108631843 0.0138303804109075 0 0.0012346063673138701 0.010158139077071858 0 0.0016076125978939908 0.010283048394668612 0 0.0015131146349245395 0.014360221698472229 0 0.0015575236156050666 0.01453690381472938 0 0.0015146730401513137 0.014534922634709528 0 0.0015146730401513137 0.014534922634709528 0 0.0015380736980638201 0.014575767030810212 0 0.001584013701983598 0.014569389107157955 0 0.0015575236156050666 0.01453690381472938 0 0.0015146730401513137 0.014534922634709528 0 0.0015380736980638201 0.014575767030810212 0 0.0015575236156050666 0.01453690381472938 0 0.0015380736980638201 0.014575767030810212 0 0.0015120493000351954 0.014603779578842993 0 0.0015575236156050666 0.01453690381472938 0 0.0014412557732313386 0.014636227920337089 0 0.0015120493000351954 0.014603779578842993 0 0.00065568258845303271 0.014782432578002117 0 0.00082238880256448629 0.014467895563390192 0 -0.00030330023108631843 0.0138303804109075 0 0.00043307895864036749 0.014144638823213847 0 0.00029631513935679001 0.014580639655316648 0 0.00043307895864036749 0.014144638823213847 0 0.0006236473915841353 0.014578755688610208 0 0.00029631513935679001 0.014580639655316648 0 -0.00030330023108631843 0.0138303804109075 0 0.00043307895864036749 0.014144638823213847 0 0.00026345563109248698 0.013660438597316903 0 0.00043307895864036749 0.014144638823213847 0 0.00026345563109248698 0.013660438597316903 0 0.0006538586377014665 0.013724918754150339 0 6.394036124751526e-05 0.013305457416371659 0 0.00044395525838319814 0.013340246042541318 0 0.00026345563109248698 0.013660438597316903 0 0.00044395525838319814 0.013340246042541318 0 0.00026345563109248698 0.013660438597316903 0 0.0006538586377014665 0.013724918754150339 0 6.394036124751526e-05 0.013305457416371659 0 -0.00030330023108631843 0.0138303804109075 0 0.00026345563109248698 0.013660438597316903 0 0.0010729858669382799 0.013816838395824543 0 0.00084495611981596391 0.013329302436013168 0 0.0006538586377014665 0.013724918754150339 0 0.00044395525838319814 0.013340246042541318 0 0.00084495611981596391 0.013329302436013168 0 0.0006538586377014665 0.013724918754150339 0 0.00043307895864036749 0.014144638823213847 0 0.0006538586377014665 0.013724918754150339 0 0.00082658510069370231 0.014096882168784765 0 0.0010729858669382799 0.013816838395824543 0 0.0006538586377014665 0.013724918754150339 0 0.00082658510069370231 0.014096882168784765 0 0.001370817971852561 0.014215470789311801 0 0.00082658510069370231 0.014096882168784765 0 0.0006236473915841353 0.014578755688610208 0 0.00095913235289452395 0.014463061703815146 0 0.00065590795416078777 0.014577064710284965 0 0.00043307895864036749 0.014144638823213847 0 0.00082658510069370231 0.014096882168784765 0 0.0006236473915841353 0.014578755688610208 0 0.0006236473915841353 0.014578755688610208 0 0.00029631513935679001 0.014580639655316648 0 0.00065053309741963964 0.014738328180714232 0 0.00062901640916303227 0.014685049290563388 0 0.0006236473915841353 0.014578755688610208 0 0.00065053309741963964 0.014738328180714232 0 0.00082238880256448629 0.014467895563390192 0 0.00090548149750027012 0.014678421855572646 0 0.0014412557732313386 0.014636227920337089 0 0.001373711386088276 0.01460170970711569 0 0.0014566892340055774 0.014610634965069069 0 0.0014412557732313386 0.014636227920337089 0 0.001373711386088276 0.01460170970711569 0 0.0011786862876235168 0.014620934911917498 0 0.001373711386088276 0.01460170970711569 0 0.0011786862876235168 0.014620934911917498 0 0.0013223347829959598 0.01445356781897785 0 0.00078842008818095556 0.014525957322299858 0 0.0011786862876235168 0.014620934911917498 0 0.0011045322582252134 0.014493659455176987 0 0.00078842008818095556 0.014525957322299858 0 0.00064191476833279945 0.014688231774726942 0 0.00065053309741963964 0.014738328180714232 0 0.00078232341933238817 0.014503425963886461 0 0.00090548149750027012 0.014678421855572646 0 0.00078842008818095556 0.014525957322299858 0 0.0011045322582252134 0.014493659455176987 0 0.0010806734759352165 0.014327600094793136 0 0.0011045322582252134 0.014493659455176987 0 0.0013223347829959598 0.01445356781897785 0 0.0010806734759352165 0.014327600094793136 0 0.0011786862876235168 0.014620934911917498 0 0.0011045322582252134 0.014493659455176987 0 0.0013223347829959598 0.01445356781897785 0 0.0013223347829959598 0.01445356781897785 0 0.0010806734759352165 0.014327600094793136 0 0.001484104706374504 0.014207343224718711 0 0.0013581438249955973 0.013817397259256081 0 0.0010806734759352165 0.014327600094793136 0 0.001484104706374504 0.014207343224718711 0 0.00077547408878004349 0.014235749211069956 0 0.00078842008818095556 0.014525957322299858 0 0.0010806734759352165 0.014327600094793136 0 0.00170942146580075 0.013916647411409936 0 0.001484104706374504 0.014207343224718711 0 0.0017250716775007002 0.014407736473512801 0 0.0021320745146351122 0.013789469205574931 0 0.00170942146580075 0.013916647411409936 0 0.0017250716775007002 0.014407736473512801 0 0.0013581438249955973 0.013817397259256081 0 0.00170942146580075 0.013916647411409936 0 0.001484104706374504 0.014207343224718711 0 0.0013223347829959598 0.01445356781897785 0 0.001484104706374504 0.014207343224718711 0 0.0017250716775007002 0.014407736473512801 0 0.0013223347829959598 0.01445356781897785 0 0.0017250716775007002 0.014407736473512801 0 0.0015116089753368042 0.01456727009196164 0 0.001645626875165891 0.014527266200360434 0 0.0015116089753368042 0.01456727009196164 0 0.0015628511171976126 0.014576776280275958 0 0.0017250716775007002 0.014407736473512801 0 0.001645626875165891 0.014527266200360434 0 0.0015116089753368042 0.01456727009196164 0 0.001373711386088276 0.01460170970711569 0 0.0013223347829959598 0.01445356781897785 0 0.0015116089753368042 0.01456727009196164 0 0.001373711386088276 0.01460170970711569 0 0.0015116089753368042 0.01456727009196164 0 0.0014566892340055774 0.014610634965069069 0 0.0014412557732313386 0.014636227920337089 0 0.0014566892340055774 0.014610634965069069 0 0.0015120493000351954 0.014603779578842993 0 0.0015116089753368042 0.01456727009196164 0 0.0015120493000351954 0.014603779578842993 0 0.0015628511171976126 0.014576776280275958 0 0.0015116089753368042 0.01456727009196164 0 0.0014566892340055774 0.014610634965069069 0 0.0015120493000351954 0.014603779578842993 0 0.001645626875165891 0.014527266200360434 0 0.0015628511171976126 0.014576776280275958 0 0.001584013701983598 0.014569389107157955 0 0.0015380736980638201 0.014575767030810212 0 0.0015628511171976126 0.014576776280275958 0 0.001584013701983598 0.014569389107157955 0 0.0015380736980638201 0.014575767030810212 0 0.0015120493000351954 0.014603779578842993 0 0.0015628511171976126 0.014576776280275958 0 0.0009459260594607069 0.01456510778134274 0 0.0021011854632771677 0.011521050091729549 0 0.0015146730401513137 0.014534922634709528 0 0.001584013701983598 0.014569389107157955 0 0.0016086731079544487 0.014559194786721975 0 0.001645626875165891 0.014527266200360434 0 0.001584013701983598 0.014569389107157955 0 0.0016938956602672005 0.014541902438703493 0 0.001613594544951752 0.0065524078323483791 0 0.0014683647138271638 0.0064692916692545184 0 0.0015489534821161706 0.0064203301509315885 0 0.001613594544951752 0.0065524078323483791 0 0.0015057014043422007 0.0066224038779444747 0 0.0014683647138271638 0.0064692916692545184 0 0.0021011854632771677 0.011521050091729549 0 0.002077394129386784 0.0084705906516748426 0 0.002524741304192858 0.011670181866310102 0 0.0025044883970805551 0.0116948590023779 0 0.0025230635788710313 0.01170025622468162 0 0.0017250716775007002 0.014407736473512801 0 0.001645626875165891 0.014527266200360434 0 0.0017536541330354322 0.014464673198550959 0 0.001645626875165891 0.014527266200360434 0 0.0016938956602672005 0.014541902438703493 0 0.0017536541330354322 0.014464673198550959 0 0.0021011854632771677 0.011521050091729549 0 0.0020820708797145136 0.013231280326189117 0 0.0017250716775007002 0.014407736473512801 0 0.0017536541330354322 0.014464673198550959 0 0.0017771720034265922 0.014419374428371361 0 0.0016001573948198665 0.014588577582139481 0 0.0025758207160919118 0.013740924682323586 0 0.0017250716775007002 0.014407736473512801 0 0.0026793513981848067 0.014444033967500809 0 0.0023874066348783507 0.014124316364747595 0 0.0025044883970805551 0.0116948590023779 0 0.0025230635788710313 0.01170025622468162 0 0.0025186710458980979 0.011730641524663674 0 0.0020820708797145136 0.013231280326189117 0 0.0025758207160919118 0.013740924682323586 0 0.0026870983340572269 0.014416494791640609 0 0.0027543455861716438 0.014239903681925544 0 0.0036085056719757482 0.01434202294765558 0 0.0025758207160919118 0.013740924682323586 0 0.002547911252887006 0.014110198675364522 0 0.0026793513981848067 0.014444033967500809 0 0.0027543455861716438 0.014239903681925544 0 0.0023874066348783507 0.014124316364747595 0 0.0026717246068591817 0.013772807045014187 0 0.0027543455861716438 0.014239903681925544 0 0.0023874066348783507 0.014124316364747595 0 0.0026717246068591817 0.013772807045014187 0 0.0027543455861716438 0.014239903681925544 0 0.0032716079015399861 0.013892772858502135 0 0.0021320745146351122 0.013789469205574931 0 0.0017250716775007002 0.014407736473512801 0 0.0023874066348783507 0.014124316364747595 0 0.0021320745146351122 0.013789469205574931 0 0.0026717246068591817 0.013772807045014187 0 0.0023874066348783507 0.014124316364747595 0 0.0039744338634840849 0.01400202928086744 0 0.0036880211854344344 0.013859504704722579 0 0.0036085056719757482 0.01434202294765558 0 0.0035929741186067322 0.014012071125713108 0 0.002886351487553486 0.011867570205090425 0 0.0040101988862248092 0.013585643234004513 0 0.0039744338634840849 0.01400202928086744 0 0.0036880211854344344 0.013859504704722579 0 0.0035458550801452009 0.013507326583599266 0 0.0036880211854344344 0.013859504704722579 0 0.0032716079015399861 0.013892772858502135 0 0.0027543455861716438 0.014239903681925544 0 0.0032716079015399861 0.013892772858502135 0 0.0036085056719757482 0.01434202294765558 0 0.0036880211854344344 0.013859504704722579 0 0.0032716079015399861 0.013892772858502135 0 0.0036085056719757482 0.01434202294765558 0 0.0025758207160919118 0.013740924682323586 0 0.002886351487553486 0.011867570205090425 0 0.0025044883970805551 0.0116948590023779 0 0.0025186710458980979 0.011730641524663674 0 0.0024797808362676211 0.011721597901782987 0 0.002077394129386784 0.0084705906516748426 0 0.002886351487553486 0.011867570205090425 0 0.0043422707984818697 0.01418433084878431 0 0.0039744338634840849 0.01400202928086744 0 0.0036841879117856038 0.014193751844704866 0 0.0012827467185248882 0.0066199765198882389 0 0.0013885860622879272 0.0067360358799924839 0 0.001371052763922012 0.0065412373836517736 0 0.0012320459835141679 0.0064687948167036092 0 0.0012827467185248882 0.0066199765198882389 0 0.001371052763922012 0.0065412373836517736 0 0.0015057014043422007 0.0066224038779444747 0 0.0013885860622879272 0.0067360358799924839 0 0.001371052763922012 0.0065412373836517736 0 0.0015057014043422007 0.0066224038779444747 0 0.001371052763922012 0.0065412373836517736 0 0.0014683647138271638 0.0064692916692545184 0 0.001371052763922012 0.0065412373836517736 0 0.0014683647138271638 0.0064692916692545184 0 0.0013185052996694977 0.0063335028353054736 0 0.0012320459835141679 0.0064687948167036092 0 0.001371052763922012 0.0065412373836517736 0 0.0013185052996694977 0.0063335028353054736 0 0.0013177747268784689 0.0063145548281353268 0 0.0012914092629237252 0.0060906661797106654 0 0.0013185052996694977 0.0063335028353054736 0 0.0012577891826352219 0.006218381481219705 0 0.0013828429990411827 0.006222712637961334 0 0.0014388857481118244 0.006335359730885894 0 0.0015184238289559706 0.0062850153622178101 0 0.0013828429990411827 0.006222712637961334 0 0.0013185052996694977 0.0063335028353054736 0 0.0014388857481118244 0.006335359730885894 0 0.0013828429990411827 0.006222712637961334 0 0.0014683647138271638 0.0064692916692545184 0 0.0013185052996694977 0.0063335028353054736 0 0.0014388857481118244 0.006335359730885894 0 0.0014388857481118244 0.006335359730885894 0 0.0015489534821161706 0.0064203301509315885 0 0.0015184238289559706 0.0062850153622178101 0 0.0014683647138271638 0.0064692916692545184 0 0.0014388857481118244 0.006335359730885894 0 0.0015489534821161706 0.0064203301509315885 0 0.0016750615121194485 0.0063879376675256587 0 0.001613594544951752 0.0065524078323483791 0 0.0015489534821161706 0.0064203301509315885 0 0.0016076125978939908 0.010283048394668612 0 0.0021011854632771677 0.011521050091729549 0 0.0016750615121194485 0.0063879376675256587 0 0.0015489534821161706 0.0064203301509315885 0 0.0015184238289559706 0.0062850153622178101 0 0.0016750615121194485 0.0063879376675256587 0 0.0015184238289559706 0.0062850153622178101 0 0.0015893835820821386 0.0062046480561288959 0 0.0015184238289559706 0.0062850153622178101 0 0.0014746847834112935 0.0061242426440352351 0 0.0015893835820821386 0.0062046480561288959 0 0.0014746847834112935 0.0061242426440352351 0 0.0015893835820821386 0.0062046480561288959 0 0.0015950198213033943 0.0060916945338388706 0 0.0015184238289559706 0.0062850153622178101 0 0.0014746847834112935 0.0061242426440352351 0 0.0013828429990411827 0.006222712637961334 0 0.0016750615121194485 0.0063879376675256587 0 0.0015893835820821386 0.0062046480561288959 0 0.0016624320580389891 0.0061916990189229649 0 0.0015893835820821386 0.0062046480561288959 0 0.0016624320580389891 0.0061916990189229649 0 0.0015950198213033943 0.0060916945338388706 0 0.0016929316019737423 0.0060997176058861045 0 0.0015950198213033943 0.0060916945338388706 0 0.0015955899678770492 0.0059579578519428824 0 0.0016929316019737423 0.0060997176058861045 0 0.0016624320580389891 0.0061916990189229649 0 0.0015950198213033943 0.0060916945338388706 0 0.0014746847834112935 0.0061242426440352351 0 0.0015950198213033943 0.0060916945338388706 0 0.0014800509035215999 0.0059831531720064661 0 0.0015950198213033943 0.0060916945338388706 0 0.0014800509035215999 0.0059831531720064661 0 0.0015955899678770492 0.0059579578519428824 0 0.0013308734659729054 0.0060702933922542725 0 0.0012811806547455514 0.0059584164407681731 0 0.0013666629798202269 0.005906126854884966 0 0.0014746847834112935 0.0061242426440352351 0 0.0014800509035215999 0.0059831531720064661 0 0.0013308734659729054 0.0060702933922542725 0 0.0014800509035215999 0.0059831531720064661 0 0.0013308734659729054 0.0060702933922542725 0 0.0013666629798202269 0.005906126854884966 0 0.0013308734659729054 0.0060702933922542725 0 0.0012811806547455514 0.0059584164407681731 0 0.0011697532529318995 0.0059980224964820408 0 0.0013308734659729054 0.0060702933922542725 0 0.0011697532529318995 0.0059980224964820408 0 0.0012577891826352219 0.006218381481219705 0 0.0013308734659729054 0.0060702933922542725 0 0.0012577891826352219 0.006218381481219705 0 0.0013828429990411827 0.006222712637961334 0 0.0012204218805547998 0.0058159239311593247 0 0.0012914092629237252 0.0060906661797106654 0 0.0014746847834112935 0.0061242426440352351 0 0.0013308734659729054 0.0060702933922542725 0 0.0013828429990411827 0.006222712637961334 0 0.0012223407033403681 0.0056450886710013434 0 0.001118488937371755 0.0056270757369118601 0 0.0011891248641450575 0.0056533086980218679 0 0.0012223407033403681 0.0056450886710013434 0 0.001335583679703468 0.0057842377462568118 0 0.0014942398836423688 0.0057668548331303625 0 0.0012333595012213442 0.0056471718080433036 0 0.0012680838599132202 0.0057246987010263666 0 0.0011945625399921967 0.0056258922177476771 0 0.0012223407033403681 0.0056450886710013434 0 0.0011891248641450575 0.0056533086980218679 0 0.0011711838044774856 0.0056258873030471963 0 0.0011945625399921967 0.0056258922177476771 0 0.0012223407033403681 0.0056450886710013434 0 0.0011711838044774856 0.0056258873030471963 0 0.0012223407033403681 0.0056450886710013434 0 0.0012606716074630379 0.0058128980569050826 0 0.0012223407033403681 0.0056450886710013434 0 0.0012606716074630379 0.0058128980569050826 0 0.001335583679703468 0.0057842377462568118 0 0.0011711838044774856 0.0056258873030471963 0 0.0011697532529318995 0.0059980224964820408 0 0.0012606716074630379 0.0058128980569050826 0 0.0012811806547455514 0.0059584164407681731 0 0.0011697532529318995 0.0059980224964820408 0 0.0012606716074630379 0.0058128980569050826 0 0.0012811806547455514 0.0059584164407681731 0 0.0012606716074630379 0.0058128980569050826 0 0.0013666629798202269 0.005906126854884966 0 0.0013666629798202269 0.005906126854884966 0 0.001335583679703468 0.0057842377462568118 0 0.0014942398836423688 0.0057668548331303625 0 0.0014800509035215999 0.0059831531720064661 0 0.0013666629798202269 0.005906126854884966 0 0.0014942398836423688 0.0057668548331303625 0 0.0012606716074630379 0.0058128980569050826 0 0.0013666629798202269 0.005906126854884966 0 0.001335583679703468 0.0057842377462568118 0 0.0014800509035215999 0.0059831531720064661 0 0.0015955899678770492 0.0059579578519428824 0 0.0014942398836423688 0.0057668548331303625 0 0.0015955899678770492 0.0059579578519428824 0 0.0016768055004682673 0.0058392928938417396 0 0.0017062647531002049 0.0059580439585858735 0 0.0016929316019737423 0.0060997176058861045 0 0.0015955899678770492 0.0059579578519428824 0 0.0017062647531002049 0.0059580439585858735 0 0.001118488937371755 0.0056270757369118601 0 0.0010701670474915538 0.0056881119262472083 0 0.0010089366325313378 0.0056411988987458703 0 0.0012680838599132202 0.0057246987010263666 0 0.001471448574400873 0.0055110147291507405 0 0.0015955899678770492 0.0059579578519428824 0 0.0014942398836423688 0.0057668548331303625 0 0.0016768055004682673 0.0058392928938417396 0 0.001118488937371755 0.0056270757369118601 0 0.0010701670474915538 0.0056881119262472083 0 0.0011468463900918553 0.0056905403937323479 0 0.0010701670474915538 0.0056881119262472083 0 0.00099077252507968482 0.0057520941775691834 0 0.0010089366325313378 0.0056411988987458703 0 0.0010701670474915538 0.0056881119262472083 0 0.001078796856187805 0.0057460031679316724 0 0.00099077252507968482 0.0057520941775691834 0 0.001078796856187805 0.0057460031679316724 0 0.0010279912037990269 0.0058176730158458288 0 0.00099077252507968482 0.0057520941775691834 0 0.0010701670474915538 0.0056881119262472083 0 0.001078796856187805 0.0057460031679316724 0 0.0011468463900918553 0.0056905403937323479 0 0.001078796856187805 0.0057460031679316724 0 0.0011468463900918553 0.0056905403937323479 0 0.0011368731792773461 0.0057496871910768417 0 0.0011468463900918553 0.0056905403937323479 0 0.0011732555341439988 0.0057010326738856044 0 0.0011368731792773461 0.0057496871910768417 0 0.0011468463900918553 0.0056905403937323479 0 0.0011891248641450575 0.0056533086980218679 0 0.0011862054426463415 0.0056622761252544188 0 0.001118488937371755 0.0056270757369118601 0 0.0011468463900918553 0.0056905403937323479 0 0.0011891248641450575 0.0056533086980218679 0 0.0011987592707658091 0.0056288248145783008 0 0.0011945625399921967 0.0056258922177476771 0 0.0011891248641450575 0.0056533086980218679 0 0.0011987592707658091 0.0056288248145783008 0 0.0011891248641450575 0.0056533086980218679 0 0.0011862054426463415 0.0056622761252544188 0 0.0012037147436403958 0.0056510523735679788 0 0.0011862054426463415 0.0056622761252544188 0 0.0011732555341439988 0.0057010326738856044 0 0.0011468463900918553 0.0056905403937323479 0 0.0011862054426463415 0.0056622761252544188 0 0.0011732555341439988 0.0057010326738856044 0 0.0011971611435360051 0.0056975735364332928 0 0.0011732555341439988 0.0057010326738856044 0 0.0011603102506166922 0.005752541427264354 0 0.0011732555341439988 0.0057010326738856044 0 0.0011603102506166922 0.005752541427264354 0 0.0011368731792773461 0.0057496871910768417 0 0.0011368731792773461 0.0057496871910768417 0 0.0011325068450361798 0.0057938923216219636 0 0.001111025031365339 0.0058127658402954219 0 0.0011603102506166922 0.005752541427264354 0 0.0011368731792773461 0.0057496871910768417 0 0.0011325068450361798 0.0057938923216219636 0 0.0011603102506166922 0.005752541427264354 0 0.0011325068450361798 0.0057938923216219636 0 0.0011423180248288935 0.0058129683760835089 0 0.0011971611435360051 0.0056975735364332928 0 0.0011603102506166922 0.005752541427264354 0 0.0011741631372040125 0.0057793379228694907 0 0.0011603102506166922 0.005752541427264354 0 0.0011741631372040125 0.0057793379228694907 0 0.0011423180248288935 0.0058129683760835089 0 0.0011953209719701655 0.0058298318359999218 0 0.0011741631372040125 0.0057793379228694907 0 0.0011580807907470853 0.005841563615952272 0 0.0011741631372040125 0.0057793379228694907 0 0.0011580807907470853 0.005841563615952272 0 0.0011423180248288935 0.0058129683760835089 0 0.0011325068450361798 0.0057938923216219636 0 0.0011423180248288935 0.0058129683760835089 0 0.0011107301576600147 0.0058456385308550971 0 0.0011423180248288935 0.0058129683760835089 0 0.0011333343517965491 0.0058694458521222296 0 0.0011107301576600147 0.0058456385308550971 0 0.0011580807907470853 0.005841563615952272 0 0.0011423180248288935 0.0058129683760835089 0 0.0011333343517965491 0.0058694458521222296 0 0.00079635074393853765 0.0082785520637612617 0 0.00019500877948236791 0.0078754788216856171 0 0.00037297564244868073 0.0088459880886842153 0 0.00090500544404775566 0.0070504126864113902 0 0.00099484326227944754 0.0075840817819090318 0 0.00079635074393853765 0.0082785520637612617 0 0.0014057161418755556 0.008678700050958818 0 0.00086929469523559051 0.0088632986894550472 0 0.00090500544404775566 0.0070504126864113902 0 0.0010514356674674757 0.0071718767314166596 0 0.0011580807907470853 0.005841563615952272 0 0.0011333343517965491 0.0058694458521222296 0 0.0011681818591647987 0.0059023745664511882 0 0.0010685312658694894 0.006056803326779615 0 0.001068619124915893 0.0059009447067978607 0 0.00096088333977912817 0.0060955745764564037 0 0.0011953209719701655 0.0058298318359999218 0 0.0011580807907470853 0.005841563615952272 0 0.0011681818591647987 0.0059023745664511882 0 0.0011997478078860358 0.0056503975138995051 0 0.0010514356674674757 0.0071718767314166596 0 0.00068883082658629993 0.010777611364863084 0 0.00056212605964914676 0.010159098898437361 0 0.00027011072483090054 0.010699662822115961 0 0.00068883082658629993 0.010777611364863084 0 0.00027011072483090054 0.010699662822115961 0 0.00037747619627178226 0.011147006511639837 0 0.00068883082658629993 0.010777611364863084 0 0.0010479408776064454 0.010491146400375009 0 0.0011338734353099386 0.010990422788172274 0 0.00099484326227944754 0.0075840817819090318 0 0.00080756390313649774 0.010272031096611392 0 0.0011777369589123434 0.0060685507997201241 0 0.0010213137666392432 0.0059384325848193982 0 0.001111025031365339 0.0058127658402954219 0 0.00068883082658629993 0.010777611364863084 0 0.0010479408776064454 0.010491146400375009 0 0.00056212605964914676 0.010159098898437361 0 0.00099484326227944754 0.0075840817819090318 0 0.0011086917738071323 0.0051187449934801711 0 0.00099484326227944754 0.0075840817819090318 0 0.00086078707027354741 0.0081810510062790606 0 0.0010213137666392432 0.0059384325848193982 0 0.0010279912037990269 0.0058176730158458288 0 0.0009436088768066302 0.0058743347773553851 0 0.0010213137666392432 0.0059384325848193982 0 0.001111025031365339 0.0058127658402954219 0 0.0010279912037990269 0.0058176730158458288 0 0.0011325068450361798 0.0057938923216219636 0 0.0011107301576600147 0.0058456385308550971 0 0.001111025031365339 0.0058127658402954219 0 0.001078796856187805 0.0057460031679316724 0 0.0011368731792773461 0.0057496871910768417 0 0.001111025031365339 0.0058127658402954219 0 0.001078796856187805 0.0057460031679316724 0 0.001111025031365339 0.0058127658402954219 0 0.0010279912037990269 0.0058176730158458288 0 0.0010279912037990269 0.0058176730158458288 0 0.0009436088768066302 0.0058743347773553851 0 0.00099077252507968482 0.0057520941775691834 0 0.0009436088768066302 0.0058743347773553851 0 0.00091463092062430914 0.0057960788421017101 0 0.00099077252507968482 0.0057520941775691834 0 0.0009436088768066302 0.0058743347773553851 0 0.00086342611925501009 0.0058437985900465055 0 0.00091463092062430914 0.0057960788421017101 0 0.00045947460033238843 0.0076360934942064206 0 -8.4245608289728731e-05 0.0089797560038632016 0 -0.00039959942419054607 0.0099528283995691698 0 4.5078036380425458e-05 0.0097919104546780704 0 0.00012372743905642676 0.010264489467730608 0 -0.00039959942419054607 0.0099528283995691698 0 4.5078036380425458e-05 0.0097919104546780704 0 -0.00049815496673697173 0.0094201665294492924 0 0.00086078707027354741 0.0081810510062790606 0 0.00045947460033238843 0.0076360934942064206 0 0.00056212605964914676 0.010159098898437361 0 4.5078036380425458e-05 0.0097919104546780704 0 0.00012372743905642676 0.010264489467730608 0 0.00056212605964914676 0.010159098898437361 0 0.00012372743905642676 0.010264489467730608 0 0.00027011072483090054 0.010699662822115961 0 0.00012372743905642676 0.010264489467730608 0 -0.00029302869696358068 0.010477625819935254 0 0.00027011072483090054 0.010699662822115961 0 -0.00039959942419054607 0.0099528283995691698 0 0.00012372743905642676 0.010264489467730608 0 -0.00029302869696358068 0.010477625819935254 0 -0.00031722790649624304 0.01059772019314387 0 -0.00026068742703482895 0.010683634881925863 0 -0.00029302869696358068 0.010477625819935254 0 0.00027011072483090054 0.010699662822115961 0 -0.00016100947951977612 0.011030019766425942 0 -0.00026068742703482895 0.010683634881925863 0 -0.00017353157088140586 0.011021046164231331 0 -0.00022732532933001571 0.010959407872521717 0 -0.00027371122312438219 0.011026799484141304 0 -0.00016100947951977612 0.011030019766425942 0 0.00027011072483090054 0.010699662822115961 0 0.00013285544292420168 0.011037283336114421 0 -0.00016100947951977612 0.011030019766425942 0 -0.00038925115044606491 0.011073508500356355 0 -0.00042047216728325872 0.011153866278634581 0 -0.00041648864680331226 0.011118451254491315 0 -0.00039868894071905806 0.011067564736549473 0 -0.00041041789681298211 0.011071599290483045 0 -0.00038925115044606491 0.011073508500356355 0 -0.00041648864680331226 0.011118451254491315 0 -0.00041692688970670222 0.01112617081208131 0 -0.00038925115044606491 0.011073508500356355 0 -0.00027371122312438219 0.011026799484141304 0 -0.00032373027599092168 0.011135235414194903 0 -0.00022732532933001571 0.010959407872521717 0 -0.00027371122312438219 0.011026799484141304 0 -0.00032756022872207092 0.010943817589197371 0 -0.00038925115044606491 0.011073508500356355 0 -0.00027371122312438219 0.011026799484141304 0 -0.00032756022872207092 0.010943817589197371 0 -0.0002582133527109919 0.01084156693164373 0 -0.00022732532933001571 0.010959407872521717 0 -0.00032756022872207092 0.010943817589197371 0 -0.00038925115044606491 0.011073508500356355 0 -0.00032756022872207092 0.010943817589197371 0 -0.00044695765662668954 0.010927959950943273 0 -0.00032756022872207092 0.010943817589197371 0 -0.00036534852690482726 0.010851843436270376 0 -0.00044695765662668954 0.010927959950943273 0 -0.00036534852690482726 0.010851843436270376 0 -0.00040618053226755026 0.010766141104778403 0 -0.00049928215104764291 0.010828364161416843 0 -0.0002582133527109919 0.01084156693164373 0 -0.00032756022872207092 0.010943817589197371 0 -0.00036534852690482726 0.010851843436270376 0 -0.0002582133527109919 0.01084156693164373 0 -0.00036534852690482726 0.010851843436270376 0 -0.0002847555232721058 0.010730363584270909 0 -0.00031722790649624304 0.01059772019314387 0 -8.4245608289728731e-05 0.0089797560038632016 0 -0.0002847555232721058 0.010730363584270909 0 -0.00040618053226755026 0.010766141104778403 0 -0.0004103835190549279 0.010663395877484633 0 -0.00036534852690482726 0.010851843436270376 0 -0.0002847555232721058 0.010730363584270909 0 -0.00040618053226755026 0.010766141104778403 0 -8.4245608289728731e-05 0.0089797560038632016 0 0.00031820657458928384 0.011332265106511736 0 0.0008048658967327307 0.010533265941513352 0 0.00096878712889442566 0.010450142761816106 0 0.00023297446986287942 0.010244185812629144 0 0.0008048658967327307 0.010533265941513352 0 0.00051176806235789642 0.010728885891711946 0 0.00023297446986287942 0.010244185812629144 0 0.00071850941708994016 0.011013432804217748 0 0.00031820657458928384 0.011332265106511736 0 0.0008048658967327307 0.010533265941513352 0 0.000956440028943427 0.010470717604894908 0 0.0010185069706289034 0.010826903179335377 0 0.0008048658967327307 0.010533265941513352 0 0.0010185069706289034 0.010826903179335377 0 0.00077684937248843899 0.010778722348164014 0 0.00051176806235789642 0.010728885891711946 0 0.00076712896277323294 0.011022188475299517 0 0.00036575114306470666 0.011344335463797978 0 0.00051176806235789642 0.010728885891711946 0 0.00077684937248843899 0.010778722348164014 0 0.00076712896277323294 0.011022188475299517 0 0.0008048658967327307 0.010533265941513352 0 0.00051176806235789642 0.010728885891711946 0 0.00077684937248843899 0.010778722348164014 0 0.0010185069706289034 0.010826903179335377 0 0.00076712896277323294 0.011022188475299517 0 0.0011961861553609261 0.011313740027898112 0 0.0010185069706289034 0.010826903179335377 0 0.00077684937248843899 0.010778722348164014 0 0.00076712896277323294 0.011022188475299517 0 0.0005559733019462734 0.0082513714782834965 0 0.00080554159372862096 0.0075761989371643974 0 0.00051176806235789642 0.010728885891711946 0 0.00016877556677146315 0.010427504045694825 0 0.00036575114306470666 0.011344335463797978 0 0.00064127530606212081 0.0084563776914133842 0 0.00045693960165334017 0.0089608649390806299 0 0.00074119072250254658 0.0089624398546110234 0 0.0005559733019462734 0.0082513714782834965 0 0.00061617691456138579 0.010664648743989889 0 -8.4245608289728731e-05 0.0089797560038632016 0 0.0005559733019462734 0.0082513714782834965 0 0.00086342611925501009 0.0058437985900465055 0 0.00084914857967572971 0.0057793051628784523 0 0.00091463092062430914 0.0057960788421017101 0 4.4361217471459763e-05 0.0097992211221155142 0 0.00016453362307529201 0.010426476069763668 0 0.00023297446986287942 0.010244185812629144 0 4.4361217471459763e-05 0.0097992211221155142 0 0.00096878712889442566 0.010450142761816106 0 0.00023297446986287942 0.010244185812629144 0 0.0005559733019462734 0.0082513714782834965 0 0.00019151585009170806 0.0094890439715641806 0 0.00051176806235789642 0.010728885891711946 0 0.00016877556677146315 0.010427504045694825 0 0.00023297446986287942 0.010244185812629144 0 0.00084914857967572971 0.0057793051628784523 0 0.00091463092062430914 0.0057960788421017101 0 0.00092405843128153832 0.0057268170730548924 0 0.00091463092062430914 0.0057960788421017101 0 0.00099077252507968482 0.0057520941775691834 0 0.00092405843128153832 0.0057268170730548924 0 0.00099077252507968482 0.0057520941775691834 0 0.00092405843128153832 0.0057268170730548924 0 0.0010089366325313378 0.0056411988987458703 0 0.00084914857967572971 0.0057793051628784523 0 0.00092405843128153832 0.0057268170730548924 0 0.00088975763045989211 0.0056671508252956401 0 0.00092405843128153832 0.0057268170730548924 0 0.00088975763045989211 0.0056671508252956401 0 0.0010089366325313378 0.0056411988987458703 0 0.00080554159372862096 0.0075761989371643974 0 0.001471448574400873 0.0055110147291507405 0 0.001845215367870343 0.0058741883876242771 0 0.0016768055004682673 0.0058392928938417396 0 0.0017062647531002049 0.0059580439585858735 0 0.0016929316019737423 0.0060997176058861045 0 0.0017062647531002049 0.0059580439585858735 0 0.0018047755633328031 0.0060225012394820943 0 0.001845215367870343 0.0058741883876242771 0 0.0017062647531002049 0.0059580439585858735 0 0.0018047755633328031 0.0060225012394820943 0 -0.00014047560057834675 0.010609990354337066 0 -0.00054983872153400819 0.011728706978646818 0 0.00020792781386225017 0.01147512699669527 0 0.00080554159372862096 0.0075761989371643974 0 0.00054226405062096617 0.0089159812460804597 0 -0.00054983872153400819 0.011728706978646818 0 6.3250198192053717e-05 0.011815343442460978 0 0.00020792781386225017 0.01147512699669527 0 0.000779916745481158 0.012085503727070705 0 0.00020792781386225017 0.01147512699669527 0 0.00056863058869033669 0.01060818102633697 0 0.00037648744827175891 0.012081404499343033 0 6.3250198192053717e-05 0.011815343442460978 0 0.00020792781386225017 0.01147512699669527 0 0.00077608023816404562 0.012166981460094794 0 0.00061617691456138579 0.010664648743989889 0 0.000779916745481158 0.012085503727070705 0 0.00094329624028200701 0.011697296837417994 0 0.0006157306136901023 0.011331676628911758 0 0.000779916745481158 0.012085503727070705 0 0.00099824199817050542 0.011930576913934629 0 0.00094329624028200701 0.011697296837417994 0 0.00099824199817050542 0.011930576913934629 0 0.00094329624028200701 0.011697296837417994 0 0.0012663008504633188 0.011873983095674822 0 0.00094329624028200701 0.011697296837417994 0 0.0006157306136901023 0.011331676628911758 0 0.0011961861553609261 0.011313740027898112 0 0.00061617691456138579 0.010664648743989889 0 0.0010971133800651892 0.011437958273301883 0 0.00076712896277323294 0.011022188475299517 0 0.00036575114306470666 0.011344335463797978 0 0.0011961861553609261 0.011313740027898112 0 -0.00014047560057834675 0.010609990354337066 0 0.00020792781386225017 0.01147512699669527 0 0.00056863058869033669 0.01060818102633697 0 0.00080554159372862096 0.0075761989371643974 0 0.00061617691456138579 0.010664648743989889 0 0.001589500913286582 0.011565290713342263 0 0.0019025486217192065 0.011820348427665913 0 0.0019559279821072359 0.01127789321534523 0 0.001589500913286582 0.011565290713342263 0 0.0019559279821072359 0.01127789321534523 0 0.0015080516116587367 0.010918040186017953 0 0.001589500913286582 0.011565290713342263 0 0.0011961861553609261 0.011313740027898112 0 0.0015080516116587367 0.010918040186017953 0 0.00094329624028200701 0.011697296837417994 0 0.0011961861553609261 0.011313740027898112 0 0.0012663008504633188 0.011873983095674822 0 0.001589500913286582 0.011565290713342263 0 0.0011961861553609261 0.011313740027898112 0 0.0012663008504633188 0.011873983095674822 0 0.0016321547174044753 0.012043428093106445 0 0.001589500913286582 0.011565290713342263 0 0.0012663008504633188 0.011873983095674822 0 0.0016321547174044753 0.012043428093106445 0 0.001589500913286582 0.011565290713342263 0 0.0019025486217192065 0.011820348427665913 0 0.0020798294075295002 0.012027655048432201 0 0.0018937893005578127 0.012132369140425028 0 0.0019025486217192065 0.011820348427665913 0 0.0020798294075295002 0.012027655048432201 0 0.0019025486217192065 0.011820348427665913 0 0.0021822248811499442 0.011769311901893119 0 0.0019025486217192065 0.011820348427665913 0 0.0021822248811499442 0.011769311901893119 0 0.0019559279821072359 0.01127789321534523 0 0.0023174386372122502 0.01211062136963042 0 0.0020798294075295002 0.012027655048432201 0 0.0021822248811499442 0.011769311901893119 0 0.00080219689442231012 0.013589425446238266 0 0.00016004670840084759 0.014659178880853864 0 0.00043621611271037902 0.014154129933402681 0 0.00043634656761746827 0.01414767551300538 0 0.000440583444550149 0.014165199304050503 0 -5.4893237160978916e-05 0.014968401070811811 0 -2.7957649805328181e-05 0.014967016089462094 0 -2.4618936820700063e-05 0.014988668302884903 0 0.0023174386372122502 0.01211062136963042 0 0.0021822248811499442 0.011769311901893119 0 0.0024467476871516585 0.011764852097118587 0 0.0021822248811499442 0.011769311901893119 0 0.0024467476871516585 0.011764852097118587 0 0.0023852789261738817 0.01160094004490022 0 0.001133396889174663 0.013036303886902471 0 0.00080219689442231012 0.013589425446238266 0 -5.4893237160978916e-05 0.014968401070811811 0 -7.6487367905029929e-05 0.014922784707653612 0 -4.6115709869193763e-05 0.014942942822162852 0 0.00080219689442231012 0.013589425446238266 0 0.00034953005481074191 0.014178886535752234 0 -5.4893237160978916e-05 0.014968401070811811 0 -4.6115709869193763e-05 0.014942942822162852 0 -2.7957649805328181e-05 0.014967016089462094 0 0.00080219689442231012 0.013589425446238266 0 0.0012353630202719382 0.01195452625713056 0 0.00067617253073176686 0.012960376632857042 0 0.00047488570014361483 0.012820572248748659 0 0.00057184822757264879 0.012714029889099625 0 0.00080219689442231012 0.013589425446238266 0 0.00061405598473265042 0.012843133629273831 0 0.0021822248811499442 0.011769311901893119 0 0.0023852789261738817 0.01160094004490022 0 0.0019559279821072359 0.01127789321534523 0 0.00057184822757264879 0.012714029889099625 0 0.00049674224628596601 0.012640911707971736 0 0.00046832411274902582 0.01250381270686352 0 0.00078133807990113412 0.012921288208441377 0 0.00068529908237302377 0.013087948131146599 0 0.00046832411274902582 0.01250381270686352 0 0.00091647393281999703 0.013679958616310783 0 0.00078133807990113412 0.012921288208441377 0 0.00068529908237302377 0.013087948131146599 0 0.00047488570014361483 0.012820572248748659 0 0.00057184822757264879 0.012714029889099625 0 0.000461076907242445 0.012711476611681198 0 0.00057184822757264879 0.012714029889099625 0 0.00049674224628596601 0.012640911707971736 0 0.000461076907242445 0.012711476611681198 0 -7.6487367905029929e-05 0.014922784707653612 0 -4.6115709869193763e-05 0.014942942822162852 0 -4.6631173715080062e-05 0.014900860563455185 0 -7.1068952337347252e-05 0.01486639559965954 0 -4.6631173715080062e-05 0.014900860563455185 0 -5.7364854893960461e-05 0.014860619337267613 0 -7.6487367905029929e-05 0.014922784707653612 0 -7.1068952337347252e-05 0.01486639559965954 0 -4.6631173715080062e-05 0.014900860563455185 0 -4.6631173715080062e-05 0.014900860563455185 0 -5.7364854893960461e-05 0.014860619337267613 0 -3.5553613807149303e-05 0.014876540564185983 0 -7.6487367905029929e-05 0.014922784707653612 0 -7.1068952337347252e-05 0.01486639559965954 0 -0.00011034628743978929 0.014803804744553917 0 0.00061405598473265042 0.012843133629273831 0 0.00048778765767804402 0.01255479095486863 0 0.00034953005481074191 0.014178886535752234 0 2.0300900158217156e-05 0.012990387760082588 0 0.00078133807990113412 0.012921288208441377 0 0.00046832411274902582 0.01250381270686352 0 0.00061132109225837581 0.012169805547738973 0 0.00049674224628596601 0.012640911707971736 0 0.00046832411274902582 0.01250381270686352 0 0.00046129768963580609 0.012522993015550677 0 0.00049674224628596601 0.012640911707971736 0 0.00046129768963580609 0.012522993015550677 0 0.00043032509950679198 0.012580238606323148 0 0.00036369409251896511 0.012576477840102577 0 0.00029809853100815114 0.012688074532969669 0 0.000268170982505482 0.01250193638268198 0 0.00046129768963580609 0.012522993015550677 0 0.00038970396016134104 0.012517904017192577 0 0.00040586583260629439 0.012435596901717454 0 0.00046832411274902582 0.01250381270686352 0 0.00046129768963580609 0.012522993015550677 0 0.00030576682554889797 0.012338357024902109 0 0.00053450336898463373 0.01251534657805139 0 2.511383675036571e-05 0.011612124634842454 0 0.00038970396016134104 0.012517904017192577 0 0.00036369409251896511 0.012576477840102577 0 0.000268170982505482 0.01250193638268198 0 0.00038970396016134104 0.012517904017192577 0 0.000268170982505482 0.01250193638268198 0 0.00040586583260629439 0.012435596901717454 0 -0.00019321248555181981 0.011647439118101155 0 2.511383675036571e-05 0.011612124634842454 0 0.00046129768963580609 0.012522993015550677 0 0.00038970396016134104 0.012517904017192577 0 0.00043032509950679198 0.012580238606323148 0 0.00038970396016134104 0.012517904017192577 0 0.00036369409251896511 0.012576477840102577 0 0.00043032509950679198 0.012580238606323148 0 0.00036369409251896511 0.012576477840102577 0 0.00043032509950679198 0.012580238606323148 0 0.00041739568125943454 0.012642730608677924 0 0.00049674224628596601 0.012640911707971736 0 0.00043032509950679198 0.012580238606323148 0 0.00041739568125943454 0.012642730608677924 0 0.00041739568125943454 0.012642730608677924 0 0.000461076907242445 0.012711476611681198 0 0.00029809853100815114 0.012688074532969669 0 0.00047488570014361483 0.012820572248748659 0 0.000461076907242445 0.012711476611681198 0 0.00029809853100815114 0.012688074532969669 0 0.0012353630202719382 0.01195452625713056 0 0.00094611265901171579 0.011839100322075148 0 0.00049674224628596601 0.012640911707971736 0 0.00041739568125943454 0.012642730608677924 0 0.000461076907242445 0.012711476611681198 0 0.00036369409251896511 0.012576477840102577 0 0.00041739568125943454 0.012642730608677924 0 0.00029809853100815114 0.012688074532969669 0 0.000956440028943427 0.010470717604894908 0 0.0010185069706289034 0.010826903179335377 0 0.0015080516116587367 0.010918040186017953 0 0.00031820657458928384 0.011332265106511736 0 0.00094611265901171579 0.011839100322075148 0 0.0010185069706289034 0.010826903179335377 0 0.0011961861553609261 0.011313740027898112 0 0.0015080516116587367 0.010918040186017953 0 0.00031820657458928384 0.011332265106511736 0 -0.00019321248555181981 0.011647439118101155 0 0.0001304520154078024 0.012565252613153067 0 0.00029809853100815114 0.012688074532969669 0 0.000268170982505482 0.01250193638268198 0 -0.00040618053226755026 0.010766141104778403 0 -0.0004103835190549279 0.010663395877484633 0 -0.00048433237278465202 0.010705054973172262 0 -0.00040618053226755026 0.010766141104778403 0 -0.00048433237278465202 0.010705054973172262 0 -0.00049928215104764291 0.010828364161416843 0 2.511383675036571e-05 0.011612124634842454 0 -0.0005299487134350359 0.010931972435469641 0 -0.00031781747385661754 0.011390259917430352 0 -0.00031339993265237852 0.011298112557904994 0 -0.00038828215315064982 0.011265634229826297 0 -0.00048433237278465202 0.010705054973172262 0 -0.00055178317276889286 0.010745548477083283 0 -0.00049928215104764291 0.010828364161416843 0 -0.00031781747385661754 0.011390259917430352 0 -0.00031339993265237852 0.011298112557904994 0 -0.00024082326046337811 0.011354795034558161 0 -0.00031339993265237852 0.011298112557904994 0 -0.00038828215315064982 0.011265634229826297 0 -0.00035118117489688105 0.011202458785444272 0 -0.00031339993265237852 0.011298112557904994 0 -0.00035118117489688105 0.011202458785444272 0 -0.00027388929669731345 0.011238742029227139 0 -0.00036534852690482726 0.010851843436270376 0 -0.00049928215104764291 0.010828364161416843 0 -0.00044695765662668954 0.010927959950943273 0 -0.0005299487134350359 0.010931972435469641 0 -0.00041041789681298211 0.011071599290483045 0 -0.00038828215315064982 0.011265634229826297 0 -0.00042047216728325872 0.011153866278634581 0 -0.00035118117489688105 0.011202458785444272 0 -0.00042047216728325872 0.011153866278634581 0 -0.00037749814439159767 0.011152636351645099 0 -0.00035118117489688105 0.011202458785444272 0 -0.00035118117489688105 0.011202458785444272 0 -0.00031137760031873461 0.011145523768325409 0 -0.00027388929669731345 0.011238742029227139 0 -0.00037749814439159767 0.011152636351645099 0 -0.00035118117489688105 0.011202458785444272 0 -0.00031137760031873461 0.011145523768325409 0 -0.0003397301242073304 0.011198232233196355 0 -0.00036237899833602112 0.011132741122119105 0 -0.00041648864680331226 0.011118451254491315 0 -0.00037749814439159767 0.011152636351645099 0 -0.00031137760031873461 0.011145523768325409 0 -0.00041648864680331226 0.011118451254491315 0 -0.00045747783345961629 0.011358144032217543 0 -0.00036914626226739649 0.011080950075662097 0 -0.00033684988420731556 0.011228807849784831 0 -0.0003397301242073304 0.011198232233196355 0 -0.00041648864680331226 0.011118451254491315 0 -0.00045747783345961629 0.011358144032217543 0 -0.00043244861593375348 0.011263309794667426 0 -0.00033534088284153523 0.011256015271774285 0 -0.0003397301242073304 0.011198232233196355 0 -0.00029885283614651211 0.011206400240918186 0 -0.0003397301242073304 0.011198232233196355 0 -0.00036237899833602112 0.011132741122119105 0 -0.00029885283614651211 0.011206400240918186 0 -0.00042047216728325872 0.011153866278634581 0 -0.00037749814439159767 0.011152636351645099 0 -0.00041648864680331226 0.011118451254491315 0 -4.124304511068078e-05 0.013928075509509433 0 -0.00011519462271212422 0.013915453517233297 0 -0.00018524665067387163 0.01289634393224582 0 -0.00027186610970414616 0.012726296358390211 0 -0.00015901673646760128 0.012596515362872256 0 0.00010818993760869979 0.014931736272656874 0 7.9993997957328203e-05 0.014950273818743681 0 0.00010294568743292108 0.014965255888723189 0 -0.00018524665067387163 0.01289634393224582 0 -0.00027475666105551824 0.012859904754526679 0 -0.00030067401696366909 0.012922376764639504 0 -0.00018524665067387163 0.01289634393224582 0 -0.00027475666105551824 0.012859904754526679 0 -0.00027186610970414616 0.012726296358390211 0 -0.00036221487390695128 0.011452319929564379 0 -0.00037680852356313427 0.012086830752518832 0 -0.00036237899833602112 0.011132741122119105 0 -0.00029885283614651211 0.011206400240918186 0 -0.00023045715955464607 0.011208523475091232 0 -0.0003226869830293157 0.011889059371945584 0 -0.00042892017776811669 0.01182462625190891 0 -0.00037368143687982599 0.011912800096630986 0 -0.00027475666105551824 0.012859904754526679 0 -0.00027186610970414616 0.012726296358390211 0 -0.00034125792666090754 0.012895333016075683 0 -0.00029885283614651211 0.011206400240918186 0 -0.00027684362160564682 0.011236923433492283 0 -0.00023045715955464607 0.011208523475091232 0 -0.00033534088284153523 0.011256015271774285 0 -0.00029885283614651211 0.011206400240918186 0 -0.00027684362160564682 0.011236923433492283 0 -0.00027475666105551824 0.012859904754526679 0 -0.00034125792666090754 0.012895333016075683 0 -0.00030067401696366909 0.012922376764639504 0 -0.00027684362160564682 0.011236923433492283 0 -0.00023045715955464607 0.011208523475091232 0 -0.00024608526645080825 0.011278896419292739 0 -0.00037680852356313427 0.012086830752518832 0 -0.00029209857904231889 0.012201155012430286 0 -0.0003425504641015436 0.0128954602529434 0 -0.00030067401696366909 0.012922376764639504 0 -0.00029515761590855717 0.013157697368239343 0 -0.00045747783345961629 0.011358144032217543 0 -0.00041213913657252586 0.011767469786467203 0 -0.00067340277839105921 0.011691352973899774 0 2.4713534095817945e-05 0.012125309167946421 0 -0.00049219919989146636 0.012512748382875612 0 -0.00037680852356313427 0.012086830752518832 0 -0.0001775249999675145 0.012515389534585175 0 -0.00023045715955464607 0.011208523475091232 0 -0.00024608526645080825 0.011278896419292739 0 -0.00020034204796458578 0.01135257361706575 0 -0.00033534088284153523 0.011256015271774285 0 -0.00027684362160564682 0.011236923433492283 0 -0.00024608526645080825 0.011278896419292739 0 -0.00033534088284153523 0.011256015271774285 0 -0.00024608526645080825 0.011278896419292739 0 -0.00020034204796458578 0.01135257361706575 0 -0.00045747783345961629 0.011358144032217543 0 -0.0001775249999675145 0.012515389534585175 0 -4.124304511068078e-05 0.013928075509509433 0 0.00011119868424836416 0.013846438525583647 0 0.00011267651755223724 0.014893808402087167 0 8.2294557205143417e-05 0.014879345326000682 0 7.6138112940430224e-05 0.014921932746220227 0 -0.00018524665067387163 0.01289634393224582 0 -0.00029515761590855717 0.013157697368239343 0 -0.00021031363658385673 0.013210945069971327 0 -0.0001775249999675145 0.012515389534585175 0 0.00011119868424836416 0.013846438525583647 0 0.00010818993760869979 0.014931736272656874 0 0.00011267651755223724 0.014893808402087167 0 7.6138112940430224e-05 0.014921932746220227 0 -0.00018524665067387163 0.01289634393224582 0 -0.00030067401696366909 0.012922376764639504 0 -0.00029515761590855717 0.013157697368239343 0 -6.5778792891132734e-05 0.013151147798965989 0 0.00010634389124896315 0.013257593165610804 0 5.3114723481448341e-05 0.013835392032580733 0 -4.6815434483060449e-05 0.014850948387851672 0 -6.3844476706765432e-05 0.014848069624334631 0 -3.6910076425051967e-05 0.014834228823271152 0 3.528575409712191e-05 0.014177031705811121 0 3.5811566329922465e-05 0.014180241079124304 0 7.0852347731963577e-05 0.014164943846913943 0 0.00011119868424836416 0.013846438525583647 0 3.213861791441304e-05 0.014678273886709635 0 3.8604191074795179e-05 0.014141774784463551 0 3.528575409712191e-05 0.014177031705811121 0 7.0852347731963577e-05 0.014164943846913943 0 0.00011119868424836416 0.013846438525583647 0 4.348536066785331e-06 0.013845047554056305 0 -4.723609668994503e-06 0.014177248918841572 0 3.213861791441304e-05 0.014678273886709635 0 -0.0001775249999675145 0.012515389534585175 0 4.348536066785331e-06 0.013845047554056305 0 -0.00041213913657252586 0.011767469786467203 0 2.0300900158217156e-05 0.012990387760082588 0 2.4713534095817945e-05 0.012125309167946421 0 0.00017479991399985776 0.013012411185827672 0 -0.00049219919989146636 0.012512748382875612 0 -0.00031339993265237852 0.011298112557904994 0 -0.00027388929669731345 0.011238742029227139 0 -0.00024082326046337811 0.011354795034558161 0 0.00017479991399985776 0.013012411185827672 0 -0.00049219919989146636 0.012512748382875612 0 -0.00030940793932087357 0.013333055768654147 0 -7.1068952337347252e-05 0.01486639559965954 0 -0.00011034628743978929 0.014803804744553917 0 -5.4568626565655191e-05 0.014770213924521547 0 0.00017479991399985776 0.013012411185827672 0 -0.00030940793932087357 0.013333055768654147 0 0.00018652272074865659 0.013081847642954956 0 2.0300900158217156e-05 0.012990387760082588 0 -4.723609668994503e-06 0.014177248918841572 0 2.511383675036571e-05 0.011612124634842454 0 2.0300900158217156e-05 0.012990387760082588 0 0.00046832411274902582 0.01250381270686352 0 0.00030576682554889797 0.012338357024902109 0 0.00061132109225837581 0.012169805547738973 0 -7.1068952337347252e-05 0.01486639559965954 0 -6.3844476706765432e-05 0.014848069624334631 0 -5.7364854893960461e-05 0.014860619337267613 0 -9.4128228752571048e-05 0.015078966691196993 0 -4.723609668994503e-06 0.014177248918841572 0 -4.6815434483060449e-05 0.014850948387851672 0 -5.796076168273628e-05 0.014852212113312621 0 -5.7364854893960461e-05 0.014860619337267613 0 -5.796076168273628e-05 0.014852212113312621 0 -6.3844476706765432e-05 0.014848069624334631 0 -5.7364854893960461e-05 0.014860619337267613 0 -4.6815434483060449e-05 0.014850948387851672 0 -5.796076168273628e-05 0.014852212113312621 0 -6.3844476706765432e-05 0.014848069624334631 0 4.348536066785331e-06 0.013845047554056305 0 -4.723609668994503e-06 0.014177248918841572 0 -4.6815434483060449e-05 0.014850948387851672 0 -5.7364854893960461e-05 0.014860619337267613 0 -3.5553613807149303e-05 0.014876540564185983 0 -3.5553613807149303e-05 0.014876540564185983 0 -3.0560110925866181e-05 0.014859905406622383 0 -5.9662066973169493e-06 0.014885843458471805 0 -3.0560110925866181e-05 0.014859905406622383 0 -5.9662066973169493e-06 0.014885843458471805 0 -1.8754187034830552e-05 0.014847022977573695 0 -4.6815434483060449e-05 0.014850948387851672 0 -3.5553613807149303e-05 0.014876540564185983 0 -3.0560110925866181e-05 0.014859905406622383 0 -5.9662066973169493e-06 0.014885843458471805 0 1.1464027314165431e-05 0.014858966056141952 0 -1.8754187034830552e-05 0.014847022977573695 0 -5.9662066973169493e-06 0.014885843458471805 0 1.1464027314165431e-05 0.014858966056141952 0 3.7799163164453968e-05 0.014890933059576545 0 1.7743907420901838e-06 0.014838322181286397 0 -3.5842196559372125e-05 0.014835873953034826 0 9.9618445447938705e-06 0.014815725922143799 0 1.7743907420901838e-06 0.014838322181286397 0 9.9618445447938705e-06 0.014815725922143799 0 4.4843236355302325e-05 0.014838637377476501 0 1.1464027314165431e-05 0.014858966056141952 0 1.7743907420901838e-06 0.014838322181286397 0 -1.8754187034830552e-05 0.014847022977573695 0 3.213861791441304e-05 0.014678273886709635 0 2.108204692289775e-05 0.014881134127893228 0 1.7743907420901838e-06 0.014838322181286397 0 -3.5842196559372125e-05 0.014835873953034826 0 -1.8754187034830552e-05 0.014847022977573695 0 -4.6815434483060449e-05 0.014850948387851672 0 -3.0560110925866181e-05 0.014859905406622383 0 -3.6910076425051967e-05 0.014834228823271152 0 -3.0560110925866181e-05 0.014859905406622383 0 -3.6910076425051967e-05 0.014834228823271152 0 -1.8754187034830552e-05 0.014847022977573695 0 3.213861791441304e-05 0.014678273886709635 0 1.1517917516174177e-05 0.014792655533313187 0 8.2294557205143417e-05 0.014879345326000682 0 7.6138112940430224e-05 0.014921932746220227 0 3.8985077504292e-05 0.014913694857747413 0 7.6138112940430224e-05 0.014921932746220227 0 3.8985077504292e-05 0.014913694857747413 0 5.0478003960304293e-05 0.014953310987121347 0 3.8985077504292e-05 0.014913694857747413 0 5.0478003960304293e-05 0.014953310987121347 0 2.2900968782832897e-05 0.014964075405389434 0 5.0478003960304293e-05 0.014953310987121347 0 7.9993997957328203e-05 0.014950273818743681 0 6.0036850419214513e-05 0.01497824172713972 0 7.6138112940430224e-05 0.014921932746220227 0 5.0478003960304293e-05 0.014953310987121347 0 7.9993997957328203e-05 0.014950273818743681 0 0.00010818993760869979 0.014931736272656874 0 7.6138112940430224e-05 0.014921932746220227 0 7.9993997957328203e-05 0.014950273818743681 0 1.2701099052064846e-08 0.01499994681249635 0 -5.652797930934833e-07 0.014984607727893562 0 -1.8461097920642314e-08 0.015000011307847652 0 -4.0425765750173453e-07 0.014982471977680782 0 1.3334993585138093e-05 0.014927693937620206 0 1.2701099052064846e-08 0.01499994681249635 0 -5.652797930934833e-07 0.014984607727893562 0 -1.2267888672076751e-06 0.014987601606446591 0 -2.6773122389686395e-08 0.014999997838238306 0 1.3334993585138093e-05 0.014927693937620206 0 5.0478003960304293e-05 0.014953310987121347 0 2.2900968782832897e-05 0.014964075405389434 0 1.5896148926911932e-05 0.014990668750749024 0 -5.652797930934833e-07 0.014984607727893562 0 2.2900968782832897e-05 0.014964075405389434 0 1.5896148926911932e-05 0.014990668750749024 0 -5.652797930934833e-07 0.014984607727893562 0 2.2900968782832897e-05 0.014964075405389434 0 -5.5160286734900549e-07 0.014954337701416475 0 3.8985077504292e-05 0.014913694857747413 0 2.2900968782832897e-05 0.014964075405389434 0 -5.5160286734900549e-07 0.014954337701416475 0 2.108204692289775e-05 0.014881134127893228 0 1.3334993585138093e-05 0.014927693937620206 0 9.9618445447938705e-06 0.014815725922143799 0 5.3600302077365578e-05 0.014795942121199727 0 4.4843236355302325e-05 0.014838637377476501 0 1.3334993585138093e-05 0.014927693937620206 0 2.6011138489172813e-05 0.014913014435033154 0 6.4827770591271307e-07 0.014999992727276425 0 3.5522501560045947e-09 0.015000002507050208 0 1.9392290710647634e-06 0.015000116708178576 0 -9.4867734020118192e-10 0.014999999021562287 0 6.4827770591271307e-07 0.014999992727276425 0 3.5522501560045947e-09 0.015000002507050208 0 3.5522501560045947e-09 0.015000002507050208 0 1.9392290710647634e-06 0.015000116708178576 0 1.9955103953703659e-06 0.014999920602555646 0 1.1464027314165431e-05 0.014858966056141952 0 1.7743907420901838e-06 0.014838322181286397 0 4.4843236355302325e-05 0.014838637377476501 0 2.6011138489172813e-05 0.014913014435033154 0 2.0749399430252417e-05 0.014945995412925609 0 1.9392290710647634e-06 0.015000116708178576 0 1.9955103953703659e-06 0.014999920602555646 0 6.8892350846727735e-06 0.014998300721815279 0 1.1464027314165431e-05 0.014858966056141952 0 4.4843236355302325e-05 0.014838637377476501 0 3.7799163164453968e-05 0.014890933059576545 0 3.5522501560045947e-09 0.015000002507050208 0 1.9955103953703659e-06 0.014999920602555646 0 -3.0417071317864538e-09 0.014999993483492584 0 1.9955103953703659e-06 0.014999920602555646 0 -3.0417071317864538e-09 0.014999993483492584 0 6.8892350846727735e-06 0.014998300721815279 0 -3.0417071317864538e-09 0.014999993483492584 0 2.0677779761273498e-06 0.014989357584610327 0 6.8892350846727735e-06 0.014998300721815279 0 2.0677779761273498e-06 0.014989357584610327 0 3.9897299867232454e-09 0.014999973088553014 0 5.0403497957625619e-06 0.014986691115792613 0 -3.0417071317864538e-09 0.014999993483492584 0 2.0677779761273498e-06 0.014989357584610327 0 3.9897299867232454e-09 0.014999973088553014 0 2.0677779761273498e-06 0.014989357584610327 0 1.1870818859286974e-05 0.014967058838087209 0 5.0403497957625619e-06 0.014986691115792613 0 2.0677779761273498e-06 0.014989357584610327 0 1.1870818859286974e-05 0.014967058838087209 0 6.8892350846727735e-06 0.014998300721815279 0 1.3724176145532924e-05 0.01496481039638772 0 2.0749399430252417e-05 0.014945995412925609 0 -5.9662066973169493e-06 0.014885843458471805 0 1.1870818859286974e-05 0.014967058838087209 0 3.7799163164453968e-05 0.014890933059576545 0 -5.9662066973169493e-06 0.014885843458471805 0 1.1870818859286974e-05 0.014967058838087209 0 -2.0725551632360683e-05 0.014913342630443714 0 -4.6631173715080062e-05 0.014900860563455185 0 -2.0725551632360683e-05 0.014913342630443714 0 -2.5504370987921764e-05 0.014938855324065071 0 -3.5553613807149303e-05 0.014876540564185983 0 -5.9662066973169493e-06 0.014885843458471805 0 -2.0725551632360683e-05 0.014913342630443714 0 -4.6631173715080062e-05 0.014900860563455185 0 -3.5553613807149303e-05 0.014876540564185983 0 -2.0725551632360683e-05 0.014913342630443714 0 -4.6115709869193763e-05 0.014942942822162852 0 -4.6631173715080062e-05 0.014900860563455185 0 -2.5504370987921764e-05 0.014938855324065071 0 -4.6115709869193763e-05 0.014942942822162852 0 -2.5504370987921764e-05 0.014938855324065071 0 -2.7957649805328181e-05 0.014967016089462094 0 1.1870818859286974e-05 0.014967058838087209 0 -2.0725551632360683e-05 0.014913342630443714 0 -2.5504370987921764e-05 0.014938855324065071 0 1.1870818859286974e-05 0.014967058838087209 0 -2.5504370987921764e-05 0.014938855324065071 0 -1.0159456969961639e-05 0.014964681586916122 0 1.1870818859286974e-05 0.014967058838087209 0 -1.0159456969961639e-05 0.014964681586916122 0 -2.8865496636165613e-06 0.014982570192035232 0 -1.0159456969961639e-05 0.014964681586916122 0 -2.7957649805328181e-05 0.014967016089462094 0 -2.8865496636165613e-06 0.014982570192035232 0 -2.5504370987921764e-05 0.014938855324065071 0 -1.0159456969961639e-05 0.014964681586916122 0 -2.7957649805328181e-05 0.014967016089462094 0 -2.7957649805328181e-05 0.014967016089462094 0 -2.4618936820700063e-05 0.014988668302884903 0 -2.8865496636165613e-06 0.014982570192035232 0 -6.2867602456644476e-06 0.014997298059566306 0 -2.4618936820700063e-05 0.014988668302884903 0 -2.8865496636165613e-06 0.014982570192035232 0 -6.2867602456644476e-06 0.014997298059566306 0 -2.8865496636165613e-06 0.014982570192035232 0 1.3384495797907221e-06 0.014994681264831458 0 -2.8865496636165613e-06 0.014982570192035232 0 1.3384495797907221e-06 0.014994681264831458 0 5.0403497957625619e-06 0.014986691115792613 0 1.3384495797907221e-06 0.014994681264831458 0 6.2548025911664898e-09 0.014999987082969903 0 5.0403497957625619e-06 0.014986691115792613 0 3.9897299867232454e-09 0.014999973088553014 0 6.2548025911664898e-09 0.014999987082969903 0 5.0403497957625619e-06 0.014986691115792613 0 1.1870818859286974e-05 0.014967058838087209 0 -2.8865496636165613e-06 0.014982570192035232 0 5.0403497957625619e-06 0.014986691115792613 0 7.3845136616940644e-06 0.014996004401956173 0 2.9420454444097247e-06 0.015001489373358637 0 3.7221004892785547e-06 0.014995101102909924 0 8.23811249380046e-06 0.014981175978046721 0 1.403917999577683e-06 0.014990130792642513 0 7.6539910081387147e-06 0.014990610900694076 0 2.8784209479013292e-05 0.014781978103580737 0 -1.3783577059911016e-05 0.015013149695128229 0 1.3920138810748483e-05 0.014999100296407679 0 7.3845136616940644e-06 0.014996004401956173 0 2.9420454444097247e-06 0.015001489373358637 0 4.7742141087707756e-10 0.014999999884085338 0 2.9420454444097247e-06 0.015001489373358637 0 3.7221004892785547e-06 0.014995101102909924 0 4.7742141087707756e-10 0.014999999884085338 0 2.9420454444097247e-06 0.015001489373358637 0 1.5800903928366271e-09 0.015000004218055394 0 1.403917999577683e-06 0.014990130792642513 0 -6.3633056418929197e-09 0.014999979596729787 0 2.6698595341803846e-06 0.014995785093139449 0 -1.3783577059911016e-05 0.015013149695128229 0 2.0652980755110599e-08 0.014999983281229621 0 1.403917999577683e-06 0.014990130792642513 0 7.6539910081387147e-06 0.014990610900694076 0 2.6698595341803846e-06 0.014995785093139449 0 0.00026458569794533961 0.012984511299534793 0 0.00015621591152897889 0.013155257835016216 0 0.00025403733966145514 0.013332990998686695 0 0.00036795967662703734 0.013179231645995266 0 0.00026458569794533961 0.012984511299534793 0 0.00025791269841424978 0.012720997236064575 0 0.00036795967662703734 0.013179231645995266 0 0.00026458569794533961 0.012984511299534793 0 0.00023748773157019048 0.013426450594569863 0 8.5103980613368408e-06 0.014206650470999709 0 0.00010607977763436058 0.014161204842615946 0 -5.5539710009380606e-05 0.013933849713564841 0 0.00019020216623624793 0.013675796018133912 0 -5.8033088924881474e-05 0.013145223890910988 0 0.0001341535981952206 0.014443927484182176 0 8.5103980613368408e-06 0.014206650470999709 0 0.00010607977763436058 0.014161204842615946 0 0.00025955891411286007 0.013054589943508787 0 0.00024671526076453589 0.013324121929560935 0 0.00026458569794533961 0.012984511299534793 0 2.1233888009134194e-05 0.01308872893290702 0 0.00025791269841424978 0.012720997236064575 0 2.1233888009134194e-05 0.01308872893290702 0 -0.00036736559432318228 0.01296507153316041 0 0.00025791269841424978 0.012720997236064575 0 0.00026458569794533961 0.012984511299534793 0 0.00015621591152897889 0.013155257835016216 0 2.1233888009134194e-05 0.01308872893290702 0 0.00015621591152897889 0.013155257835016216 0 2.1233888009134194e-05 0.01308872893290702 0 6.0823515539797806e-05 0.013318444560831822 0 1.1759912396195772e-05 0.013505694365009516 0 0.00025403733966145514 0.013332990998686695 0 0.00025350324872385345 0.013699013269856748 0 2.1233888009134194e-05 0.01308872893290702 0 6.0823515539797806e-05 0.013318444560831822 0 -0.00023411947907892359 0.013358510582350146 0 6.0823515539797806e-05 0.013318444560831822 0 1.1759912396195772e-05 0.013505694365009516 0 -0.00023411947907892359 0.013358510582350146 0 0.00015621591152897889 0.013155257835016216 0 6.0823515539797806e-05 0.013318444560831822 0 0.00025403733966145514 0.013332990998686695 0 6.0823515539797806e-05 0.013318444560831822 0 1.1759912396195772e-05 0.013505694365009516 0 0.00025403733966145514 0.013332990998686695 0 1.1759912396195772e-05 0.013505694365009516 0 -0.00021176284943234933 0.013701546253722817 0 -0.00023411947907892359 0.013358510582350146 0 0.00023748773157019048 0.013426450594569863 0 0.00049296502698649371 0.013711013637073183 0 0.00022088442840728572 0.013906725648228055 0 0.00024671526076453589 0.013324121929560935 0 0.00015164490775664013 0.01411835158886914 0 0.0001341535981952206 0.014443927484182176 0 8.5103980613368408e-06 0.014206650470999709 0 7.4079962622866814e-05 0.014486694431666025 0 2.8784209479013292e-05 0.014781978103580737 0 5.6152735324136332e-05 0.014512624304857289 0 0.00036795967662703734 0.013179231645995266 0 0.00023748773157019048 0.013426450594569863 0 0.00049296502698649371 0.013711013637073183 0 0.00019020216623624793 0.013675796018133912 0 0.00014385270162338933 0.014459468925985902 0 2.8784209479013292e-05 0.014781978103580737 0 0.00014385270162338933 0.014459468925985902 0 1.4580707876773109e-06 0.014849168592171684 0 -2.0573452353646695e-05 0.014864951767073266 0 1.0004987767755842e-05 0.014975316842587801 0 0.00014385270162338933 0.014459468925985902 0 6.107364428088893e-06 0.015128602363005174 0 -2.9766240499741821e-07 0.014915948560196627 0 -2.6100211122980959e-05 0.014936401542174941 0 5.7285729259914779e-06 0.014982743523371273 0 0.00014385270162338933 0.014459468925985902 0 0.00015164490775664013 0.01411835158886914 0 1.1759912396195772e-05 0.013505694365009516 0 1.1372386901358423e-05 0.01388076878308115 0 -0.00021176284943234933 0.013701546253722817 0 0.00027939063480419583 0.013690571953993235 0 1.1372386901358423e-05 0.01388076878308115 0 3.8245604316821842e-05 0.01413035624561163 0 1.1759912396195772e-05 0.013505694365009516 0 0.00025350324872385345 0.013699013269856748 0 1.1372386901358423e-05 0.01388076878308115 0 0.00015164490775664013 0.01411835158886914 0 0.00015215140797169942 0.013847855074333323 0 1.1372386901358423e-05 0.01388076878308115 0 -0.00020551580817058576 0.014038848520312884 0 -0.00021176284943234933 0.013701546253722817 0 0.00027939063480419583 0.013690571953993235 0 3.8245604316821842e-05 0.01413035624561163 0 0.00026626120351194119 0.014319605277970148 0 3.8245604316821842e-05 0.01413035624561163 0 0.00026626120351194119 0.014319605277970148 0 -0.00020772237710875178 0.014401707258189535 0 6.4704627180254518e-05 0.014684644743128803 0 -0.00011579085215743655 0.014378591313019719 0 1.1372386901358423e-05 0.01388076878308115 0 3.8245604316821842e-05 0.01413035624561163 0 -0.00020551580817058576 0.014038848520312884 0 3.8245604316821842e-05 0.01413035624561163 0 -0.00020772237710875178 0.014401707258189535 0 -0.00020551580817058576 0.014038848520312884 0 -2.6100211122980959e-05 0.014936401542174941 0 -2.0665057557252007e-05 0.01499796454059317 0 5.7285729259914779e-06 0.014982743523371273 0 -2.0665057557252007e-05 0.01499796454059317 0 1.2209024124663304e-05 0.01498688874797483 0 5.7285729259914779e-06 0.014982743523371273 0 0.00015164490775664013 0.01411835158886914 0 6.4704627180254518e-05 0.014684644743128803 0 2.941963514541157e-05 0.01496555417215199 0 -5.4335671477251003e-06 0.014976237233029986 0 -2.1181543957885861e-06 0.014943333425346247 0 6.4704627180254518e-05 0.014684644743128803 0 -1.5146172529064696e-05 0.015009350245424031 0 1.2209024124663304e-05 0.01498688874797483 0 1.037644911299863e-05 0.014983094680632778 0 7.7278919814152627e-06 0.014988744783049936 0 1.037644911299863e-05 0.014983094680632778 0 9.1017917425242843e-06 0.014983730403710134 0 7.7278919814152627e-06 0.014988744783049936 0 1.2209024124663304e-05 0.01498688874797483 0 1.037644911299863e-05 0.014983094680632778 0 5.7285729259914779e-06 0.014982743523371273 0 1.037644911299863e-05 0.014983094680632778 0 1.0004987767755842e-05 0.014975316842587801 0 9.1017917425242843e-06 0.014983730403710134 0 1.037644911299863e-05 0.014983094680632778 0 5.7285729259914779e-06 0.014982743523371273 0 1.0004987767755842e-05 0.014975316842587801 0 1.3920138810748483e-05 0.014999100296407679 0 1.0004987767755842e-05 0.014975316842587801 0 7.8553250958505101e-06 0.014988335369118902 0 -2.0573452353646695e-05 0.014864951767073266 0 5.7285729259914779e-06 0.014982743523371273 0 1.0004987767755842e-05 0.014975316842587801 0 1.0004987767755842e-05 0.014975316842587801 0 9.1017917425242843e-06 0.014983730403710134 0 7.8553250958505101e-06 0.014988335369118902 0 2.8784209479013292e-05 0.014781978103580737 0 1.0148781455942336e-05 0.015026828549386426 0 9.1017917425242843e-06 0.014983730403710134 0 7.7278919814152627e-06 0.014988744783049936 0 7.8553250958505101e-06 0.014988335369118902 0 7.7278919814152627e-06 0.014988744783049936 0 7.8553250958505101e-06 0.014988335369118902 0 3.7221004892785547e-06 0.014995101102909924 0 7.3845136616940644e-06 0.014996004401956173 0 7.8553250958505101e-06 0.014988335369118902 0 3.7221004892785547e-06 0.014995101102909924 0 1.3920138810748483e-05 0.014999100296407679 0 7.3845136616940644e-06 0.014996004401956173 0 7.8553250958505101e-06 0.014988335369118902 0 7.7278919814152627e-06 0.014988744783049936 0 3.7221004892785547e-06 0.014995101102909924 0 4.0690311757868981e-09 0.014999970937511787 0 4.7742141087707756e-10 0.014999999884085338 0 3.7221004892785547e-06 0.014995101102909924 0 4.0690311757868981e-09 0.014999970937511787 0 -5.4335671477251003e-06 0.014976237233029986 0 -5.1756154385661828e-09 0.014999986378178233 0 -2.4444069415895997e-06 0.014974820878844433 0 1.2209024124663304e-05 0.01498688874797483 0 7.7278919814152627e-06 0.014988744783049936 0 4.0690311757868981e-09 0.014999970937511787 0 -1.5146172529064696e-05 0.015009350245424031 0 2.4385670667895747e-08 0.014999980307828972 0 -6.6504789786987448e-09 0.014999954581279283 0 -2.4444069415895997e-06 0.014974820878844433 0 2.9843188314710212e-06 0.014960086783687173 0 -5.1756154385661828e-09 0.014999986378178233 0 -6.6504789786987448e-09 0.014999954581279283 0 -2.4444069415895997e-06 0.014974820878844433 0 -5.4335671477251003e-06 0.014976237233029986 0 -2.4444069415895997e-06 0.014974820878844433 0 -2.1181543957885861e-06 0.014943333425346247 0 -2.4444069415895997e-06 0.014974820878844433 0 -2.1181543957885861e-06 0.014943333425346247 0 2.9843188314710212e-06 0.014960086783687173 0 -6.6504789786987448e-09 0.014999954581279283 0 2.9843188314710212e-06 0.014960086783687173 0 1.3380319807272023e-08 0.014999973971803927 0 1.3380319807272023e-08 0.014999973971803927 0 7.1773363956893466e-06 0.01499012048120877 0 1.5475414802415299e-08 0.015000005172605312 0 2.9843188314710212e-06 0.014960086783687173 0 1.3380319807272023e-08 0.014999973971803927 0 7.1773363956893466e-06 0.01499012048120877 0 7.1773363956893466e-06 0.01499012048120877 0 9.477482312794049e-06 0.015014352901729082 0 -5.5874203338434975e-06 0.014971283961395718 0 2.9843188314710212e-06 0.014960086783687173 0 7.1773363956893466e-06 0.01499012048120877 0 -5.5874203338434975e-06 0.014971283961395718 0 8.2204620451041772e-06 0.014995270191728492 0 2.8162482987082011e-09 0.015000003703721586 0 -5.652797930934833e-07 0.014984607727893562 0 1.5896148926911932e-05 0.014990668750749024 0 -1.8461097920642314e-08 0.015000011307847652 0 7.1773363956893466e-06 0.01499012048120877 0 9.477482312794049e-06 0.015014352901729082 0 1.5475414802415299e-08 0.015000005172605312 0 -8.1009414898278839e-06 0.015123154210314739 0 -0.00011519462271212422 0.013915453517233297 0 -7.754229809037008e-05 0.015067028741572938 0 -0.00027559846383465742 0.015096386545677503 0 -0.00025412989356176263 0.01508280786169967 0 -7.754229809037008e-05 0.015067028741572938 0 -0.00019719650465374426 0.015028148507159061 0 -0.00025412989356176263 0.01508280786169967 0 7.9993997957328203e-05 0.014950273818743681 0 6.0036850419214513e-05 0.01497824172713972 0 0.00010294568743292108 0.014965255888723189 0 8.2204620451041772e-06 0.014995270191728492 0 -8.1009414898278839e-06 0.015123154210314739 0 9.477482312794049e-06 0.015014352901729082 0 -7.754229809037008e-05 0.015067028741572938 0 -5.5874203338434975e-06 0.014971283961395718 0 5.0478003960304293e-05 0.014953310987121347 0 1.5896148926911932e-05 0.014990668750749024 0 6.0036850419214513e-05 0.01497824172713972 0 -5.5874203338434975e-06 0.014971283961395718 0 -0.0001007711503369718 0.014973638395512844 0 2.3391985213712122e-06 0.014862734756175245 0 -7.754229809037008e-05 0.015067028741572938 0 -5.5874203338434975e-06 0.014971283961395718 0 -0.0001007711503369718 0.014973638395512844 0 -7.754229809037008e-05 0.015067028741572938 0 -0.0001007711503369718 0.014973638395512844 0 -0.00019719650465374426 0.015028148507159061 0 -0.0001007711503369718 0.014973638395512844 0 -0.00019719650465374426 0.015028148507159061 0 -0.00020230072538862735 0.014975778387807209 0 -0.0001007711503369718 0.014973638395512844 0 -0.00020230072538862735 0.014975778387807209 0 -0.00024262722085515958 0.014885635777454066 0 -0.0001007711503369718 0.014973638395512844 0 2.3391985213712122e-06 0.014862734756175245 0 -0.00024262722085515958 0.014885635777454066 0 2.3391985213712122e-06 0.014862734756175245 0 -0.00026792163213222413 0.014676328460880506 0 -0.00024262722085515958 0.014885635777454066 0 2.9843188314710212e-06 0.014960086783687173 0 -5.5874203338434975e-06 0.014971283961395718 0 2.3391985213712122e-06 0.014862734756175245 0 -2.1181543957885861e-06 0.014943333425346247 0 2.9843188314710212e-06 0.014960086783687173 0 2.3391985213712122e-06 0.014862734756175245 0 2.941963514541157e-05 0.01496555417215199 0 -2.1181543957885861e-06 0.014943333425346247 0 2.3391985213712122e-06 0.014862734756175245 0 6.4704627180254518e-05 0.014684644743128803 0 1.0145186910027214e-05 0.014842911392679594 0 7.9791059907920105e-05 0.014373398325550953 0 2.3391985213712122e-06 0.014862734756175245 0 -0.00020772237710875178 0.014401707258189535 0 2.3391985213712122e-06 0.014862734756175245 0 -0.00020772237710875178 0.014401707258189535 0 -0.00026792163213222413 0.014676328460880506 0 -0.00026792163213222413 0.014676328460880506 0 -0.00045365335902343348 0.01479937292668663 0 -0.0006653141889390664 0.014312053307323836 0 -0.00020772237710875178 0.014401707258189535 0 -0.00026792163213222413 0.014676328460880506 0 -0.0006653141889390664 0.014312053307323836 0 -0.00039110153670934454 0.01340351089701217 0 -0.00050010576250903371 0.013279199300078997 0 -0.00036776940856466761 0.012160143745520914 0 -0.00031299409454313074 0.012180483877214033 0 -0.00037341213954549945 0.012224635658528537 0 -0.00036776940856466761 0.012160143745520914 0 -0.00032438523791572413 0.012176583958035307 0 -0.00037341213954549945 0.012224635658528537 0 -0.00036776940856466761 0.012160143745520914 0 -0.00031299409454313074 0.012180483877214033 0 -0.0003083681009939337 0.012340536482662172 0 -0.00026792163213222413 0.014676328460880506 0 -0.00045365335902343348 0.01479937292668663 0 -0.00024262722085515958 0.014885635777454066 0 -0.00045365335902343348 0.01479937292668663 0 -0.0002808326816274768 0.015013404378511576 0 -0.00026952268336566816 0.015061939747942728 0 -0.00020230072538862735 0.014975778387807209 0 -0.00024262722085515958 0.014885635777454066 0 -0.0002808326816274768 0.015013404378511576 0 -0.00039110153670934454 0.01340351089701217 0 -0.0002546413786851915 0.014180536127323359 0 -0.00045365335902343348 0.01479937292668663 0 -0.00024262722085515958 0.014885635777454066 0 -0.0002808326816274768 0.015013404378511576 0 -0.00031299409454313074 0.012180483877214033 0 -0.0003083681009939337 0.012340536482662172 0 -0.00017095340613373491 0.012473790439077939 0 -0.00019719650465374426 0.015028148507159061 0 -0.0002808326816274768 0.015013404378511576 0 -0.00027429171814050677 0.01504022411099558 0 -0.00019719650465374426 0.015028148507159061 0 -0.00020230072538862735 0.014975778387807209 0 -0.0002808326816274768 0.015013404378511576 0 -0.00028845747364597481 0.014647735187974364 0 -0.0002546413786851915 0.014180536127323359 0 -0.0003083681009939337 0.012340536482662172 0 -0.00017095340613373491 0.012473790439077939 0 -0.0002831563020427348 0.012468542233780975 0 -0.0003789978550014743 0.01214235632231129 0 -0.00039379128864477274 0.012290158838675186 0 -0.00036776940856466761 0.012160143745520914 0 -0.0003083681009939337 0.012340536482662172 0 -0.00039851516503742503 0.012477867041210256 0 -0.00036776940856466761 0.012160143745520914 0 -0.00040832733820150738 0.011972484691648876 0 -0.00035355662304264161 0.012037934629340124 0 -0.00040832733820150738 0.011972484691648876 0 -0.00033216536834940706 0.01196796148939268 0 -0.00035355662304264161 0.012037934629340124 0 -0.0003083681009939337 0.012340536482662172 0 -0.00039851516503742503 0.012477867041210256 0 -0.0002831563020427348 0.012468542233780975 0 -0.00039851516503742503 0.012477867041210256 0 -0.00027592420023938457 0.012592856546374513 0 -0.0002831563020427348 0.012468542233780975 0 -0.00042892017776811669 0.01182462625190891 0 -0.00040832733820150738 0.011972484691648876 0 -0.00037368143687982599 0.011912800096630986 0 -0.00027186610970414616 0.012726296358390211 0 -0.00034125792666090754 0.012895333016075683 0 -0.00039851516503742503 0.012477867041210256 0 -0.00037680852356313427 0.012086830752518832 0 -0.00039379128864477274 0.012290158838675186 0 -0.00040832733820150738 0.011972484691648876 0 -0.00037368143687982599 0.011912800096630986 0 -0.00033216536834940706 0.01196796148939268 0 -0.00027186610970414616 0.012726296358390211 0 -0.00039851516503742503 0.012477867041210256 0 -0.00027592420023938457 0.012592856546374513 0 -0.00027186610970414616 0.012726296358390211 0 -0.00027592420023938457 0.012592856546374513 0 -0.00015901673646760128 0.012596515362872256 0 -0.00022201032970163551 0.013409852067862021 0 -0.00011519462271212422 0.013915453517233297 0 -0.00015090824812626942 0.014856530103802428 0 -0.0002546413786851915 0.014180536127323359 0 -0.00027559846383465742 0.015096386545677503 0 -0.00025412989356176263 0.01508280786169967 0 -0.00027666057811568263 0.015007296299513351 0 -0.00019719650465374426 0.015028148507159061 0 -0.00025412989356176263 0.01508280786169967 0 -0.00027429171814050677 0.01504022411099558 0 -0.00017592213239192011 0.012592066411146215 0 -0.00017095340613373491 0.012473790439077939 0 -0.0002831563020427348 0.012468542233780975 0 -0.00027592420023938457 0.012592856546374513 0 -0.00017592213239192011 0.012592066411146215 0 -0.0002831563020427348 0.012468542233780975 0 -0.00011519462271212422 0.013915453517233297 0 -0.0002546413786851915 0.014180536127323359 0 -0.00036237899833602112 0.011132741122119105 0 -0.00041648864680331226 0.011118451254491315 0 -0.00042813556513325427 0.011125341770942297 0 -0.00037337558516477916 0.011622545769612256 0 -0.00019554948177235139 0.01186261592345517 0 -0.00021866792951546305 0.011956741891199897 0 -0.00027187099761611278 0.011934002526140113 0 -0.00028478584285449455 0.011982321065992247 0 -0.00041648864680331226 0.011118451254491315 0 -0.00042813556513325427 0.011125341770942297 0 -0.00041692688970670222 0.01112617081208131 0 -0.00036221487390695128 0.011452319929564379 0 -0.00037337558516477916 0.011622545769612256 0 -0.0003226869830293157 0.011889059371945584 0 -0.00021570854807842282 0.011955355805746236 0 -0.00027187099761611278 0.011934002526140113 0 -0.0003226869830293157 0.011889059371945584 0 -0.00027187099761611278 0.011934002526140113 0 -0.00033216536834940706 0.01196796148939268 0 -0.0003226869830293157 0.011889059371945584 0 -0.00037368143687982599 0.011912800096630986 0 -0.00033216536834940706 0.01196796148939268 0 -0.00027187099761611278 0.011934002526140113 0 -0.00033216536834940706 0.01196796148939268 0 -0.00028478584285449455 0.011982321065992247 0 -0.00028478584285449455 0.011982321065992247 0 -0.00030567299840597833 0.012038949097993487 0 -0.00024998336501707338 0.012011886139232542 0 -0.00033216536834940706 0.01196796148939268 0 -0.00028478584285449455 0.011982321065992247 0 -0.00030567299840597833 0.012038949097993487 0 -0.00033216536834940706 0.01196796148939268 0 -0.00035355662304264161 0.012037934629340124 0 -0.00030567299840597833 0.012038949097993487 0 -0.00035355662304264161 0.012037934629340124 0 -0.00033094284848357114 0.012088104126978272 0 -0.00030567299840597833 0.012038949097993487 0 -0.00033094284848357114 0.012088104126978272 0 -0.00030567299840597833 0.012038949097993487 0 -0.00030147852758759849 0.012115508664407916 0 -0.00030567299840597833 0.012038949097993487 0 -0.00026676037918340711 0.012064712910405756 0 -0.00024998336501707338 0.012011886139232542 0 -0.00030567299840597833 0.012038949097993487 0 -0.00026676037918340711 0.012064712910405756 0 -0.00030147852758759849 0.012115508664407916 0 -0.00026676037918340711 0.012064712910405756 0 -0.00024998336501707338 0.012011886139232542 0 -0.00022314910058066214 0.012043365470165228 0 -0.00021866792951546305 0.011956741891199897 0 -0.00028478584285449455 0.011982321065992247 0 -0.00024998336501707338 0.012011886139232542 0 -0.00024998336501707338 0.012011886139232542 0 -0.00020307503656540954 0.012004340048516304 0 -0.00022314910058066214 0.012043365470165228 0 -0.00021866792951546305 0.011956741891199897 0 -0.00024998336501707338 0.012011886139232542 0 -0.00020307503656540954 0.012004340048516304 0 -0.00020307503656540954 0.012004340048516304 0 -0.00022314910058066214 0.012043365470165228 0 -0.00018182122048745144 0.012028970597833148 0 -0.00022314910058066214 0.012043365470165228 0 -0.00018971501027336625 0.012067368097383327 0 -0.00018182122048745144 0.012028970597833148 0 -0.00018971501027336625 0.012067368097383327 0 -0.0002389701117554426 0.01209327330841849 0 -0.00019957848664912652 0.012119839443760124 0 -0.00022314910058066214 0.012043365470165228 0 -0.00018971501027336625 0.012067368097383327 0 -0.0002389701117554426 0.01209327330841849 0 -0.00026676037918340711 0.012064712910405756 0 -0.00022314910058066214 0.012043365470165228 0 -0.0002389701117554426 0.01209327330841849 0 -0.0002389701117554426 0.01209327330841849 0 -0.00026235949352979325 0.012149099764436478 0 -0.00030147852758759849 0.012115508664407916 0 -0.0002389701117554426 0.01209327330841849 0 -0.00026235949352979325 0.012149099764436478 0 -0.00019957848664912652 0.012119839443760124 0 -0.00036776940856466761 0.012160143745520914 0 -0.00035355662304264161 0.012037934629340124 0 -0.00033094284848357114 0.012088104126978272 0 -0.00036776940856466761 0.012160143745520914 0 -0.00033094284848357114 0.012088104126978272 0 -0.00030147852758759849 0.012115508664407916 0 -0.00026676037918340711 0.012064712910405756 0 -0.0002389701117554426 0.01209327330841849 0 -0.00030147852758759849 0.012115508664407916 0 -0.00026235949352979325 0.012149099764436478 0 -0.00030147852758759849 0.012115508664407916 0 -0.00032438523791572413 0.012176583958035307 0 -0.00036776940856466761 0.012160143745520914 0 -0.00030147852758759849 0.012115508664407916 0 -0.00032438523791572413 0.012176583958035307 0 -0.00032438523791572413 0.012176583958035307 0 -0.00028888837200392539 0.012203849971702966 0 -0.00037341213954549945 0.012224635658528537 0 -0.00026235949352979325 0.012149099764436478 0 -0.00032438523791572413 0.012176583958035307 0 -0.00028888837200392539 0.012203849971702966 0 -0.00026235949352979325 0.012149099764436478 0 -0.00019957848664912652 0.012119839443760124 0 -0.00021190229957093658 0.012190083925570918 0 -0.00026235949352979325 0.012149099764436478 0 -0.00028888837200392539 0.012203849971702966 0 -0.00021190229957093658 0.012190083925570918 0 -0.00028888837200392539 0.012203849971702966 0 -0.00021190229957093658 0.012190083925570918 0 -0.0002440398849700004 0.012296292867250645 0 -0.00042622597466961305 0.012445705974813353 0 -0.00021046953982760755 0.013022761928816915 0 -0.00068336159600855073 0.01294926703221376 0 -0.00042622597466961305 0.012445705974813353 0 -0.00021046953982760755 0.013022761928816915 0 1.2720718933160549e-05 0.012592038192107439 0 -0.00042622597466961305 0.012445705974813353 0 -0.0010196710067970547 0.012757057904672993 0 -0.00068336159600855073 0.01294926703221376 0 -0.00030443343154910001 0.01228646597144129 0 -0.00069464010182430588 0.013049916785136853 0 -0.0002440398849700004 0.012296292867250645 0 -0.00037341213954549945 0.012224635658528537 0 -0.00035122737841668689 0.012352749200657091 0 -0.00028888837200392539 0.012203849971702966 0 -0.0002440398849700004 0.012296292867250645 0 -0.00037341213954549945 0.012224635658528537 0 -0.0006653141889390664 0.014312053307323836 0 -0.00042888247104543519 0.014100587972878945 0 -0.00059617223101918497 0.013801278086564723 0 -0.00050010576250903371 0.013279199300078997 0 -0.00069464010182430588 0.013049916785136853 0 -0.00020772237710875178 0.014401707258189535 0 -0.0006653141889390664 0.014312053307323836 0 -0.00042888247104543519 0.014100587972878945 0 -0.00042888247104543519 0.014100587972878945 0 -0.00020551580817058576 0.014038848520312884 0 -0.00039080950983835886 0.01386113855079066 0 -0.00020772237710875178 0.014401707258189535 0 -0.00042888247104543519 0.014100587972878945 0 -0.00020551580817058576 0.014038848520312884 0 -0.00020551580817058576 0.014038848520312884 0 -0.00039080950983835886 0.01386113855079066 0 -0.00021176284943234933 0.013701546253722817 0 -0.00042888247104543519 0.014100587972878945 0 -0.00039080950983835886 0.01386113855079066 0 -0.00059617223101918497 0.013801278086564723 0 -0.00039080950983835886 0.01386113855079066 0 -0.00059617223101918497 0.013801278086564723 0 -0.00046722570961107876 0.013586384432386293 0 -0.00039080950983835886 0.01386113855079066 0 -0.00021176284943234933 0.013701546253722817 0 -0.00046722570961107876 0.013586384432386293 0 -0.0006653141889390664 0.014312053307323836 0 -0.00059617223101918497 0.013801278086564723 0 -0.00084661352134016545 0.013672871739603432 0 -0.00059617223101918497 0.013801278086564723 0 -0.00061997787954651143 0.013623334890898953 0 -0.00046722570961107876 0.013586384432386293 0 -0.00059617223101918497 0.013801278086564723 0 -0.00061997787954651143 0.013623334890898953 0 -0.00074896890385490751 0.013624128052021702 0 -0.00061997787954651143 0.013623334890898953 0 -0.00074896890385490751 0.013624128052021702 0 -0.00072641493610607621 0.013529319350276025 0 -0.00074896890385490751 0.013624128052021702 0 -0.00084043943050037375 0.01366538208462661 0 -0.00072641493610607621 0.013529319350276025 0 -0.00059617223101918497 0.013801278086564723 0 -0.00074896890385490751 0.013624128052021702 0 -0.00084661352134016545 0.013672871739603432 0 -0.00080044168602874243 0.013183020976113465 0 -0.00069464010182430588 0.013049916785136853 0 -0.00084043943050037375 0.01366538208462661 0 -0.0007603862468353119 0.01338629234763641 0 -0.00087234406130118943 0.013205018472145143 0 -0.00069464010182430588 0.013049916785136853 0 -0.00088507769329409353 0.013247178680568364 0 -0.00084043943050037375 0.01366538208462661 0 -0.0007603862468353119 0.01338629234763641 0 -0.00072641493610607621 0.013529319350276025 0 -0.0007603862468353119 0.01338629234763641 0 -0.00072641493610607621 0.013529319350276025 0 -0.00064149578448966318 0.013481115979813064 0 -0.00061997787954651143 0.013623334890898953 0 -0.00064149578448966318 0.013481115979813064 0 -0.00046722570961107876 0.013586384432386293 0 -0.00061997787954651143 0.013623334890898953 0 -0.00072641493610607621 0.013529319350276025 0 -0.00064149578448966318 0.013481115979813064 0 -0.00064149578448966318 0.013481115979813064 0 -0.00062387883299462447 0.013308108826385672 0 -0.00046722570961107876 0.013586384432386293 0 -0.0007603862468353119 0.01338629234763641 0 -0.00064149578448966318 0.013481115979813064 0 -0.00062387883299462447 0.013308108826385672 0 -0.0007603862468353119 0.01338629234763641 0 -0.00062387883299462447 0.013308108826385672 0 -0.00087234406130118943 0.013205018472145143 0 -0.00062387883299462447 0.013308108826385672 0 -0.00088490333619126193 0.013223776807149788 0 -0.00087234406130118943 0.013205018472145143 0 -0.00062387883299462447 0.013308108826385672 0 -0.00046722570961107876 0.013586384432386293 0 -0.00023411947907892359 0.013358510582350146 0 -0.00021176284943234933 0.013701546253722817 0 -0.00046722570961107876 0.013586384432386293 0 -0.00023411947907892359 0.013358510582350146 0 -0.00062387883299462447 0.013308108826385672 0 -0.00023411947907892359 0.013358510582350146 0 -0.00036736559432318228 0.01296507153316041 0 2.1233888009134194e-05 0.01308872893290702 0 -0.00023411947907892359 0.013358510582350146 0 -0.00036736559432318228 0.01296507153316041 0 -0.00062387883299462447 0.013308108826385672 0 -0.00036736559432318228 0.01296507153316041 0 -0.00088490333619126193 0.013223776807149788 0 -0.00026101598048034212 0.011791024308094821 0 -0.00022805143956640246 0.012039545899023573 0 -8.858000783363944e-05 0.010960101490666993 0 0.00038926282641083373 0.010824124740877442 0 0.00032904146676274187 0.011388810919345439 0 0.00038926282641083373 0.010824124740877442 0 0.00079311320565041946 0.010612638718359057 0 0.00064934967402203905 0.011051591268754301 0 -0.00022805143956640246 0.012039545899023573 0 0.00027599548640778814 0.011804297536884115 0 -0.00088490333619126193 0.013223776807149788 0 -0.00021046953982760755 0.013022761928816915 0 -0.00068336159600855073 0.01294926703221376 0 -0.0010196710067970547 0.012757057904672993 0 -0.00068336159600855073 0.01294926703221376 0 -0.00087234406130118943 0.013205018472145143 0 -0.00088490333619126193 0.013223776807149788 0 -0.00068336159600855073 0.01294926703221376 0 -0.00087234406130118943 0.013205018472145143 0 0.00079311320565041946 0.010612638718359057 0 0.0010666304256886894 0.010601223288222338 0 0.00064934967402203905 0.011051591268754301 0 0.00079311320565041946 0.010612638718359057 0 0.0010666304256886894 0.010601223288222338 0 0.00098915914828880255 0.010593873207997831 0 0.00027599548640778814 0.011804297536884115 0 0.00078304791273232932 0.011771151691287654 0 0.0010666304256886894 0.010601223288222338 0 0.00085483587415615 0.010343605992632871 0 0.00089252216321629365 0.010529190027407515 0 0.0010666304256886894 0.010601223288222338 0 0.00085483587415615 0.010343605992632871 0 0.00093409535869589007 0.010228400500781993 0 0.00068993849633628736 0.010278536976195787 0 0.00058426666166205908 0.010107539715644952 0 0.00072441571799202625 0.010183136444342079 0 0.00085483587415615 0.010343605992632871 0 0.00068993849633628736 0.010278536976195787 0 0.00072441571799202625 0.010183136444342079 0 0.00085483587415615 0.010343605992632871 0 0.00068993849633628736 0.010278536976195787 0 0.00075566574517067233 0.010418324360417073 0 0.00085483587415615 0.010343605992632871 0 0.00075566574517067233 0.010418324360417073 0 0.00089252216321629365 0.010529190027407515 0 0.00068993849633628736 0.010278536976195787 0 0.00065260418188930623 0.010396239421915735 0 0.00051649264549853756 0.010221190867236466 0 0.00068993849633628736 0.010278536976195787 0 0.00075566574517067233 0.010418324360417073 0 0.00065260418188930623 0.010396239421915735 0 0.00075566574517067233 0.010418324360417073 0 0.00065260418188930623 0.010396239421915735 0 0.00071922291662649372 0.010517062141278954 0 0.00021161093427399965 0.010020251060365061 0 0.0002189134109167249 0.010011574441955357 0 0.00022328179159594356 0.010007386613715953 0 0.0007786827738898791 0.010613865063787951 0 0.00077950868661753165 0.010758906268648409 0 0.00056765002830569909 0.010547261929131271 0 0.00071922291662649372 0.010517062141278954 0 0.0007786827738898791 0.010613865063787951 0 0.00056765002830569909 0.010547261929131271 0 0.00065260418188930623 0.010396239421915735 0 0.00071922291662649372 0.010517062141278954 0 0.00056765002830569909 0.010547261929131271 0 0.00071922291662649372 0.010517062141278954 0 0.0007786827738898791 0.010613865063787951 0 0.00089252216321629365 0.010529190027407515 0 0.00075566574517067233 0.010418324360417073 0 0.00071922291662649372 0.010517062141278954 0 0.00089252216321629365 0.010529190027407515 0 0.0007786827738898791 0.010613865063787951 0 0.00089252216321629365 0.010529190027407515 0 0.00098915914828880255 0.010593873207997831 0 0.0010666304256886894 0.010601223288222338 0 0.00089252216321629365 0.010529190027407515 0 0.00098915914828880255 0.010593873207997831 0 0.001088911057433849 0.012476207334146505 0 0.00056498092975317427 0.012327993319229919 0 0.00045251702629354296 0.012741422228661963 0 0.0007786827738898791 0.010613865063787951 0 0.00077950868661753165 0.010758906268648409 0 0.00098915914828880255 0.010593873207997831 0 0.00050467068405319769 0.010873445952180873 0 0.00078304791273232932 0.011771151691287654 0 0.00050467068405319769 0.010873445952180873 0 0.00037218993040977248 0.010160027907142011 0 0.00021161093427399965 0.010020251060365061 0 0.00019968649033433067 0.010014043621422122 0 0.0002189134109167249 0.010011574441955357 0 0.00021161093427399965 0.010020251060365061 0 0.00019277512048199697 0.01002032222390067 0 0.00019968649033433067 0.010014043621422122 0 0.00050467068405319769 0.010873445952180873 0 0.00023683033692452677 0.010101648733503714 0 0.00022965408497624293 0.010013900856387674 0 0.00024915429008978148 0.010047398312949455 0 0.00020871388112753616 0.010054835595999812 0 0.00022965408497624293 0.010013900856387674 0 0.00020871388112753616 0.010054835595999812 0 0.00019277512048199697 0.01002032222390067 0 0.00050467068405319769 0.010873445952180873 0 0.0005838131417749096 0.011132910247955183 0 0.001088911057433849 0.012476207334146505 0 0.00091450553927981289 0.012167483396072994 0 0.00056498092975317427 0.012327993319229919 0 0.00091450553927981289 0.012167483396072994 0 0.00056498092975317427 0.012327993319229919 0 0.0007392583231686428 0.011850508679644177 0 0.00056498092975317427 0.012327993319229919 0 0.00016053051919759199 0.012141460731963925 0 0.0007392583231686428 0.011850508679644177 0 0.00056498092975317427 0.012327993319229919 0 1.2720718933160549e-05 0.012592038192107439 0 0.00016053051919759199 0.012141460731963925 0 0.00056498092975317427 0.012327993319229919 0 0.00045251702629354296 0.012741422228661963 0 1.2720718933160549e-05 0.012592038192107439 0 -0.00021046953982760755 0.013022761928816915 0 0.00045251702629354296 0.012741422228661963 0 1.2720718933160549e-05 0.012592038192107439 0 -0.00021190229957093658 0.012190083925570918 0 -0.0002440398849700004 0.012296292867250645 0 -0.00011422915888561596 0.012237562036684173 0 -0.00030443343154910001 0.01228646597144129 0 -5.7185095132711052e-06 0.012295495247145157 0 -0.00042622597466961305 0.012445705974813353 0 1.2720718933160549e-05 0.012592038192107439 0 0.00016053051919759199 0.012141460731963925 0 -0.00021190229957093658 0.012190083925570918 0 -0.00011422915888561596 0.012237562036684173 0 -0.00014592572580056083 0.012144675737447441 0 -0.00011422915888561596 0.012237562036684173 0 -0.00014592572580056083 0.012144675737447441 0 -7.3182507069264634e-05 0.012125018616263722 0 -0.00019957848664912652 0.012119839443760124 0 -0.00021190229957093658 0.012190083925570918 0 -0.00014592572580056083 0.012144675737447441 0 -5.7185095132711052e-06 0.012295495247145157 0 0.000375125527752056 0.01131517497580265 0 -0.00011422915888561596 0.012237562036684173 0 -7.3182507069264634e-05 0.012125018616263722 0 4.9834378971198577e-05 0.012150209481081845 0 -7.3182507069264634e-05 0.012125018616263722 0 -6.4312842931087415e-06 0.012088824650643808 0 4.9834378971198577e-05 0.012150209481081845 0 -4.2416040361510129e-05 0.012068828421517009 0 -5.4780386477025393e-06 0.012020369818642984 0 -6.4312842931087415e-06 0.012088824650643808 0 -7.3182507069264634e-05 0.012125018616263722 0 -4.2416040361510129e-05 0.012068828421517009 0 -6.4312842931087415e-06 0.012088824650643808 0 -7.3182507069264634e-05 0.012125018616263722 0 -8.2583554662071635e-05 0.012041834078755059 0 -0.00014236255708831007 0.012078631077456039 0 -7.3182507069264634e-05 0.012125018616263722 0 -4.2416040361510129e-05 0.012068828421517009 0 -8.2583554662071635e-05 0.012041834078755059 0 -4.2416040361510129e-05 0.012068828421517009 0 -8.2583554662071635e-05 0.012041834078755059 0 -5.4780386477025393e-06 0.012020369818642984 0 -0.00019957848664912652 0.012119839443760124 0 -0.00014592572580056083 0.012144675737447441 0 -0.00014236255708831007 0.012078631077456039 0 -0.00014592572580056083 0.012144675737447441 0 -7.3182507069264634e-05 0.012125018616263722 0 -0.00014236255708831007 0.012078631077456039 0 -8.2583554662071635e-05 0.012041834078755059 0 -0.00012427859559787616 0.012040350274406057 0 -0.00014236255708831007 0.012078631077456039 0 -0.00012427859559787616 0.012040350274406057 0 -0.00014236255708831007 0.012078631077456039 0 -0.00015099389939280473 0.012040816560960805 0 -0.00018971501027336625 0.012067368097383327 0 -0.00019957848664912652 0.012119839443760124 0 -0.00014236255708831007 0.012078631077456039 0 -0.00018971501027336625 0.012067368097383327 0 -0.00014236255708831007 0.012078631077456039 0 -0.00015099389939280473 0.012040816560960805 0 -0.00015099389939280473 0.012040816560960805 0 -0.00018182122048745144 0.012028970597833148 0 -0.00012224387836253414 0.012004638507361491 0 -0.00037337558516477916 0.011622545769612256 0 -0.00022967457040561331 0.011839829359030062 0 -0.00056027856893144036 0.011520327015116322 0 -0.00034749368252370524 0.011650767064476611 0 -0.00029237113608517555 0.011618972384631936 0 -0.00021866792951546305 0.011956741891199897 0 -0.00020307503656540954 0.012004340048516304 0 -0.00012224387836253414 0.012004638507361491 0 -0.00037337558516477916 0.011622545769612256 0 -0.00036497653388697378 0.011399777437692724 0 -0.00020307503656540954 0.012004340048516304 0 -0.00018182122048745144 0.012028970597833148 0 -0.00012224387836253414 0.012004638507361491 0 -0.00018971501027336625 0.012067368097383327 0 -0.00015099389939280473 0.012040816560960805 0 -0.00018182122048745144 0.012028970597833148 0 -0.00012427859559787616 0.012040350274406057 0 -0.00015099389939280473 0.012040816560960805 0 -0.00012224387836253414 0.012004638507361491 0 -8.2583554662071635e-05 0.012041834078755059 0 -0.00012427859559787616 0.012040350274406057 0 -0.00012224387836253414 0.012004638507361491 0 -0.0003825828926681921 0.011255170279161713 0 -0.00020727313420876374 0.011238979864682681 0 -9.6478643166647917e-05 0.011519398863775695 0 -0.00029237113608517555 0.011618972384631936 0 3.2180646036502655e-05 0.011733832946935481 0 -0.00010271474131933589 0.011812053841985897 0 -8.2583554662071635e-05 0.012041834078755059 0 -0.00012224387836253414 0.012004638507361491 0 -5.4780386477025393e-06 0.012020369818642984 0 -0.00036497653388697378 0.011399777437692724 0 -4.5177989063051311e-06 0.011635606664088041 0 -0.00022967457040561331 0.011839829359030062 0 -4.3254704339483191e-05 0.011916814970675278 0 -0.00034749368252370524 0.011650767064476611 0 -0.00029237113608517555 0.011618972384631936 0 -0.00010271474131933589 0.011812053841985897 0 -0.0003825828926681921 0.011255170279161713 0 -0.00032373027599092168 0.011135235414194903 0 -0.00020727313420876374 0.011238979864682681 0 -0.00027371122312438219 0.011026799484141304 0 -0.00032373027599092168 0.011135235414194903 0 -0.00016100947951977612 0.011030019766425942 0 -0.0003825828926681921 0.011255170279161713 0 -0.00032373027599092168 0.011135235414194903 0 -0.00039942024732093353 0.011147428176379688 0 -0.00042813556513325427 0.011125341770942297 0 -0.0003825828926681921 0.011255170279161713 0 -0.00039942024732093353 0.011147428176379688 0 -0.00038925115044606491 0.011073508500356355 0 -0.00032373027599092168 0.011135235414194903 0 -0.00039942024732093353 0.011147428176379688 0 -0.00038925115044606491 0.011073508500356355 0 -0.00041692688970670222 0.01112617081208131 0 -0.00039942024732093353 0.011147428176379688 0 -0.00042813556513325427 0.011125341770942297 0 -0.00041692688970670222 0.01112617081208131 0 -0.00039942024732093353 0.011147428176379688 0 0.00027011072483090054 0.010699662822115961 0 0.00013285544292420168 0.011037283336114421 0 0.00037747619627178226 0.011147006511639837 0 0.00013285544292420168 0.011037283336114421 0 2.7774465673157904e-05 0.011257888066219465 0 0.00037747619627178226 0.011147006511639837 0 0.00013285544292420168 0.011037283336114421 0 -0.00016100947951977612 0.011030019766425942 0 2.7774465673157904e-05 0.011257888066219465 0 -0.00032373027599092168 0.011135235414194903 0 -0.00016100947951977612 0.011030019766425942 0 -0.00020727313420876374 0.011238979864682681 0 -0.00016100947951977612 0.011030019766425942 0 -0.00020727313420876374 0.011238979864682681 0 2.7774465673157904e-05 0.011257888066219465 0 -0.00020727313420876374 0.011238979864682681 0 -9.6478643166647917e-05 0.011519398863775695 0 2.7774465673157904e-05 0.011257888066219465 0 -9.6478643166647917e-05 0.011519398863775695 0 2.7774465673157904e-05 0.011257888066219465 0 0.00024541755933590295 0.01145215173164041 0 2.7774465673157904e-05 0.011257888066219465 0 0.00024541755933590295 0.01145215173164041 0 0.00037747619627178226 0.011147006511639837 0 -4.5177989063051311e-06 0.011635606664088041 0 0.00041150914795418266 0.011813132467558675 0 -9.6478643166647917e-05 0.011519398863775695 0 0.00024541755933590295 0.01145215173164041 0 0.00043768212878807835 0.011825597170136521 0 3.2180646036502655e-05 0.011733832946935481 0 0.00030351438005266025 0.011965493401181526 0 0.00043768212878807835 0.011825597170136521 0 3.2180646036502655e-05 0.011733832946935481 0 0.00030351438005266025 0.011965493401181526 0 0.00020119635593772393 0.012013663624798769 0 3.2180646036502655e-05 0.011733832946935481 0 -0.00010271474131933589 0.011812053841985897 0 0.00020119635593772393 0.012013663624798769 0 -4.3254704339483191e-05 0.011916814970675278 0 0.00018400640656393477 0.01201794086650673 0 -5.4780386477025393e-06 0.012020369818642984 0 -6.4312842931087415e-06 0.012088824650643808 0 0.00020119635593772393 0.012013663624798769 0 -6.4312842931087415e-06 0.012088824650643808 0 4.9834378971198577e-05 0.012150209481081845 0 0.00020119635593772393 0.012013663624798769 0 0.0005838131417749096 0.011132910247955183 0 0.000375125527752056 0.01131517497580265 0 0.00030351438005266025 0.011965493401181526 0 4.9834378971198577e-05 0.012150209481081845 0 0.00020119635593772393 0.012013663624798769 0 0.00024915429008978148 0.010047398312949455 0 0.00026972695835901728 0.010087168592796184 0 0.00020871388112753616 0.010054835595999812 0 0.00022746983712084609 0.011022547922987515 0 0.000375125527752056 0.01131517497580265 0 0.00021325091743425832 0.010102295783751079 0 0.00026972695835901728 0.010087168592796184 0 0.00020871388112753616 0.010054835595999812 0 0.00021325091743425832 0.010102295783751079 0 0.00016611446258044232 0.01006024396800915 0 0.0001342861412739334 0.01007598100865441 0 0.00021325091743425832 0.010102295783751079 0 0.00020871388112753616 0.010054835595999812 0 0.00016611446258044232 0.01006024396800915 0 0.00020871388112753616 0.010054835595999812 0 0.00016611446258044232 0.01006024396800915 0 0.00015765047248975436 0.010030251076253266 0 0.00016611446258044232 0.01006024396800915 0 0.00011486648509550666 0.010044349126217971 0 0.00015765047248975436 0.010030251076253266 0 0.00016611446258044232 0.01006024396800915 0 0.00011486648509550666 0.010044349126217971 0 0.0001342861412739334 0.01007598100865441 0 0.00011486648509550666 0.010044349126217971 0 0.0001342861412739334 0.01007598100865441 0 8.8011102244024562e-05 0.010071029657647857 0 0.000152114988295106 0.010121686385269054 0 6.2218582908066521e-05 0.010126429234704698 0 8.8011102244024562e-05 0.010071029657647857 0 0.0001342861412739334 0.01007598100865441 0 0.000152114988295106 0.010121686385269054 0 8.8011102244024562e-05 0.010071029657647857 0 0.000152114988295106 0.010121686385269054 0 6.9494322822239259e-05 0.010160011940587932 0 6.2218582908066521e-05 0.010126429234704698 0 0.00021325091743425832 0.010102295783751079 0 0.0001342861412739334 0.01007598100865441 0 0.000152114988295106 0.010121686385269054 0 0.00030351438005266025 0.011965493401181526 0 0.00074753385985431209 0.011714518621439282 0 0.00043768212878807835 0.011825597170136521 0 0.00022746983712084609 0.011022547922987515 0 0.00047760082410353716 0.010953290103208996 0 0.00074753385985431209 0.011714518621439282 0 0.00043768212878807835 0.011825597170136521 0 0.00057728036753017448 0.011451039558163918 0 0.00024541755933590295 0.01145215173164041 0 0.00043768212878807835 0.011825597170136521 0 0.00057728036753017448 0.011451039558163918 0 0.00024541755933590295 0.01145215173164041 0 0.00057728036753017448 0.011451039558163918 0 0.00037747619627178226 0.011147006511639837 0 0.00089979492665546253 0.011403721501410443 0 0.0011338734353099386 0.010990422788172274 0 0.0012226369046218844 0.011473981249112484 0 0.00047760082410353716 0.010953290103208996 0 0.00039773014678077959 0.010377588779818953 0 0.00074753385985431209 0.011714518621439282 0 0.00089979492665546253 0.011403721501410443 0 0.0012226369046218844 0.011473981249112484 0 0.00074753385985431209 0.011714518621439282 0 0.00057728036753017448 0.011451039558163918 0 0.00089979492665546253 0.011403721501410443 0 0.00057728036753017448 0.011451039558163918 0 0.00089979492665546253 0.011403721501410443 0 0.00074323019916161168 0.011156031586472872 0 0.00089979492665546253 0.011403721501410443 0 0.00074323019916161168 0.011156031586472872 0 0.0011338734353099386 0.010990422788172274 0 0.00068883082658629993 0.010777611364863084 0 0.00074323019916161168 0.011156031586472872 0 0.0011338734353099386 0.010990422788172274 0 0.00057728036753017448 0.011451039558163918 0 0.00074323019916161168 0.011156031586472872 0 0.00037747619627178226 0.011147006511639837 0 0.00068883082658629993 0.010777611364863084 0 0.00074323019916161168 0.011156031586472872 0 0.00037747619627178226 0.011147006511639837 0 0.00055016659471177369 0.0077517372366189344 0 -4.5201223447557979e-05 0.0089023270536694281 0 0.0012934078415704753 0.0082447927351898213 0 0.0014057161418755556 0.008678700050958818 0 0.00086929469523559051 0.0088632986894550472 0 0.00090271442631819862 0.0096533637958139875 0 0.0010514356674674757 0.0071718767314166596 0 0.00015955188362392912 0.0098573876292565952 0 0.0010514356674674757 0.0071718767314166596 0 0.00068729896785267998 0.0076711554905414198 0 0.00080756390313649774 0.010272031096611392 0 0.00039773014678077959 0.010377588779818953 0 0.00086929469523559051 0.0088632986894550472 0 0.00037297564244868073 0.0088459880886842153 0 0.00090271442631819862 0.0096533637958139875 0 0.00079635074393853765 0.0082785520637612617 0 0.00086929469523559051 0.0088632986894550472 0 0.00037297564244868073 0.0088459880886842153 0 0.00037297564244868073 0.0088459880886842153 0 0.00090271442631819862 0.0096533637958139875 0 0.00055565959678664117 0.0098238531330190199 0 0.00039773014678077959 0.010377588779818953 0 0.00013730030322503666 0.010122798710292456 0 4.9165551453901756e-05 0.010102754033549774 0 6.0640019670169955e-05 0.010068857781836495 0 3.9349381073713592e-05 0.010069696003809588 0 0.0002226979486364823 0.010028038198407231 0 0.00013040882669829716 0.010073181543088125 0 0.00014888027143222801 0.01016944143631112 0 0.00015955188362392912 0.0098573876292565952 0 0.00013730030322503666 0.010122798710292456 0 0.00015955188362392912 0.0098573876292565952 0 0.00039773014678077959 0.010377588779818953 0 4.9165551453901756e-05 0.010102754033549774 0 -1.5365350513806884e-06 0.010082355249124325 0 3.9349381073713592e-05 0.010069696003809588 0 0.00015955188362392912 0.0098573876292565952 0 0.00068729896785267998 0.0076711554905414198 0 4.9165551453901756e-05 0.010102754033549774 0 -1.5365350513806884e-06 0.010082355249124325 0 -7.3934370638690299e-05 0.010160282926083918 0 -1.5365350513806884e-06 0.010082355249124325 0 -1.3433865118677186e-05 0.010054740688283732 0 -5.271215299621864e-05 0.0100773068336383 0 -1.5365350513806884e-06 0.010082355249124325 0 -1.3433865118677186e-05 0.010054740688283732 0 1.3958746691041804e-05 0.010056762043835328 0 6.8102055168856414e-05 0.010067234643298815 0 -2.5018334331486846e-05 0.010045948569886502 0 -1.3433865118677186e-05 0.010054740688283732 0 -5.271215299621864e-05 0.0100773068336383 0 -3.7650095181417178e-05 0.01004228677833636 0 -2.5939411961526917e-05 0.010021559240907255 0 2.3528060525720746e-05 0.010019074054089213 0 -7.4144067075488732e-05 0.010010432277737966 0 -1.9010191851352922e-05 0.010036154771509874 0 -3.7650095181417178e-05 0.01004228677833636 0 -3.9239617097737379e-05 0.010027679549918577 0 -1.9010191851352922e-05 0.010036154771509874 0 -1.3433865118677186e-05 0.010054740688283732 0 -3.7650095181417178e-05 0.01004228677833636 0 -1.9010191851352922e-05 0.010036154771509874 0 -6.6615989979530115e-06 0.010046108250211917 0 -1.3433865118677186e-05 0.010054740688283732 0 -6.6615989979530115e-06 0.010046108250211917 0 -1.3433865118677186e-05 0.010054740688283732 0 1.3958746691041804e-05 0.010056762043835328 0 -6.6615989979530115e-06 0.010046108250211917 0 5.3621586335457953e-06 0.010046507852471078 0 -3.4340074629865205e-06 0.010040242104646463 0 -1.9010191851352922e-05 0.010036154771509874 0 -6.6615989979530115e-06 0.010046108250211917 0 -3.4340074629865205e-06 0.010040242104646463 0 -1.5365350513806884e-06 0.010082355249124325 0 1.3958746691041804e-05 0.010056762043835328 0 3.9349381073713592e-05 0.010069696003809588 0 3.6415489951510484e-05 0.010060351459663722 0 1.3958746691041804e-05 0.010056762043835328 0 3.9349381073713592e-05 0.010069696003809588 0 3.6415489951510484e-05 0.010060351459663722 0 2.8077109042489257e-05 0.010053345648800815 0 1.3958746691041804e-05 0.010056762043835328 0 3.6415489951510484e-05 0.010060351459663722 0 2.8077109042489257e-05 0.010053345648800815 0 3.9611440468311948e-05 0.010055118800063786 0 2.8077109042489257e-05 0.010053345648800815 0 1.3958746691041804e-05 0.010056762043835328 0 1.674402108303165e-05 0.010047529718646465 0 -6.6615989979530115e-06 0.010046108250211917 0 1.3958746691041804e-05 0.010056762043835328 0 5.3621586335457953e-06 0.010046507852471078 0 1.3958746691041804e-05 0.010056762043835328 0 5.3621586335457953e-06 0.010046507852471078 0 1.674402108303165e-05 0.010047529718646465 0 5.3621586335457953e-06 0.010046507852471078 0 6.1985939996581998e-06 0.010041569042099597 0 1.674402108303165e-05 0.010047529718646465 0 6.1985939996581998e-06 0.010041569042099597 0 1.674402108303165e-05 0.010047529718646465 0 1.4131815263308942e-05 0.010040331267565383 0 1.674402108303165e-05 0.010047529718646465 0 1.4131815263308942e-05 0.010040331267565383 0 2.9031452764557624e-05 0.010045299313461062 0 6.1985939996581998e-06 0.010041569042099597 0 1.4131815263308942e-05 0.010040331267565383 0 -2.3096137270748322e-06 0.010033201553842495 0 2.8077109042489257e-05 0.010053345648800815 0 2.9031452764557624e-05 0.010045299313461062 0 3.9611440468311948e-05 0.010055118800063786 0 2.8077109042489257e-05 0.010053345648800815 0 1.674402108303165e-05 0.010047529718646465 0 2.9031452764557624e-05 0.010045299313461062 0 2.9031452764557624e-05 0.010045299313461062 0 1.7327858538423492e-05 0.010032554656478232 0 4.0832175451220607e-05 0.010038824759955265 0 2.9031452764557624e-05 0.010045299313461062 0 4.4604058531678611e-05 0.010050095811776256 0 4.0832175451220607e-05 0.010038824759955265 0 1.4131815263308942e-05 0.010040331267565383 0 2.9031452764557624e-05 0.010045299313461062 0 1.7327858538423492e-05 0.010032554656478232 0 1.4131815263308942e-05 0.010040331267565383 0 1.7327858538423492e-05 0.010032554656478232 0 -2.3096137270748322e-06 0.010033201553842495 0 1.7327858538423492e-05 0.010032554656478232 0 -2.5939411961526917e-05 0.010021559240907255 0 -2.3096137270748322e-06 0.010033201553842495 0 -1.9010191851352922e-05 0.010036154771509874 0 -2.5939411961526917e-05 0.010021559240907255 0 -2.3096137270748322e-06 0.010033201553842495 0 -1.9010191851352922e-05 0.010036154771509874 0 -2.5939411961526917e-05 0.010021559240907255 0 -3.9239617097737379e-05 0.010027679549918577 0 -1.9010191851352922e-05 0.010036154771509874 0 -3.4340074629865205e-06 0.010040242104646463 0 -2.3096137270748322e-06 0.010033201553842495 0 6.1985939996581998e-06 0.010041569042099597 0 -3.4340074629865205e-06 0.010040242104646463 0 -2.3096137270748322e-06 0.010033201553842495 0 5.3621586335457953e-06 0.010046507852471078 0 6.1985939996581998e-06 0.010041569042099597 0 -3.4340074629865205e-06 0.010040242104646463 0 6.0640019670169955e-05 0.010068857781836495 0 5.5388854169558854e-05 0.010063942592058398 0 6.3265824355224502e-05 0.010063056144738283 0 5.5388854169558854e-05 0.010063942592058398 0 4.6605389164011778e-05 0.010062253218345852 0 5.1418318902846189e-05 0.01005818516622437 0 5.5388854169558854e-05 0.010063942592058398 0 5.3022565407260455e-05 0.010066556268676044 0 4.6605389164011778e-05 0.010062253218345852 0 6.0640019670169955e-05 0.010068857781836495 0 5.5388854169558854e-05 0.010063942592058398 0 5.3022565407260455e-05 0.010066556268676044 0 6.0640019670169955e-05 0.010068857781836495 0 5.3022565407260455e-05 0.010066556268676044 0 3.9349381073713592e-05 0.010069696003809588 0 3.6415489951510484e-05 0.010060351459663722 0 3.9349381073713592e-05 0.010069696003809588 0 4.6605389164011778e-05 0.010062253218345852 0 5.3022565407260455e-05 0.010066556268676044 0 3.9349381073713592e-05 0.010069696003809588 0 4.6605389164011778e-05 0.010062253218345852 0 4.6605389164011778e-05 0.010062253218345852 0 3.9611440468311948e-05 0.010055118800063786 0 5.1418318902846189e-05 0.01005818516622437 0 3.6415489951510484e-05 0.010060351459663722 0 4.6605389164011778e-05 0.010062253218345852 0 3.9611440468311948e-05 0.010055118800063786 0 2.9031452764557624e-05 0.010045299313461062 0 3.9611440468311948e-05 0.010055118800063786 0 4.4604058531678611e-05 0.010050095811776256 0 3.9611440468311948e-05 0.010055118800063786 0 4.4604058531678611e-05 0.010050095811776256 0 5.1418318902846189e-05 0.01005818516622437 0 4.4604058531678611e-05 0.010050095811776256 0 5.8704753875834187e-05 0.010051753060987005 0 5.1418318902846189e-05 0.01005818516622437 0 4.4604058531678611e-05 0.010050095811776256 0 5.8704753875834187e-05 0.010051753060987005 0 4.0832175451220607e-05 0.010038824759955265 0 5.8704753875834187e-05 0.010051753060987005 0 5.1418318902846189e-05 0.01005818516622437 0 6.3265824355224502e-05 0.010063056144738283 0 5.5388854169558854e-05 0.010063942592058398 0 5.1418318902846189e-05 0.01005818516622437 0 6.3265824355224502e-05 0.010063056144738283 0 6.0640019670169955e-05 0.010068857781836495 0 6.3265824355224502e-05 0.010063056144738283 0 8.8011102244024562e-05 0.010071029657647857 0 5.8704753875834187e-05 0.010051753060987005 0 6.3265824355224502e-05 0.010063056144738283 0 8.8011102244024562e-05 0.010071029657647857 0 0.00013730030322503666 0.010122798710292456 0 9.4320836733792881e-05 0.010081198819076107 0 6.8766743174873107e-05 0.010038532433256114 0 2.3528060525720746e-05 0.010019074054089213 0 9.2582810048259578e-05 0.0100138385250511 0 6.8102055168856414e-05 0.010067234643298815 0 0.00012032685150172519 0.010050392282065411 0 5.8704753875834187e-05 0.010051753060987005 0 8.8011102244024562e-05 0.010071029657647857 0 6.8766743174873107e-05 0.010038532433256114 0 0.00011486648509550666 0.010044349126217971 0 8.8011102244024562e-05 0.010071029657647857 0 6.8766743174873107e-05 0.010038532433256114 0 6.8766743174873107e-05 0.010038532433256114 0 4.0832175451220607e-05 0.010038824759955265 0 2.3528060525720746e-05 0.010019074054089213 0 5.8704753875834187e-05 0.010051753060987005 0 6.8766743174873107e-05 0.010038532433256114 0 4.0832175451220607e-05 0.010038824759955265 0 0.00011486648509550666 0.010044349126217971 0 6.8766743174873107e-05 0.010038532433256114 0 9.2582810048259578e-05 0.0100138385250511 0 0.00011503693894905478 0.010109614152618636 0 0.00010268304063908114 0.010093896402155144 0 0.00015037602752044594 0.010085841988626585 0 0.00011503693894905478 0.010109614152618636 0 0.00010268304063908114 0.010093896402155144 0 8.1163631266021195e-05 0.010133556296057437 0 1.7327858538423492e-05 0.010032554656478232 0 -2.5939411961526917e-05 0.010021559240907255 0 2.3528060525720746e-05 0.010019074054089213 0 1.7327858538423492e-05 0.010032554656478232 0 4.0832175451220607e-05 0.010038824759955265 0 2.3528060525720746e-05 0.010019074054089213 0 7.8011189211525532e-06 0.0099378252690892708 0 1.8426288212015962e-05 0.0098785173090281484 0 -8.7827338756568015e-05 0.0097758833596162838 0 -8.7673837211000585e-05 0.0096974430642345656 0 -0.00011798905463084068 0.0097164844197507889 0 0.00010268304063908114 0.010093896402155144 0 0.00012377097455848788 0.010052121534361583 0 0.00015037602752044594 0.010085841988626585 0 -8.7673837211000585e-05 0.0096974430642345656 0 -0.00014946115340760269 0.0096635616479405929 0 -0.00011798905463084068 0.0097164844197507889 0 -8.7673837211000585e-05 0.0096974430642345656 0 -0.00010781184599828639 0.0096899657338614057 0 -0.00014946115340760269 0.0096635616479405929 0 0.00012377097455848788 0.010052121534361583 0 0.00015037602752044594 0.010085841988626585 0 0.00016281369105005351 0.010040635581330174 0 9.2582810048259578e-05 0.0100138385250511 0 0.00015765047248975436 0.010030251076253266 0 0.00016118103892493827 0.010001866948315168 0 0.00012032685150172519 0.010050392282065411 0 0.00017528645444601985 0.010030632505555668 0 0.00011486648509550666 0.010044349126217971 0 9.2582810048259578e-05 0.0100138385250511 0 0.00015765047248975436 0.010030251076253266 0 0.00020871388112753616 0.010054835595999812 0 0.00015765047248975436 0.010030251076253266 0 0.00019277512048199697 0.01002032222390067 0 0.00015765047248975436 0.010030251076253266 0 0.00019277512048199697 0.01002032222390067 0 0.00016118103892493827 0.010001866948315168 0 0.00019968649033433067 0.010014043621422122 0 0.00016118103892493827 0.010001866948315168 0 0.0002189134109167249 0.010011574441955357 0 0.0001938603037386767 0.010057366879869901 0 0.0002189134109167249 0.010011574441955357 0 0.00020454254868058891 0.010025215850257832 0 0.00017528645444601985 0.010030632505555668 0 0.00021184984183308665 0.01001390359725475 0 0.00019277512048199697 0.01002032222390067 0 0.00019968649033433067 0.010014043621422122 0 0.00016118103892493827 0.010001866948315168 0 0.00015037602752044594 0.010085841988626585 0 0.00016281369105005351 0.010040635581330174 0 0.0001938603037386767 0.010057366879869901 0 0.00016281369105005351 0.010040635581330174 0 0.0001938603037386767 0.010057366879869901 0 0.00020454254868058891 0.010025215850257832 0 0.00018752537854341029 0.010017087084342024 0 0.00021314879364887717 0.0099858001951209224 0 0.00013033573014422636 0.010013873804512819 0 0.00016281369105005351 0.010040635581330174 0 0.00018752537854341029 0.010017087084342024 0 0.00013033573014422636 0.010013873804512819 0 0.00016281369105005351 0.010040635581330174 0 0.00018752537854341029 0.010017087084342024 0 0.00020454254868058891 0.010025215850257832 0 0.00018752537854341029 0.010017087084342024 0 0.00020454254868058891 0.010025215850257832 0 0.00021175151008727072 0.010009000061641437 0 0.00018752537854341029 0.010017087084342024 0 0.00021175151008727072 0.010009000061641437 0 0.00021314879364887717 0.0099858001951209224 0 0.0002189134109167249 0.010011574441955357 0 0.00021616888490307883 0.010012166789245994 0 0.00022328179159594356 0.010007386613715953 0 0.0002189134109167249 0.010011574441955357 0 0.00021616888490307883 0.010012166789245994 0 0.00020454254868058891 0.010025215850257832 0 0.00021616888490307883 0.010012166789245994 0 0.00020454254868058891 0.010025215850257832 0 0.00021175151008727072 0.010009000061641437 0 0.00021175151008727072 0.010009000061641437 0 0.00022328179159594356 0.010007386613715953 0 0.00021314879364887717 0.0099858001951209224 0 0.00021616888490307883 0.010012166789245994 0 0.00021175151008727072 0.010009000061641437 0 0.00022328179159594356 0.010007386613715953 0 0.00056765002830569909 0.010547261929131271 0 0.00051649264549853756 0.010221190867236466 0 0.00027287942077224936 0.0099428124004611266 0 0.00022328179159594356 0.010007386613715953 0 0.00021314879364887717 0.0099858001951209224 0 0.00027287942077224936 0.0099428124004611266 0 0.00037218993040977248 0.010160027907142011 0 0.00028767375099618663 0.01000727406028957 0 0.00065260418188930623 0.010396239421915735 0 0.00056765002830569909 0.010547261929131271 0 0.00051649264549853756 0.010221190867236466 0 0.00051649264549853756 0.010221190867236466 0 0.00027287942077224936 0.0099428124004611266 0 0.00046881435361130253 0.010048005736007691 0 0.00068993849633628736 0.010278536976195787 0 0.00051649264549853756 0.010221190867236466 0 0.00058426666166205908 0.010107539715644952 0 0.00051649264549853756 0.010221190867236466 0 0.00058426666166205908 0.010107539715644952 0 0.00046881435361130253 0.010048005736007691 0 0.00021314879364887717 0.0099858001951209224 0 0.00018470768240056058 0.0099420698715550326 0 0.00027287942077224936 0.0099428124004611266 0 0.00018470768240056058 0.0099420698715550326 0 0.00013033573014422636 0.010013873804512819 0 0.00012670980330948273 0.0098163697444369619 0 0.00021314879364887717 0.0099858001951209224 0 0.00018470768240056058 0.0099420698715550326 0 0.00013033573014422636 0.010013873804512819 0 4.3120131781317257e-05 0.0098644558541494815 0 0.00011960527542912058 0.0098015393816556738 0 -6.5557851255668503e-05 0.0097334309205888148 0 -6.1494319639473761e-05 0.009733921818428741 0 0.00012670980330948273 0.0098163697444369619 0 -0.00010781184599828639 0.0096899657338614057 0 -6.5557851255668503e-05 0.0097334309205888148 0 -6.1494319639473761e-05 0.009733921818428741 0 -0.00010781184599828639 0.0096899657338614057 0 -6.1494319639473761e-05 0.009733921818428741 0 -0.00012329780936366858 0.0096937946672047571 0 -8.7673837211000585e-05 0.0096974430642345656 0 -0.00010781184599828639 0.0096899657338614057 0 -6.5557851255668503e-05 0.0097334309205888148 0 0.00012377097455848788 0.010052121534361583 0 0.00016281369105005351 0.010040635581330174 0 0.00013033573014422636 0.010013873804512819 0 1.8426288212015962e-05 0.0098785173090281484 0 4.3120131781317257e-05 0.0098644558541494815 0 -2.1334576980005616e-05 0.0093226638340838421 0 0.00017354978969563896 0.0091060165813522768 0 -0.00012479325939228651 0.0096077604919663981 0 1.8151989842401278e-05 0.0096827901662409864 0 0.00018324074387058678 0.0095329455524153627 0 -0.00012479325939228651 0.0096077604919663981 0 0.00018324074387058678 0.0095329455524153627 0 0.0001809606417631084 0.0090990710616201589 0 5.2194304741286102e-05 0.0090634318456835321 0 5.9969410027709825e-05 0.0089200337325222399 0 -0.00012471061988541783 0.008901855692867968 0 -0.00012479325939228651 0.0096077604919663981 0 -6.1494319639473761e-05 0.009733921818428741 0 -0.00012329780936366858 0.0096937946672047571 0 -2.1334576980005616e-05 0.0093226638340838421 0 -0.00011111600655703836 0.0094362446434194339 0 5.2194304741286102e-05 0.0090634318456835321 0 -0.00019175051286151129 0.0090528392754896016 0 -9.1449013411250109e-05 0.0091836065069085971 0 -0.00012479325939228651 0.0096077604919663981 0 1.8151989842401278e-05 0.0096827901662409864 0 -6.1494319639473761e-05 0.009733921818428741 0 1.8151989842401278e-05 0.0096827901662409864 0 -6.1494319639473761e-05 0.009733921818428741 0 0.00012670980330948273 0.0098163697444369619 0 0.00012670980330948273 0.0098163697444369619 0 0.00036623912858674133 0.0096911886969753419 0 0.00018324074387058678 0.0095329455524153627 0 1.8151989842401278e-05 0.0096827901662409864 0 0.00012670980330948273 0.0098163697444369619 0 0.00018324074387058678 0.0095329455524153627 0 0.00018470768240056058 0.0099420698715550326 0 0.00012670980330948273 0.0098163697444369619 0 0.00027287942077224936 0.0099428124004611266 0 0.00012670980330948273 0.0098163697444369619 0 0.00027287942077224936 0.0099428124004611266 0 0.00036623912858674133 0.0096911886969753419 0 0.00058426666166205908 0.010107539715644952 0 0.00049190839406989162 0.0099201630880524569 0 0.00066657751960896427 0.010000220297494389 0 0.00058426666166205908 0.010107539715644952 0 0.00046881435361130253 0.010048005736007691 0 0.00049190839406989162 0.0099201630880524569 0 0.00027287942077224936 0.0099428124004611266 0 0.00046881435361130253 0.010048005736007691 0 0.00049190839406989162 0.0099201630880524569 0 0.00027287942077224936 0.0099428124004611266 0 0.00049190839406989162 0.0099201630880524569 0 0.00036623912858674133 0.0096911886969753419 0 0.00049190839406989162 0.0099201630880524569 0 0.00061347249721583025 0.0097699312271309815 0 0.00066657751960896427 0.010000220297494389 0 0.00049190839406989162 0.0099201630880524569 0 0.00036623912858674133 0.0096911886969753419 0 0.00061347249721583025 0.0097699312271309815 0 0.00036623912858674133 0.0096911886969753419 0 0.00052570455354596145 0.00954965619381201 0 0.00061347249721583025 0.0097699312271309815 0 0.00036623912858674133 0.0096911886969753419 0 0.0004300748679750528 0.0094100859085985266 0 0.00052570455354596145 0.00954965619381201 0 0.00052570455354596145 0.00954965619381201 0 0.00063614312141456095 0.0095558526771176277 0 0.00061347249721583025 0.0097699312271309815 0 0.0004300748679750528 0.0094100859085985266 0 0.00052570455354596145 0.00954965619381201 0 0.0005612478759647536 0.0094192231088475048 0 0.00052570455354596145 0.00954965619381201 0 0.0005612478759647536 0.0094192231088475048 0 0.00063614312141456095 0.0095558526771176277 0 0.0004300748679750528 0.0094100859085985266 0 0.00018324074387058678 0.0095329455524153627 0 0.0001809606417631084 0.0090990710616201589 0 0.00036623912858674133 0.0096911886969753419 0 0.0004300748679750528 0.0094100859085985266 0 0.00018324074387058678 0.0095329455524153627 0 0.0004300748679750528 0.0094100859085985266 0 0.0001809606417631084 0.0090990710616201589 0 0.0003710485129955316 0.0087876025241026921 0 0.00043266192490879716 0.0093634782401289529 0 0.00033168926715745748 0.0089790814862338742 0 0.0001809606417631084 0.0090990710616201589 0 0.0003710485129955316 0.0087876025241026921 0 0.00017318902192233957 0.0088805766933629429 0 0.00051256636396281041 0.0092861273597708051 0 0.00051927336138723112 0.0090945717726280198 0 0.00072093789113179764 0.0093473323130551043 0 0.0004300748679750528 0.0094100859085985266 0 0.00051256636396281041 0.0092861273597708051 0 0.0003089940318997928 0.0091763242282709555 0 0.0005612478759647536 0.0094192231088475048 0 0.00051256636396281041 0.0092861273597708051 0 0.00072093789113179764 0.0093473323130551043 0 0.0004300748679750528 0.0094100859085985266 0 0.0005612478759647536 0.0094192231088475048 0 0.00051256636396281041 0.0092861273597708051 0 0.00051256636396281041 0.0092861273597708051 0 0.00051927336138723112 0.0090945717726280198 0 0.0003089940318997928 0.0091763242282709555 0 0.00057921977996375912 0.0092989020548718063 0 0.00076153658292371672 0.009532512474912375 0 0.00065389907740143573 0.0095360348391920254 0 0.00066218629141675167 0.0094133327331805839 0 0.0007497088949417356 0.0095388054505323502 0 0.0003089940318997928 0.0091763242282709555 0 0.00017864257604251972 0.0088983316825180184 0 0.00034135353342552291 0.0090052844628353869 0 0.00051927336138723112 0.0090945717726280198 0 0.0003089940318997928 0.0091763242282709555 0 0.00034135353342552291 0.0090052844628353869 0 0.00033168926715745748 0.0089790814862338742 0 0.0002570075230704747 0.008674173966934413 0 0.0003710485129955316 0.0087876025241026921 0 0.00013928985208230016 0.0086930849953278481 0 0.00031714725589619095 0.0084053338171424328 0 0.0003710485129955316 0.0087876025241026921 0 0.00013928985208230016 0.0086930849953278481 0 0.00017318902192233957 0.0088805766933629429 0 0.00013928985208230016 0.0086930849953278481 0 0.00017318902192233957 0.0088805766933629429 0 5.9969410027709825e-05 0.0089200337325222399 0 5.2194304741286102e-05 0.0090634318456835321 0 0.0001809606417631084 0.0090990710616201589 0 5.9969410027709825e-05 0.0089200337325222399 0 0.0001809606417631084 0.0090990710616201589 0 0.00017318902192233957 0.0088805766933629429 0 5.9969410027709825e-05 0.0089200337325222399 0 5.9969410027709825e-05 0.0089200337325222399 0 -4.8015721433589836e-05 0.0087370045762638557 0 -0.00012471061988541783 0.008901855692867968 0 0.00013928985208230016 0.0086930849953278481 0 -4.8015721433589836e-05 0.0087370045762638557 0 3.7658738893504485e-05 0.008568652521613521 0 0.00013928985208230016 0.0086930849953278481 0 5.9969410027709825e-05 0.0089200337325222399 0 -4.8015721433589836e-05 0.0087370045762638557 0 0.00013928985208230016 0.0086930849953278481 0 3.7658738893504485e-05 0.008568652521613521 0 0.00013668923034067845 0.008464524320528086 0 -4.8015721433589836e-05 0.0087370045762638557 0 3.7658738893504485e-05 0.008568652521613521 0 -7.667489172187324e-05 0.0085197121242798594 0 3.2308263735095567e-05 0.0080349456155340004 0 -2.0031162661879332e-07 0.0090043290757167212 0 -3.2425912727342634e-07 0.0070443095908097478 0 3.7658738893504485e-05 0.008568652521613521 0 3.3938377704258114e-05 0.0083566261856063764 0 -7.667489172187324e-05 0.0085197121242798594 0 3.7658738893504485e-05 0.008568652521613521 0 3.3938377704258114e-05 0.0083566261856063764 0 0.00013668923034067845 0.008464524320528086 0 3.3938377704258114e-05 0.0083566261856063764 0 0.00013668923034067845 0.008464524320528086 0 0.00016263629269533362 0.0082679198228883619 0 0.00013928985208230016 0.0086930849953278481 0 0.00013668923034067845 0.008464524320528086 0 0.00031714725589619095 0.0084053338171424328 0 0.00013668923034067845 0.008464524320528086 0 0.00031714725589619095 0.0084053338171424328 0 0.00016263629269533362 0.0082679198228883619 0 0.00031714725589619095 0.0084053338171424328 0 0.00016263629269533362 0.0082679198228883619 0 0.00021798637834696501 0.0080534854698914617 0 0.00017864257604251972 0.0088983316825180184 0 4.7014790837996463e-05 0.0086069442513734933 0 0.00016731361299151775 0.0085874888448054364 0 0.0002570075230704747 0.008674173966934413 0 6.0526546791973369e-05 0.0082037297082741562 0 3.3938377704258114e-05 0.0083566261856063764 0 2.051987184702834e-05 0.0080438285002601799 0 -0.0001477449960800624 0.0082436939928162249 0 6.0526546791973369e-05 0.0082037297082741562 0 7.4357684793378476e-05 0.0080433671241814091 0 0.00016263629269533362 0.0082679198228883619 0 0.00021798637834696501 0.0080534854698914617 0 2.051987184702834e-05 0.0080438285002601799 0 3.3938377704258114e-05 0.0083566261856063764 0 0.00016263629269533362 0.0082679198228883619 0 2.051987184702834e-05 0.0080438285002601799 0 2.051987184702834e-05 0.0080438285002601799 0 5.8481905822415805e-05 0.007908944765728643 0 3.0015949513129421e-05 0.0077418472408135475 0 5.8481905822415805e-05 0.007908944765728643 0 3.2308263735095567e-05 0.0080349456155340004 0 3.0015949513129421e-05 0.0077418472408135475 0 0.0001113196763580082 0.0080060230163733013 0 2.051987184702834e-05 0.0080438285002601799 0 5.8481905822415805e-05 0.007908944765728643 0 0.00018762161590559119 0.0084819092322055995 0 -6.4979347665660992e-05 0.0079492616599578739 0 6.0526546791973369e-05 0.0082037297082741562 0 7.938527606793696e-06 0.0078498669873092973 0 5.8481905822415805e-05 0.007908944765728643 0 -0.00011914856747813635 0.0077711925396777353 0 3.2308263735095567e-05 0.0080349456155340004 0 4.5509167584991465e-05 0.0085713550879244049 0 4.2802800206659989e-05 0.0084688310749367873 0 3.2308263735095567e-05 0.0080349456155340004 0 -8.3595047713022025e-06 0.0077545494041738423 0 5.8481905822415805e-05 0.007908944765728643 0 -0.00011914856747813635 0.0077711925396777353 0 6.0526546791973369e-05 0.0082037297082741562 0 0.00018762161590559119 0.0084819092322055995 0 4.2802800206659989e-05 0.0084688310749367873 0 3.2308263735095567e-05 0.0080349456155340004 0 2.0446327486336267e-05 0.0085549388099140835 0 3.2308263735095567e-05 0.0080349456155340004 0 -2.0031162661879332e-07 0.0090043290757167212 0 2.0446327486336267e-05 0.0085549388099140835 0 -2.0031162661879332e-07 0.0090043290757167212 0 -4.3451880919999376e-05 0.0089019179236813819 0 -2.9863224493526791e-05 0.0096354113050819805 0 -2.0031162661879332e-07 0.0090043290757167212 0 2.0446327486336267e-05 0.0085549388099140835 0 -4.3451880919999376e-05 0.0089019179236813819 0 2.0446327486336267e-05 0.0085549388099140835 0 -4.3451880919999376e-05 0.0089019179236813819 0 3.9462525350448844e-06 0.0085715335610266324 0 -4.3451880919999376e-05 0.0089019179236813819 0 3.9462525350448844e-06 0.0085715335610266324 0 -0.00013658723684002415 0.0085150105953444993 0 0.00018762161590559119 0.0084819092322055995 0 -5.2978408676440711e-05 0.009521917348341194 0 4.5509167584991465e-05 0.0085713550879244049 0 3.9462525350448844e-06 0.0085715335610266324 0 -0.00013658723684002415 0.0085150105953444993 0 0.00032384905193879671 0.0091200393620291947 0 0.00059322434903135541 0.0090804115956875809 0 0.00048002762017591941 0.0091858858076839973 0 4.2802800206659989e-05 0.0084688310749367873 0 2.0446327486336267e-05 0.0085549388099140835 0 3.9462525350448844e-06 0.0085715335610266324 0 4.5509167584991465e-05 0.0085713550879244049 0 4.2802800206659989e-05 0.0084688310749367873 0 3.9462525350448844e-06 0.0085715335610266324 0 -4.3451880919999376e-05 0.0089019179236813819 0 -8.5438453167480176e-05 0.0094970473413434862 0 -2.9863224493526791e-05 0.0096354113050819805 0 -0.00012739066513509372 0.0088102188108485635 0 -5.2978408676440711e-05 0.009521917348341194 0 0.00059322434903135541 0.0090804115956875809 0 0.00057713981966794111 0.0092573055278321222 0 0.00069553312050684552 0.0092928033444598865 0 -5.2978408676440711e-05 0.009521917348341194 0 3.2672019081431363e-05 0.010130659113700013 0 0.00059322434903135541 0.0090804115956875809 0 0.00057713981966794111 0.0092573055278321222 0 0.00048002762017591941 0.0091858858076839973 0 0.00032384905193879671 0.0091200393620291947 0 0.00048002762017591941 0.0091858858076839973 0 0.00048736453946638796 0.0093398323369868752 0 0.00018762161590559119 0.0084819092322055995 0 0.00044804194626039793 0.0091597033355438687 0 0.00017864257604251972 0.0088983316825180184 0 0.00016731361299151775 0.0085874888448054364 0 0.00035149125466169603 0.0088499507858523004 0 0.00057713981966794111 0.0092573055278321222 0 0.00048002762017591941 0.0091858858076839973 0 0.00048736453946638796 0.0093398323369868752 0 0.00051927336138723112 0.0090945717726280198 0 0.00035149125466169603 0.0088499507858523004 0 0.00034135353342552291 0.0090052844628353869 0 0.00017864257604251972 0.0088983316825180184 0 0.00035149125466169603 0.0088499507858523004 0 0.00034135353342552291 0.0090052844628353869 0 0.00057921977996375912 0.0092989020548718063 0 0.00044804194626039793 0.0091597033355438687 0 0.00065389907740143573 0.0095360348391920254 0 0.00048736453946638796 0.0093398323369868752 0 0.00066218629141675167 0.0094133327331805839 0 0.00069553312050684552 0.0092928033444598865 0 0.00066218629141675167 0.0094133327331805839 0 0.00077570042861990892 0.0094761758276007083 0 0.00057713981966794111 0.0092573055278321222 0 0.00069553312050684552 0.0092928033444598865 0 0.00066218629141675167 0.0094133327331805839 0 0.00057713981966794111 0.0092573055278321222 0 0.00048736453946638796 0.0093398323369868752 0 0.00066218629141675167 0.0094133327331805839 0 3.2672019081431363e-05 0.010130659113700013 0 0.00059993509665543226 0.01056265189826394 0 -0.00058107609294296184 0.010993153705771939 0 -0.0002288445166421483 0.011228545380677033 0 -0.0002833148696806843 0.011408119895083921 0 -0.00058107609294296184 0.010993153705771939 0 -0.0002288445166421483 0.011228545380677033 0 -7.2225457172995065e-05 0.011076609337449913 0 0.00069553312050684552 0.0092928033444598865 0 0.00077570042861990892 0.0094761758276007083 0 0.00079134447764659082 0.0094912746637409815 0 0.00066218629141675167 0.0094133327331805839 0 0.00077570042861990892 0.0094761758276007083 0 0.0007497088949417356 0.0095388054505323502 0 0.00055960359019307777 0.010475355174756326 0 0.00059993509665543226 0.01056265189826394 0 -0.00015676046864313847 0.011355319472981485 0 -0.0002288445166421483 0.011228545380677033 0 -5.3832276554284412e-05 0.011317592154108413 0 -0.00015676046864313847 0.011355319472981485 0 -0.0002288445166421483 0.011228545380677033 0 -0.0002833148696806843 0.011408119895083921 0 -0.0002288445166421483 0.011228545380677033 0 -5.3832276554284412e-05 0.011317592154108413 0 -7.2225457172995065e-05 0.011076609337449913 0 0.00014049701045051161 0.011321196324210208 0 -7.2225457172995065e-05 0.011076609337449913 0 0.00015857917770955841 0.011077602053195293 0 0.00014049701045051161 0.011321196324210208 0 -5.3832276554284412e-05 0.011317592154108413 0 0.00010742691712764535 0.011442498956837738 0 -0.00015676046864313847 0.011355319472981485 0 -5.3832276554284412e-05 0.011317592154108413 0 -3.9480914659414514e-05 0.011428919403491283 0 0.00014049701045051161 0.011321196324210208 0 -5.3832276554284412e-05 0.011317592154108413 0 -7.2225457172995065e-05 0.011076609337449913 0 -7.2225457172995065e-05 0.011076609337449913 0 -3.3476001672591789e-05 0.010267366453354647 0 0.00015857917770955841 0.011077602053195293 0 -0.00058107609294296184 0.010993153705771939 0 -7.2225457172995065e-05 0.011076609337449913 0 -3.3476001672591789e-05 0.010267366453354647 0 -2.0031162661879332e-07 0.0090043290757167212 0 -2.9863224493526791e-05 0.0096354113050819805 0 4.3504879620200322e-07 0.01047950132787911 0 -3.3476001672591789e-05 0.010267366453354647 0 -2.9863224493526791e-05 0.0096354113050819805 0 4.3504879620200322e-07 0.01047950132787911 0 -0.00085196841268984067 0.010415209926528517 0 -0.00058107609294296184 0.010993153705771939 0 -3.3476001672591789e-05 0.010267366453354647 0 -8.5438453167480176e-05 0.0094970473413434862 0 -3.3476001672591789e-05 0.010267366453354647 0 -2.9863224493526791e-05 0.0096354113050819805 0 -5.2978408676440711e-05 0.009521917348341194 0 -0.00020159527286041452 0.010325444271930596 0 -3.3476001672591789e-05 0.010267366453354647 0 0.00013029642472247766 0.010908959965753116 0 0.00015857917770955841 0.011077602053195293 0 4.3504879620200322e-07 0.01047950132787911 0 0.00013029642472247766 0.010908959965753116 0 0.00014487716850596717 0.011472078682724148 0 -3.3476001672591789e-05 0.010267366453354647 0 4.3504879620200322e-07 0.01047950132787911 0 0.00013029642472247766 0.010908959965753116 0 0.00013029642472247766 0.010908959965753116 0 0.00024542295141391968 0.01125582249430372 0 0.00014487716850596717 0.011472078682724148 0 0.00013029642472247766 0.010908959965753116 0 0.00024542295141391968 0.01125582249430372 0 0.00015857917770955841 0.011077602053195293 0 0.00014049701045051161 0.011321196324210208 0 0.00015857917770955841 0.011077602053195293 0 0.00029656104054350153 0.011386253981354582 0 0.00024542295141391968 0.01125582249430372 0 0.00015857917770955841 0.011077602053195293 0 0.00029656104054350153 0.011386253981354582 0 0.00024542295141391968 0.01125582249430372 0 0.00029656104054350153 0.011386253981354582 0 0.00037147867686786651 0.011460395459343239 0 0.00024542295141391968 0.01125582249430372 0 0.00037147867686786651 0.011460395459343239 0 0.00041947977115311418 0.011462094363497502 0 0.00040688374275142669 0.011522623031994653 0 0.0004029981494455414 0.011541021363884667 0 0.00028037783360945111 0.011478415463514803 0 0.00029656104054350153 0.011386253981354582 0 0.00040688374275142669 0.011522623031994653 0 0.00028037783360945111 0.011478415463514803 0 0.00029656104054350153 0.011386253981354582 0 0.00037147867686786651 0.011460395459343239 0 0.00040688374275142669 0.011522623031994653 0 0.0004029981494455414 0.011541021363884667 0 0.00053517374411235399 0.011501597202425037 0 0.00050193500911729786 0.01154698307199566 0 0.00040688374275142669 0.011522623031994653 0 0.0004029981494455414 0.011541021363884667 0 0.00050193500911729786 0.01154698307199566 0 0.0004029981494455414 0.011541021363884667 0 0.00028037783360945111 0.011478415463514803 0 0.00018643145200806759 0.011597648491293563 0 0.0004029981494455414 0.011541021363884667 0 0.00018643145200806759 0.011597648491293563 0 0.00053517374411235399 0.011501597202425037 0 0.00064524381126228065 0.011466001114719957 0 0.00070488572734995624 0.011215068519618869 0 0.00028037783360945111 0.011478415463514803 0 0.00010742691712764535 0.011442498956837738 0 0.00018643145200806759 0.011597648491293563 0 0.00014049701045051161 0.011321196324210208 0 0.00029656104054350153 0.011386253981354582 0 0.00028037783360945111 0.011478415463514803 0 0.00014049701045051161 0.011321196324210208 0 0.00028037783360945111 0.011478415463514803 0 0.00010742691712764535 0.011442498956837738 0 0.0011584397978378288 0.011129834593391641 0 0.0011179845373125569 0.01112363075655769 0 0.0011504412467715187 0.011108991588684806 0 0.00059993509665543226 0.01056265189826394 0 0.00064524381126228065 0.011466001114719957 0 -3.9480914659414514e-05 0.011428919403491283 0 -0.0002833148696806843 0.011408119895083921 0 0.00018643145200806759 0.011597648491293563 0 0.00010742691712764535 0.011442498956837738 0 -3.9480914659414514e-05 0.011428919403491283 0 0.00018643145200806759 0.011597648491293563 0 -5.3832276554284412e-05 0.011317592154108413 0 0.00010742691712764535 0.011442498956837738 0 -3.9480914659414514e-05 0.011428919403491283 0 0.00065389907740143573 0.0095360348391920254 0 0.0007497088949417356 0.0095388054505323502 0 0.00080339577724932332 0.009694139104429152 0 0.00059993509665543226 0.01056265189826394 0 0.0010625859305247311 0.010357031724188262 0 0.00078974737117548709 0.0094905498927266123 0 0.00080649921710024383 0.0095975917033102459 0 0.00089876153328378983 0.0096710099432866219 0 0.0007497088949417356 0.0095388054505323502 0 0.00080649921710024383 0.0095975917033102459 0 0.00080339577724932332 0.009694139104429152 0 0.0007497088949417356 0.0095388054505323502 0 0.00078974737117548709 0.0094905498927266123 0 0.00080649921710024383 0.0095975917033102459 0 0.00077570042861990892 0.0094761758276007083 0 0.0007497088949417356 0.0095388054505323502 0 0.00078974737117548709 0.0094905498927266123 0 -0.00015676046864313847 0.011355319472981485 0 -3.9480914659414514e-05 0.011428919403491283 0 -0.0002833148696806843 0.011408119895083921 0 0.00080339577724932332 0.009694139104429152 0 0.00089876153328378983 0.0096710099432866219 0 0.00095488377081889863 0.0098494628470008963 0 0.00080649921710024383 0.0095975917033102459 0 0.00080339577724932332 0.009694139104429152 0 0.00089876153328378983 0.0096710099432866219 0 0.0005612478759647536 0.0094192231088475048 0 0.00072093789113179764 0.0093473323130551043 0 0.00063614312141456095 0.0095558526771176277 0 0.0011179845373125569 0.01112363075655769 0 0.0011504412467715187 0.011108991588684806 0 0.0011382473020817515 0.010977691452345598 0 0.00089876153328378983 0.0096710099432866219 0 0.00095488377081889863 0.0098494628470008963 0 0.0010530563035615213 0.0098622385449235392 0 0.0010625859305247311 0.010357031724188262 0 0.0010743320363008587 0.010429073048818802 0 0.00095488377081889863 0.0098494628470008963 0 0.0010530563035615213 0.0098622385449235392 0 0.00089660416138853964 0.0099991634603140821 0 0.00095488377081889863 0.0098494628470008963 0 0.0008414877138910367 0.009874522586212851 0 0.00089660416138853964 0.0099991634603140821 0 0.00072093789113179764 0.0093473323130551043 0 0.00095488377081889863 0.0098494628470008963 0 0.00075902890020143772 0.009723210308074633 0 0.00072093789113179764 0.0093473323130551043 0 0.00063614312141456095 0.0095558526771176277 0 0.00075902890020143772 0.009723210308074633 0 0.00076153658292371672 0.009532512474912375 0 0.00093994812551483715 0.0098131248476195296 0 0.00095488377081889863 0.0098494628470008963 0 0.00075902890020143772 0.009723210308074633 0 0.0008414877138910367 0.009874522586212851 0 0.00075902890020143772 0.009723210308074633 0 0.0008414877138910367 0.009874522586212851 0 0.00077474546166648572 0.0099426229752282314 0 0.00075902890020143772 0.009723210308074633 0 0.00061347249721583025 0.0097699312271309815 0 0.00077474546166648572 0.0099426229752282314 0 0.00063614312141456095 0.0095558526771176277 0 0.00075902890020143772 0.009723210308074633 0 0.00061347249721583025 0.0097699312271309815 0 0.00061347249721583025 0.0097699312271309815 0 0.00077474546166648572 0.0099426229752282314 0 0.00066657751960896427 0.010000220297494389 0 0.00077474546166648572 0.0099426229752282314 0 0.00082340561878410418 0.010152915278612127 0 0.00066657751960896427 0.010000220297494389 0 0.0008414877138910367 0.009874522586212851 0 0.00077474546166648572 0.0099426229752282314 0 0.00089660416138853964 0.0099991634603140821 0 0.00077474546166648572 0.0099426229752282314 0 0.00082340561878410418 0.010152915278612127 0 0.00089660416138853964 0.0099991634603140821 0 0.00085483587415615 0.010343605992632871 0 0.00082340561878410418 0.010152915278612127 0 0.00072441571799202625 0.010183136444342079 0 0.00082340561878410418 0.010152915278612127 0 0.00066657751960896427 0.010000220297494389 0 0.00072441571799202625 0.010183136444342079 0 0.00058426666166205908 0.010107539715644952 0 0.00066657751960896427 0.010000220297494389 0 0.00072441571799202625 0.010183136444342079 0 0.0010666304256886894 0.010601223288222338 0 0.0010530563035615213 0.0098622385449235392 0 0.00093409535869589007 0.010228400500781993 0 0.0010530563035615213 0.0098622385449235392 0 0.00089660416138853964 0.0099991634603140821 0 0.00093409535869589007 0.010228400500781993 0 0.00085483587415615 0.010343605992632871 0 0.00082340561878410418 0.010152915278612127 0 0.00093409535869589007 0.010228400500781993 0 0.00082340561878410418 0.010152915278612127 0 0.00089660416138853964 0.0099991634603140821 0 0.00093409535869589007 0.010228400500781993 0 0.0010734789450490315 0.010555205592027052 0 0.0010743320363008587 0.010429073048818802 0 0.0010666304256886894 0.010601223288222338 0 0.0011382473020817515 0.010977691452345598 0 0.00097817025951860582 0.010884261068401072 0 0.0010666304256886894 0.010601223288222338 0 0.00097817025951860582 0.010884261068401072 0 0.00064934967402203905 0.011051591268754301 0 0.00097817025951860582 0.010884261068401072 0 0.00092947118437961148 0.011007743948645624 0 0.00064934967402203905 0.011051591268754301 0 0.00070488572734995624 0.011215068519618869 0 0.00063045554715232728 0.011056824288796251 0 0.00053517374411235399 0.011501597202425037 0 0.00064934967402203905 0.011051591268754301 0 0.00050193500911729786 0.01154698307199566 0 0.0011179845373125569 0.01112363075655769 0 0.0011382473020817515 0.010977691452345598 0 0.00092947118437961148 0.011007743948645624 0 0.0011382473020817515 0.010977691452345598 0 0.00097817025951860582 0.010884261068401072 0 0.00092947118437961148 0.011007743948645624 0 0.00046838921755246307 0.011545882731137882 0 0.00064934967402203905 0.011051591268754301 0 0.00032904146676274187 0.011388810919345439 0 0.00046838921755246307 0.011545882731137882 0 0.00032904146676274187 0.011388810919345439 0 0.00040293984297010117 0.011728192706727236 0 0.00046838921755246307 0.011545882731137882 0 0.00064934967402203905 0.011051591268754301 0 0.00050193500911729786 0.01154698307199566 0 0.00038926282641083373 0.010824124740877442 0 0.00064934967402203905 0.011051591268754301 0 0.00032904146676274187 0.011388810919345439 0 -8.858000783363944e-05 0.010960101490666993 0 -0.0002436099492574525 0.011471620480061232 0 0.00032904146676274187 0.011388810919345439 0 -0.0002436099492574525 0.011471620480061232 0 -0.00023821414160462903 0.012020516736511784 0 0.00036938124876295626 0.011973582230342878 0 -0.0002436099492574525 0.011471620480061232 0 0.00032904146676274187 0.011388810919345439 0 0.00036938124876295626 0.011973582230342878 0 0.00032904146676274187 0.011388810919345439 0 0.00040293984297010117 0.011728192706727236 0 0.00036938124876295626 0.011973582230342878 0 0.00040293984297010117 0.011728192706727236 0 0.00036938124876295626 0.011973582230342878 0 0.00040833588155244981 0.011658176204439976 0 0.00036938124876295626 0.011973582230342878 0 0.00018804335396861295 0.013781906357772872 0 -0.00023668147403273893 0.012735695115667831 0 -0.00023821414160462903 0.012020516736511784 0 0.00036938124876295626 0.011973582230342878 0 -0.00023668147403273893 0.012735695115667831 0 0.00039742031844044155 0.012122694835500951 0 0.0003371543663117652 0.012678121224336572 0 0.00036938124876295626 0.011973582230342878 0 0.00052890551610399177 0.011710647604060246 0 0.00040833588155244981 0.011658176204439976 0 0.00040293984297010117 0.011728192706727236 0 0.00040833588155244981 0.011658176204439976 0 0.00042608363224616049 0.01159670494492432 0 0.00046838921755246307 0.011545882731137882 0 0.00040293984297010117 0.011728192706727236 0 0.00042608363224616049 0.01159670494492432 0 0.00046838921755246307 0.011545882731137882 0 0.00050193500911729786 0.01154698307199566 0 0.00042608363224616049 0.01159670494492432 0 0.00040688374275142669 0.011522623031994653 0 0.00050193500911729786 0.01154698307199566 0 0.00042608363224616049 0.01159670494492432 0 0.00037147867686786651 0.011460395459343239 0 0.00040688374275142669 0.011522623031994653 0 0.00042608363224616049 0.01159670494492432 0 0.00037147867686786651 0.011460395459343239 0 0.00042608363224616049 0.01159670494492432 0 0.00041947977115311418 0.011462094363497502 0 4.3504879620200322e-07 0.01047950132787911 0 0.00014487716850596717 0.011472078682724148 0 1.012346644771314e-07 0.01242707926378136 0 0.00040833588155244981 0.011658176204439976 0 0.00042608363224616049 0.01159670494492432 0 0.00041947977115311418 0.011462094363497502 0 0.00040833588155244981 0.011658176204439976 0 0.00041947977115311418 0.011462094363497502 0 0.0004421085875337901 0.011563448327639428 0 0.00016232932453629816 0.011725252933507489 0 0.00011602488937373713 0.012059240205265723 0 0.00013687297663741313 0.01214835686638524 0 0.00029179239948123463 0.011599425851652294 0 0.00036672213611934208 0.011700460224884081 0 0.00024542295141391968 0.01125582249430372 0 0.00016232932453629816 0.011725252933507489 0 0.00014487716850596717 0.011472078682724148 0 0.00016232932453629816 0.011725252933507489 0 0.00014487716850596717 0.011472078682724148 0 0.00011602488937373713 0.012059240205265723 0 0.00026261007013860346 0.011315994772207775 0 0.00029179239948123463 0.011599425851652294 0 0.00014487716850596717 0.011472078682724148 0 0.00011602488937373713 0.012059240205265723 0 1.012346644771314e-07 0.01242707926378136 0 1.012346644771314e-07 0.01242707926378136 0 4.5793260708451348e-05 0.012582907912017601 0 -0.0001334543457134561 0.013643814831635388 0 0.00011602488937373713 0.012059240205265723 0 1.012346644771314e-07 0.01242707926378136 0 4.5793260708451348e-05 0.012582907912017601 0 4.5793260708451348e-05 0.012582907912017601 0 0.00013687297663741313 0.01214835686638524 0 -0.00012484826188731256 0.012322483498447593 0 0.00011602488937373713 0.012059240205265723 0 4.5793260708451348e-05 0.012582907912017601 0 0.00013687297663741313 0.01214835686638524 0 0.00052890551610399177 0.011710647604060246 0 0.00040833588155244981 0.011658176204439976 0 0.0004421085875337901 0.011563448327639428 0 0.0003371543663117652 0.012678121224336572 0 -0.00012465222495181775 0.013224914885727078 0 0.00036672213611934208 0.011700460224884081 0 -0.00012465222495181775 0.013224914885727078 0 0.00052890551610399177 0.011710647604060246 0 0.0004421085875337901 0.011563448327639428 0 0.00057190771847476706 0.011610266948456655 0 0.00018804335396861295 0.013781906357772872 0 -0.00035903936026600969 0.014632980176729938 0 -0.00053155118823346832 0.014252854723309153 0 -0.00035903936026600969 0.014632980176729938 0 -0.00042339197295134402 0.014460474488817442 0 -0.00053155118823346832 0.014252854723309153 0 1.012346644771314e-07 0.01242707926378136 0 -0.0001334543457134561 0.013643814831635388 0 -2.1599889789446134e-07 0.014999364757406247 0 -0.00012465222495181775 0.013224914885727078 0 -0.00038086554503371698 0.014566148892973536 0 -0.00029190613553329605 0.014698294065547688 0 -0.00016235141767506316 0.014461510431570158 0 -0.00011026622945333742 0.014690665177931141 0 -0.00038086554503371698 0.014566148892973536 0 -0.00015539103276978266 0.014653238143173809 0 -0.00042339197295134402 0.014460474488817442 0 -0.00011026622945333742 0.014690665177931141 0 -0.00028455091410123736 0.014602492412337704 0 -0.00042339197295134402 0.014460474488817442 0 -0.00028455091410123736 0.014602492412337704 0 -0.00053155118823346832 0.014252854723309153 0 -0.00029190613553329605 0.014698294065547688 0 -0.00016235141767506316 0.014461510431570158 0 -0.00050746949077435657 0.014316088997957711 0 -0.00012465222495181775 0.013224914885727078 0 -0.00034783083445027107 0.013568555158910686 0 4.5793260708451348e-05 0.012582907912017601 0 -0.00012484826188731256 0.012322483498447593 0 -0.00021752580257415599 0.012703063619765561 0 -0.00064476415435205971 0.014658820700399195 0 -0.00029190613553329605 0.014698294065547688 0 -0.00050746949077435657 0.014316088997957711 0 -0.00034783083445027107 0.013568555158910686 0 -0.00018850258407694212 0.013557672972307165 0 4.5793260708451348e-05 0.012582907912017601 0 -0.00021752580257415599 0.012703063619765561 0 -0.0001334543457134561 0.013643814831635388 0 -0.00016235141767506316 0.014461510431570158 0 -0.00050746949077435657 0.014316088997957711 0 -0.0001334543457134561 0.013643814831635388 0 -0.00016235141767506316 0.014461510431570158 0 -0.0001334543457134561 0.013643814831635388 0 -6.1429749908366835e-06 0.01455284329090397 0 -2.1599889789446134e-07 0.014999364757406247 0 -6.1429749908366835e-06 0.01455284329090397 0 1.24494428147145e-07 0.014999010796069552 0 -0.0001334543457134561 0.013643814831635388 0 -2.1599889789446134e-07 0.014999364757406247 0 -6.1429749908366835e-06 0.01455284329090397 0 -0.00016235141767506316 0.014461510431570158 0 -6.1429749908366835e-06 0.01455284329090397 0 -0.00011026622945333742 0.014690665177931141 0 -6.1429749908366835e-06 0.01455284329090397 0 1.24494428147145e-07 0.014999010796069552 0 -0.00011026622945333742 0.014690665177931141 0 1.24494428147145e-07 0.014999010796069552 0 -0.00011026622945333742 0.014690665177931141 0 -4.1302032354177936e-05 0.014895377661403317 0 1.24494428147145e-07 0.014999010796069552 0 -4.1302032354177936e-05 0.014895377661403317 0 -1.1729993558503668e-07 0.015000200439437306 0 -4.1302032354177936e-05 0.014895377661403317 0 -8.3713480504546298e-05 0.014943627987217392 0 -1.1729993558503668e-07 0.015000200439437306 0 -8.3713480504546298e-05 0.014943627987217392 0 -0.00023777752343695076 0.014876822254180114 0 -0.00012872639226750316 0.014999000706516325 0 -4.1302032354177936e-05 0.014895377661403317 0 -8.3713480504546298e-05 0.014943627987217392 0 -0.0001383786738310507 0.014789161779139118 0 -8.3713480504546298e-05 0.014943627987217392 0 -0.0001383786738310507 0.014789161779139118 0 -0.00023777752343695076 0.014876822254180114 0 -0.00011026622945333742 0.014690665177931141 0 -4.1302032354177936e-05 0.014895377661403317 0 -0.0001383786738310507 0.014789161779139118 0 -0.0001383786738310507 0.014789161779139118 0 -0.00028455091410123736 0.014602492412337704 0 -0.00023777752343695076 0.014876822254180114 0 -0.00011026622945333742 0.014690665177931141 0 -0.0001383786738310507 0.014789161779139118 0 -0.00028455091410123736 0.014602492412337704 0 -0.00051553118290222967 0.014220777896601781 0 -0.00073765861999308051 0.013518236966193241 0 0.00018804335396861295 0.013781906357772872 0 -0.00053155118823346832 0.014252854723309153 0 -0.00023668147403273893 0.012735695115667831 0 -0.00028455091410123736 0.014602492412337704 0 -0.00053155118823346832 0.014252854723309153 0 -0.00041416234117916975 0.014952005116010339 0 -0.00053155118823346832 0.014252854723309153 0 -0.00023668147403273893 0.012735695115667831 0 -0.00093211097353032373 0.012042712657313756 0 -0.00023821414160462903 0.012020516736511784 0 -0.00023668147403273893 0.012735695115667831 0 -0.00093211097353032373 0.012042712657313756 0 -0.00028455091410123736 0.014602492412337704 0 -0.00041416234117916975 0.014952005116010339 0 -0.00023777752343695076 0.014876822254180114 0 -0.00023777752343695076 0.014876822254180114 0 -0.00018982774890123947 0.015110384722357722 0 -0.00012872639226750316 0.014999000706516325 0 -0.00041416234117916975 0.014952005116010339 0 -0.00023777752343695076 0.014876822254180114 0 -0.00023888931930406184 0.015188313523003701 0 -0.00041416234117916975 0.014952005116010339 0 -0.00023888931930406184 0.015188313523003701 0 -0.00032847168480990918 0.01521360389518862 0 -0.00073765861999308051 0.013518236966193241 0 -5.8033088924881474e-05 0.013145223890910988 0 -0.000232390681636996 0.01505276180759953 0 -0.0002128847201002068 0.014765755541144477 0 -0.0002436099492574525 0.011471620480061232 0 -0.00023821414160462903 0.012020516736511784 0 -0.00093211097353032373 0.012042712657313756 0 -0.0002436099492574525 0.011471620480061232 0 -0.00093211097353032373 0.012042712657313756 0 -0.00091597143758756527 0.011128767966984596 0 -8.858000783363944e-05 0.010960101490666993 0 -0.0002436099492574525 0.011471620480061232 0 -0.00091597143758756527 0.011128767966984596 0 -0.00026101598048034212 0.011791024308094821 0 -5.8033088924881474e-05 0.013145223890910988 0 5.6152735324136332e-05 0.014512624304857289 0 -0.0002128847201002068 0.014765755541144477 0 0.00010607977763436058 0.014161204842615946 0 7.806966537983634e-05 0.013887104754242437 0 -5.5539710009380606e-05 0.013933849713564841 0 -0.0002128847201002068 0.014765755541144477 0 -5.8033088924881474e-05 0.013145223890910988 0 7.6539910081387147e-06 0.014990610900694076 0 5.5822372028488064e-06 0.014996569652623902 0 2.6698595341803846e-06 0.014995785093139449 0 -0.0002128847201002068 0.014765755541144477 0 -3.556014329712838e-05 0.015028054086031625 0 5.5822372028488064e-06 0.014996569652623902 0 2.6698595341803846e-06 0.014995785093139449 0 1.3858233321124058e-06 0.014999073848661578 0 -6.3633056418929197e-09 0.014999979596729787 0 4.2878091577381982e-09 0.015000009683264384 0 1.3858233321124058e-06 0.014999073848661578 0 -6.3633056418929197e-09 0.014999979596729787 0 2.6698595341803846e-06 0.014995785093139449 0 1.3858233321124058e-06 0.014999073848661578 0 -8.3713480504546298e-05 0.014943627987217392 0 -1.1729993558503668e-07 0.015000200439437306 0 -7.4954649426975902e-05 0.015047267807277007 0 -1.339799061514065e-08 0.015000010000193265 0 -3.556014329712838e-05 0.015028054086031625 0 -0.00018982774890123947 0.015110384722357722 0 -7.4954649426975902e-05 0.015047267807277007 0 -0.00012872639226750316 0.014999000706516325 0 -8.3713480504546298e-05 0.014943627987217392 0 -7.4954649426975902e-05 0.015047267807277007 0 -0.00012872639226750316 0.014999000706516325 0 0.00081022744834311302 -0.00059991510048061939 0 0.00058007286294672986 -0.00030461111977026856 0 0.00094934170288461415 -0.0001383212686211856 0 0.00081022744834311302 -0.00059991510048061939 0 0.0012368168404935146 -0.00073958759994103976 0 0.00094934170288461415 -0.0001383212686211856 0 0.0012368168404935146 -0.00073958759994103976 0 0.00094934170288461415 -0.0001383212686211856 0 0.0014565829333701757 -0.00032678514578022292 0 0.0012368168404935146 -0.00073958759994103976 0 0.0015311451463200859 -0.0011354352839721134 0 0.00077829078714341106 -0.0010782158870281638 0 0.00081022744834311302 -0.00059991510048061939 0 0.00053380519242175023 -0.00064849386709013742 0 0.00077829078714341106 -0.0010782158870281638 0 0.00081022744834311302 -0.00059991510048061939 0 0.0012368168404935146 -0.00073958759994103976 0 0.00077829078714341106 -0.0010782158870281638 0 0.00019286522920987706 -0.00077713442496725774 0 0.00077829078714341106 -0.0010782158870281638 0 2.3940585545344526e-05 -0.0010369911137727262 0 0.00053380519242175023 -0.00064849386709013742 0 0.00019286522920987706 -0.00077713442496725774 0 0.00077829078714341106 -0.0010782158870281638 0 0.00019286522920987706 -0.00077713442496725774 0 3.385895913211054e-05 -0.00057401778022817592 0 2.3940585545344526e-05 -0.0010369911137727262 0 3.385895913211054e-05 -0.00057401778022817592 0 2.3940585545344526e-05 -0.0010369911137727262 0 -0.00032154758753581681 -0.00045211167748805762 0 0.00019286522920987706 -0.00077713442496725774 0 3.385895913211054e-05 -0.00057401778022817592 0 0.00030397742274204664 -0.00048509172987278769 0 0.00063826334843487104 -0.00051663780815972872 0 0.00016482565238872318 0.0016061551701625407 0 3.385895913211054e-05 -0.00057401778022817592 0 0.00030397742274204664 -0.00048509172987278769 0 5.5538258770675395e-05 -0.00020498664361680118 0 0.00016482565238872318 0.0016061551701625407 0 -5.8699777266023823e-05 0.0017853687639631628 0 3.385895913211054e-05 -0.00057401778022817592 0 5.5538258770675395e-05 -0.00020498664361680118 0 -0.00032154758753581681 -0.00045211167748805762 0 0.00030397742274204664 -0.00048509172987278769 0 0.00058007286294672986 -0.00030461111977026856 0 0.00043738880479812504 6.1785366613040401e-06 0 0.00081022744834311302 -0.00059991510048061939 0 0.00053380519242175023 -0.00064849386709013742 0 0.00058007286294672986 -0.00030461111977026856 0 0.00053380519242175023 -0.00064849386709013742 0 0.00030397742274204664 -0.00048509172987278769 0 0.00058007286294672986 -0.00030461111977026856 0 0.00053380519242175023 -0.00064849386709013742 0 0.00019286522920987706 -0.00077713442496725774 0 0.00030397742274204664 -0.00048509172987278769 0 6.4785654562761615e-05 0.00056527531079090393 0 0.00012367221437983714 0.0006027432458893089 0 0.00086874158840357187 0.00032971649018090739 0 0.00058007286294672986 -0.00030461111977026856 0 0.00043738880479812504 6.1785366613040401e-06 0 0.00094934170288461415 -0.0001383212686211856 0 0.00059397501487822458 0.0024309566121213716 0 0.00036773026457511467 0.0024953372725222676 0 0.00064898938835160054 0.00246638307202931 0 0.00032326626401080557 0.0011705982421012216 0 0.00015996983963209929 0.0011519936708636481 0 0.00032326626401080557 0.0011705982421012216 0 0.00027323834264697159 0.0016082563947852309 0 0.00030397742274204664 -0.00048509172987278769 0 0.00043738880479812504 6.1785366613040401e-06 0 6.7722965337932041e-05 -0.00023120073244085852 0 0.00036773026457511467 0.0024953372725222676 0 0.00064898938835160054 0.00246638307202931 0 -0.00019943863128610284 0.0027673078926142686 0 0.00015996983963209929 0.0011519936708636481 0 1.0909103125439207e-05 0.0030992430335446235 0 0.00016482565238872318 0.0016061551701625407 0 -0.00021216337787707411 0.0036322634331685949 0 0.00032326626401080557 0.0011705982421012216 0 0.00016482565238872318 0.0016061551701625407 0 0.00059360334907621135 0.0024357661848938483 0 0.00036773026457511467 0.0024953372725222676 0 4.4419167459453235e-05 0.0020746145108536014 0 0.00036773026457511467 0.0024953372725222676 0 4.4419167459453235e-05 0.0020746145108536014 0 -5.6728201049955204e-05 0.0026351223535896607 0 4.4419167459453235e-05 0.0020746145108536014 0 -5.6728201049955204e-05 0.0026351223535896607 0 -0.00038353030664667749 0.0025226078871725837 0 0.00036773026457511467 0.0024953372725222676 0 -5.6728201049955204e-05 0.0026351223535896607 0 -0.00019943863128610284 0.0027673078926142686 0 -5.6728201049955204e-05 0.0026351223535896607 0 -0.00020185683273861945 0.0027740972231365367 0 -0.00038353030664667749 0.0025226078871725837 0 -7.7240605111828116e-05 0.0025228491618084505 0 -0.00020456837483650547 0.0025340774443749665 0 -0.00015150592186200442 0.0026213431889334504 0 4.1220358170837839e-05 0.0029527652015419311 0 1.0909103125439207e-05 0.0030992430335446235 0 -7.7240605111828116e-05 0.0025228491618084505 0 -1.3733447941821714e-05 0.0026146830837968588 0 -7.2411839505239083e-05 0.0026429835669670942 0 -7.7240605111828116e-05 0.0025228491618084505 0 -7.2411839505239083e-05 0.0026429835669670942 0 -0.00015150592186200442 0.0026213431889334504 0 0.00015996983963209929 0.0011519936708636481 0 0.00010071197143902299 0.001102375091577608 0 -1.3733447941821714e-05 0.0026146830837968588 0 -2.3910825355917125e-05 0.0026186099041178349 0 -7.2411839505239083e-05 0.0026429835669670942 0 0.00019019934520600912 -0.0004042093348534561 0 0.00031370474928694259 -0.00033427166815881454 0 0.00030369636217101242 -0.00045660302616305727 0 0.00015996983963209929 0.0011519936708636481 0 0.00071176430169240894 -0.00029886641679968624 0 0.00032326626401080557 0.0011705982421012216 0 0.00071176430169240894 -0.00029886641679968624 0 0.00071176430169240894 -0.00029886641679968624 0 0.0011500794130280588 -0.00058360550922024004 0 0.00071176430169240894 -0.00029886641679968624 0 0.00058181758383277096 -0.00066158976119510529 0 0.00030369636217101242 -0.00045660302616305727 0 0.00039394063258887973 -0.0003888566084779671 0 0.00042421912068507948 -0.0005055442952140634 0 0.00063918989481678303 -0.00070327990169440796 0 0.00083359622198983605 -0.0007990701283112384 0 0.00083691810737176369 -0.00081592402198902344 0 0.00031370474928694259 -0.00033427166815881454 0 0.00039394063258887973 -0.0003888566084779671 0 0.00043847442621459525 -0.00025578866705153609 0 0.00031370474928694259 -0.00033427166815881454 0 0.00030369636217101242 -0.00045660302616305727 0 0.00039394063258887973 -0.0003888566084779671 0 -1.3733447941821714e-05 0.0026146830837968588 0 -2.3910825355917125e-05 0.0026186099041178349 0 -8.4789675749468579e-05 0.0026349633978994995 0 0.00039394063258887973 -0.0003888566084779671 0 0.00049337401968170839 -0.00039205994472007918 0 0.00043847442621459525 -0.00025578866705153609 0 0.00049337401968170839 -0.00039205994472007918 0 0.00054166414499840952 -0.00028283042235668974 0 0.00043847442621459525 -0.00025578866705153609 0 0.00049337401968170839 -0.00039205994472007918 0 0.00063436305623273742 -0.00039426142386195164 0 0.00054166414499840952 -0.00028283042235668974 0 0.00049337401968170839 -0.00039205994472007918 0 0.00063436305623273742 -0.00039426142386195164 0 0.00055086838354839187 -0.00055496376148161204 0 0.00063436305623273742 -0.00039426142386195164 0 0.0006847375208392034 -0.00060286102251358442 0 0.00055086838354839187 -0.00055496376148161204 0 0.00039394063258887973 -0.0003888566084779671 0 0.00049337401968170839 -0.00039205994472007918 0 0.00042421912068507948 -0.0005055442952140634 0 0.00049337401968170839 -0.00039205994472007918 0 0.00042421912068507948 -0.0005055442952140634 0 0.00055086838354839187 -0.00055496376148161204 0 -0.00042957454805924339 -0.0028590503721771126 0 -0.00084616982640160602 -0.0028263985024753551 0 -0.00048378102200908669 -0.0031419185215993076 0 -0.00075622391221174591 -0.002829558055264263 0 -0.00044308087485279627 -0.0029989008903719976 0 -0.00074270162727823968 -0.0027732052919399938 0 -0.00060102740176231305 -0.00255677614405049 0 -0.00037499840922732307 -0.0029178774298141818 0 -0.00074270162727823968 -0.0027732052919399938 0 -0.00049978214074784246 -0.0030821856856457757 0 -0.0006032219242535007 -0.00324629648596317 0 -7.888135548594433e-05 -0.0016052440838703892 0 0.00040081086487492881 -0.0018788430486810575 0 -0.00074270162727823968 -0.0027732052919399938 0 -0.00037499840922732307 -0.0029178774298141818 0 -0.00049978214074784246 -0.0030821856856457757 0 -0.00044308087485279627 -0.0029989008903719976 0 -0.00027165433383506004 -0.0032225001404596271 0 -0.00037499840922732307 -0.0029178774298141818 0 -0.00038579596287555839 -0.0031886260591171057 0 -0.00025597090901244594 -0.003237196061236011 0 -0.00037499840922732307 -0.0029178774298141818 0 -0.00049978214074784246 -0.0030821856856457757 0 -0.00038579596287555839 -0.0031886260591171057 0 -0.00038579596287555839 -0.0031886260591171057 0 -0.00034041223829719557 -0.0033462259436309026 0 -0.00025597090901244594 -0.003237196061236011 0 -0.00038579596287555839 -0.0031886260591171057 0 -0.00046858110689495023 -0.0032664052701359774 0 -0.00034041223829719557 -0.0033462259436309026 0 -0.00049978214074784246 -0.0030821856856457757 0 -0.00038579596287555839 -0.0031886260591171057 0 -0.00046858110689495023 -0.0032664052701359774 0 0.0011801923553995774 -0.00099422939288575833 0 0.0011714261221922064 -0.00095217024389323971 0 0.0010165005620964818 -0.00091338452826128177 0 -0.00046858110689495023 -0.0032664052701359774 0 -0.0005426212796129699 -0.0032889528040347697 0 -0.00055204708509459907 -0.0032386345126834888 0 -0.00032973505863537656 -0.002518081727674917 0 0.00040081086487492881 -0.0018788430486810575 0 0.00098105383464339429 -0.0019648625582145136 0 0.00040081086487492881 -0.0018788430486810575 0 -0.00049978214074784246 -0.0030821856856457757 0 -0.00046858110689495023 -0.0032664052701359774 0 -0.0006032219242535007 -0.00324629648596317 0 0.0024385323482820002 -0.00069277838216120352 0 0.0025295355647046306 -0.0010926674099191575 0 0.0020962791315713553 -0.00093047751257969297 0 0.00098105383464339429 -0.0019648625582145136 0 0.001670549674276835 -0.0018247532031170929 0 -0.00046858110689495023 -0.0032664052701359774 0 -0.0005426212796129699 -0.0032889528040347697 0 -0.00034041223829719557 -0.0033462259436309026 0 0.00093517736294737109 -0.002999134302883543 0 0.00085779265522235404 -0.0026601105080956843 0 0.00053594058367177448 -0.0028842990898785598 0 0.00098105383464339429 -0.0019648625582145136 0 -1.0423556621091406e-05 -0.0031050799974525639 0 0.00085779265522235404 -0.0026601105080956843 0 0.00053594058367177448 -0.0028842990898785598 0 0.0004547222084605082 -0.0025369065074569478 0 0.00083691810737176369 -0.00081592402198902344 0 0.0010165005620964818 -0.00091338452826128177 0 0.0010103133261779012 -0.00088340935614863851 0 0.00083359622198983605 -0.0007990701283112384 0 0.00083691810737176369 -0.00081592402198902344 0 0.0010103133261779012 -0.00088340935614863851 0 0.0012368168404935146 -0.00073958759994103976 0 0.0014565829333701757 -0.00032678514578022292 0 0.0019561192402245179 -0.00051356948202973044 0 0.0011500794130280588 -0.00058360550922024004 0 0.0015927565175732341 -0.00065821648430508268 0 0.00058181758383277096 -0.00066158976119510529 0 0.00084749235485174015 -0.00066867052924589755 0 0.00098105383464339429 -0.0019648625582145136 0 0.0015927565175732341 -0.00065821648430508268 0 0.00040081086487492881 -0.0018788430486810575 0 0.00084749235485174015 -0.00066867052924589755 0 0.0011714261221922064 -0.00095217024389323971 0 0.0010165005620964818 -0.00091338452826128177 0 0.0010103133261779012 -0.00088340935614863851 0 0.0019561192402245179 -0.00051356948202973044 0 0.0020962791315713553 -0.00093047751257969297 0 0.0015311451463200859 -0.0011354352839721134 0 0.0024385323482820002 -0.00069277838216120352 0 0.0019561192402245179 -0.00051356948202973044 0 0.0020962791315713553 -0.00093047751257969297 0 0.0012368168404935146 -0.00073958759994103976 0 0.0019561192402245179 -0.00051356948202973044 0 0.0015311451463200859 -0.0011354352839721134 0 0.0015311451463200859 -0.0011354352839721134 0 0.0019440453420931729 -0.0012319390309057966 0 0.0019285897015171329 -0.0015382656186326731 0 0.0020962791315713553 -0.00093047751257969297 0 0.0019440453420931729 -0.0012319390309057966 0 0.0023001192562931328 -0.0013917020038661215 0 0.0019440453420931729 -0.0012319390309057966 0 0.0019285897015171329 -0.0015382656186326731 0 0.0023001192562931328 -0.0013917020038661215 0 0.0020962791315713553 -0.00093047751257969297 0 0.0015311451463200859 -0.0011354352839721134 0 0.0019440453420931729 -0.0012319390309057966 0 0.0019285897015171329 -0.0015382656186326731 0 0.0023001192562931328 -0.0013917020038661215 0 0.0022974473562560947 -0.0017058685283553219 0 0.0019285897015171329 -0.0015382656186326731 0 0.0022974473562560947 -0.0017058685283553219 0 0.0019416473137608583 -0.0019240429539116987 0 0.0015311451463200859 -0.0011354352839721134 0 0.0019285897015171329 -0.0015382656186326731 0 0.0015574805308823253 -0.0018420509077608838 0 0.0019285897015171329 -0.0015382656186326731 0 0.0015574805308823253 -0.0018420509077608838 0 0.0019416473137608583 -0.0019240429539116987 0 0.00085779265522235404 -0.0026601105080956843 0 0.0007804164899436935 -0.0023128610638543162 0 0.0004547222084605082 -0.0025369065074569478 0 0.0015044964649095602 -0.0036010759227224427 0 0.00053556807314118033 -0.0038118081638958625 0 0.0007153770644540041 -0.0041460245399622259 0 0.0015003559581781409 -0.0023427809199794013 0 0.00052243536952635691 -0.0033901097717051044 0 0.0025295355647046306 -0.0010926674099191575 0 0.0023001192562931328 -0.0013917020038661215 0 0.0026163177562939731 -0.0014957841051282692 0 0.0025295355647046306 -0.0010926674099191575 0 0.0020962791315713553 -0.00093047751257969297 0 0.0023001192562931328 -0.0013917020038661215 0 0.001670549674276835 -0.0018247532031170929 0 0.0015003559581781409 -0.0023427809199794013 0 0.0023001192562931328 -0.0013917020038661215 0 0.0025607882654463589 -0.0015341305689823971 0 0.0026163177562939731 -0.0014957841051282692 0 0.0023001192562931328 -0.0013917020038661215 0 0.0022974473562560947 -0.0017058685283553219 0 0.0024100298515291312 -0.0015813827847538742 0 0.0022974473562560947 -0.0017058685283553219 0 0.0025730865751143811 -0.0018613601617691786 0 0.0022460149941142173 -0.0019361299312422016 0 0.0022974473562560947 -0.0017058685283553219 0 0.0025038116627380752 -0.0016940628138059513 0 0.0025797655945458695 -0.0018722594676151083 0 0.0022275581933268629 -0.0018898670933775133 0 0.0021491161096825156 -0.0029082837914553867 0 0.0023001192562931328 -0.0013917020038661215 0 0.0024100298515291312 -0.0015813827847538742 0 0.0025607882654463589 -0.0015341305689823971 0 0.0025038116627380752 -0.0016940628138059513 0 0.0024100298515291312 -0.0015813827847538742 0 0.0025607882654463589 -0.0015341305689823971 0 0.0022974473562560947 -0.0017058685283553219 0 0.0025038116627380752 -0.0016940628138059513 0 0.0024100298515291312 -0.0015813827847538742 0 0.0015583084721361503 -0.0035474561403243334 0 0.00062627996604389276 -0.0048797748555236015 0 0.0015044964649095602 -0.0036010759227224427 0 0.001365831514140425 -0.0030047107709180172 0 0.00053556807314118033 -0.0038118081638958625 0 0.0010670850754701613 -0.0054461956480544686 0 0.00081754355665694244 -0.0053045438396592893 0 0.00065734808054549571 -0.0054625908044427822 0 0.0015003559581781409 -0.0023427809199794013 0 0.0015583084721361503 -0.0035474561403243334 0 0.0025038116627380752 -0.0016940628138059513 0 0.0025607882654463589 -0.0015341305689823971 0 0.0026773878552449728 -0.0017770358228402442 0 0.0025607882654463589 -0.0015341305689823971 0 0.0026144028568599233 -0.0014975397452117085 0 0.0026773878552449728 -0.0017770358228402442 0 0.0017853035136107128 -0.0021407404433986563 0 0.0015003559581781409 -0.0023427809199794013 0 0.0025038116627380752 -0.0016940628138059513 0 0.0026773878552449728 -0.0017770358228402442 0 0.0025797655945458695 -0.0018722594676151083 0 0.0017510574432124527 -0.0033160559405931785 0 0.0017947415859531971 -0.0035006394630685478 0 0.0016459778361665809 -0.0034188938402034963 0 0.0015583084721361503 -0.0035474561403243334 0 0.0021491161096825156 -0.0029082837914553867 0 0.0015583084721361503 -0.0035474561403243334 0 0.0018330376861444017 -0.0039489111351386046 0 0.0018719226121277808 -0.0038512992402697272 0 0.0019321826632255651 -0.0039466107044196725 0 0.001688551350492717 -0.0038292865662882336 0 0.0018330376861444017 -0.0039489111351386046 0 0.0010414086369787429 -0.0051481538099523872 0 0.0010355491252227766 -0.0053028759197329264 0 0.00069542848079701624 -0.0051223708690790312 0 0.00081754355665694244 -0.0053045438396592893 0 0.0018339830005474529 -0.003791245100359325 0 0.0018719226121277808 -0.0038512992402697272 0 0.001688551350492717 -0.0038292865662882336 0 0.0018339830005474529 -0.003791245100359325 0 0.0018719226121277808 -0.0038512992402697272 0 0.0019541569791919336 -0.0038197110975673253 0 0.0010670850754701613 -0.0054461956480544686 0 0.0010355491252227766 -0.0053028759197329264 0 0.00081754355665694244 -0.0053045438396592893 0 0.0019321826632255651 -0.0039466107044196725 0 0.0019772581126388804 -0.0038952283028952325 0 0.0019331784804730368 -0.0038754316414347113 0 0.0018719226121277808 -0.0038512992402697272 0 0.0019321826632255651 -0.0039466107044196725 0 0.0019331784804730368 -0.0038754316414347113 0 0.0018330376861444017 -0.0039489111351386046 0 0.0021491161096825156 -0.0029082837914553867 0 0.0019321826632255651 -0.0039466107044196725 0 0.0020162158733976507 -0.0039883255999334346 0 0.0019772581126388804 -0.0038952283028952325 0 0.0019772581126388804 -0.0038952283028952325 0 0.0019541569791919336 -0.0038197110975673253 0 0.0020787261671264745 -0.0037998777717699493 0 0.0019772581126388804 -0.0038952283028952325 0 0.0019331784804730368 -0.0038754316414347113 0 0.0019541569791919336 -0.0038197110975673253 0 0.0018719226121277808 -0.0038512992402697272 0 0.0019331784804730368 -0.0038754316414347113 0 0.0019541569791919336 -0.0038197110975673253 0 0.0021491161096825156 -0.0029082837914553867 0 0.0021443033264597921 -0.0027410997802441587 0 0.0020162158733976507 -0.0039883255999334346 0 0.0020787261671264745 -0.0037998777717699493 0 0.0022693227346609396 -0.0037374466982997958 0 0.0025730865751143811 -0.0018613601617691786 0 0.0022460149941142173 -0.0019361299312422016 0 0.002171615939251163 -0.0022532689466583421 0 0.0020162158733976507 -0.0039883255999334346 0 0.0019772581126388804 -0.0038952283028952325 0 0.0020787261671264745 -0.0037998777717699493 0 0.0024848252832371624 -0.0026730795371080222 0 0.0023529303268067098 -0.0025808794891985921 0 0.0019671446592855061 -0.0024738248280735489 0 0.0020787261671264745 -0.0037998777717699493 0 0.0021539085872615197 -0.0035803398289740184 0 0.0022693227346609396 -0.0037374466982997958 0 0.0021934025675789223 -0.0036402828614720772 0 0.0021443033264597921 -0.0027410997802441587 0 0.0023529303268067098 -0.0025808794891985921 0 0.0024098441151514851 -0.0025602664853927428 0 0.0022078774554344324 -0.0022716098526019894 0 0.0024848252832371624 -0.0026730795371080222 0 0.0023529303268067098 -0.0025808794891985921 0 0.0024089710442543513 -0.0025616104800243486 0 0.0022748823464323257 -0.0035553708428872834 0 0.0021934025675789223 -0.0036402828614720772 0 0.0021623528835431147 -0.0048776607063188877 0 0.002159158011834238 -0.004871100590975121 0 0.0021753792852471695 -0.0048726988933457897 0 0.0021934025675789223 -0.0036402828614720772 0 0.0021121975386061494 -0.0042527657062120432 0 0.0023024410840732533 -0.0035769271236853603 0 0.0021934025675789223 -0.0036402828614720772 0 0.0020787261671264745 -0.0037998777717699493 0 0.0021539085872615197 -0.0035803398289740184 0 0.0019266131479377302 -0.0036709060652851543 0 0.0019541569791919336 -0.0038197110975673253 0 0.0020787261671264745 -0.0037998777717699493 0 0.0019266131479377302 -0.0036709060652851543 0 0.0018339830005474529 -0.003791245100359325 0 0.0019541569791919336 -0.0038197110975673253 0 0.0019266131479377302 -0.0036709060652851543 0 0.0021121975386061494 -0.0042527657062120432 0 0.0016337860895497731 -0.00531526442567144 0 0.0018339830005474529 -0.003791245100359325 0 0.0019266131479377302 -0.0036709060652851543 0 0.0016955012810135239 -0.0037657216825901433 0 0.0015574805308823253 -0.0018420509077608838 0 0.0018020280988232627 -0.0021676976281663138 0 0.0019416473137608583 -0.0019240429539116987 0 0.0015574805308823253 -0.0018420509077608838 0 0.0018020280988232627 -0.0021676976281663138 0 0.0014862077298543768 -0.0022480307283807063 0 0.0018020280988232627 -0.0021676976281663138 0 0.0019416473137608583 -0.0019240429539116987 0 0.0022022974198235754 -0.0022668892992575721 0 0.0022974473562560947 -0.0017058685283553219 0 0.0022460149941142173 -0.0019361299312422016 0 0.0019416473137608583 -0.0019240429539116987 0 0.0018985112932565348 -0.0018667710143916712 0 0.0021443033264597921 -0.0027410997802441587 0 0.0022460149941142173 -0.0019361299312422016 0 0.0019416473137608583 -0.0019240429539116987 0 0.002171615939251163 -0.0022532689466583421 0 0.0018020280988232627 -0.0021676976281663138 0 0.0019471965326040511 -0.0023391765545322058 0 0.0022022974198235754 -0.0022668892992575721 0 0.0019471965326040511 -0.0023391765545322058 0 0.0019671446592855061 -0.0024738248280735489 0 0.0017277887971972302 -0.0024149878531848495 0 0.0023024410840732533 -0.0035769271236853603 0 0.0020178807390349202 -0.0023586448595523672 0 0.0019471965326040511 -0.0023391765545322058 0 0.0020659747969048684 -0.002406343007019366 0 0.0019671446592855061 -0.0024738248280735489 0 0.0023529303268067098 -0.0025808794891985921 0 0.0022078774554344324 -0.0022716098526019894 0 0.0020659747969048684 -0.002406343007019366 0 0.0019471965326040511 -0.0023391765545322058 0 0.0022022974198235754 -0.0022668892992575721 0 0.0020659747969048684 -0.002406343007019366 0 0.0021443033264597921 -0.0027410997802441587 0 0.0022157395828199355 -0.0024917119876798634 0 0.0023529303268067098 -0.0025808794891985921 0 0.0020659747969048684 -0.002406343007019366 0 0.0019671446592855061 -0.0024738248280735489 0 0.0019381640176313311 -0.0026532812056803941 0 0.0019671446592855061 -0.0024738248280735489 0 0.0018326428072579606 -0.0025738043374982917 0 0.0019671446592855061 -0.0024738248280735489 0 0.0018326428072579606 -0.0025738043374982917 0 0.0017277887971972302 -0.0024149878531848495 0 0.0016822226815075608 -0.002719583274946904 0 0.0018326428072579606 -0.0025738043374982917 0 0.0017277887971972302 -0.0024149878531848495 0 0.0016822226815075608 -0.002719583274946904 0 0.0017277887971972302 -0.0024149878531848495 0 0.0014862077298543768 -0.0022480307283807063 0 0.0018020280988232627 -0.0021676976281663138 0 0.0019471965326040511 -0.0023391765545322058 0 0.0017277887971972302 -0.0024149878531848495 0 0.0018020280988232627 -0.0021676976281663138 0 0.0017277887971972302 -0.0024149878531848495 0 0.0014862077298543768 -0.0022480307283807063 0 0.0018058657264194982 -0.0028454896990033887 0 0.0012555757787009833 -0.0024417144416281995 0 0.0016822226815075608 -0.002719583274946904 0 0.0014862077298543768 -0.0022480307283807063 0 0.0010737044491898036 -0.0023480353629762663 0 0.00099440182718326157 -0.0028727081055102224 0 0.0014511101971224623 -0.0025447250260186441 0 0.00096254482132176577 -0.0024967101824957942 0 0.0011225754683618062 -0.0019680066958146988 0 0.00084330275513864008 -0.00168547524149522 0 0.00076253443891354303 -0.0020566826615412118 0 0.0010737044491898036 -0.0023480353629762663 0 0.0011225754683618062 -0.0019680066958146988 0 0.00076253443891354303 -0.0020566826615412118 0 0.0010737044491898036 -0.0023480353629762663 0 0.00076253443891354303 -0.0020566826615412118 0 0.00053042123242538265 -0.0020082353877620839 0 0.0012555757787009833 -0.0024417144416281995 0 0.00063637884929906006 -0.002055077727367018 0 0.0015574805308823253 -0.0018420509077608838 0 0.0014862077298543768 -0.0022480307283807063 0 0.0011225754683618062 -0.0019680066958146988 0 0.0014862077298543768 -0.0022480307283807063 0 0.0010737044491898036 -0.0023480353629762663 0 0.0011225754683618062 -0.0019680066958146988 0 0.0015311451463200859 -0.0011354352839721134 0 0.0015574805308823253 -0.0018420509077608838 0 0.0011680177601978104 -0.0015596280123841685 0 0.0015574805308823253 -0.0018420509077608838 0 0.0011225754683618062 -0.0019680066958146988 0 0.0011680177601978104 -0.0015596280123841685 0 0.0011225754683618062 -0.0019680066958146988 0 0.0011680177601978104 -0.0015596280123841685 0 0.00084330275513864008 -0.00168547524149522 0 0.0011680177601978104 -0.0015596280123841685 0 0.00084330275513864008 -0.00168547524149522 0 0.00085956351457637384 -0.0011366428654746078 0 0.0015311451463200859 -0.0011354352839721134 0 0.0011680177601978104 -0.0015596280123841685 0 0.00085956351457637384 -0.0011366428654746078 0 0.0015219585119854572 -0.0011095987674651215 0 0.00078115557741266679 -0.0011922785991867208 0 0.00025974787378274549 -0.0010448852388815625 0 0.00053092767660640192 -0.001554742671092194 0 7.3879478357889638e-05 -0.0013502943500412258 0 0.00030132600751228591 -0.00049863002919132656 0 0.0005216943695954782 -0.0016826492873254989 0 0.00078115557741266679 -0.0011922785991867208 0 0.00030132600751228591 -0.00049863002919132656 0 0.00084330275513864008 -0.00168547524149522 0 0.00085956351457637384 -0.0011366428654746078 0 0.00046639468114055571 -0.0015900747673114062 0 0.00085956351457637384 -0.0011366428654746078 0 0.00018504439448096386 -0.0011141944564160948 0 0.00046639468114055571 -0.0015900747673114062 0 0.0005216943695954782 -0.0016826492873254989 0 0.00073014781883051587 -0.0019800343972288087 0 0.00084330275513864008 -0.00168547524149522 0 0.00046639468114055571 -0.0015900747673114062 0 0.00076253443891354303 -0.0020566826615412118 0 0.000278097384360861 -0.0016544767871433225 0 0.00053042123242538265 -0.0020082353877620839 0 -2.7306173095441601e-05 -0.0016914601775988077 0 0.00053092767660640192 -0.001554742671092194 0 0.000278097384360861 -0.0016544767871433225 0 7.3879478357889638e-05 -0.0013502943500412258 0 0.00053092767660640192 -0.001554742671092194 0 0.000278097384360861 -0.0016544767871433225 0 0.00053042123242538265 -0.0020082353877620839 0 0.00025405698336699602 -0.0021877063015468341 0 0.00075799483301032501 -0.0021022193626342649 0 -2.7306173095441601e-05 -0.0016914601775988077 0 0.00025405698336699602 -0.0021877063015468341 0 0.00075799483301032501 -0.0021022193626342649 0 0.00063356210316430788 -0.0024595723907180978 0 0.00063637884929906006 -0.002055077727367018 0 3.7867436938093701e-06 -0.0017101134451585739 0 0.00053092767660640192 -0.001554742671092194 0 0.00076253443891354303 -0.0020566826615412118 0 0.00053042123242538265 -0.0020082353877620839 0 0.0014511101971224623 -0.0025447250260186441 0 0.00075799483301032501 -0.0021022193626342649 0 0.00096254482132176577 -0.0024967101824957942 0 0.00075799483301032501 -0.0021022193626342649 0 0.00096254482132176577 -0.0024967101824957942 0 0.00063356210316430788 -0.0024595723907180978 0 0.00099440182718326157 -0.0028727081055102224 0 0.00096254482132176577 -0.0024967101824957942 0 0.00063356210316430788 -0.0024595723907180978 0 0.00099440182718326157 -0.0028727081055102224 0 0.00063356210316430788 -0.0024595723907180978 0 0.00021545280817803004 -0.002628811201307194 0 0.00025405698336699602 -0.0021877063015468341 0 0.00063356210316430788 -0.0024595723907180978 0 0.00021545280817803004 -0.002628811201307194 0 0.00064634531634751805 -0.0028932827931698146 0 0.00033551841224522616 -0.00085835960738588275 0 0.00025405698336699602 -0.0021877063015468341 0 0.00021545280817803004 -0.002628811201307194 0 -0.00017013806786288259 -0.0020875462058093162 0 0.00021545280817803004 -0.002628811201307194 0 -0.00017013806786288259 -0.0020875462058093162 0 -0.00055532989945682729 -0.0023503178687979444 0 0.00025405698336699602 -0.0021877063015468341 0 -0.00017013806786288259 -0.0020875462058093162 0 -2.7306173095441601e-05 -0.0016914601775988077 0 -0.00017013806786288259 -0.0020875462058093162 0 -2.7306173095441601e-05 -0.0016914601775988077 0 -0.00027866293120176809 -0.0017705442677201494 0 -0.00017013806786288259 -0.0020875462058093162 0 -0.00058962953294124554 -0.0018867199436706785 0 -0.00055532989945682729 -0.0023503178687979444 0 0.00014326970725780596 0.00092851002436916848 0 0.00016807916223725576 0.00069398296252748339 0 4.3807717092098411e-05 0.00073709362993837021 0 -2.698754911554724e-05 0.00089805538513573204 0 0.00033551841224522616 -0.00085835960738588275 0 -0.00017013806786288259 -0.0020875462058093162 0 -0.00058962953294124554 -0.0018867199436706785 0 -0.00027866293120176809 -0.0017705442677201494 0 -2.698754911554724e-05 0.00089805538513573204 0 0.00051017829566767439 0.0022176499678952604 0 0.00072927455470591556 -0.0027686194748825807 0 0.001114082447117867 -0.0027245102368660813 0 0.00070411711412293125 -0.0025454739141079676 0 0.00033551841224522616 -0.00085835960738588275 0 0.00051017829566767439 0.0022176499678952604 0 0.00096547366370762738 0.0015475272260934128 0 0.00073374381161432493 0.0013752058214414316 0 0.00054516667656247827 0.0016839595954484664 0 0.0010293956658813538 0.00086479140105072329 0 0.00073374381161432493 0.0013752058214414316 0 0.00039496575718960658 0.001404438818619722 0 0.00080649585153006679 0.00038570522918954323 0 0.00033551841224522616 -0.00085835960738588275 0 0.0010293956658813538 0.00086479140105072329 0 0.00096547366370762738 0.0015475272260934128 0 0.00073374381161432493 0.0013752058214414316 0 0.0010496468919265511 0.0034050195443474231 0 0.00094179179586462885 0.0032038643404119168 0 0.00049321313796563224 0.0035838629405345874 0 0.0012656224793955707 0.005137365878290375 0 0.001225402903163395 0.0050754981706679922 0 0.001293639485758432 0.0051158746513552487 0 0.0012656224793955707 0.005137365878290375 0 0.0013332756402717604 0.0051690656575859271 0 0.001291454879076121 0.0051766182279043916 0 0.00080649585153006679 0.00038570522918954323 0 0.00099549668492141604 0.0038129361812287411 0 0.0014665341041079549 0.0055025062619165075 0 0.00099549668492141604 0.0038129361812287411 0 0.00099549668492141604 0.0038129361812287411 0 0.0006972268412947111 0.0041546378170858409 0 0.00051017829566767439 0.0022176499678952604 0 0.00099549668492141604 0.0038129361812287411 0 0.00073374381161432493 0.0013752058214414316 0 0.00054516667656247827 0.0016839595954484664 0 0.00039496575718960658 0.001404438818619722 0 0.001225402903163395 0.0050754981706679922 0 0.001293639485758432 0.0051158746513552487 0 0.0012845090462564001 0.0050670641204336704 0 0.001225402903163395 0.0050754981706679922 0 0.0012845090462564001 0.0050670641204336704 0 0.0012699859200509588 0.0050338510677553358 0 0.0013366508523867588 0.0051431677273358345 0 0.001293639485758432 0.0051158746513552487 0 0.0013264159967469912 0.0050982266131184154 0 0.001293639485758432 0.0051158746513552487 0 0.0012845090462564001 0.0050670641204336704 0 0.0013264159967469912 0.0050982266131184154 0 0.0012845090462564001 0.0050670641204336704 0 0.0013194083639450039 0.005048582254097842 0 0.0013264159967469912 0.0050982266131184154 0 0.0013194083639450039 0.005048582254097842 0 0.0012827089605898538 0.0050282788213639185 0 0.0013388644654213305 0.0049690912741375999 0 0.0012827089605898538 0.0050282788213639185 0 0.0012657385824249316 0.0050333641043097503 0 0.0013388644654213305 0.0049690912741375999 0 0.0006972268412947111 0.0041546378170858409 0 0.0009725529697244494 0.0046184205226053434 0 0.00019253450867507202 0.0034626653682906846 0 0.0001349879036461616 0.0037031596812024518 0 -0.00014352937215129249 0.0037541840614451478 0 0.0012845090462564001 0.0050670641204336704 0 0.0013194083639450039 0.005048582254097842 0 0.0012827089605898538 0.0050282788213639185 0 0.0012845090462564001 0.0050670641204336704 0 0.0012827089605898538 0.0050282788213639185 0 0.0012699859200509588 0.0050338510677553358 0 0.00085031879263413744 0.0042418429317050907 0 0.0006972268412947111 0.0041546378170858409 0 0.00019253450867507202 0.0034626653682906846 0 0.0001349879036461616 0.0037031596812024518 0 0.00026323474503062665 0.0036401449626846313 0 0.00051017829566767439 0.0022176499678952604 0 0.0006972268412947111 0.0041546378170858409 0 0.00053041091641089816 0.0033441775364425109 0 0.00019253450867507202 0.0034626653682906846 0 0.00041383683035865803 0.0035772078678920098 0 0.0006815001222949768 0.0036283624711307976 0 0.00053041091641089816 0.0033441775364425109 0 0.00041383683035865803 0.0035772078678920098 0 0.00019253450867507202 0.0034626653682906846 0 0.00026323474503062665 0.0036401449626846313 0 0.00041383683035865803 0.0035772078678920098 0 0.00026323474503062665 0.0036401449626846313 0 0.00041383683035865803 0.0035772078678920098 0 0.00031197487087531199 0.0038180304474991029 0 0.0006815001222949768 0.0036283624711307976 0 0.00041383683035865803 0.0035772078678920098 0 0.00048910013813409402 0.0038601071436753557 0 0.00041383683035865803 0.0035772078678920098 0 0.00048910013813409402 0.0038601071436753557 0 0.00031197487087531199 0.0038180304474991029 0 0.00048910013813409402 0.0038601071436753557 0 0.00031197487087531199 0.0038180304474991029 0 0.00038356523149026055 0.0040076608269893066 0 0.00031197487087531199 0.0038180304474991029 0 0.00038356523149026055 0.0040076608269893066 0 0.00022759792945363484 0.0040496582820825737 0 0.00048910013813409402 0.0038601071436753557 0 0.00038356523149026055 0.0040076608269893066 0 0.0004872480857479411 0.0040791987856221516 0 0.00048910013813409402 0.0038601071436753557 0 0.0004872480857479411 0.0040791987856221516 0 0.00064100701961084395 0.0040183334847158645 0 0.0001349879036461616 0.0037031596812024518 0 9.943010982981747e-05 0.0038818239393293261 0 -0.00014352937215129249 0.0037541840614451478 0 0.0001349879036461616 0.0037031596812024518 0 0.00031197487087531199 0.0038180304474991029 0 9.943010982981747e-05 0.0038818239393293261 0 0.0001349879036461616 0.0037031596812024518 0 0.00026323474503062665 0.0036401449626846313 0 0.00031197487087531199 0.0038180304474991029 0 0.00031197487087531199 0.0038180304474991029 0 9.943010982981747e-05 0.0038818239393293261 0 0.00022759792945363484 0.0040496582820825737 0 9.943010982981747e-05 0.0038818239393293261 0 0.00022759792945363484 0.0040496582820825737 0 -4.8795780048620989e-05 0.0040891379373025425 0 9.943010982981747e-05 0.0038818239393293261 0 -4.8795780048620989e-05 0.0040891379373025425 0 -0.00014352937215129249 0.0037541840614451478 0 -2.7144762899704211e-05 0.0072468617997745871 0 -0.00080511637629608265 0.009778346871892836 0 0.00022759792945363484 0.0040496582820825737 0 -4.8795780048620989e-05 0.0040891379373025425 0 0.00036587076255628875 0.0043600963442249081 0 -2.7144762899704211e-05 0.0072468617997745871 0 -0.00012001405247714477 0.0061819400935482927 0 -0.0010129095176849682 0.0085853955060451268 0 -0.00063980906816684432 0.0088628223754452264 0 -0.0008774640810515086 0.0090804750226314464 0 0.000489317923193899 0.00423332950808482 0 0.00064100701961084395 0.0040183334847158645 0 0.00059058541320639924 0.0043738773042646256 0 0.0004872480857479411 0.0040791987856221516 0 0.000489317923193899 0.00423332950808482 0 0.00064100701961084395 0.0040183334847158645 0 0.0004872480857479411 0.0040791987856221516 0 0.00037984058170003557 0.0042032748807909141 0 0.000489317923193899 0.00423332950808482 0 0.00038356523149026055 0.0040076608269893066 0 0.00022759792945363484 0.0040496582820825737 0 0.00037984058170003557 0.0042032748807909141 0 0.00022759792945363484 0.0040496582820825737 0 0.00037984058170003557 0.0042032748807909141 0 0.00036587076255628875 0.0043600963442249081 0 0.00038356523149026055 0.0040076608269893066 0 0.0004872480857479411 0.0040791987856221516 0 0.00037984058170003557 0.0042032748807909141 0 0.00037984058170003557 0.0042032748807909141 0 0.00037238342944319466 0.0043347348073331645 0 0.000489317923193899 0.00423332950808482 0 0.00014139952344332461 0.0045216967969376794 0 -0.00012001405247714477 0.0061819400935482927 0 0.00037238342944319466 0.0043347348073331645 0 0.000489317923193899 0.00423332950808482 0 0.00048112414571237103 0.004374837227345869 0 0.000489317923193899 0.00423332950808482 0 0.00059058541320639924 0.0043738773042646256 0 0.00048112414571237103 0.004374837227345869 0 -0.00016939743783211711 0.0015181674659728902 0 -0.00010167557053591112 0.0013754943849986702 0 3.2080553006061744e-05 0.0016289276725791411 0 -0.00016939743783211711 0.0015181674659728902 0 3.2080553006061744e-05 0.0016289276725791411 0 -0.00028518311850831758 0.0016493097044876822 0 -0.00016939743783211711 0.0015181674659728902 0 -0.00026214185808002893 0.0013849563022429272 0 -0.00028518311850831758 0.0016493097044876822 0 0.00016787842578968782 0.0029692813035251749 0 5.6557512659309123e-05 0.0028546561423823083 0 -0.00016939743783211711 0.0015181674659728902 0 -0.00026214185808002893 0.0013849563022429272 0 -0.00010167557053591112 0.0013754943849986702 0 7.3879478357889638e-05 -0.0013502943500412258 0 -0.00032410527161883554 -0.0014354974133772153 0 -9.9165829156169929e-05 -0.0010251303596796504 0 -0.00034719240908709565 -0.00033196556191699019 0 -0.00012049209304757524 0.00087669848898168498 0 0.00025974787378274549 -0.0010448852388815625 0 7.3879478357889638e-05 -0.0013502943500412258 0 -9.9165829156169929e-05 -0.0010251303596796504 0 7.3879478357889638e-05 -0.0013502943500412258 0 -2.7306173095441601e-05 -0.0016914601775988077 0 -0.00032410527161883554 -0.0014354974133772153 0 0.000278097384360861 -0.0016544767871433225 0 7.3879478357889638e-05 -0.0013502943500412258 0 -2.7306173095441601e-05 -0.0016914601775988077 0 -2.7306173095441601e-05 -0.0016914601775988077 0 -0.00027866293120176809 -0.0017705442677201494 0 -0.00032410527161883554 -0.0014354974133772153 0 -0.00058962953294124554 -0.0018867199436706785 0 -0.00027866293120176809 -0.0017705442677201494 0 -0.00032410527161883554 -0.0014354974133772153 0 -0.00023341564606300811 0.0011152441129106102 0 -0.00026214185808002893 0.0013849563022429272 0 -0.00010167557053591112 0.0013754943849986702 0 -2.698754911554724e-05 0.00089805538513573204 0 0.00016787842578968782 0.0029692813035251749 0 -2.698754911554724e-05 0.00089805538513573204 0 -0.00034719240908709565 -0.00033196556191699019 0 0.0006815001222949768 0.0036283624711307976 0 0.00048910013813409402 0.0038601071436753557 0 0.00064100701961084395 0.0040183334847158645 0 -5.271215299621864e-05 0.0100773068336383 0 -0.00012494341218014681 0.010092115020438877 0 -7.3934370638690299e-05 0.010160282926083918 0 0.00068729896785267998 0.0076711554905414198 0 0.00067631068018590929 0.0073459585124136285 0 -0.00012494341218014681 0.010092115020438877 0 -7.3934370638690299e-05 0.010160282926083918 0 -0.00020352844077679391 0.010102243869202011 0 -1.5365350513806884e-06 0.010082355249124325 0 -5.271215299621864e-05 0.0100773068336383 0 -7.3934370638690299e-05 0.010160282926083918 0 -5.271215299621864e-05 0.0100773068336383 0 -8.9950240458413195e-05 0.010060806694349703 0 -0.00012494341218014681 0.010092115020438877 0 -5.271215299621864e-05 0.0100773068336383 0 -8.9950240458413195e-05 0.010060806694349703 0 -6.3386659285938172e-05 0.010046891171802727 0 -8.9950240458413195e-05 0.010060806694349703 0 -0.00014129598742125148 0.010064999814303248 0 -0.00011751350258656894 0.010035130561576629 0 -0.00014129598742125148 0.010064999814303248 0 -0.00016208424109835688 0.010027010259663753 0 -0.00011751350258656894 0.010035130561576629 0 -8.9950240458413195e-05 0.010060806694349703 0 -0.00014129598742125148 0.010064999814303248 0 -0.00012494341218014681 0.010092115020438877 0 0.0010685312658694894 0.006056803326779615 0 0.00096088333977912817 0.0060955745764564037 0 0.0010862079639399865 0.0061733840002059313 0 0.0011565498034819392 0.0060538990687640385 0 0.0010685312658694894 0.006056803326779615 0 0.0010862079639399865 0.0061733840002059313 0 0.0012797053851334992 0.0060847094147402862 0 0.00087991650461162257 0.0062923144831428524 0 0.001170536332893826 0.0064743110420113041 0 0.0013526738610886832 0.0059990682609221526 0 0.0012797053851334992 0.0060847094147402862 0 0.001170536332893826 0.0064743110420113041 0 0.0014913004957387216 0.0057132772316273077 0 0.00068729896785267998 0.0076711554905414198 0 0.0014167821832908722 0.0053028953723692155 0 0.00067631068018590929 0.0073459585124136285 0 0.0012701810301224174 0.0051778675822556188 0 0.0010438570608815121 0.0055676294042293645 0 0.0012343307800448487 0.0055109881796343791 0 0.0012797053851334992 0.0060847094147402862 0 0.0011565498034819392 0.0060538990687640385 0 0.0010862079639399865 0.0061733840002059313 0 -0.00020769265831130666 0.010104559144712295 0 -0.00040091608057558073 0.0099966855193343671 0 -0.00026274455785236123 0.0099870233719173539 0 -0.00012494341218014681 0.010092115020438877 0 -0.00020352844077679391 0.010102243869202011 0 -0.0001996499422382362 0.010087865871963848 0 0.00067631068018590929 0.0073459585124136285 0 0.00046905240655081013 0.0078710726568149113 0 -0.0001996499422382362 0.010087865871963848 0 -0.00018333128601390086 0.010056997795191333 0 -0.000213235511874381 0.010029424897240504 0 -0.00014129598742125148 0.010064999814303248 0 -0.00012494341218014681 0.010092115020438877 0 -0.0001996499422382362 0.010087865871963848 0 -0.00020769265831130666 0.010104559144712295 0 -0.0001996499422382362 0.010087865871963848 0 -0.000213235511874381 0.010029424897240504 0 -0.00014129598742125148 0.010064999814303248 0 -0.0001996499422382362 0.010087865871963848 0 -0.00018333128601390086 0.010056997795191333 0 -0.00014129598742125148 0.010064999814303248 0 -0.00018333128601390086 0.010056997795191333 0 -0.00016208424109835688 0.010027010259663753 0 -0.00018333128601390086 0.010056997795191333 0 -0.000213235511874381 0.010029424897240504 0 -0.00016208424109835688 0.010027010259663753 0 -0.00020769265831130666 0.010104559144712295 0 -0.000213235511874381 0.010029424897240504 0 -0.00026274455785236123 0.0099870233719173539 0 0.0010438570608815121 0.0055676294042293645 0 0.0012343307800448487 0.0055109881796343791 0 0.0013358045908254195 0.0057716616792081272 0 0.00067631068018590929 0.0073459585124136285 0 0.00057385691536253748 0.008053176518918773 0 0.0013500625450775031 0.0055851817663102503 0 0.0012343307800448487 0.0055109881796343791 0 0.0013358045908254195 0.0057716616792081272 0 0.0013500625450775031 0.0055851817663102503 0 0.0012343307800448487 0.0055109881796343791 0 0.0013386914429429388 0.0053975165902382695 0 0.0012701810301224174 0.0051778675822556188 0 0.0012343307800448487 0.0055109881796343791 0 0.0013386914429429388 0.0053975165902382695 0 0.0013729278850756505 0.0051741876855279116 0 0.0013386914429429388 0.0053975165902382695 0 0.001524745098143169 0.0055604809555971123 0 0.0013816900040880373 0.0051528595826707668 0 0.0014224850792900277 0.005358574459835428 0 0.0013729278850756505 0.0051741876855279116 0 0.0013264159967469912 0.0050982266131184154 0 0.0013571920292533141 0.0050259404238991879 0 0.0013194083639450039 0.005048582254097842 0 0.0013264159967469912 0.0050982266131184154 0 0.0013571920292533141 0.0050259404238991879 0 0.0013194083639450039 0.005048582254097842 0 0.0013571920292533141 0.0050259404238991879 0 0.0013388644654213305 0.0049690912741375999 0 0.001524745098143169 0.0055604809555971123 0 0.0015679149018929992 0.0057403005552537035 0 0.0013358045908254195 0.0057716616792081272 0 0.0013500625450775031 0.0055851817663102503 0 0.0013386914429429388 0.0053975165902382695 0 0.001524745098143169 0.0055604809555971123 0 0.0013500625450775031 0.0055851817663102503 0 0.001524745098143169 0.0055604809555971123 0 0.0013358045908254195 0.0057716616792081272 0 0.0014224850792900277 0.005358574459835428 0 0.0009725529697244494 0.0046184205226053434 0 -0.00059427546687378118 0.0098856286955848662 0 -0.00043236118968410466 0.0098356323122554302 0 -0.00040091608057558073 0.0099966855193343671 0 -2.7144762899704211e-05 0.0072468617997745871 0 0.00057385691536253748 0.008053176518918773 0 0.0016213674810903679 0.0059853192426704699 0 0.0015679149018929992 0.0057403005552537035 0 0.0013358045908254195 0.0057716616792081272 0 -2.7144762899704211e-05 0.0072468617997745871 0 0.0009725529697244494 0.0046184205226053434 0 -0.00059427546687378118 0.0098856286955848662 0 -0.00043236118968410466 0.0098356323122554302 0 -0.00052599421146442193 0.0097382141335978761 0 -0.00059427546687378118 0.0098856286955848662 0 -0.00052599421146442193 0.0097382141335978761 0 -0.00069108056856788055 0.0096816572994285564 0 -0.00043236118968410466 0.0098356323122554302 0 -0.00028642452838070813 0.0097874974023968719 0 -0.00039737875241246153 0.0096991092301415994 0 -0.00043236118968410466 0.0098356323122554302 0 -0.00031098889588636921 0.0098980160977008187 0 -0.00028642452838070813 0.0097874974023968719 0 -0.00043236118968410466 0.0098356323122554302 0 -0.00031098889588636921 0.0098980160977008187 0 -0.00040091608057558073 0.0099966855193343671 0 -0.00031098889588636921 0.0098980160977008187 0 -0.00040091608057558073 0.0099966855193343671 0 -0.00026274455785236123 0.0099870233719173539 0 -0.000213235511874381 0.010029424897240504 0 -0.00026274455785236123 0.0099870233719173539 0 -0.00019074876469071041 0.0099777298441424828 0 -0.00026274455785236123 0.0099870233719173539 0 -0.00019074876469071041 0.0099777298441424828 0 -0.0002321578453354525 0.0099294766563957897 0 -0.000213235511874381 0.010029424897240504 0 -0.00016208424109835688 0.010027010259663753 0 -0.00019074876469071041 0.0099777298441424828 0 -0.00016208424109835688 0.010027010259663753 0 -0.00019074876469071041 0.0099777298441424828 0 -0.00013491113519995356 0.010000764289435657 0 -0.0002321578453354525 0.0099294766563957897 0 -0.00022588165495588089 0.0098649765097660637 0 -0.00017059086640812518 0.0099214795705538789 0 -0.00019074876469071041 0.0099777298441424828 0 -0.0002321578453354525 0.0099294766563957897 0 -0.00017059086640812518 0.0099214795705538789 0 -0.00031098889588636921 0.0098980160977008187 0 -0.00026274455785236123 0.0099870233719173539 0 -0.0002321578453354525 0.0099294766563957897 0 -0.00031098889588636921 0.0098980160977008187 0 -0.00028642452838070813 0.0097874974023968719 0 -0.00022588165495588089 0.0098649765097660637 0 -0.00031098889588636921 0.0098980160977008187 0 -0.0002321578453354525 0.0099294766563957897 0 -0.00022588165495588089 0.0098649765097660637 0 -0.00028642452838070813 0.0097874974023968719 0 -0.00022588165495588089 0.0098649765097660637 0 -0.00018308275850609489 0.009812990576669697 0 -0.00022588165495588089 0.0098649765097660637 0 -0.00016605463298323013 0.0098671141188209528 0 -0.00018308275850609489 0.009812990576669697 0 -0.00022588165495588089 0.0098649765097660637 0 -0.00016605463298323013 0.0098671141188209528 0 -0.00017059086640812518 0.0099214795705538789 0 7.8011189211525532e-06 0.0099378252690892708 0 -2.5018334331486846e-05 0.010045948569886502 0 -0.00016605463298323013 0.0098671141188209528 0 -0.00013218613076354372 0.0099012607109632122 0 -0.00017059086640812518 0.0099214795705538789 0 -8.7827338756568015e-05 0.0097758833596162838 0 -0.00012556155724052049 0.009849733320304678 0 -0.00011108286266787942 0.0099528508238617905 0 -0.00016605463298323013 0.0098671141188209528 0 -0.00018308275850609489 0.009812990576669697 0 -0.00012556155724052049 0.009849733320304678 0 -0.00016605463298323013 0.0098671141188209528 0 -0.00012556155724052049 0.009849733320304678 0 -0.00013218613076354372 0.0099012607109632122 0 -0.00018308275850609489 0.009812990576669697 0 -0.00012556155724052049 0.009849733320304678 0 -0.00013466798564149097 0.0097805093049639202 0 -8.7827338756568015e-05 0.0097758833596162838 0 -0.00012556155724052049 0.009849733320304678 0 -0.00013466798564149097 0.0097805093049639202 0 -2.5939411961526917e-05 0.010021559240907255 0 -5.49348018394949e-05 0.010016899835152696 0 -7.4144067075488732e-05 0.010010432277737966 0 -2.5939411961526917e-05 0.010021559240907255 0 -5.49348018394949e-05 0.010016899835152696 0 -3.9239617097737379e-05 0.010027679549918577 0 -5.49348018394949e-05 0.010016899835152696 0 -7.4144067075488732e-05 0.010010432277737966 0 -7.1210272531351305e-05 0.010015956481399689 0 -0.00012556155724052049 0.009849733320304678 0 -0.00013218613076354372 0.0099012607109632122 0 -0.00011108286266787942 0.0099528508238617905 0 -0.00013218613076354372 0.0099012607109632122 0 -0.00017059086640812518 0.0099214795705538789 0 -0.00013935550094635018 0.0099329680242563646 0 -0.00017059086640812518 0.0099214795705538789 0 -0.00014579519308950163 0.0099557842490293914 0 -0.00013935550094635018 0.0099329680242563646 0 -0.00019074876469071041 0.0099777298441424828 0 -0.00017059086640812518 0.0099214795705538789 0 -0.00014579519308950163 0.0099557842490293914 0 -0.00013218613076354372 0.0099012607109632122 0 -0.00013935550094635018 0.0099329680242563646 0 -0.00011108286266787942 0.0099528508238617905 0 -0.00014579519308950163 0.0099557842490293914 0 -0.00013935550094635018 0.0099329680242563646 0 -0.00011108286266787942 0.0099528508238617905 0 -0.00014579519308950163 0.0099557842490293914 0 -0.00011108286266787942 0.0099528508238617905 0 -0.00013491113519995356 0.010000764289435657 0 -7.4961259694868287e-05 0.0099995291826869333 0 -8.7788294520362831e-05 0.010007148270093602 0 -0.00013491113519995356 0.010000764289435657 0 -2.5018334331486846e-05 0.010045948569886502 0 -2.7175252543771316e-05 0.010043649206404919 0 -2.5018334331486846e-05 0.010045948569886502 0 -7.5033006129466656e-05 0.010047212456397937 0 -8.7788294520362831e-05 0.010007148270093602 0 -0.00013491113519995356 0.010000764289435657 0 -0.00010340460846379923 0.010018209343221311 0 -8.7788294520362831e-05 0.010007148270093602 0 -0.00010340460846379923 0.010018209343221311 0 -8.2724719770316756e-05 0.010031735493312481 0 -0.00019074876469071041 0.0099777298441424828 0 -0.00014579519308950163 0.0099557842490293914 0 -0.00013491113519995356 0.010000764289435657 0 -0.00016208424109835688 0.010027010259663753 0 -0.00013491113519995356 0.010000764289435657 0 -0.00011751350258656894 0.010035130561576629 0 -8.9950240458413195e-05 0.010060806694349703 0 -0.00011751350258656894 0.010035130561576629 0 -8.2724719770316756e-05 0.010031735493312481 0 -0.00010340460846379923 0.010018209343221311 0 -0.00011751350258656894 0.010035130561576629 0 -8.2724719770316756e-05 0.010031735493312481 0 -0.00013491113519995356 0.010000764289435657 0 -0.00010340460846379923 0.010018209343221311 0 -0.00011751350258656894 0.010035130561576629 0 -8.9950240458413195e-05 0.010060806694349703 0 -6.3386659285938172e-05 0.010046891171802727 0 -8.2724719770316756e-05 0.010031735493312481 0 -5.271215299621864e-05 0.0100773068336383 0 -6.3386659285938172e-05 0.010046891171802727 0 -3.7650095181417178e-05 0.01004228677833636 0 -6.3386659285938172e-05 0.010046891171802727 0 -8.2724719770316756e-05 0.010031735493312481 0 -5.8204870037847011e-05 0.01002585478846094 0 -6.3386659285938172e-05 0.010046891171802727 0 -3.7650095181417178e-05 0.01004228677833636 0 -5.8204870037847011e-05 0.01002585478846094 0 -3.7650095181417178e-05 0.01004228677833636 0 -3.9239617097737379e-05 0.010027679549918577 0 -5.8204870037847011e-05 0.01002585478846094 0 -5.49348018394949e-05 0.010016899835152696 0 -3.9239617097737379e-05 0.010027679549918577 0 -5.8204870037847011e-05 0.01002585478846094 0 -5.49348018394949e-05 0.010016899835152696 0 -7.1210272531351305e-05 0.010015956481399689 0 -5.8204870037847011e-05 0.01002585478846094 0 -7.4144067075488732e-05 0.010010432277737966 0 -8.7788294520362831e-05 0.010007148270093602 0 -7.1210272531351305e-05 0.010015956481399689 0 -8.2724719770316756e-05 0.010031735493312481 0 -7.1210272531351305e-05 0.010015956481399689 0 -5.8204870037847011e-05 0.01002585478846094 0 -8.7788294520362831e-05 0.010007148270093602 0 -8.2724719770316756e-05 0.010031735493312481 0 -7.1210272531351305e-05 0.010015956481399689 0 -0.00014946115340760269 0.0096635616479405929 0 -0.00011798905463084068 0.0097164844197507889 0 -0.00017464148490831008 0.0097393449529436949 0 -8.7827338756568015e-05 0.0097758833596162838 0 -0.00011798905463084068 0.0097164844197507889 0 -0.00013466798564149097 0.0097805093049639202 0 -0.00011798905463084068 0.0097164844197507889 0 -0.00013466798564149097 0.0097805093049639202 0 -0.00017464148490831008 0.0097393449529436949 0 -0.00018308275850609489 0.009812990576669697 0 -0.00013466798564149097 0.0097805093049639202 0 -0.00017464148490831008 0.0097393449529436949 0 -0.00014946115340760269 0.0096635616479405929 0 -0.00017464148490831008 0.0097393449529436949 0 -0.00025604459532996325 0.0096861057572018797 0 -0.00028642452838070813 0.0097874974023968719 0 -0.00018308275850609489 0.009812990576669697 0 -0.00017464148490831008 0.0097393449529436949 0 -0.00028642452838070813 0.0097874974023968719 0 -0.00017464148490831008 0.0097393449529436949 0 -0.00025604459532996325 0.0096861057572018797 0 -0.00014946115340760269 0.0096635616479405929 0 -0.00025604459532996325 0.0096861057572018797 0 -0.0003181735150154946 0.009562001728416647 0 -0.0003181735150154946 0.009562001728416647 0 -0.00039737875241246153 0.0096991092301415994 0 -0.00051877886898631716 0.009598372960377995 0 -0.00025604459532996325 0.0096861057572018797 0 -0.0003181735150154946 0.009562001728416647 0 -0.00039737875241246153 0.0096991092301415994 0 -0.00028642452838070813 0.0097874974023968719 0 -0.00025604459532996325 0.0096861057572018797 0 -0.00039737875241246153 0.0096991092301415994 0 -0.00043236118968410466 0.0098356323122554302 0 -0.00039737875241246153 0.0096991092301415994 0 -0.00052599421146442193 0.0097382141335978761 0 -0.00039737875241246153 0.0096991092301415994 0 -0.00052599421146442193 0.0097382141335978761 0 -0.00051877886898631716 0.009598372960377995 0 -0.00052599421146442193 0.0097382141335978761 0 -0.00051877886898631716 0.009598372960377995 0 -0.00069108056856788055 0.0096816572994285564 0 -0.0003181735150154946 0.009562001728416647 0 -0.00051877886898631716 0.009598372960377995 0 -0.00055804213210752351 0.0094316359556223233 0 -0.00051877886898631716 0.009598372960377995 0 -0.00055804213210752351 0.0094316359556223233 0 -0.00064478884356208648 0.009489095848100813 0 -0.00055804213210752351 0.0094316359556223233 0 -0.00064478884356208648 0.009489095848100813 0 -0.00068609613741166394 0.0093865893791248434 0 -0.00055804213210752351 0.0094316359556223233 0 -0.00063386921706671368 0.0093153948564271821 0 -0.00068609613741166394 0.0093865893791248434 0 -0.00055804213210752351 0.0094316359556223233 0 -0.00049032822782190864 0.0093367435757578734 0 -0.00063386921706671368 0.0093153948564271821 0 -0.00063386921706671368 0.0093153948564271821 0 -0.00056938986586223261 0.009205808703026553 0 -0.00069109525133681841 0.0091537454323344213 0 -0.00056938986586223261 0.009205808703026553 0 -0.00069109525133681841 0.0091537454323344213 0 -0.000640585268212097 0.0090810890380950329 0 -0.00049032822782190864 0.0093367435757578734 0 -0.00063386921706671368 0.0093153948564271821 0 -0.00056938986586223261 0.009205808703026553 0 -0.00049032822782190864 0.0093367435757578734 0 -0.00056938986586223261 0.009205808703026553 0 -0.00038085243446446093 0.009264124878428235 0 -0.00056938986586223261 0.009205808703026553 0 -0.00038085243446446093 0.009264124878428235 0 -0.00053847272035295515 0.0090745819871379321 0 -0.0003181735150154946 0.009562001728416647 0 -0.00049032822782190864 0.0093367435757578734 0 -0.00038085243446446093 0.009264124878428235 0 -0.0003181735150154946 0.009562001728416647 0 -0.00055804213210752351 0.0094316359556223233 0 -0.00049032822782190864 0.0093367435757578734 0 -0.00014946115340760269 0.0096635616479405929 0 -0.0003181735150154946 0.009562001728416647 0 -0.00016678574975967611 0.0096318724883783825 0 -0.0003181735150154946 0.009562001728416647 0 -0.00038085243446446093 0.009264124878428235 0 -0.00020651686724043218 0.0093392313466130264 0 -0.00031271190833856151 0.0095704634711760179 0 -0.00019689899098069885 0.0094932365646283358 0 -0.00038085243446446093 0.009264124878428235 0 -0.00020651686724043218 0.0093392313466130264 0 -0.00024720560016130777 0.0091817872180877756 0 -0.00019689899098069885 0.0094932365646283358 0 -0.00011111600655703836 0.0094362446434194339 0 -0.00020651686724043218 0.0093392313466130264 0 -9.1449013411250109e-05 0.0091836065069085971 0 -0.00024720560016130777 0.0091817872180877756 0 -0.00010781184599828639 0.0096899657338614057 0 -0.00016678574975967611 0.0096318724883783825 0 -0.00012329780936366858 0.0096937946672047571 0 -0.00010781184599828639 0.0096899657338614057 0 -0.00014946115340760269 0.0096635616479405929 0 -0.00016678574975967611 0.0096318724883783825 0 -0.00041843871368972644 0.0039148537492763747 0 6.7670494402777122e-05 0.0037586896590354056 0 -0.00080299095025554033 0.003197300528719776 0 -0.00041843871368972644 0.0039148537492763747 0 -0.00080299095025554033 0.003197300528719776 0 -0.00090798319936604137 0.0042137454242856765 0 0.00060779302171887705 0.0040936723114592616 0 -3.5708541050270874e-05 0.0039338112456579026 0 7.1199242639835924e-05 0.0037468298417950557 0 -0.00041843871368972644 0.0039148537492763747 0 -3.5708541050270874e-05 0.0039338112456579026 0 6.7670494402777122e-05 0.0037586896590354056 0 -0.00042820790100983429 0.0029781673269109782 0 -5.8699777266023823e-05 0.0017853687639631628 0 0.00030778392699066013 0.0014731708884733619 0 0.00013852204495047561 0.0017581973907167825 0 0.00015008941559940356 0.0015533111739857405 0 0.00013852204495047561 0.0017581973907167825 0 0.00015008941559940356 0.0015533111739857405 0 -0.00014447879754111452 0.0015813257461687069 0 0.00015008941559940356 0.0015533111739857405 0 0.00011694582933185711 0.0014959256795935454 0 -0.00014447879754111452 0.0015813257461687069 0 0.00030132600751228591 -0.00049863002919132656 0 -5.8699777266023823e-05 0.0017853687639631628 0 0.00030778392699066013 0.0014731708884733619 0 0.00015008941559940356 0.0015533111739857405 0 0.00011274617773670512 0.0014822000565292339 0 0.00030132600751228591 -0.00049863002919132656 0 -0.00012049209304757524 0.00087669848898168498 0 9.765724097228129e-05 0.0013330444681388998 0 -0.00012049209304757524 0.00087669848898168498 0 -0.00012049209304757524 0.00087669848898168498 0 5.6557512659309123e-05 0.0028546561423823083 0 0.00011694582933185711 0.0014959256795935454 0 -0.00013860898749239786 0.0015219464634175664 0 -0.00014447879754111452 0.0015813257461687069 0 -5.8699777266023823e-05 0.0017853687639631628 0 -0.00029478381651480782 0.0039775223989057381 0 5.6557512659309123e-05 0.0028546561423823083 0 -0.00029478381651480782 0.0039775223989057381 0 -0.00071428940811997293 0.00586299538620057 0 -0.00018602939172100309 0.0062123602141055199 0 -0.00080904147766900367 0.0070070920845113011 0 0.00037238342944319466 0.0043347348073331645 0 0.00056694704834645308 0.0044579747137445417 0 0.00048112414571237103 0.004374837227345869 0 5.6557512659309123e-05 0.0028546561423823083 0 0.00034494703931433907 0.0032286070341679195 0 -0.00012001405247714477 0.0061819400935482927 0 -0.00083316070054093179 0.0083896148599896664 0 -0.00012001405247714477 0.0061819400935482927 0 -0.00029478381651480782 0.0039775223989057381 0 0.00057361499213533684 0.0043690504384773015 0 0.00056694704834645308 0.0044579747137445417 0 0.00048112414571237103 0.004374837227345869 0 -0.00063980906816684432 0.0088628223754452264 0 -0.0008774640810515086 0.0090804750226314464 0 -0.00073119701031745614 0.0092769342989106138 0 -0.00069108056856788055 0.0096816572994285564 0 -0.00064478884356208648 0.009489095848100813 0 -0.00076758006553572541 0.0093512569309707645 0 -0.00051877886898631716 0.009598372960377995 0 -0.00069108056856788055 0.0096816572994285564 0 -0.00064478884356208648 0.009489095848100813 0 -0.0008774640810515086 0.0090804750226314464 0 -0.00073119701031745614 0.0092769342989106138 0 -0.00076758006553572541 0.0093512569309707645 0 -0.00080511637629608265 0.009778346871892836 0 -0.00078970871501418704 0.0091966784818311061 0 -0.00018602939172100309 0.0062123602141055199 0 -0.00080904147766900367 0.0070070920845113011 0 -0.00032693866469083951 0.0075381903881065115 0 -0.00029478381651480782 0.0039775223989057381 0 -0.00063798629211805576 0.006082049433852074 0 -0.00083316070054093179 0.0083896148599896664 0 -0.00081618028887898671 0.00865017515427784 0 -0.00080904147766900367 0.0070070920845113011 0 -0.00032693866469083951 0.0075381903881065115 0 -0.00086453379952158621 0.0080836720741444493 0 -0.00073119701031745614 0.0092769342989106138 0 -0.00080104828443490787 0.0093580134619461065 0 -0.00076758006553572541 0.0093512569309707645 0 -0.00063386921706671368 0.0093153948564271821 0 -0.00080104828443490787 0.0093580134619461065 0 -0.00068609613741166394 0.0093865893791248434 0 -0.00064478884356208648 0.009489095848100813 0 -0.00068609613741166394 0.0093865893791248434 0 -0.00076758006553572541 0.0093512569309707645 0 -0.00080104828443490787 0.0093580134619461065 0 -0.00068609613741166394 0.0093865893791248434 0 -0.00076758006553572541 0.0093512569309707645 0 -0.00063386921706671368 0.0093153948564271821 0 -0.00080104828443490787 0.0093580134619461065 0 -0.00069109525133681841 0.0091537454323344213 0 -0.00080104828443490787 0.0093580134619461065 0 -0.00069109525133681841 0.0091537454323344213 0 -0.00081229456811009984 0.0089676202873078953 0 -0.00081618028887898671 0.00865017515427784 0 -0.0008228739331611548 0.0089686645785750987 0 -0.00032693866469083951 0.0075381903881065115 0 -0.00086453379952158621 0.0080836720741444493 0 -0.00049186626305963461 0.008694206331044757 0 -0.00086453379952158621 0.0080836720741444493 0 -0.00049186626305963461 0.008694206331044757 0 -0.00081229456811009984 0.0089676202873078953 0 -0.00063798629211805576 0.006082049433852074 0 -0.00085932968276242812 0.0067344641730587582 0 -0.0011941882941639555 0.0057094986389318305 0 0.00023423593730805101 0.0052363737019157693 0 -0.00053059464885653394 0.0060383149145538688 0 -0.0010099079795688531 0.0052627261132870513 0 -0.00041543514483257646 0.0044826346339113098 0 -0.00023042384983634786 0.0049954708058202926 0 -0.00085932968276242812 0.0067344641730587582 0 -0.00026282902899430832 0.004255041543062053 0 -0.00026282902899430832 0.004255041543062053 0 -0.00060574977299714203 0.0052652345732156405 0 -0.00090798319936604137 0.0042137454242856765 0 -0.0010099079795688531 0.0052627261132870513 0 -0.00041543514483257646 0.0044826346339113098 0 -0.00041843871368972644 0.0039148537492763747 0 -3.5708541050270874e-05 0.0039338112456579026 0 -0.00041543514483257646 0.0044826346339113098 0 -0.00041843871368972644 0.0039148537492763747 0 -0.00090798319936604137 0.0042137454242856765 0 -0.00041543514483257646 0.0044826346339113098 0 0.00060779302171887705 0.0040936723114592616 0 -3.5708541050270874e-05 0.0039338112456579026 0 0.0001878893823438928 0.0045450920370757979 0 -0.00041543514483257646 0.0044826346339113098 0 0.0001878893823438928 0.0045450920370757979 0 -0.00023042384983634786 0.0049954708058202926 0 -3.5708541050270874e-05 0.0039338112456579026 0 -0.00041543514483257646 0.0044826346339113098 0 0.0001878893823438928 0.0045450920370757979 0 1.0909103125439207e-05 0.0030992430335446235 0 -0.00039138383150968405 0.0035412072786264398 0 0.00065227116984673146 0.0036638301355541181 0 -0.00022369457972983922 0.0039586417539674906 0 -0.00055139335390864128 0.0047617536154988781 0 -0.00020185683273861945 0.0027740972231365367 0 -0.00038353030664667749 0.0025226078871725837 0 -0.00081937750102583859 0.0029920305453532553 0 1.0909103125439207e-05 0.0030992430335446235 0 -0.00026282902899430832 0.004255041543062053 0 -0.00021216337787707411 0.0036322634331685949 0 -0.00026282902899430832 0.004255041543062053 0 -0.00020456837483650547 0.0025340774443749665 0 -0.00041475611515583166 0.0026428642994231638 0 -0.00020363978882722227 0.0027079760107069084 0 -0.00046593589658201409 0.002859407525815821 0 -0.00041475611515583166 0.0026428642994231638 0 -0.00020363978882722227 0.0027079760107069084 0 -0.00044351401632214177 0.0028366323920691358 0 -0.00012893957472202229 0.0026845133689944525 0 -0.00020446672869795798 0.0027863098864963753 0 -3.1494160156845394e-05 0.0026370463418803939 0 -8.9647874805138598e-05 0.0027618836311186176 0 -0.00020446672869795798 0.0027863098864963753 0 -0.00020707421513719169 0.0028038323626521583 0 -8.9647874805138598e-05 0.0027618836311186176 0 -0.00020446672869795798 0.0027863098864963753 0 -0.00046593589658201409 0.002859407525815821 0 -3.1494160156845394e-05 0.0026370463418803939 0 -0.00019711755311828058 0.002847617950984975 0 -0.00020643068227929216 0.0030150960953339886 0 -0.00046593589658201409 0.002859407525815821 0 -0.00041475611515583166 0.0026428642994231638 0 -0.00088243070989103671 0.0029021425622198734 0 -0.00046593589658201409 0.002859407525815821 0 -0.00022831272598986552 0.0032820767367963441 0 -0.00064064817376370065 0.0033216587325480941 0 -0.00020446672869795798 0.0027863098864963753 0 -0.00046593589658201409 0.002859407525815821 0 -0.00022831272598986552 0.0032820767367963441 0 -0.00055139335390864128 0.0047617536154988781 0 -0.00083757331711321599 0.0045996718808437795 0 -0.0014727770622168879 0.0052669552770579385 0 -0.00039138383150968405 0.0035412072786264398 0 -0.0010969834935160903 0.0056708581324756936 0 -0.00022369457972983922 0.0039586417539674906 0 -0.00055139335390864128 0.0047617536154988781 0 -0.00083757331711321599 0.0045996718808437795 0 -0.0011941882941639555 0.0057094986389318305 0 -0.00053059464885653394 0.0060383149145538688 0 -0.0012965954376402584 0.0068381005495660677 0 -0.00055139335390864128 0.0047617536154988781 0 -0.0014936748439754296 0.0056200831384682461 0 -0.0014727770622168879 0.0052669552770579385 0 -0.00085932968276242812 0.0067344641730587582 0 -0.00098984748344826262 0.0073620066114989486 0 -0.00049186626305963461 0.008694206331044757 0 -0.00081229456811009984 0.0089676202873078953 0 -0.0006686734852074705 0.0090179637026189721 0 -0.00081229456811009984 0.0089676202873078953 0 -0.0006686734852074705 0.0090179637026189721 0 -0.00074929024497595782 0.0089861940325871286 0 -0.00060574977299714203 0.0052652345732156405 0 -0.00098984748344826262 0.0073620066114989486 0 -0.00069109525133681841 0.0091537454323344213 0 -0.00072223346657358063 0.0090012639916749269 0 -0.000640585268212097 0.0090810890380950329 0 -0.00069109525133681841 0.0091537454323344213 0 -0.00081229456811009984 0.0089676202873078953 0 -0.00072223346657358063 0.0090012639916749269 0 -0.00081229456811009984 0.0089676202873078953 0 -0.0007604644154785323 0.008972823758654578 0 -0.00072223346657358063 0.0090012639916749269 0 -0.0007604644154785323 0.008972823758654578 0 -0.00072223346657358063 0.0090012639916749269 0 -0.00072405032490605297 0.0089575689541445003 0 -0.00081229456811009984 0.0089676202873078953 0 -0.0007604644154785323 0.008972823758654578 0 -0.00074929024497595782 0.0089861940325871286 0 -0.00066842260490811601 0.0089888133339438032 0 -0.00072223346657358063 0.0090012639916749269 0 -0.000640585268212097 0.0090810890380950329 0 -0.00066842260490811601 0.0089888133339438032 0 -0.00072223346657358063 0.0090012639916749269 0 -0.00072405032490605297 0.0089575689541445003 0 -0.00070359478268034554 0.0088831838769846093 0 -0.0007797002667765733 0.0089164443798677665 0 -0.00067821109407619124 0.0088185995334093478 0 -0.00066842260490811601 0.0089888133339438032 0 -0.00068035645546016233 0.0089306728318438479 0 -0.00072405032490605297 0.0089575689541445003 0 -0.00068035645546016233 0.0089306728318438479 0 -0.00072405032490605297 0.0089575689541445003 0 -0.00073583163945974421 0.0089289235534148505 0 -0.00072405032490605297 0.0089575689541445003 0 -0.00075010612418227509 0.008961706764586545 0 -0.00073583163945974421 0.0089289235534148505 0 -0.0007604644154785323 0.008972823758654578 0 -0.00072405032490605297 0.0089575689541445003 0 -0.00075010612418227509 0.008961706764586545 0 -0.0007604644154785323 0.008972823758654578 0 -0.00075010612418227509 0.008961706764586545 0 -0.00074929024497595782 0.0089861940325871286 0 -0.00075010612418227509 0.008961706764586545 0 -0.00073583163945974421 0.0089289235534148505 0 -0.00076992177299299732 0.0089443697469843552 0 -0.00073583163945974421 0.0089289235534148505 0 -0.00070359478268034554 0.0088831838769846093 0 -0.0007797002667765733 0.0089164443798677665 0 -0.00073583163945974421 0.0089289235534148505 0 -0.00076992177299299732 0.0089443697469843552 0 -0.0007797002667765733 0.0089164443798677665 0 -0.00068035645546016233 0.0089306728318438479 0 -0.00073583163945974421 0.0089289235534148505 0 -0.00070359478268034554 0.0088831838769846093 0 -0.00046593589658201409 0.002859407525815821 0 -0.00088243070989103671 0.0029021425622198734 0 -0.0010652083779956747 0.0030612170170499953 0 -0.00046593589658201409 0.002859407525815821 0 -0.0010652083779956747 0.0030612170170499953 0 -0.00064064817376370065 0.0033216587325480941 0 -0.0010969834935160903 0.0056708581324756936 0 -0.00098984748344826262 0.0073620066114989486 0 -0.00098984748344826262 0.0073620066114989486 0 -0.0011645571889712604 0.0086547329089080409 0 -0.0006686734852074705 0.0090179637026189721 0 -0.00074929024497595782 0.0089861940325871286 0 -0.00076992177299299732 0.0089443697469843552 0 -0.00075010612418227509 0.008961706764586545 0 -0.00074929024497595782 0.0089861940325871286 0 -0.00076992177299299732 0.0089443697469843552 0 -0.00076754186530650511 0.0089285229135212772 0 -0.0007664470710097537 0.0089079329674092884 0 -0.00076992177299299732 0.0089443697469843552 0 -0.0010969834935160903 0.0056708581324756936 0 -0.0010005220388578605 0.0057391105290456566 0 -0.00076754186530650511 0.0089285229135212772 0 -0.00076992177299299732 0.0089443697469843552 0 -0.0007797002667765733 0.0089164443798677665 0 -0.0010603129279236653 0.0037328781432099372 0 -0.00034452037985987583 0.0038081008413690118 0 -0.00064064817376370065 0.0033216587325480941 0 -0.0010652083779956747 0.0030612170170499953 0 -0.0010603129279236653 0.0037328781432099372 0 -0.00064064817376370065 0.0033216587325480941 0 -0.0007797002667765733 0.0089164443798677665 0 -0.00067821109407619124 0.0088185995334093478 0 -0.00067007019428661169 0.0087271306280389642 0 -0.0010005220388578605 0.0057391105290456566 0 -0.00090440769469093095 0.0071419556834729486 0 -0.0010652083779956747 0.0030612170170499953 0 -0.0010603129279236653 0.0037328781432099372 0 -0.0018514850614792713 0.0037616456174901216 0 -0.0010603129279236653 0.0037328781432099372 0 -0.0014389185896122507 0.004083437294130114 0 -0.0018514850614792713 0.0037616456174901216 0 -0.0014389185896122507 0.004083437294130114 0 -0.0018514850614792713 0.0037616456174901216 0 -0.001817629413114181 0.0044270738564750048 0 -0.0010603129279236653 0.0037328781432099372 0 -0.0014389185896122507 0.004083437294130114 0 -0.0010331651157193817 0.0044608806074052133 0 -0.0010603129279236653 0.0037328781432099372 0 -0.00034452037985987583 0.0038081008413690118 0 -0.0010331651157193817 0.0044608806074052133 0 -0.00010913080430766885 0.0036874539685280957 0 -0.00045560795517579546 0.0042959720526883601 0 -0.00010913080430766885 0.0036874539685280957 0 3.0882974111688793e-05 0.0040883464789353641 0 -0.00025916703949450704 0.0029081756517061984 0 -0.00019135474370324422 0.0029634002496520965 0 -0.00031562992576244722 0.0030493683036055545 0 0.00021626548858684732 0.0043999658516123722 0 0.00029462371522738533 0.004240272070100479 0 0.00023246296497363782 0.0044452649059643547 0 0.00021626548858684732 0.0043999658516123722 0 0.00029462371522738533 0.004240272070100479 0 4.523304843790983e-05 0.0044646637272216837 0 -0.00019135474370324422 0.0029634002496520965 0 -0.00015944664082223985 0.0028597081931309547 0 -6.3620166702231382e-05 0.0028788331262390361 0 -0.00019135474370324422 0.0029634002496520965 0 -6.2435769391520093e-05 0.0030540439748898279 0 -6.3620166702231382e-05 0.0028788331262390361 0 -0.00025916703949450704 0.0029081756517061984 0 -0.00019135474370324422 0.0029634002496520965 0 -0.00015944664082223985 0.0028597081931309547 0 -0.00015944664082223985 0.0028597081931309547 0 -0.00020707421513719169 0.0028038323626521583 0 -8.9647874805138598e-05 0.0027618836311186176 0 -0.00015944664082223985 0.0028597081931309547 0 -6.3620166702231382e-05 0.0028788331262390361 0 -8.9647874805138598e-05 0.0027618836311186176 0 -0.00025916703949450704 0.0029081756517061984 0 -0.00015944664082223985 0.0028597081931309547 0 -0.00020707421513719169 0.0028038323626521583 0 -0.00010913080430766885 0.0036874539685280957 0 -0.00020643068227929216 0.0030150960953339886 0 -0.00034452037985987583 0.0038081008413690118 0 -0.00022831272598986552 0.0032820767367963441 0 -0.00064064817376370065 0.0033216587325480941 0 -0.00019175051286151129 0.0090528392754896016 0 -0.00039051449901249832 0.0088827913358655152 0 -0.00012471061988541783 0.008901855692867968 0 5.2194304741286102e-05 0.0090634318456835321 0 -0.00019175051286151129 0.0090528392754896016 0 -0.00012471061988541783 0.008901855692867968 0 -0.00019175051286151129 0.0090528392754896016 0 -9.1449013411250109e-05 0.0091836065069085971 0 -0.00024720560016130777 0.0091817872180877756 0 -0.00019175051286151129 0.0090528392754896016 0 -0.00024720560016130777 0.0091817872180877756 0 -0.00038130530285543471 0.0090706689468620424 0 -0.00038085243446446093 0.009264124878428235 0 -0.00024720560016130777 0.0091817872180877756 0 -0.00038130530285543471 0.0090706689468620424 0 -0.00019175051286151129 0.0090528392754896016 0 -0.00038130530285543471 0.0090706689468620424 0 -0.00039051449901249832 0.0088827913358655152 0 -0.00051746178223378825 0.0089674809114706801 0 -0.00038130530285543471 0.0090706689468620424 0 -0.00039051449901249832 0.0088827913358655152 0 -0.00051746178223378825 0.0089674809114706801 0 -0.00053363714014818407 0.0088605232668740163 0 -0.00039051449901249832 0.0088827913358655152 0 -0.00038085243446446093 0.009264124878428235 0 -0.00038130530285543471 0.0090706689468620424 0 -0.00053847272035295515 0.0090745819871379321 0 -0.00051746178223378825 0.0089674809114706801 0 -0.00038130530285543471 0.0090706689468620424 0 -0.00053847272035295515 0.0090745819871379321 0 -0.00056938986586223261 0.009205808703026553 0 -0.00053847272035295515 0.0090745819871379321 0 -0.000640585268212097 0.0090810890380950329 0 -0.00066842260490811601 0.0089888133339438032 0 -0.00053847272035295515 0.0090745819871379321 0 -0.000640585268212097 0.0090810890380950329 0 -0.00066842260490811601 0.0089888133339438032 0 -0.00053847272035295515 0.0090745819871379321 0 -0.00060640823199527196 0.0089579620962567125 0 -0.00066842260490811601 0.0089888133339438032 0 -0.00068035645546016233 0.0089306728318438479 0 -0.00060640823199527196 0.0089579620962567125 0 -0.00051746178223378825 0.0089674809114706801 0 -0.00053847272035295515 0.0090745819871379321 0 -0.00060640823199527196 0.0089579620962567125 0 -0.00051746178223378825 0.0089674809114706801 0 -0.00062486727812814604 0.0088700154993615922 0 -0.00053363714014818407 0.0088605232668740163 0 -0.00051746178223378825 0.0089674809114706801 0 -0.00060640823199527196 0.0089579620962567125 0 -0.00062486727812814604 0.0088700154993615922 0 -0.00068035645546016233 0.0089306728318438479 0 -0.00060640823199527196 0.0089579620962567125 0 -0.00062486727812814604 0.0088700154993615922 0 -0.00068035645546016233 0.0089306728318438479 0 -0.00070359478268034554 0.0088831838769846093 0 -0.00062486727812814604 0.0088700154993615922 0 -0.00060952588794043242 0.0087931068505842334 0 -0.00067643496350705632 0.0087245365193960259 0 -0.00054000232841841338 0.0087406045875902047 0 -0.00062486727812814604 0.0088700154993615922 0 -0.00067821109407619124 0.0088185995334093478 0 -0.00060952588794043242 0.0087931068505842334 0 -0.00070359478268034554 0.0088831838769846093 0 -0.00062486727812814604 0.0088700154993615922 0 -0.00067821109407619124 0.0088185995334093478 0 -0.00062486727812814604 0.0088700154993615922 0 -0.00060952588794043242 0.0087931068505842334 0 -0.00053363714014818407 0.0088605232668740163 0 -0.00067821109407619124 0.0088185995334093478 0 -0.00060952588794043242 0.0087931068505842334 0 -0.00066561595752345987 0.0087573810149365397 0 -0.00067821109407619124 0.0088185995334093478 0 -0.00066561595752345987 0.0087573810149365397 0 -0.00067007019428661169 0.0087271306280389642 0 -0.00060952588794043242 0.0087931068505842334 0 -0.00066561595752345987 0.0087573810149365397 0 -0.00067643496350705632 0.0087245365193960259 0 -0.00085374682711193673 0.0077376830524819194 0 -0.00090440769469093095 0.0071419556834729486 0 -0.00095982514877794611 0.0087752767683003403 0 -0.00056891785049357764 0.008481836565810412 0 -0.00098472044036982125 0.0084386010576260519 0 -0.00090440769469093095 0.0071419556834729486 0 -0.0014395182060765684 0.0063234251893143998 0 -0.00090440769469093095 0.0071419556834729486 0 -0.00068334453418402732 0.0090113302310791156 0 -0.00044079636145592435 0.008658342516635345 0 -0.00054000232841841338 0.0087406045875902047 0 -0.00056891785049357764 0.008481836565810412 0 -0.00067643496350705632 0.0087245365193960259 0 -0.00054000232841841338 0.0087406045875902047 0 -0.00056891785049357764 0.008481836565810412 0 -0.00044079636145592435 0.008658342516635345 0 -0.00054000232841841338 0.0087406045875902047 0 -0.00039051449901249832 0.0088827913358655152 0 -0.00054000232841841338 0.0087406045875902047 0 -0.00053363714014818407 0.0088605232668740163 0 -0.00039051449901249832 0.0088827913358655152 0 -0.00060952588794043242 0.0087931068505842334 0 -0.00054000232841841338 0.0087406045875902047 0 -0.00053363714014818407 0.0088605232668740163 0 -0.00039051449901249832 0.0088827913358655152 0 -0.00024304984952587907 0.0086635947673313445 0 -0.00012471061988541783 0.008901855692867968 0 -0.00044079636145592435 0.008658342516635345 0 -0.00039051449901249832 0.0088827913358655152 0 -0.00024304984952587907 0.0086635947673313445 0 -0.00044079636145592435 0.008658342516635345 0 -0.00024304984952587907 0.0086635947673313445 0 -0.0003950962704324515 0.0083676553579856549 0 -4.8015721433589836e-05 0.0087370045762638557 0 -0.00024304984952587907 0.0086635947673313445 0 -7.667489172187324e-05 0.0085197121242798594 0 -0.00024304984952587907 0.0086635947673313445 0 -7.667489172187324e-05 0.0085197121242798594 0 -0.00021789782796565344 0.0084511282874976598 0 -4.8015721433589836e-05 0.0087370045762638557 0 -0.00024304984952587907 0.0086635947673313445 0 -0.00012471061988541783 0.008901855692867968 0 2.051987184702834e-05 0.0080438285002601799 0 -0.0001477449960800624 0.0082436939928162249 0 -0.00012727352966473551 0.0079782257713536409 0 -0.0001477449960800624 0.0082436939928162249 0 -0.00033249554071398339 0.0081092382103416568 0 -0.00012727352966473551 0.0079782257713536409 0 3.3938377704258114e-05 0.0083566261856063764 0 -0.0001477449960800624 0.0082436939928162249 0 -7.667489172187324e-05 0.0085197121242798594 0 -0.0001477449960800624 0.0082436939928162249 0 -7.667489172187324e-05 0.0085197121242798594 0 -0.00021789782796565344 0.0084511282874976598 0 -0.00024304984952587907 0.0086635947673313445 0 -0.00021789782796565344 0.0084511282874976598 0 -0.0003950962704324515 0.0083676553579856549 0 -0.0001477449960800624 0.0082436939928162249 0 -0.00021789782796565344 0.0084511282874976598 0 -0.0003950962704324515 0.0083676553579856549 0 -0.0001477449960800624 0.0082436939928162249 0 -0.0003950962704324515 0.0083676553579856549 0 -0.00033249554071398339 0.0081092382103416568 0 -0.0003950962704324515 0.0083676553579856549 0 -0.00033249554071398339 0.0081092382103416568 0 -0.00051503242648699504 0.0082265807967341065 0 -0.00033249554071398339 0.0081092382103416568 0 -0.00055347381444613582 0.007974370738825471 0 -0.00051503242648699504 0.0082265807967341065 0 -0.00055347381444613582 0.007974370738825471 0 -0.0007145404191166864 0.0081818091305907621 0 -0.0007544539678866946 0.0078495222091279938 0 -0.00055347381444613582 0.007974370738825471 0 -0.0007145404191166864 0.0081818091305907621 0 -0.00051503242648699504 0.0082265807967341065 0 -0.0007145404191166864 0.0081818091305907621 0 -0.00051503242648699504 0.0082265807967341065 0 -0.00056891785049357764 0.008481836565810412 0 -0.0007145404191166864 0.0081818091305907621 0 -0.00056891785049357764 0.008481836565810412 0 -0.00084274539754191854 0.0082871748765731539 0 -0.00044079636145592435 0.008658342516635345 0 -0.0003950962704324515 0.0083676553579856549 0 -0.00056891785049357764 0.008481836565810412 0 -0.0003950962704324515 0.0083676553579856549 0 -0.00051503242648699504 0.0082265807967341065 0 -0.00056891785049357764 0.008481836565810412 0 -0.00056891785049357764 0.008481836565810412 0 -0.00084274539754191854 0.0082871748765731539 0 -0.00098472044036982125 0.0084386010576260519 0 -0.0014395182060765684 0.0063234251893143998 0 -0.00088585453971375225 0.0062891796572552673 0 -0.00084274539754191854 0.0082871748765731539 0 -0.00098472044036982125 0.0084386010576260519 0 -0.0010162408104337536 0.0080936088883896695 0 -0.0007145404191166864 0.0081818091305907621 0 -0.00084274539754191854 0.0082871748765731539 0 -0.0010162408104337536 0.0080936088883896695 0 -0.00088585453971375225 0.0062891796572552673 0 -0.0010285501070226195 0.0082750822337635966 0 -0.0007145404191166864 0.0081818091305907621 0 -0.0010162408104337536 0.0080936088883896695 0 -0.0007544539678866946 0.0078495222091279938 0 -0.00093030149837476661 0.0080486398658454819 0 -0.00093376720044180015 0.0080145498765299781 0 -0.0007544539678866946 0.0078495222091279938 0 -0.00088585453971375225 0.0062891796572552673 0 -0.00058276184226677076 0.006057793853252732 0 -6.1353769142544597e-05 0.0061124352965570665 0 4.2124576561092426e-05 0.0060391944910499588 0 2.6657035771154626e-05 0.0061335947415387809 0 -0.00093376720044180015 0.0080145498765299781 0 -0.00068380079941912869 0.0077137240669651729 0 -0.0007544539678866946 0.0078495222091279938 0 -0.00058276184226677076 0.006057793853252732 0 -0.00031825413573853735 0.0071027930284888784 0 -6.1783533559388838e-05 0.006183797192199335 0 -6.1353769142544597e-05 0.0061124352965570665 0 2.6657035771154626e-05 0.0061335947415387809 0 -0.00058276184226677076 0.006057793853252732 0 -9.71930089985705e-05 0.0054224978838581118 0 4.2124576561092426e-05 0.0060391944910499588 0 3.2396595219705426e-07 0.0063192937416744711 0 -3.3999135079575181e-07 0.0055969635047021012 0 -6.1353769142544597e-05 0.0061124352965570665 0 4.2124576561092426e-05 0.0060391944910499588 0 -3.3999135079575181e-07 0.0055969635047021012 0 4.2124576561092426e-05 0.0060391944910499588 0 3.2396595219705426e-07 0.0063192937416744711 0 2.6657035771154626e-05 0.0061335947415387809 0 -0.00055347381444613582 0.007974370738825471 0 -0.00068380079941912869 0.0077137240669651729 0 -0.0007544539678866946 0.0078495222091279938 0 -0.00033249554071398339 0.0081092382103416568 0 -0.00025620343343082426 0.0077986222632841955 0 -0.00012727352966473551 0.0079782257713536409 0 -0.00033249554071398339 0.0081092382103416568 0 -0.00055347381444613582 0.007974370738825471 0 -0.00025620343343082426 0.0077986222632841955 0 -0.00055347381444613582 0.007974370738825471 0 -0.00068380079941912869 0.0077137240669651729 0 -0.00025620343343082426 0.0077986222632841955 0 -0.00031825413573853735 0.0071027930284888784 0 1.4896168330744754e-07 0.0070421600543597602 0 -0.00068380079941912869 0.0077137240669651729 0 -0.00025620343343082426 0.0077986222632841955 0 -3.2425912727342634e-07 0.0070443095908097478 0 3.2396595219705426e-07 0.0063192937416744711 0 2.6657035771154626e-05 0.0061335947415387809 0 -3.262183295061872e-07 0.0070416919908476002 0 -0.00025620343343082426 0.0077986222632841955 0 -3.2425912727342634e-07 0.0070443095908097478 0 3.0015949513129421e-05 0.0077418472408135475 0 3.2308263735095567e-05 0.0080349456155340004 0 -3.2425912727342634e-07 0.0070443095908097478 0 3.0015949513129421e-05 0.0077418472408135475 0 -0.00025620343343082426 0.0077986222632841955 0 3.0015949513129421e-05 0.0077418472408135475 0 -0.00012727352966473551 0.0079782257713536409 0 2.051987184702834e-05 0.0080438285002601799 0 3.0015949513129421e-05 0.0077418472408135475 0 -0.00012727352966473551 0.0079782257713536409 0 1.2380656789483163e-06 0.0048677341029219751 0 3.491211247614875e-05 0.0049182108287292078 0 5.8441676222965608e-05 0.004868916380598675 0 1.2380656789483163e-06 0.0048677341029219751 0 5.8441676222965608e-05 0.004868916380598675 0 4.0137078979374173e-05 0.0048042818210582072 0 -0.00026663251014054167 0.0032264804836165603 0 -0.00017706830069123285 0.0031045521100256713 0 -4.2892443355687329e-05 0.0032443904919278715 0 -0.00026663251014054167 0.0032264804836165603 0 -0.00021700741158684121 0.0034284097004946708 0 -4.2892443355687329e-05 0.0032443904919278715 0 -0.00017706830069123285 0.0031045521100256713 0 -4.2892443355687329e-05 0.0032443904919278715 0 -6.2435769391520093e-05 0.0030540439748898279 0 -0.00019135474370324422 0.0029634002496520965 0 -0.00017706830069123285 0.0031045521100256713 0 -6.2435769391520093e-05 0.0030540439748898279 0 -0.00015374848390884127 0.0040171503808814632 0 3.0882974111688793e-05 0.0040883464789353641 0 -0.00019135474370324422 0.0029634002496520965 0 -0.00017706830069123285 0.0031045521100256713 0 -0.00031562992576244722 0.0030493683036055545 0 3.0882974111688793e-05 0.0040883464789353641 0 8.1929509962673931e-05 0.0048595886742552625 0 -0.00026663251014054167 0.0032264804836165603 0 -0.00017706830069123285 0.0031045521100256713 0 -0.00031562992576244722 0.0030493683036055545 0 9.3186461589025803e-05 0.004237131566695568 0 3.0882974111688793e-05 0.0040883464789353641 0 0.00021626548858684732 0.0043999658516123722 0 0.00023237849252729205 0.0044472775180627337 0 4.523304843790983e-05 0.0044646637272216837 0 0.00023237849252729205 0.0044472775180627337 0 4.523304843790983e-05 0.0044646637272216837 0 8.6751033258644601e-05 0.00457036292957447 0 0.00023237849252729205 0.0044472775180627337 0 8.6751033258644601e-05 0.00457036292957447 0 0.00015545099206307506 0.0046616940969964119 0 4.523304843790983e-05 0.0044646637272216837 0 8.6751033258644601e-05 0.00457036292957447 0 -5.9493092993906779e-05 0.0046037849101024167 0 -0.001817629413114181 0.0044270738564750048 0 -0.001773698176251727 0.005116796490635094 0 -0.0010331651157193817 0.0044608806074052133 0 -0.00088585453971375225 0.0062891796572552673 0 -0.00045560795517579546 0.0042959720526883601 0 -0.00021183560533134934 0.0047097245683844144 0 4.523304843790983e-05 0.0044646637272216837 0 -5.9493092993906779e-05 0.0046037849101024167 0 -0.0014389185896122507 0.004083437294130114 0 -0.001817629413114181 0.0044270738564750048 0 -0.0010331651157193817 0.0044608806074052133 0 -5.9493092993906779e-05 0.0046037849101024167 0 -2.7878382855893574e-05 0.0047677599527435549 0 4.2261503679317398e-05 0.0046679902747508752 0 -0.00018868045295595474 0.0047058930312771441 0 -5.9493092993906779e-05 0.0046037849101024167 0 -2.7878382855893574e-05 0.0047677599527435549 0 -0.00058276184226677076 0.006057793853252732 0 0.00022181794921314422 0.0044449196943690053 0 -0.00021183560533134934 0.0047097245683844144 0 -0.00020971689433451178 0.0047456908194568534 0 -5.9493092993906779e-05 0.0046037849101024167 0 5.8441676222965608e-05 0.004868916380598675 0 9.4243694074486116e-05 0.0048254004230734405 0 4.0137078979374173e-05 0.0048042818210582072 0 8.1929509962673931e-05 0.0048595886742552625 0 0.00010553905047343468 0.0047843591090195236 0 0.00015545099206307506 0.0046616940969964119 0 4.2261503679317398e-05 0.0046679902747508752 0 9.4243694074486116e-05 0.0048254004230734405 0 -2.7878382855893574e-05 0.0047677599527435549 0 4.2261503679317398e-05 0.0046679902747508752 0 9.4243694074486116e-05 0.0048254004230734405 0 8.6751033258644601e-05 0.00457036292957447 0 0.00015545099206307506 0.0046616940969964119 0 4.2261503679317398e-05 0.0046679902747508752 0 8.6751033258644601e-05 0.00457036292957447 0 -5.9493092993906779e-05 0.0046037849101024167 0 4.2261503679317398e-05 0.0046679902747508752 0 9.4243694074486116e-05 0.0048254004230734405 0 6.4591264220982122e-05 0.0049723928912347214 0 6.5102347911508564e-05 0.0047085199288440238 0 -2.7878382855893574e-05 0.0047677599527435549 0 9.4243694074486116e-05 0.0048254004230734405 0 6.4591264220982122e-05 0.0049723928912347214 0 -0.00018868045295595474 0.0047058930312771441 0 -0.00018210894520616109 0.0049494691832488091 0 -2.7878382855893574e-05 0.0047677599527435549 0 -0.00018210894520616109 0.0049494691832488091 0 -2.7878382855893574e-05 0.0047677599527435549 0 6.4591264220982122e-05 0.0049723928912347214 0 -9.71930089985705e-05 0.0054224978838581118 0 -6.1785617497002374e-08 0.0055961606192499302 0 -0.00018210894520616109 0.0049494691832488091 0 -6.4968986367314203e-07 0.0055950065063874871 0 6.4591264220982122e-05 0.0049723928912347214 0 -6.4968986367314203e-07 0.0055950065063874871 0 6.4591264220982122e-05 0.0049723928912347214 0 6.1654546387448434e-07 0.0047686486784433487 0 6.4591264220982122e-05 0.0049723928912347214 0 6.1654546387448434e-07 0.0047686486784433487 0 6.5102347911508564e-05 0.0047085199288440238 0 6.5102347911508564e-05 0.0047085199288440238 0 -8.8670758037939537e-05 0.0046913254850223744 0 -6.1673752345935477e-07 0.0039422685918825556 0 6.1654546387448434e-07 0.0047686486784433487 0 6.5102347911508564e-05 0.0047085199288440238 0 -6.1673752345935477e-07 0.0039422685918825556 0 1.2380656789483163e-06 0.0048677341029219751 0 4.0137078979374173e-05 0.0048042818210582072 0 -8.8670758037939537e-05 0.0046913254850223744 0 -0.00015374848390884127 0.0040171503808814632 0 -0.00012214985400941546 0.0040658802508803183 0 9.4243694074486116e-05 0.0048254004230734405 0 6.5102347911508564e-05 0.0047085199288440238 0 4.0137078979374173e-05 0.0048042818210582072 0 6.5102347911508564e-05 0.0047085199288440238 0 4.0137078979374173e-05 0.0048042818210582072 0 -8.8670758037939537e-05 0.0046913254850223744 0 -0.00021700741158684121 0.0034284097004946708 0 2.2461902491896378e-05 0.0034240825540279578 0 -4.2892443355687329e-05 0.0032443904919278715 0 -0.00021700741158684121 0.0034284097004946708 0 -5.9354687534406458e-07 0.0039402602679504597 0 2.2461902491896378e-05 0.0034240825540279578 0 -0.00012214985400941546 0.0040658802508803183 0 -6.6463210970647386e-08 0.0039412973959263584 0 -5.9354687534406458e-07 0.0039402602679504597 0 5.2849753865023963e-07 0.0033823040915344741 0 2.2461902491896378e-05 0.0034240825540279578 0 5.2849753865023963e-07 0.0033823040915344741 0 8.840725077713301e-05 0.0032934191607824899 0 2.2461902491896378e-05 0.0034240825540279578 0 5.2849753865023963e-07 0.0033823040915344741 0 -4.6648111195803628e-07 0.0028251699384207549 0 8.840725077713301e-05 0.0032934191607824899 0 6.0994128400706544e-09 0.0028238005986356888 0 2.3526572505943238e-05 0.0027429451509610034 0 8.840725077713301e-05 0.0032934191607824899 0 2.2461902491896378e-05 0.0034240825540279578 0 -4.2892443355687329e-05 0.0032443904919278715 0 -4.863220300698062e-08 0.0028225377556905101 0 -3.3929815918798029e-07 0.0019526178286839557 0 3.5733986785958743e-05 0.0020866347495602307 0 3.5733986785958743e-05 0.0020866347495602307 0 -2.5475313065189555e-05 0.0021023251080565654 0 -0.000150091209665395 0.0016502453775759467 0 -3.3929815918798029e-07 0.0019526178286839557 0 3.5733986785958743e-05 0.0020866347495602307 0 -0.000150091209665395 0.0016502453775759467 0 -4.863220300698062e-08 0.0028225377556905101 0 -5.327729230534002e-05 0.0021867994938971997 0 5.4388650707245819e-05 0.002182177275842139 0 -4.863220300698062e-08 0.0028225377556905101 0 3.5733986785958743e-05 0.0020866347495602307 0 5.4388650707245819e-05 0.002182177275842139 0 -5.327729230534002e-05 0.0021867994938971997 0 5.4388650707245819e-05 0.002182177275842139 0 6.4728722621384982e-06 0.0022051494386431171 0 5.4388650707245819e-05 0.002182177275842139 0 -2.5475313065189555e-05 0.0021023251080565654 0 6.4728722621384982e-06 0.0022051494386431171 0 3.5733986785958743e-05 0.0020866347495602307 0 5.4388650707245819e-05 0.002182177275842139 0 -2.5475313065189555e-05 0.0021023251080565654 0 -0.00010176687376841328 0.0022877793901778542 0 6.4728722621384982e-06 0.0022051494386431171 0 -3.5688227775176102e-05 0.0023424796215615212 0 -2.5475313065189555e-05 0.0021023251080565654 0 -0.00010176687376841328 0.0022877793901778542 0 6.4728722621384982e-06 0.0022051494386431171 0 6.4728722621384982e-06 0.0022051494386431171 0 -3.5688227775176102e-05 0.0023424796215615212 0 6.5952799482895029e-05 0.0022730599182887636 0 -5.327729230534002e-05 0.0021867994938971997 0 6.4728722621384982e-06 0.0022051494386431171 0 6.5952799482895029e-05 0.0022730599182887636 0 -3.5688227775176102e-05 0.0023424796215615212 0 6.5952799482895029e-05 0.0022730599182887636 0 -7.209755555190793e-08 0.0024330137137932519 0 -3.5688227775176102e-05 0.0023424796215615212 0 -0.00010746518102033134 0.0023751092727513769 0 -6.6990663114622248e-05 0.0024326448914426023 0 -0.00010176687376841328 0.0022877793901778542 0 -3.5688227775176102e-05 0.0023424796215615212 0 -0.00010746518102033134 0.0023751092727513769 0 -4.2892443355687329e-05 0.0032443904919278715 0 0.00011156530443109605 0.0031601721649897312 0 -6.2435769391520093e-05 0.0030540439748898279 0 8.840725077713301e-05 0.0032934191607824899 0 -4.2892443355687329e-05 0.0032443904919278715 0 0.00011156530443109605 0.0031601721649897312 0 2.3526572505943238e-05 0.0027429451509610034 0 8.3124302479571608e-05 0.0027197773031086897 0 6.5952799482895029e-05 0.0022730599182887636 0 0.00010116451301977817 0.0024513496486869824 0 -7.209755555190793e-08 0.0024330137137932519 0 8.3124302479571608e-05 0.0027197773031086897 0 9.87236810431307e-05 0.002699772446996158 0 0.00011156530443109605 0.0031601721649897312 0 -6.2435769391520093e-05 0.0030540439748898279 0 0.00011040877340270199 0.0029522905594718202 0 -6.2435769391520093e-05 0.0030540439748898279 0 -6.3620166702231382e-05 0.0028788331262390361 0 0.00011040877340270199 0.0029522905594718202 0 -6.3620166702231382e-05 0.0028788331262390361 0 6.2842195684140515e-05 0.0026777687590212674 0 -8.9647874805138598e-05 0.0027618836311186176 0 7.2762061223909737e-05 0.0026764090789593957 0 9.87236810431307e-05 0.002699772446996158 0 -6.3620166702231382e-05 0.0028788331262390361 0 6.2842195684140515e-05 0.0026777687590212674 0 0.00011040877340270199 0.0029522905594718202 0 6.2842195684140515e-05 0.0026777687590212674 0 0.00010116451301977817 0.0024513496486869824 0 1.1322293149029049e-05 0.0025440846845649965 0 -3.5688227775176102e-05 0.0023424796215615212 0 -7.209755555190793e-08 0.0024330137137932519 0 -6.6990663114622248e-05 0.0024326448914426023 0 -7.209755555190793e-08 0.0024330137137932519 0 -5.1782538540067358e-05 0.0025170621685063842 0 1.1322293149029049e-05 0.0025440846845649965 0 0.00010116451301977817 0.0024513496486869824 0 -7.209755555190793e-08 0.0024330137137932519 0 1.1322293149029049e-05 0.0025440846845649965 0 -6.6990663114622248e-05 0.0024326448914426023 0 -5.1782538540067358e-05 0.0025170621685063842 0 -0.00013041957445683103 0.0024563742890372081 0 -0.00010746518102033134 0.0023751092727513769 0 -6.6990663114622248e-05 0.0024326448914426023 0 -0.00013041957445683103 0.0024563742890372081 0 -7.209755555190793e-08 0.0024330137137932519 0 -6.6990663114622248e-05 0.0024326448914426023 0 -5.1782538540067358e-05 0.0025170621685063842 0 -5.1782538540067358e-05 0.0025170621685063842 0 -0.00010769460694820246 0.0025187442690256809 0 -0.00013041957445683103 0.0024563742890372081 0 -5.1782538540067358e-05 0.0025170621685063842 0 -7.139120277491785e-05 0.0025536996056129998 0 -0.00010769460694820246 0.0025187442690256809 0 -5.1782538540067358e-05 0.0025170621685063842 0 -7.139120277491785e-05 0.0025536996056129998 0 -1.4731494687160698e-05 0.0025912870466515874 0 6.2842195684140515e-05 0.0026777687590212674 0 1.1322293149029049e-05 0.0025440846845649965 0 -1.4731494687160698e-05 0.0025912870466515874 0 -5.1782538540067358e-05 0.0025170621685063842 0 1.1322293149029049e-05 0.0025440846845649965 0 -1.4731494687160698e-05 0.0025912870466515874 0 -1.4731494687160698e-05 0.0025912870466515874 0 7.1343496192112358e-06 0.0026210503189829388 0 -5.7962876000054374e-05 0.0025669071738266972 0 6.2842195684140515e-05 0.0026777687590212674 0 -1.4731494687160698e-05 0.0025912870466515874 0 7.1343496192112358e-06 0.0026210503189829388 0 7.1343496192112358e-06 0.0026210503189829388 0 -5.7962876000054374e-05 0.0025669071738266972 0 -3.5484727513263541e-05 0.0026168030053572307 0 -7.139120277491785e-05 0.0025536996056129998 0 -1.4731494687160698e-05 0.0025912870466515874 0 -5.7962876000054374e-05 0.0025669071738266972 0 -7.139120277491785e-05 0.0025536996056129998 0 -5.7962876000054374e-05 0.0025669071738266972 0 -0.00013616515382431198 0.0025535537150449222 0 -2.3910825355917125e-05 0.0026186099041178349 0 -3.5484727513263541e-05 0.0026168030053572307 0 -8.4789675749468579e-05 0.0026349633978994995 0 0.00010071197143902299 0.001102375091577608 0 0.00026995906882343578 0.0012891893830119332 0 -5.7962876000054374e-05 0.0025669071738266972 0 -3.5484727513263541e-05 0.0026168030053572307 0 -8.4789675749468579e-05 0.0026349633978994995 0 -2.3910825355917125e-05 0.0026186099041178349 0 -3.5484727513263541e-05 0.0026168030053572307 0 -6.2153772278326744e-06 0.0026229522331421172 0 7.1343496192112358e-06 0.0026210503189829388 0 -6.2153772278326744e-06 0.0026229522331421172 0 2.0212656326492719e-05 0.0026314247497225933 0 -2.1928144226434856e-05 0.0026218769770650955 0 -2.6929272054062176e-05 0.0026349559960437549 0 -2.3910825355917125e-05 0.0026186099041178349 0 -6.2153772278326744e-06 0.0026229522331421172 0 2.0212656326492719e-05 0.0026314247497225933 0 7.1343496192112358e-06 0.0026210503189829388 0 -3.5484727513263541e-05 0.0026168030053572307 0 -6.2153772278326744e-06 0.0026229522331421172 0 7.1343496192112358e-06 0.0026210503189829388 0 2.0212656326492719e-05 0.0026314247497225933 0 1.9272474946017862e-05 0.0026526471043518567 0 -2.6929272054062176e-05 0.0026349559960437549 0 -0.00012893957472202229 0.0026845133689944525 0 2.0212656326492719e-05 0.0026314247497225933 0 -3.1494160156845394e-05 0.0026370463418803939 0 1.9272474946017862e-05 0.0026526471043518567 0 -7.2411839505239083e-05 0.0026429835669670942 0 -0.00020363978882722227 0.0027079760107069084 0 -0.00015150592186200442 0.0026213431889334504 0 -0.00020456837483650547 0.0025340774443749665 0 -0.00020363978882722227 0.0027079760107069084 0 -0.00015150592186200442 0.0026213431889334504 0 -3.1494160156845394e-05 0.0026370463418803939 0 1.9272474946017862e-05 0.0026526471043518567 0 -8.9647874805138598e-05 0.0027618836311186176 0 6.2842195684140515e-05 0.0026777687590212674 0 1.9272474946017862e-05 0.0026526471043518567 0 -8.9647874805138598e-05 0.0027618836311186176 0 6.2842195684140515e-05 0.0026777687590212674 0 7.1343496192112358e-06 0.0026210503189829388 0 1.9272474946017862e-05 0.0026526471043518567 0 -0.0010809398350988513 -0.0020986353146987221 0 -0.000818532419600461 -0.0021959096728512368 0 -0.00085125659591357033 -0.0024440716148666545 0 -0.0010809398350988513 -0.0020986353146987221 0 -0.00085125659591357033 -0.0024440716148666545 0 -0.0012422191469285697 -0.0023571708060474584 0 -0.0010809398350988513 -0.0020986353146987221 0 -0.000818532419600461 -0.0021959096728512368 0 -0.00067706448789420454 -0.0019731816506535051 0 -0.00049945469958388277 -0.0023539051093378733 0 -0.00067706448789420454 -0.0019731816506535051 0 -0.00015689155742263061 -0.0017164645875788625 0 -0.000818532419600461 -0.0021959096728512368 0 -0.00049945469958388277 -0.0023539051093378733 0 -0.00067706448789420454 -0.0019731816506535051 0 -0.000818532419600461 -0.0021959096728512368 0 -0.00049945469958388277 -0.0023539051093378733 0 -0.00085125659591357033 -0.0024440716148666545 0 -0.00049945469958388277 -0.0023539051093378733 0 -0.0006559783091007889 -0.0026225261835520421 0 -0.00085125659591357033 -0.0024440716148666545 0 -0.00042957454805924339 -0.0028590503721771126 0 -0.00084616982640160602 -0.0028263985024753551 0 -0.0006559783091007889 -0.0026225261835520421 0 -0.00042957454805924339 -0.0028590503721771126 0 -0.00049945469958388277 -0.0023539051093378733 0 -0.0006559783091007889 -0.0026225261835520421 0 -0.00075622391221174591 -0.002829558055264263 0 -0.00032849069911651747 -0.0011074791629958401 0 -0.00074270162727823968 -0.0027732052919399938 0 -0.00060102740176231305 -0.00255677614405049 0 -0.00088594072807907478 -0.0021697145349419914 0 -0.00084616982640160602 -0.0028263985024753551 0 -0.00085125659591357033 -0.0024440716148666545 0 -0.0012422191469285697 -0.0023571708060474584 0 -0.00084616982640160602 -0.0028263985024753551 0 -0.0006559783091007889 -0.0026225261835520421 0 -0.00085125659591357033 -0.0024440716148666545 0 0.00063436305623273742 -0.00039426142386195164 0 0.00054166414499840952 -0.00028283042235668974 0 0.00058117732254498497 -0.00019935904104934112 0 -7.888135548594433e-05 -0.0016052440838703892 0 -0.00032849069911651747 -0.0011074791629958401 0 0.00054166414499840952 -0.00028283042235668974 0 0.0005625351840735115 -0.00017537577111512403 0 0.00058117732254498497 -0.00019935904104934112 0 0.00054166414499840952 -0.00028283042235668974 0 0.00043847442621459525 -0.00025578866705153609 0 0.0005625351840735115 -0.00017537577111512403 0 0.00026995906882343578 0.0012891893830119332 0 -0.00022023793931910435 0.00057151073193970438 0 -8.4789675749468579e-05 0.0026349633978994995 0 -0.00015930103320044777 0.0025294869124001047 0 -0.00032987201791541664 0.0025111797840985284 0 -5.7962876000054374e-05 0.0025669071738266972 0 -8.4789675749468579e-05 0.0026349633978994995 0 -0.00015930103320044777 0.0025294869124001047 0 -5.7962876000054374e-05 0.0025669071738266972 0 -0.00015930103320044777 0.0025294869124001047 0 -0.00018092362951703265 0.0024526270872901952 0 -0.00015930103320044777 0.0025294869124001047 0 -0.00018092362951703265 0.0024526270872901952 0 -0.00032987201791541664 0.0025111797840985284 0 -0.00018092362951703265 0.0024526270872901952 0 -0.00015231003456316622 0.002358359146132207 0 -0.0002439676051938678 0.0023718655964787673 0 -5.7962876000054374e-05 0.0025669071738266972 0 -0.00018092362951703265 0.0024526270872901952 0 -0.00015231003456316622 0.002358359146132207 0 -0.00013107492348258713 0.0024841197762132329 0 3.5882678513570287e-05 0.0026315189354283483 0 -0.0010809398350988513 -0.0020986353146987221 0 -0.0012729119925210743 -0.002228583397295719 0 -0.0012422191469285697 -0.0023571708060474584 0 -0.00067158338613126976 -0.00018665783506136873 0 -0.00032849069911651747 -0.0011074791629958401 0 -0.00084268203267677522 0.00018257697333873971 0 -0.00045603516153361177 0.00043876191504279416 0 -0.00020639043459901295 -0.00062810400526694757 0 -0.00022023793931910435 0.00057151073193970438 0 -0.00067158338613126976 -0.00018665783506136873 0 -0.00022023793931910435 0.00057151073193970438 0 -0.00032849069911651747 -0.0011074791629958401 0 -0.00022023793931910435 0.00057151073193970438 0 -0.00065336314485272445 0.0025500894077242742 0 -0.00018092362951703265 0.0024526270872901952 0 -0.00032987201791541664 0.0025111797840985284 0 -0.0002439676051938678 0.0023718655964787673 0 -0.00033747877955963039 0.0024742566873098091 0 -0.00035630640419440681 0.002462915076966601 0 -0.0002439676051938678 0.0023718655964787673 0 -0.0010809398350988513 -0.0020986353146987221 0 -0.0012894626670378404 -0.0022305094531666252 0 -0.0011972562269842151 -0.0018556832831237422 0 -0.0015353848859802623 -0.0016194457157900869 0 -0.00067158338613126976 -0.00018665783506136873 0 -0.00067158338613126976 -0.00018665783506136873 0 -0.00060511216241371615 0.00059502961536321206 0 -0.0012894626670378404 -0.0022305094531666252 0 -0.0011972562269842151 -0.0018556832831237422 0 -0.0014518596008655574 -0.0015675772441418466 0 -0.00035630640419440681 0.002462915076966601 0 -0.00030240926798190198 0.0021952192161979116 0 -0.0002439676051938678 0.0023718655964787673 0 -0.0011972562269842151 -0.0018556832831237422 0 -0.0014518596008655574 -0.0015675772441418466 0 -0.00094192557858861433 -0.0016162175800425505 0 -0.00021772876642324585 0.0024815199874987071 0 -0.00015245380628871178 0.0025009750032748568 0 -0.00013041957445683103 0.0024563742890372081 0 -7.139120277491785e-05 0.0025536996056129998 0 -0.00013616515382431198 0.0025535537150449222 0 -0.00010769460694820246 0.0025187442690256809 0 -0.00013616515382431198 0.0025535537150449222 0 -0.00015245380628871178 0.0025009750032748568 0 -0.00010769460694820246 0.0025187442690256809 0 -0.00030240926798190198 0.0021952192161979116 0 -0.00015231003456316622 0.002358359146132207 0 -0.0002439676051938678 0.0023718655964787673 0 -0.00060511216241371615 0.00059502961536321206 0 3.5882678513570287e-05 0.0026315189354283483 0 -0.00021772876642324585 0.0024815199874987071 0 -0.00013616515382431198 0.0025535537150449222 0 -0.00015245380628871178 0.0025009750032748568 0 -0.00015245380628871178 0.0025009750032748568 0 -0.00010769460694820246 0.0025187442690256809 0 -0.00013041957445683103 0.0024563742890372081 0 -0.00021772876642324585 0.0024815199874987071 0 -0.00013041957445683103 0.0024563742890372081 0 -0.00020134438949442451 0.002353048172570477 0 -0.00060511216241371615 0.00059502961536321206 0 -0.00072239418968388439 -0.000957950953383304 0 -0.00034012134508411518 -0.00043062040633783327 0 -0.00019936215681550366 -0.00030432014640294263 0 -0.00039271431640146455 -0.00024463588869071985 0 -0.00060511216241371615 0.00059502961536321206 0 -0.00027514143660014277 0.001139621829920447 0 -0.0014518596008655574 -0.0015675772441418466 0 -0.00097266393479440163 -0.0010757175045504233 0 -0.00094192557858861433 -0.0016162175800425505 0 -0.00097266393479440163 -0.0010757175045504233 0 -0.00094192557858861433 -0.0016162175800425505 0 -0.00036881668570445166 -0.0012779668742310308 0 -0.0010809398350988513 -0.0020986353146987221 0 -0.00094192557858861433 -0.0016162175800425505 0 -0.00067706448789420454 -0.0019731816506535051 0 -0.00094192557858861433 -0.0016162175800425505 0 -0.00067706448789420454 -0.0019731816506535051 0 -0.00036881668570445166 -0.0012779668742310308 0 -0.0010809398350988513 -0.0020986353146987221 0 -0.0011972562269842151 -0.0018556832831237422 0 -0.00094192557858861433 -0.0016162175800425505 0 -0.00067706448789420454 -0.0019731816506535051 0 -0.00036881668570445166 -0.0012779668742310308 0 -0.00015689155742263061 -0.0017164645875788625 0 -0.00036881668570445166 -0.0012779668742310308 0 -0.00022667232456627018 -0.00047608678321462442 0 -5.0122734474959604e-07 -0.00072176294126343572 0 -0.00097266393479440163 -0.0010757175045504233 0 -0.00036881668570445166 -0.0012779668742310308 0 -0.00022667232456627018 -0.00047608678321462442 0 -0.00019936215681550366 -0.00030432014640294263 0 -0.00022667232456627018 -0.00047608678321462442 0 -0.00020411754003082222 -0.00015143441887140285 0 -0.00072239418968388439 -0.000957950953383304 0 -0.0001938626564433448 -0.00038699777059589231 0 -0.00022667232456627018 -0.00047608678321462442 0 -0.00020411754003082222 -0.00015143441887140285 0 -4.7284708838436301e-05 0.00022255809591556849 0 -0.00022667232456627018 -0.00047608678321462442 0 -1.5997447757935963e-05 -0.00025045476494818265 0 -4.7284708838436301e-05 0.00022255809591556849 0 -0.00022667232456627018 -0.00047608678321462442 0 -1.5997447757935963e-05 -0.00025045476494818265 0 -5.0122734474959604e-07 -0.00072176294126343572 0 -0.00010176687376841328 0.0022877793901778542 0 -0.00010746518102033134 0.0023751092727513769 0 -0.00020134438949442451 0.002353048172570477 0 -0.00010746518102033134 0.0023751092727513769 0 -0.00013041957445683103 0.0024563742890372081 0 -0.00020134438949442451 0.002353048172570477 0 -0.00019936215681550366 -0.00030432014640294263 0 -0.00039271431640146455 -0.00024463588869071985 0 -0.00020411754003082222 -0.00015143441887140285 0 -0.00020411754003082222 -0.00015143441887140285 0 -0.00046188014273879877 0.00027404691988050506 0 -4.7284708838436301e-05 0.00022255809591556849 0 -0.00039271431640146455 -0.00024463588869071985 0 -0.00020411754003082222 -0.00015143441887140285 0 -0.00046188014273879877 0.00027404691988050506 0 -0.00027514143660014277 0.001139621829920447 0 -0.00030292861334991876 0.0012263756635911376 0 -0.00010176687376841328 0.0022877793901778542 0 -0.00020134438949442451 0.002353048172570477 0 -0.00021226859373964555 0.0022192156703114076 0 -2.5475313065189555e-05 0.0021023251080565654 0 -0.00010176687376841328 0.0022877793901778542 0 -0.00021226859373964555 0.0022192156703114076 0 -2.5475313065189555e-05 0.0021023251080565654 0 -0.00021226859373964555 0.0022192156703114076 0 -0.000150091209665395 0.0016502453775759467 0 -0.00046188014273879877 0.00027404691988050506 0 -0.00012783255157078495 0.00082266166966007287 0 -0.000150091209665395 0.0016502453775759467 0 -0.00030292861334991876 0.0012263756635911376 0 -0.00019540526005606447 0.0015798958254724324 0 -0.00046188014273879877 0.00027404691988050506 0 -0.00012783255157078495 0.00082266166966007287 0 -4.7284708838436301e-05 0.00022255809591556849 0 -0.00012783255157078495 0.00082266166966007287 0 -2.0458723001979269e-07 0.0010808195152026839 0 -4.7284708838436301e-05 0.00022255809591556849 0 -0.00012783255157078495 0.00082266166966007287 0 -2.0458723001979269e-07 0.0010808195152026839 0 -0.000150091209665395 0.0016502453775759467 0 -3.3929815918798029e-07 0.0019526178286839557 0 -2.0458723001979269e-07 0.0010808195152026839 0 -0.000150091209665395 0.0016502453775759467 0 -1.5997447757935963e-05 -0.00025045476494818265 0 -4.7284708838436301e-05 0.00022255809591556849 0 1.429200953165322e-07 0.00020996344746298018 0 -2.0458723001979269e-07 0.0010808195152026839 0 -4.7284708838436301e-05 0.00022255809591556849 0 1.429200953165322e-07 0.00020996344746298018 0 -1.5997447757935963e-05 -0.00025045476494818265 0 1.429200953165322e-07 0.00020996344746298018 0 6.6876344665699398e-05 -0.00046294749151493163 0 1.429200953165322e-07 0.00020996344746298018 0 6.6876344665699398e-05 -0.00046294749151493163 0 2.2052758590399293e-07 -0.00066122243579559551 0 -1.5997447757935963e-05 -0.00025045476494818265 0 6.6876344665699398e-05 -0.00046294749151493163 0 0.00013317295752971449 -0.00069205000208146276 0 0.0001637318784108829 -0.00093297312638082077 0 0.00027329259003764213 -0.00094945321862779063 0 0.00013317295752971449 -0.00069205000208146276 0 6.6876344665699398e-05 -0.00046294749151493163 0 0.0001637318784108829 -0.00093297312638082077 0 0.00013317295752971449 -0.00069205000208146276 0 6.6876344665699398e-05 -0.00046294749151493163 0 2.2052758590399293e-07 -0.00066122243579559551 0 0.0001637318784108829 -0.00093297312638082077 0 3.1795897139280613e-07 -0.0015322898924099433 0 0.00012071825478398469 -0.0013201858013660759 0 0.0001637318784108829 -0.00093297312638082077 0 2.2052758590399293e-07 -0.00066122243579559551 0 3.1795897139280613e-07 -0.0015322898924099433 0 0.0001637318784108829 -0.00093297312638082077 0 3.1795897139280613e-07 -0.0015322898924099433 0 0.00012071825478398469 -0.0013201858013660759 0 6.4189792229190363e-05 -0.001664118042369981 0 0.00024032929700850246 -0.0011427866038434087 0 6.4189792229190363e-05 -0.001664118042369981 0 3.7832559242607687e-05 -0.001242902066657799 0 0.00012071825478398469 -0.0013201858013660759 0 0.00024032929700850246 -0.0011427866038434087 0 6.4189792229190363e-05 -0.001664118042369981 0 0.00012071825478398469 -0.0013201858013660759 0 0.0001637318784108829 -0.00093297312638082077 0 0.00024032929700850246 -0.0011427866038434087 0 0.0001637318784108829 -0.00093297312638082077 0 0.00027329259003764213 -0.00094945321862779063 0 0.00024032929700850246 -0.0011427866038434087 0 0.00027329259003764213 -0.00094945321862779063 0 0.00024032929700850246 -0.0011427866038434087 0 0.00042164695462813096 -0.0011208774239179907 0 0.00024032929700850246 -0.0011427866038434087 0 0.00042164695462813096 -0.0011208774239179907 0 0.00019743550705409008 -0.0011344172410275831 0 0.000806354813291595 -0.00061840296132111504 0 -0.00022277192212645687 -0.0023544618247755356 0 0.00017393971220636066 -0.0012904057039366196 0 -0.00022277192212645687 -0.0023544618247755356 0 0.00083741042047953825 -0.0012239114331290611 0 0.00042164695462813096 -0.0011208774239179907 0 0.00080088294825030341 -0.0015841399638390496 0 0.00083741042047953825 -0.0012239114331290611 0 0.00042164695462813096 -0.0011208774239179907 0 0.00089117588944604125 -0.00085888391408672424 0 0.00027329259003764213 -0.00094945321862779063 0 0.00042164695462813096 -0.0011208774239179907 0 0.00013465106108112552 -0.0011212577398469494 0 0.00013465106108112552 -0.0011212577398469494 0 -5.0122734474959604e-07 -0.00072176294126343572 0 0.00013317295752971449 -0.00069205000208146276 0 -0.00036881668570445166 -0.0012779668742310308 0 0.00013465106108112552 -0.0011212577398469494 0 -5.0122734474959604e-07 -0.00072176294126343572 0 -1.5997447757935963e-05 -0.00025045476494818265 0 -5.0122734474959604e-07 -0.00072176294126343572 0 0.00013317295752971449 -0.00069205000208146276 0 0.00027329259003764213 -0.00094945321862779063 0 0.00013465106108112552 -0.0011212577398469494 0 0.00013317295752971449 -0.00069205000208146276 0 -0.00030091575013511745 -0.0045751221508455904 0 -2.5073501493979317e-06 -0.0032768795770509933 0 7.325443540007054e-07 -0.0040043076061188473 0 2.3573294113632948e-07 -0.0032744685770569864 0 -0.0010528798023218848 -0.0033668384230772824 0 -0.00030091575013511745 -0.0045751221508455904 0 -2.5073501493979317e-06 -0.0032768795770509933 0 -0.00083557596423938741 -0.0045962796536354131 0 -2.5073501493979317e-06 -0.0032768795770509933 0 -0.00083557596423938741 -0.0045962796536354131 0 -0.0016413211852587138 -0.0043697248658822229 0 -0.00030091575013511745 -0.0045751221508455904 0 -0.00083557596423938741 -0.0045962796536354131 0 -0.00091489647021871477 -0.0054164692515546878 0 -0.00083557596423938741 -0.0045962796536354131 0 -0.0016413211852587138 -0.0043697248658822229 0 -0.0013114504847493577 -0.0050169915984121429 0 -0.0016413211852587138 -0.0043697248658822229 0 -0.0025098629196307963 -0.0051839195256733906 0 -0.0017549418947563449 -0.0050581949747482268 0 -0.0016413211852587138 -0.0043697248658822229 0 -0.0017549418947563449 -0.0050581949747482268 0 -0.0013114504847493577 -0.0050169915984121429 0 -5.4601583080909834e-07 -0.0032741136263699784 0 -0.00014397578362765334 -0.0020051384431074614 0 1.9537735360626617e-09 -0.0024034760016523288 0 -0.00014397578362765334 -0.0020051384431074614 0 1.9537735360626617e-09 -0.0024034760016523288 0 6.4189792229190363e-05 -0.001664118042369981 0 3.1795897139280613e-07 -0.0015322898924099433 0 1.9537735360626617e-09 -0.0024034760016523288 0 6.4189792229190363e-05 -0.001664118042369981 0 -0.00014397578362765334 -0.0020051384431074614 0 6.4189792229190363e-05 -0.001664118042369981 0 3.7832559242607687e-05 -0.001242902066657799 0 -0.0010528798023218848 -0.0033668384230772824 0 -0.00022277192212645687 -0.0023544618247755356 0 0.00089117588944604125 -0.00085888391408672424 0 0.0011075360996049468 -0.0011879810261380829 0 0.0014115286125232632 -0.0010918061436511349 0 0.00083741042047953825 -0.0012239114331290611 0 0.00089117588944604125 -0.00085888391408672424 0 0.0011075360996049468 -0.0011879810261380829 0 0.00083741042047953825 -0.0012239114331290611 0 0.0011075360996049468 -0.0011879810261380829 0 0.0010991473257406391 -0.0014311486676213633 0 0.0011075360996049468 -0.0011879810261380829 0 0.0013298301822523397 -0.0013521816629022269 0 0.0014115286125232632 -0.0010918061436511349 0 0.0011075360996049468 -0.0011879810261380829 0 0.0013298301822523397 -0.0013521816629022269 0 0.0010991473257406391 -0.0014311486676213633 0 0.0013298301822523397 -0.0013521816629022269 0 0.0014115286125232632 -0.0010918061436511349 0 0.0015919568260255811 -0.0013904554449313063 0 -0.00022277192212645687 -0.0023544618247755356 0 2.56583647366672e-05 -0.0032454486236892749 0 -0.0025098629196307963 -0.0051839195256733906 0 -0.0014091844631028113 -0.0055872601388273387 0 -0.0017549418947563449 -0.0050581949747482268 0 -0.0014091844631028113 -0.0055872601388273387 0 -0.0017549418947563449 -0.0050581949747482268 0 -0.0013114504847493577 -0.0050169915984121429 0 -0.00083557596423938741 -0.0045962796536354131 0 -0.0013114504847493577 -0.0050169915984121429 0 -0.00091489647021871477 -0.0054164692515546878 0 -0.0014091844631028113 -0.0055872601388273387 0 -0.0013114504847493577 -0.0050169915984121429 0 -0.00091489647021871477 -0.0054164692515546878 0 -0.0014091844631028113 -0.0055872601388273387 0 -0.00091489647021871477 -0.0054164692515546878 0 -0.00043243291215863948 -0.0059220976171584149 0 2.56583647366672e-05 -0.0032454486236892749 0 -6.909494800743785e-05 -0.0050083678166487197 0 0.0014115286125232632 -0.0010918061436511349 0 0.0015919568260255811 -0.0013904554449313063 0 0.0019308466443841096 -0.0013239595757468154 0 -0.00082576037198145089 -0.0056635137330134401 0 -6.909494800743785e-05 -0.0050083678166487197 0 0.0015919568260255811 -0.0013904554449313063 0 0.0019308466443841096 -0.0013239595757468154 0 0.0018184912420076444 -0.0014714953029805284 0 0.0019308466443841096 -0.0013239595757468154 0 0.0019641431545024757 -0.0015122495571168427 0 0.0018184912420076444 -0.0014714953029805284 0 -6.909494800743785e-05 -0.0050083678166487197 0 -0.0004071983880179549 -0.0060822286448855784 0 -6.909494800743785e-05 -0.0050083678166487197 0 -0.00033049152521140755 -0.0052905956987323345 0 -0.0010520807946329442 -0.0062298085734029682 0 -0.0005449293210202323 -0.0067232934425446346 0 -0.00038526954157209814 -0.0064749213630018636 0 -0.0010520807946329442 -0.0062298085734029682 0 -0.00052845418048683905 -0.0068234170223308325 0 -0.0005449293210202323 -0.0067232934425446346 0 0.0019308466443841096 -0.0013239595757468154 0 0.0019641431545024757 -0.0015122495571168427 0 0.0021263333740777148 -0.0015443957638797499 0 -0.00064315811699360774 -0.0061038492793941707 0 -0.00040386374045837373 -0.0059509876392853664 0 -0.00038526954157209814 -0.0064749213630018636 0 -0.00064315811699360774 -0.0061038492793941707 0 -0.0005193403245918075 -0.0055162034382599907 0 -0.00040386374045837373 -0.0059509876392853664 0 -0.00030091575013511745 -0.0045751221508455904 0 -0.00091489647021871477 -0.0054164692515546878 0 -0.0005193403245918075 -0.0055162034382599907 0 -0.0005193403245918075 -0.0055162034382599907 0 -0.00016187093864479936 -0.0053713878472923761 0 -0.00040386374045837373 -0.0059509876392853664 0 -0.00030091575013511745 -0.0045751221508455904 0 -0.0005193403245918075 -0.0055162034382599907 0 -0.00016187093864479936 -0.0053713878472923761 0 -0.00091489647021871477 -0.0054164692515546878 0 -0.00064315811699360774 -0.0061038492793941707 0 -0.0005193403245918075 -0.0055162034382599907 0 0.0019763427786222958 -0.0021118916239907383 0 0.0019842450144938171 -0.0018642034240007471 0 0.002217415319773344 -0.0020194618337509079 0 0.0019763427786222958 -0.0021118916239907383 0 0.0018498165873246882 -0.0018947113001202397 0 0.0017295408504895303 -0.0020193537124774366 0 0.0018498165873246882 -0.0018947113001202397 0 0.0018593218208063356 -0.0017258390328030485 0 0.0017091645605001554 -0.001763330719726812 0 0.0018498165873246882 -0.0018947113001202397 0 0.0019842450144938171 -0.0018642034240007471 0 0.0018593218208063356 -0.0017258390328030485 0 0.0019763427786222958 -0.0021118916239907383 0 0.0018498165873246882 -0.0018947113001202397 0 0.0019842450144938171 -0.0018642034240007471 0 0.0019842450144938171 -0.0018642034240007471 0 0.0020092025265272631 -0.0017043171277993611 0 0.002217415319773344 -0.0020194618337509079 0 0.0019842450144938171 -0.0018642034240007471 0 0.0020092025265272631 -0.0017043171277993611 0 0.0018593218208063356 -0.0017258390328030485 0 0.0020092025265272631 -0.0017043171277993611 0 0.0019641431545024757 -0.0015122495571168427 0 0.0021263333740777148 -0.0015443957638797499 0 0.0020092025265272631 -0.0017043171277993611 0 0.0019641431545024757 -0.0015122495571168427 0 0.0018778042748356114 -0.0015667113458799138 0 0.0018184912420076444 -0.0014714953029805284 0 0.0018778042748356114 -0.0015667113458799138 0 0.0017273802606365032 -0.0015651814430872311 0 0.0019641431545024757 -0.0015122495571168427 0 0.0018184912420076444 -0.0014714953029805284 0 0.0018778042748356114 -0.0015667113458799138 0 0.0018778042748356114 -0.0015667113458799138 0 0.0018593218208063356 -0.0017258390328030485 0 0.0017273802606365032 -0.0015651814430872311 0 0.0020092025265272631 -0.0017043171277993611 0 0.0018778042748356114 -0.0015667113458799138 0 0.0018593218208063356 -0.0017258390328030485 0 0.0018593218208063356 -0.0017258390328030485 0 0.0017091645605001554 -0.001763330719726812 0 0.0017273802606365032 -0.0015651814430872311 0 0.0017091645605001554 -0.001763330719726812 0 0.0017273802606365032 -0.0015651814430872311 0 0.0015878168720986734 -0.0016337622761546998 0 0.0015919568260255811 -0.0013904554449313063 0 0.0017273802606365032 -0.0015651814430872311 0 0.0015878168720986734 -0.0016337622761546998 0 0.0015919568260255811 -0.0013904554449313063 0 0.0018184912420076444 -0.0014714953029805284 0 0.0017273802606365032 -0.0015651814430872311 0 0.0015919568260255811 -0.0013904554449313063 0 0.0015878168720986734 -0.0016337622761546998 0 0.0013798217009721111 -0.0016132742852736583 0 0.0017091645605001554 -0.001763330719726812 0 0.0015878168720986734 -0.0016337622761546998 0 0.0015317324252352334 -0.0018386558624961889 0 0.0015878168720986734 -0.0016337622761546998 0 0.0015317324252352334 -0.0018386558624961889 0 0.0013798217009721111 -0.0016132742852736583 0 0.0017091645605001554 -0.001763330719726812 0 0.0015317324252352334 -0.0018386558624961889 0 0.0017295408504895303 -0.0020193537124774366 0 0.0018498165873246882 -0.0018947113001202397 0 0.0017091645605001554 -0.001763330719726812 0 0.0017295408504895303 -0.0020193537124774366 0 0.0015317324252352334 -0.0018386558624961889 0 0.0017295408504895303 -0.0020193537124774366 0 0.0014679736339039554 -0.0021322117284927338 0 0.0012965924352169058 -0.0020438190290674643 0 0.0013398108587478056 -0.0018997945403855117 0 0.0014679736339039554 -0.0021322117284927338 0 0.0015317324252352334 -0.0018386558624961889 0 0.0013398108587478056 -0.0018997945403855117 0 0.0014679736339039554 -0.0021322117284927338 0 0.0012965924352169058 -0.0020438190290674643 0 0.0013398108587478056 -0.0018997945403855117 0 0.0011570788193628664 -0.0019944812199406219 0 0.0012965924352169058 -0.0020438190290674643 0 0.0011570788193628664 -0.0019944812199406219 0 0.0012359788131287375 -0.0021376700247748154 0 0.0013398108587478056 -0.0018997945403855117 0 0.0013798217009721111 -0.0016132742852736583 0 0.0011297089841368585 -0.0017464418622334338 0 0.0013398108587478056 -0.0018997945403855117 0 0.0011297089841368585 -0.0017464418622334338 0 0.0011570788193628664 -0.0019944812199406219 0 0.0015317324252352334 -0.0018386558624961889 0 0.0013398108587478056 -0.0018997945403855117 0 0.0013798217009721111 -0.0016132742852736583 0 0.0013298301822523397 -0.0013521816629022269 0 0.0015919568260255811 -0.0013904554449313063 0 0.0013798217009721111 -0.0016132742852736583 0 0.0013298301822523397 -0.0013521816629022269 0 0.0013798217009721111 -0.0016132742852736583 0 0.0010991473257406391 -0.0014311486676213633 0 0.0013798217009721111 -0.0016132742852736583 0 0.0010991473257406391 -0.0014311486676213633 0 0.0011297089841368585 -0.0017464418622334338 0 0.0010991473257406391 -0.0014311486676213633 0 0.0011297089841368585 -0.0017464418622334338 0 0.00080088294825030341 -0.0015841399638390496 0 0.00083741042047953825 -0.0012239114331290611 0 0.0010991473257406391 -0.0014311486676213633 0 0.00080088294825030341 -0.0015841399638390496 0 0.0011297089841368585 -0.0017464418622334338 0 0.0010042187946770669 -0.0019378039388253173 0 0.00080088294825030341 -0.0015841399638390496 0 0.0011570788193628664 -0.0019944812199406219 0 0.0010042187946770669 -0.0019378039388253173 0 0.0011394123301590186 -0.0022123765573609073 0 0.0011297089841368585 -0.0017464418622334338 0 0.0011570788193628664 -0.0019944812199406219 0 0.0010042187946770669 -0.0019378039388253173 0 0.0010042187946770669 -0.0019378039388253173 0 0.0011810738071999891 -0.0021976645430380839 0 0.00072402387087374428 -0.0020256736360575061 0 0.00051322906194660662 -0.0036813694073443894 0 0.00025927225353588554 -0.0027126598975570535 0 0.00079276590963787074 -0.0018136578191394843 0 0.00051322906194660662 -0.0036813694073443894 0 -0.00014599733293061808 -0.0031989466795708634 0 -0.00021310696848093658 -0.0033814917589168351 0 -0.00019661845592647593 -0.0033173086990318304 0 -0.00014599733293061808 -0.0031989466795708634 0 -0.00021310696848093658 -0.0033814917589168351 0 -0.0002456720758471672 -0.0036288377679907224 0 0.00051322906194660662 -0.0036813694073443894 0 0.00053684657304515397 -0.0056894936273898548 0 -0.00014599733293061808 -0.0031989466795708634 0 -0.0002456720758471672 -0.0036288377679907224 0 0.00028966528699096852 -0.0036455659192777489 0 0.00033147746374902372 -0.0065045250499706055 0 0.00084258076515804586 -0.0067553521270417262 0 0.00082162512040374316 -0.0072621492120694166 0 0.00033147746374902372 -0.0065045250499706055 0 0.00059531555645737607 -0.0064248337024942412 0 0.00084258076515804586 -0.0067553521270417262 0 0.0011394123301590186 -0.0022123765573609073 0 0.0013101560788502098 -0.0021580950113027058 0 0.0012359788131287375 -0.0021376700247748154 0 0.0011570788193628664 -0.0019944812199406219 0 0.0011394123301590186 -0.0022123765573609073 0 0.0012359788131287375 -0.0021376700247748154 0 0.00051322906194660662 -0.0036813694073443894 0 0.0010192844937717696 -0.0032603168777414464 0 0.0010192844937717696 -0.0032603168777414464 0 0.00104620398147598 -0.003096025628159753 0 0.0012965924352169058 -0.0020438190290674643 0 0.001307145643340389 -0.0021609646454310459 0 0.0012359788131287375 -0.0021376700247748154 0 0.0012965924352169058 -0.0020438190290674643 0 0.001307145643340389 -0.0021609646454310459 0 0.0014679736339039554 -0.0021322117284927338 0 0.0010192844937717696 -0.0032603168777414464 0 0.0015798904563411574 -0.0025315471855937776 0 0.0010192844937717696 -0.0032603168777414464 0 0.0017863863366582679 -0.0044996576440485669 0 0.00059531555645737607 -0.0064248337024942412 0 0.00084258076515804586 -0.0067553521270417262 0 0.001262638035001398 -0.0066460149606931817 0 0.0012840343904011535 -0.0021908549480211576 0 0.0014679736339039554 -0.0021322117284927338 0 0.001788839248619908 -0.0023568129823549762 0 0.0017295408504895303 -0.0020193537124774366 0 0.0014679736339039554 -0.0021322117284927338 0 0.001788839248619908 -0.0023568129823549762 0 0.00084258076515804586 -0.0067553521270417262 0 0.001161049225657752 -0.0069389344203441951 0 0.00082162512040374316 -0.0072621492120694166 0 0.00084258076515804586 -0.0067553521270417262 0 0.001161049225657752 -0.0069389344203441951 0 0.001262638035001398 -0.0066460149606931817 0 0.001161049225657752 -0.0069389344203441951 0 0.00082162512040374316 -0.0072621492120694166 0 0.0012436996556266676 -0.0072429663388201126 0 0.001161049225657752 -0.0069389344203441951 0 0.0014731340812707007 -0.0070549268130241675 0 0.001262638035001398 -0.0066460149606931817 0 0.0014731340812707007 -0.0070549268130241675 0 0.001262638035001398 -0.0066460149606931817 0 0.0018376903593947166 -0.0068188970012603121 0 0.001161049225657752 -0.0069389344203441951 0 0.0014731340812707007 -0.0070549268130241675 0 0.0012436996556266676 -0.0072429663388201126 0 0.0019763427786222958 -0.0021118916239907383 0 0.001788839248619908 -0.0023568129823549762 0 0.002294548282547145 -0.0025291566038095495 0 0.0017863863366582679 -0.0044996576440485669 0 0.00066871343991415798 -0.0059910860538389381 0 0.0019763427786222958 -0.0021118916239907383 0 0.0017295408504895303 -0.0020193537124774366 0 0.001788839248619908 -0.0023568129823549762 0 -0.00015689155742263061 -0.0017164645875788625 0 0.00034373663867701419 -0.0015885042261866479 0 0.00017836824606331207 -0.0021510519570433232 0 -0.00036881668570445166 -0.0012779668742310308 0 0.00013465106108112552 -0.0011212577398469494 0 -0.00015689155742263061 -0.0017164645875788625 0 0.00013465106108112552 -0.0011212577398469494 0 -0.00015689155742263061 -0.0017164645875788625 0 0.00034373663867701419 -0.0015885042261866479 0 0.00042164695462813096 -0.0011208774239179907 0 0.00034373663867701419 -0.0015885042261866479 0 0.00080088294825030341 -0.0015841399638390496 0 0.00042164695462813096 -0.0011208774239179907 0 0.00013465106108112552 -0.0011212577398469494 0 0.00034373663867701419 -0.0015885042261866479 0 0.0010042187946770669 -0.0019378039388253173 0 0.00080088294825030341 -0.0015841399638390496 0 0.00072402387087374428 -0.0020256736360575061 0 0.00034373663867701419 -0.0015885042261866479 0 0.00080088294825030341 -0.0015841399638390496 0 0.00072402387087374428 -0.0020256736360575061 0 0.00034373663867701419 -0.0015885042261866479 0 0.00072402387087374428 -0.0020256736360575061 0 0.00017836824606331207 -0.0021510519570433232 0 0.00072402387087374428 -0.0020256736360575061 0 0.00068421528141881648 -0.0024324176152200148 0 0.00017836824606331207 -0.0021510519570433232 0 0.0011810738071999891 -0.0021976645430380839 0 0.00072402387087374428 -0.0020256736360575061 0 0.00068421528141881648 -0.0024324176152200148 0 -0.00019661845592647593 -0.0033173086990318304 0 -9.6386528252227668e-05 -0.0031836411588409288 0 -0.00019137281020544422 -0.0033654146814671698 0 -0.00021310696848093658 -0.0033814917589168351 0 -0.00019661845592647593 -0.0033173086990318304 0 -0.00019137281020544422 -0.0033654146814671698 0 0.00068421528141881648 -0.0024324176152200148 0 -1.8684898918067359e-05 -0.0028663895033201924 0 0.00017836824606331207 -0.0021510519570433232 0 -0.00019661845592647593 -0.0033173086990318304 0 -1.8684898918067359e-05 -0.0028663895033201924 0 -9.6386528252227668e-05 -0.0031836411588409288 0 0.00025927225353588554 -0.0027126598975570535 0 -5.1299367966348856e-05 -0.0029352437503206066 0 -0.00049945469958388277 -0.0023539051093378733 0 -1.8684898918067359e-05 -0.0028663895033201924 0 0.00017836824606331207 -0.0021510519570433232 0 -0.00049945469958388277 -0.0023539051093378733 0 -0.00015689155742263061 -0.0017164645875788625 0 0.00017836824606331207 -0.0021510519570433232 0 -0.00042957454805924339 -0.0028590503721771126 0 -0.00049945469958388277 -0.0023539051093378733 0 -1.8684898918067359e-05 -0.0028663895033201924 0 -0.00042957454805924339 -0.0028590503721771126 0 -0.00048378102200908669 -0.0031419185215993076 0 -0.00022289600195871535 -0.0031197312939273366 0 -0.00042957454805924339 -0.0028590503721771126 0 -1.8684898918067359e-05 -0.0028663895033201924 0 -0.00022289600195871535 -0.0031197312939273366 0 -1.8684898918067359e-05 -0.0028663895033201924 0 -0.00010195037012661364 -0.003149081460859092 0 -0.00022289600195871535 -0.0031197312939273366 0 -1.8684898918067359e-05 -0.0028663895033201924 0 -0.00010195037012661364 -0.003149081460859092 0 -9.6386528252227668e-05 -0.0031836411588409288 0 -0.00010195037012661364 -0.003149081460859092 0 -0.00015444017240381081 -0.0032190392473904722 0 -0.0001081831824976376 -0.0031899911490191348 0 -0.00010195037012661364 -0.003149081460859092 0 -0.00022289600195871535 -0.0031197312939273366 0 -0.00015444017240381081 -0.0032190392473904722 0 -0.00048378102200908669 -0.0031419185215993076 0 -0.00022289600195871535 -0.0031197312939273366 0 -0.00025597090901244594 -0.003237196061236011 0 -0.00022289600195871535 -0.0031197312939273366 0 -0.00025597090901244594 -0.003237196061236011 0 -0.00015444017240381081 -0.0032190392473904722 0 -0.00025597090901244594 -0.003237196061236011 0 -0.00015444017240381081 -0.0032190392473904722 0 -0.00019914452992311228 -0.0033694749228699167 0 -0.00015444017240381081 -0.0032190392473904722 0 -0.00019914452992311228 -0.0033694749228699167 0 -0.00010674451173489761 -0.0032628824670776647 0 -0.00011370426355593938 -0.0038580391834423613 0 -0.0014492047741490287 -0.00489745560015163 0 -0.00040562148561613145 -0.0043079401570367713 0 -0.00061917435741526937 -0.0042400245097524748 0 -0.0013707383181397067 -0.0049676302885506892 0 -0.00060089123716430305 -0.0051260118085740269 0 -0.0014492047741490287 -0.00489745560015163 0 -0.00011370426355593938 -0.0038580391834423613 0 -0.00060089123716430305 -0.0051260118085740269 0 -1.0423556621091406e-05 -0.0031050799974525639 0 -0.00011370426355593938 -0.0038580391834423613 0 -0.00034041223829719557 -0.0033462259436309026 0 -0.00025597090901244594 -0.003237196061236011 0 -0.00019914452992311228 -0.0033694749228699167 0 0.00053594058367177448 -0.0028842990898785598 0 0.00012708953200007221 -0.002766375970115008 0 0.0004547222084605082 -0.0025369065074569478 0 -0.001449731424145975 -0.0059481449312288326 0 -0.00086471645402740461 -0.0062704915852003435 0 -0.0017908068410632989 -0.0066113537788246848 0 -0.001449731424145975 -0.0059481449312288326 0 -0.00093886255395539495 -0.0057042153628137204 0 -0.00086471645402740461 -0.0062704915852003435 0 -0.0026007780946501672 -0.0063199432585525663 0 -0.0020677387705830938 -0.0057769020539995622 0 -0.0017908068410632989 -0.0066113537788246848 0 -0.001449731424145975 -0.0059481449312288326 0 -0.0020677387705830938 -0.0057769020539995622 0 -0.0017908068410632989 -0.0066113537788246848 0 -0.00015444017240381081 -0.0032190392473904722 0 -0.00010674451173489761 -0.0032628824670776647 0 -0.0001081831824976376 -0.0031899911490191348 0 -0.001449731424145975 -0.0059481449312288326 0 -0.0020677387705830938 -0.0057769020539995622 0 -0.0015500412708471132 -0.005371666328862176 0 -0.0014492047741490287 -0.00489745560015163 0 -0.00071731054650664417 -0.003940789364386587 0 -0.0014492047741490287 -0.00489745560015163 0 -0.001785513740152462 -0.0054447541862179608 0 -0.0023796111108401181 -0.0057701217988056046 0 -0.0017344448526829656 -0.0053230147645823107 0 -0.0014414142618792824 -0.0048486553744698114 0 -0.00010674451173489761 -0.0032628824670776647 0 -0.00014298497708122173 -0.0031917042837034102 0 -0.0001081831824976376 -0.0031899911490191348 0 -0.0015500412708471132 -0.005371666328862176 0 -0.00093886255395539495 -0.0057042153628137204 0 -0.000873037373570252 -0.0052647348056272169 0 -0.001449731424145975 -0.0059481449312288326 0 -0.0015500412708471132 -0.005371666328862176 0 -0.00093886255395539495 -0.0057042153628137204 0 -0.001785513740152462 -0.0054447541862179608 0 -0.0010151444346801495 -0.0048944826541956138 0 -0.0015500412708471132 -0.005371666328862176 0 -0.0010063801014714624 -0.0048779072729160846 0 -0.000873037373570252 -0.0052647348056272169 0 -0.0017344448526829656 -0.0053230147645823107 0 -0.0014414142618792824 -0.0048486553744698114 0 -0.0010063801014714624 -0.0048779072729160846 0 -0.0014414142618792824 -0.0048486553744698114 0 -0.0010063801014714624 -0.0048779072729160846 0 -0.00073483214706871261 -0.0045808199591890779 0 -0.00014298497708122173 -0.0031917042837034102 0 -0.0001081831824976376 -0.0031899911490191348 0 -9.6386528252227668e-05 -0.0031836411588409288 0 -0.00010195037012661364 -0.003149081460859092 0 -0.0001081831824976376 -0.0031899911490191348 0 -9.6386528252227668e-05 -0.0031836411588409288 0 -0.00014298497708122173 -0.0031917042837034102 0 -9.6386528252227668e-05 -0.0031836411588409288 0 -0.00019137281020544422 -0.0033654146814671698 0 -0.00014298497708122173 -0.0031917042837034102 0 -0.00019137281020544422 -0.0033654146814671698 0 -0.0002456720758471672 -0.0036288377679907224 0 -0.00021310696848093658 -0.0033814917589168351 0 -0.00019137281020544422 -0.0033654146814671698 0 -0.0002456720758471672 -0.0036288377679907224 0 -0.00071731054650664417 -0.003940789364386587 0 -0.00029789993658605048 -0.0036596543993848724 0 -0.0002456720758471672 -0.0036288377679907224 0 -0.00073483214706871261 -0.0045808199591890779 0 -0.00032989199563373509 -0.0046056766986809963 0 -0.0002456720758471672 -0.0036288377679907224 0 7.2155363308515707e-05 -0.0042888324046643405 0 -0.00032989199563373509 -0.0046056766986809963 0 -0.0002456720758471672 -0.0036288377679907224 0 0.00028966528699096852 -0.0036455659192777489 0 7.2155363308515707e-05 -0.0042888324046643405 0 0.00028966528699096852 -0.0036455659192777489 0 7.2155363308515707e-05 -0.0042888324046643405 0 0.00036761242763502051 -0.0046591440863247976 0 7.2155363308515707e-05 -0.0042888324046643405 0 2.331099877668149e-05 -0.0049674438943097619 0 -0.00032989199563373509 -0.0046056766986809963 0 7.2155363308515707e-05 -0.0042888324046643405 0 2.331099877668149e-05 -0.0049674438943097619 0 0.00036761242763502051 -0.0046591440863247976 0 2.331099877668149e-05 -0.0049674438943097619 0 0.00036761242763502051 -0.0046591440863247976 0 0.00046264001264294572 -0.0053247082575751739 0 2.331099877668149e-05 -0.0049674438943097619 0 -0.00032989199563373509 -0.0046056766986809963 0 -0.00049731494616565071 -0.0052572325924192219 0 -0.0014414142618792824 -0.0048486553744698114 0 -0.0002456720758471672 -0.0036288377679907224 0 -0.00073483214706871261 -0.0045808199591890779 0 -0.00069059224931226817 -0.0049137816273639437 0 -0.00032989199563373509 -0.0046056766986809963 0 -0.00049731494616565071 -0.0052572325924192219 0 -0.0010063801014714624 -0.0048779072729160846 0 -0.00069059224931226817 -0.0049137816273639437 0 -0.000873037373570252 -0.0052647348056272169 0 -0.00069059224931226817 -0.0049137816273639437 0 -0.000873037373570252 -0.0052647348056272169 0 -0.00049731494616565071 -0.0052572325924192219 0 -0.0010063801014714624 -0.0048779072729160846 0 -0.00069059224931226817 -0.0049137816273639437 0 -0.00073483214706871261 -0.0045808199591890779 0 -0.00069059224931226817 -0.0049137816273639437 0 -0.00073483214706871261 -0.0045808199591890779 0 -0.00032989199563373509 -0.0046056766986809963 0 0.001497406731749027 -0.0073711251145472598 0 0.0012602998963714277 -0.0075572504147579317 0 0.001620715583640973 -0.0076270290398961302 0 0.0014731340812707007 -0.0070549268130241675 0 0.001497406731749027 -0.0073711251145472598 0 0.0012436996556266676 -0.0072429663388201126 0 0.001497406731749027 -0.0073711251145472598 0 0.0012436996556266676 -0.0072429663388201126 0 0.0012602998963714277 -0.0075572504147579317 0 0.00053684657304515397 -0.0056894936273898548 0 0.0011277082989124072 -0.0062967532472202941 0 0.00082162512040374316 -0.0072621492120694166 0 0.0012436996556266676 -0.0072429663388201126 0 0.0012602998963714277 -0.0075572504147579317 0 0.00082162512040374316 -0.0072621492120694166 0 0.0012602998963714277 -0.0075572504147579317 0 0.001332418472275761 -0.0076472647713207685 0 0.00028966528699096852 -0.0036455659192777489 0 0.00036761242763502051 -0.0046591440863247976 0 0.0010361258343728899 -0.0051100150418764787 0 0.00036761242763502051 -0.0046591440863247976 0 0.0010361258343728899 -0.0051100150418764787 0 0.00046264001264294572 -0.0053247082575751739 0 0.001332418472275761 -0.0076472647713207685 0 0.00098063086845668192 -0.0073692802172136895 0 0.001019383366217035 -0.0077810933646059177 0 0.0012602998963714277 -0.0075572504147579317 0 0.001332418472275761 -0.0076472647713207685 0 0.001019383366217035 -0.0077810933646059177 0 0.0011982647056463537 -0.007592667954788036 0 0.0014320341342736174 -0.007727233218166674 0 0.0010361258343728899 -0.0051100150418764787 0 0.00082289218241244039 -0.0058513359841910377 0 0.0010642466357390062 -0.0066276312053998414 0 0.001332418472275761 -0.0076472647713207685 0 0.0010642466357390062 -0.0066276312053998414 0 0.00098063086845668192 -0.0073692802172136895 0 0.0011277082989124072 -0.0062967532472202941 0 0.0010777467583867203 -0.0065845777461580506 0 0.00082289218241244039 -0.0058513359841910377 0 0.00050388756531299548 -0.0058296742616248736 0 0.00081727924825162376 -0.0063031529728501939 0 0.0010361258343728899 -0.0051100150418764787 0 0.00082289218241244039 -0.0058513359841910377 0 0.00046264001264294572 -0.0053247082575751739 0 0.00082289218241244039 -0.0058513359841910377 0 0.00046264001264294572 -0.0053247082575751739 0 0.00050388756531299548 -0.0058296742616248736 0 0.00046264001264294572 -0.0053247082575751739 0 0.00050388756531299548 -0.0058296742616248736 0 8.6782745217718518e-05 -0.0056180583387596345 0 0.00034702557739067671 -0.0062107254982509078 0 0.00063370196276697289 -0.0065366189324592983 0 7.1802307918578725e-05 -0.0065572258051345336 0 0.00050388756531299548 -0.0058296742616248736 0 0.00034702557739067671 -0.0062107254982509078 0 0.00081727924825162376 -0.0063031529728501939 0 0.00034702557739067671 -0.0062107254982509078 0 0.00063370196276697289 -0.0065366189324592983 0 0.00081727924825162376 -0.0063031529728501939 0 0.00063370196276697289 -0.0065366189324592983 0 0.00081727924825162376 -0.0063031529728501939 0 0.0010430644200683913 -0.0066148506400352438 0 0.00082289218241244039 -0.0058513359841910377 0 0.00081727924825162376 -0.0063031529728501939 0 0.0010642466357390062 -0.0066276312053998414 0 0.00081727924825162376 -0.0063031529728501939 0 0.0010430644200683913 -0.0066148506400352438 0 0.0010642466357390062 -0.0066276312053998414 0 -0.00093886255395539495 -0.0057042153628137204 0 -0.00049731494616565071 -0.0052572325924192219 0 -0.0003213696767835223 -0.0059741489024226031 0 -0.00093886255395539495 -0.0057042153628137204 0 -0.000873037373570252 -0.0052647348056272169 0 -0.00049731494616565071 -0.0052572325924192219 0 -0.00049731494616565071 -0.0052572325924192219 0 8.6782745217718518e-05 -0.0056180583387596345 0 -0.0003213696767835223 -0.0059741489024226031 0 2.331099877668149e-05 -0.0049674438943097619 0 -0.00049731494616565071 -0.0052572325924192219 0 8.6782745217718518e-05 -0.0056180583387596345 0 2.331099877668149e-05 -0.0049674438943097619 0 0.00046264001264294572 -0.0053247082575751739 0 8.6782745217718518e-05 -0.0056180583387596345 0 0.00050388756531299548 -0.0058296742616248736 0 0.00034702557739067671 -0.0062107254982509078 0 8.6782745217718518e-05 -0.0056180583387596345 0 0.00034702557739067671 -0.0062107254982509078 0 8.6782745217718518e-05 -0.0056180583387596345 0 -0.0003213696767835223 -0.0059741489024226031 0 0.00034702557739067671 -0.0062107254982509078 0 -0.0003213696767835223 -0.0059741489024226031 0 7.1802307918578725e-05 -0.0065572258051345336 0 -0.00027108448514557719 -0.0060508055111713078 0 -1.5001395861771507e-05 -0.0065073487605964604 0 -0.0003213696767835223 -0.0059741489024226031 0 -0.00086471645402740461 -0.0062704915852003435 0 -9.8367547112306921e-06 -0.0065097525853629852 0 -0.00093886255395539495 -0.0057042153628137204 0 -0.0003213696767835223 -0.0059741489024226031 0 -0.00086471645402740461 -0.0062704915852003435 0 -0.00086471645402740461 -0.0062704915852003435 0 -0.00092258960171894965 -0.006915948229111517 0 -9.8367547112306921e-06 -0.0065097525853629852 0 -0.00066261542255914368 -0.006295776621294707 0 -0.00027069943826486451 -0.006967810659646561 0 -9.8367547112306921e-06 -0.0065097525853629852 0 -6.3143111362873636e-05 -0.007198106614531667 0 0.00031028554008954111 -0.0070575133621261065 0 -0.00092258960171894965 -0.006915948229111517 0 -9.8367547112306921e-06 -0.0065097525853629852 0 -6.3143111362873636e-05 -0.007198106614531667 0 -1.5001395861771507e-05 -0.0065073487605964604 0 -0.00070781226921266891 -0.0078240237190023605 0 -4.9331837023571933e-05 -0.0076816505014802687 0 -0.00028912946220987942 -0.0076104370676968493 0 -6.1163256458569615e-05 -0.0073218863729854694 0 -0.00027069943826486451 -0.006967810659646561 0 -0.00070781226921266891 -0.0078240237190023605 0 -0.00027069943826486451 -0.006967810659646561 0 -0.0011794111793622759 -0.0081906365333711904 0 -0.00033800763223371604 -0.005795851025484325 0 -0.00069653269183200643 -0.0056944816587812669 0 -0.00028757674777496434 -0.0055150801861461353 0 -4.9331837023571933e-05 -0.0076816505014802687 0 -6.1163256458569615e-05 -0.0073218863729854694 0 0.00035525160422931746 -0.0075229512635445741 0 -0.00027069943826486451 -0.006967810659646561 0 3.8906244243120876e-05 -0.00647928328590804 0 -0.00246552710792773 -0.0089956207406245801 0 -0.0025333162857440229 -0.0091736629971485382 0 -0.0023375683293400361 -0.0091193401317902507 0 -0.00246552710792773 -0.0089956207406245801 0 -0.0027425492698614569 -0.0091179984635326901 0 -0.0025333162857440229 -0.0091736629971485382 0 0.00063370196276697289 -0.0065366189324592983 0 0.0010430644200683913 -0.0066148506400352438 0 0.00038534166853460651 -0.0069894552394687117 0 -0.00084098056253822679 -0.0078483188615717393 0 -0.00070781226921266891 -0.0078240237190023605 0 0.00063370196276697289 -0.0065366189324592983 0 7.1802307918578725e-05 -0.0065572258051345336 0 0.00038534166853460651 -0.0069894552394687117 0 -0.0027425492698614569 -0.0091179984635326901 0 -0.0026840114086623167 -0.009225395202399532 0 -0.0025333162857440229 -0.0091736629971485382 0 -0.00070781226921266891 -0.0078240237190023605 0 -0.0011794111793622759 -0.0081906365333711904 0 -0.00053145513283486411 -0.0076555114688837862 0 -0.00073745322078921612 -0.0077356782863794802 0 -0.00084597814687283881 -0.0075604931315010502 0 -0.0011794111793622759 -0.0081906365333711904 0 -0.00098760852983108141 -0.0079237183338619673 0 -0.0011794111793622759 -0.0081906365333711904 0 -0.0021248560940612432 -0.0090139946191779893 0 -0.0013617393048481923 -0.0087020360549150289 0 -0.0015686327868619516 -0.0086444634702137878 0 -0.0014479233293317238 -0.0085634902379078531 0 -0.0026840114086623167 -0.009225395202399532 0 -0.0025333162857440229 -0.0091736629971485382 0 -0.002445571859104555 -0.0093508162166851937 0 -0.0025333162857440229 -0.0091736629971485382 0 -0.002445571859104555 -0.0093508162166851937 0 -0.0023375683293400361 -0.0091193401317902507 0 -0.0015686327868619516 -0.0086444634702137878 0 -0.0015820527652829998 -0.0085526095540608554 0 -0.0014479233293317238 -0.0085634902379078531 0 -0.00098760852983108141 -0.0079237183338619673 0 -0.00102444146842048 -0.0085127802654018127 0 -0.0015820527652829998 -0.0085526095540608554 0 -0.0014479233293317238 -0.0085634902379078531 0 -0.001533335428471662 -0.0084189462472652066 0 -0.00028912946220987942 -0.0076104370676968493 0 -0.0004232705344640821 -0.0073932228963317862 0 -6.1163256458569615e-05 -0.0073218863729854694 0 -0.0004232705344640821 -0.0073932228963317862 0 -0.00031048276194056105 -0.0072068775011282478 0 -6.1163256458569615e-05 -0.0073218863729854694 0 -0.0004232705344640821 -0.0073932228963317862 0 -0.00031048276194056105 -0.0072068775011282478 0 -0.00056071054845397783 -0.0071767689515068291 0 -0.00031048276194056105 -0.0072068775011282478 0 -6.1163256458569615e-05 -0.0073218863729854694 0 -0.00019701454048218984 -0.0069342305546311687 0 -0.00031048276194056105 -0.0072068775011282478 0 -0.00056071054845397783 -0.0071767689515068291 0 -0.00019701454048218984 -0.0069342305546311687 0 -0.00102444146842048 -0.0085127802654018127 0 -3.5232466279345888e-05 -0.0078268753935390057 0 -0.00089900669953823695 -0.0094095632718428825 0 9.0241941970958814e-05 -0.0087380231104862253 0 -0.0006938406281394797 -0.0085244400228319216 0 -0.00102444146842048 -0.0085127802654018127 0 -0.001269433099960123 -0.0089844348595213008 0 -6.1163256458569615e-05 -0.0073218863729854694 0 0.00018391438890357195 -0.0070516068500482941 0 0.00035525160422931746 -0.0075229512635445741 0 -6.1163256458569615e-05 -0.0073218863729854694 0 0.00018391438890357195 -0.0070516068500482941 0 -0.00019701454048218984 -0.0069342305546311687 0 0.00018391438890357195 -0.0070516068500482941 0 0.00052428736211847639 -0.0071683234057209689 0 0.0004972760707767968 -0.0068693428453643615 0 0.00038079486937887743 -0.0063724704314212588 0 3.8906244243120876e-05 -0.00647928328590804 0 0.00052428736211847639 -0.0071683234057209689 0 0.00075622429622687821 -0.0073620344239421071 0 0.00035525160422931746 -0.0075229512635445741 0 0.00018391438890357195 -0.0070516068500482941 0 0.00052428736211847639 -0.0071683234057209689 0 0.00035525160422931746 -0.0075229512635445741 0 0.00052428736211847639 -0.0071683234057209689 0 0.00082548592115350031 -0.0070376207758781296 0 0.0004972760707767968 -0.0068693428453643615 0 0.00052428736211847639 -0.0071683234057209689 0 0.00075622429622687821 -0.0073620344239421071 0 0.00082548592115350031 -0.0070376207758781296 0 0.0013603010513892223 -0.0069415006507493552 0 0.00099072186129149534 -0.0066335576691048418 0 0.0017000764832517073 -0.0066056096840059137 0 0.0017894237204927209 -0.0065777113414502387 0 0.0018003851557039437 -0.0066439704079898805 0 0.0013603010513892223 -0.0069415006507493552 0 0.0012209431663330031 -0.0060721849667319241 0 0.0016337860895497731 -0.00531526442567144 0 0.0026237557415527317 -0.0060318437520456326 0 0.0021753792852471695 -0.0048726988933457897 0 0.002189550404295301 -0.0048723089300433016 0 0.0021919681082734487 -0.0049013575633956377 0 0.0017894237204927209 -0.0065777113414502387 0 0.0018240487350411102 -0.0066339197914054449 0 0.0018444347556312178 -0.0065219762913205429 0 0.0017894237204927209 -0.0065777113414502387 0 0.0018240487350411102 -0.0066339197914054449 0 0.0018003851557039437 -0.0066439704079898805 0 0.0006879681255232158 -0.0051870098102897028 0 0.0005274799672927192 -0.0053335131184158542 0 0.00065734808054549571 -0.0054625908044427822 0 0.00069542848079701624 -0.0051223708690790312 0 0.00081754355665694244 -0.0053045438396592893 0 0.00065734808054549571 -0.0054625908044427822 0 0.0010414086369787429 -0.0051481538099523872 0 0.00067918416790609787 -0.0054389721122408688 0 0.0018339830005474529 -0.003791245100359325 0 0.0016955012810135239 -0.0037657216825901433 0 0.001688551350492717 -0.0038292865662882336 0 0.0016337860895497731 -0.00531526442567144 0 0.0010414086369787429 -0.0051481538099523872 0 0.0006879681255232158 -0.0051870098102897028 0 0.00060759439547240616 -0.0051429856244291959 0 0.0005274799672927192 -0.0053335131184158542 0 0.0016337860895497731 -0.00531526442567144 0 0.0012209431663330031 -0.0060721849667319241 0 0.0013320757804340594 -0.0056980999245710784 0 0.0013257306627632527 -0.0057492585415958733 0 0.0012722181103420223 -0.0057217648201825224 0 0.0010414086369787429 -0.0051481538099523872 0 0.0012209431663330031 -0.0060721849667319241 0 0.00038079486937887743 -0.0063724704314212588 0 0.0012209431663330031 -0.0060721849667319241 0 0.00015128347348332988 -0.0053245800382627695 0 0.00060759439547240616 -0.0051429856244291959 0 0.0005274799672927192 -0.0053335131184158542 0 0.00075622429622687821 -0.0073620344239421071 0 0.00082548592115350031 -0.0070376207758781296 0 0.0011520109284558183 -0.0072007624807827984 0 0.00015128347348332988 -0.0053245800382627695 0 0.0005274799672927192 -0.0053335131184158542 0 0.00035014367666106699 -0.0056425311216759958 0 0.0005274799672927192 -0.0053335131184158542 0 0.00035014367666106699 -0.0056425311216759958 0 0.00065734808054549571 -0.0054625908044427822 0 0.0010670850754701613 -0.0054461956480544686 0 0.00065734808054549571 -0.0054625908044427822 0 0.00073548033544445146 -0.0057558918979196821 0 0.00035014367666106699 -0.0056425311216759958 0 0.00065734808054549571 -0.0054625908044427822 0 0.00073548033544445146 -0.0057558918979196821 0 -7.6612344388658749e-05 -0.0046912434381735577 0 -0.00029764696575441442 -0.0046215565020775772 0 0.00053556807314118033 -0.0038118081638958625 0 -0.00060089123716430305 -0.0051260118085740269 0 0.00062627996604389276 -0.0048797748555236015 0 -7.6612344388658749e-05 -0.0046912434381735577 0 0.00053556807314118033 -0.0038118081638958625 0 0.0007153770644540041 -0.0041460245399622259 0 -0.00011370426355593938 -0.0038580391834423613 0 0.00052243536952635691 -0.0033901097717051044 0 0.00043276516013753067 -0.0060371025622151936 0 0.00035014367666106699 -0.0056425311216759958 0 3.7326968356272713e-05 -0.0059126632138634507 0 0.00043276516013753067 -0.0060371025622151936 0 0.00035014367666106699 -0.0056425311216759958 0 0.00073548033544445146 -0.0057558918979196821 0 -0.00060089123716430305 -0.0051260118085740269 0 -0.00092105007949971321 -0.0063522436508184482 0 0.00035014367666106699 -0.0056425311216759958 0 3.7326968356272713e-05 -0.0059126632138634507 0 -2.0700720183607725e-05 -0.0056394517480534345 0 -0.00086471645402740461 -0.0062704915852003435 0 -0.00092258960171894965 -0.006915948229111517 0 -0.0017908068410632989 -0.0066113537788246848 0 -0.00066261542255914368 -0.006295776621294707 0 -0.00092105007949971321 -0.0063522436508184482 0 -0.00033800763223371604 -0.005795851025484325 0 3.7326968356272713e-05 -0.0059126632138634507 0 -2.0700720183607725e-05 -0.0056394517480534345 0 0.00015128347348332988 -0.0053245800382627695 0 -0.00028757674777496434 -0.0055150801861461353 0 -2.0700720183607725e-05 -0.0056394517480534345 0 -0.00033800763223371604 -0.005795851025484325 0 -0.00028757674777496434 -0.0055150801861461353 0 -2.0700720183607725e-05 -0.0056394517480534345 0 0.00015128347348332988 -0.0053245800382627695 0 0.00035014367666106699 -0.0056425311216759958 0 -2.0700720183607725e-05 -0.0056394517480534345 0 -0.00093859295406553266 -0.0096446334428208057 0 -0.00084990659795963601 -0.0090835653580257723 0 -0.00039170444877284093 -0.0094824377929460819 0 -0.00093859295406553266 -0.0096446334428208057 0 -0.00039170444877284093 -0.0094824377929460819 0 -0.00062614054793073601 -0.0099225645890887657 0 -0.00093859295406553266 -0.0096446334428208057 0 -0.0011981883831339126 -0.0091944877476487132 0 -0.00084990659795963601 -0.0090835653580257723 0 -0.00093859295406553266 -0.0096446334428208057 0 -0.0011981883831339126 -0.0091944877476487132 0 -0.0014057596271456359 -0.0095208358538704588 0 -0.0011981883831339126 -0.0091944877476487132 0 -0.00084990659795963601 -0.0090835653580257723 0 -0.0011574774680519736 -0.0086411542589170821 0 -0.00084990659795963601 -0.0090835653580257723 0 -0.00042183681028728093 -0.008965839307490172 0 -0.00039170444877284093 -0.0094824377929460819 0 -0.00042183681028728093 -0.008965839307490172 0 0.00015215015389290605 -0.0091740978238933329 0 -0.00039170444877284093 -0.0094824377929460819 0 0.00015215015389290605 -0.0091740978238933329 0 0.00012195674584333601 -0.0095420448802649334 0 -0.00039170444877284093 -0.0094824377929460819 0 0.00012195674584333601 -0.0095420448802649334 0 -0.00039170444877284093 -0.0094824377929460819 0 -0.00014147228343256178 -0.010001298678421979 0 -0.00039170444877284093 -0.0094824377929460819 0 -0.00062614054793073601 -0.0099225645890887657 0 -0.00014147228343256178 -0.010001298678421979 0 -0.00062614054793073601 -0.0099225645890887657 0 -0.00014147228343256178 -0.010001298678421979 0 -0.00049747429879244524 -0.010623072009009336 0 0.00012195674584333601 -0.0095420448802649334 0 -0.00014147228343256178 -0.010001298678421979 0 0.00026981448108150515 -0.009988382572259806 0 -0.00049747429879244524 -0.010623072009009336 0 3.798138732435478e-05 -0.010611160995673342 0 -0.000235577803312026 -0.011194864260387743 0 -0.00014147228343256178 -0.010001298678421979 0 -0.00049747429879244524 -0.010623072009009336 0 3.798138732435478e-05 -0.010611160995673342 0 -0.00062614054793073601 -0.0099225645890887657 0 -0.00049747429879244524 -0.010623072009009336 0 -0.00098602291480912041 -0.010239157665851116 0 -0.00049747429879244524 -0.010623072009009336 0 -0.00098602291480912041 -0.010239157665851116 0 -0.0010062610582533757 -0.011138604552815092 0 -0.00098602291480912041 -0.010239157665851116 0 -0.0011522322436968309 -0.010184685433492375 0 -0.00094782044255071454 -0.010368104306142018 0 -0.00093859295406553266 -0.0096446334428208057 0 -0.00062614054793073601 -0.0099225645890887657 0 -0.00098602291480912041 -0.010239157665851116 0 -0.00093859295406553266 -0.0096446334428208057 0 -0.0012137753946187681 -0.0098658368551105234 0 -0.0014057596271456359 -0.0095208358538704588 0 -0.00093859295406553266 -0.0096446334428208057 0 -0.00098602291480912041 -0.010239157665851116 0 -0.0012137753946187681 -0.0098658368551105234 0 -0.0012137753946187681 -0.0098658368551105234 0 -0.0011522322436968309 -0.010184685433492375 0 -0.0013705024318983613 -0.0099656249749830537 0 -0.00098602291480912041 -0.010239157665851116 0 -0.0012137753946187681 -0.0098658368551105234 0 -0.0011522322436968309 -0.010184685433492375 0 -0.0011522322436968309 -0.010184685433492375 0 -0.0013845683932704024 -0.010128813765077727 0 -0.0013705024318983613 -0.0099656249749830537 0 -0.0013845683932704024 -0.010128813765077727 0 -0.0013705024318983613 -0.0099656249749830537 0 -0.0015421670551620142 -0.0099343905810783013 0 -0.0013705024318983613 -0.0099656249749830537 0 -0.0015421670551620142 -0.0099343905810783013 0 -0.0014912490183110693 -0.0097505584246324987 0 -0.0013845683932704024 -0.010128813765077727 0 -0.0015421670551620142 -0.0099343905810783013 0 -0.0016488042007927867 -0.010138625777388484 0 -0.0015421670551620142 -0.0099343905810783013 0 -0.0017662589238717416 -0.0097016350914447217 0 -0.0016488042007927867 -0.010138625777388484 0 -0.0019763276518546895 -0.0094582021645982211 0 -0.0022098975550578497 -0.0094175414037441559 0 -0.0017662589238717416 -0.0097016350914447217 0 -0.0019730473967560103 -0.0094436772204348329 0 -0.0016488042007927867 -0.010138625777388484 0 -0.0015421670551620142 -0.0099343905810783013 0 -0.0017662589238717416 -0.0097016350914447217 0 -0.0014912490183110693 -0.0097505584246324987 0 -0.0017662589238717416 -0.0097016350914447217 0 -0.0016419332780456242 -0.0095646278474852547 0 -0.0014912490183110693 -0.0097505584246324987 0 -0.0017662589238717416 -0.0097016350914447217 0 -0.0018353831697924584 -0.0095420783844390785 0 -0.0018950599122278269 -0.0095880168928906655 0 -0.0017662589238717416 -0.0097016350914447217 0 -0.0018353831697924584 -0.0095420783844390785 0 -0.0016419332780456242 -0.0095646278474852547 0 -0.0016419332780456242 -0.0095646278474852547 0 -0.0014912490183110693 -0.0097505584246324987 0 -0.0014057596271456359 -0.0095208358538704588 0 -0.0012137753946187681 -0.0098658368551105234 0 -0.0014912490183110693 -0.0097505584246324987 0 -0.0014057596271456359 -0.0095208358538704588 0 -0.0012137753946187681 -0.0098658368551105234 0 -0.0013705024318983613 -0.0099656249749830537 0 -0.0014912490183110693 -0.0097505584246324987 0 -0.0015526475560086227 -0.0093033984007330484 0 -0.0019730473967560103 -0.0094436772204348329 0 -0.0013926633836824909 -0.0086441802100455586 0 -0.0010866872254177765 -0.0094068630020577512 0 -0.0015526475560086227 -0.0093033984007330484 0 -0.0013926633836824909 -0.0086441802100455586 0 -0.0017662589238717416 -0.0097016350914447217 0 -0.0019730473967560103 -0.0094436772204348329 0 -0.0018950599122278269 -0.0095880168928906655 0 -0.0019730473967560103 -0.0094436772204348329 0 -0.0019593822785028644 -0.0096289175806849869 0 -0.0018778461358056762 -0.009702465668035112 0 -0.0018353831697924584 -0.0095420783844390785 0 -0.0018950599122278269 -0.0095880168928906655 0 -0.0019370038797983566 -0.0095868138626056358 0 -0.0018353831697924584 -0.0095420783844390785 0 -0.0019370038797983566 -0.0095868138626056358 0 -0.0019167857381815997 -0.0095123484320625128 0 -0.0018353831697924584 -0.0095420783844390785 0 -0.0019167857381815997 -0.0095123484320625128 0 -0.0018945653469365159 -0.0093997510114308697 0 -0.0019167857381815997 -0.0095123484320625128 0 -0.0019550022448129715 -0.0095421714445187173 0 -0.0019571373985200272 -0.0094505517992300603 0 -0.0019370038797983566 -0.0095868138626056358 0 -0.0019167857381815997 -0.0095123484320625128 0 -0.0019550022448129715 -0.0095421714445187173 0 -0.0019370038797983566 -0.0095868138626056358 0 -0.0019550022448129715 -0.0095421714445187173 0 -0.0019593822785028644 -0.0096289175806849869 0 -0.0019550022448129715 -0.0095421714445187173 0 -0.0020242470537585647 -0.0094559121695612803 0 -0.0019571373985200272 -0.0094505517992300603 0 -0.0019550022448129715 -0.0095421714445187173 0 -0.0020058524847448656 -0.0095388493181362138 0 -0.0019593822785028644 -0.0096289175806849869 0 -0.0019550022448129715 -0.0095421714445187173 0 -0.0020058524847448656 -0.0095388493181362138 0 -0.0020242470537585647 -0.0094559121695612803 0 -0.0020058524847448656 -0.0095388493181362138 0 -0.0021178589389006554 -0.0095453801196581662 0 -0.0020242470537585647 -0.0094559121695612803 0 -0.0020058524847448656 -0.0095388493181362138 0 -0.0019593822785028644 -0.0096289175806849869 0 -0.0021178589389006554 -0.0095453801196581662 0 -0.0019057949047102593 -0.009275744149611638 0 -0.0019508619173562924 -0.009181027134629335 0 -0.0019730473967560103 -0.0094436772204348329 0 -0.0019370038797983566 -0.0095868138626056358 0 -0.0019593822785028644 -0.0096289175806849869 0 -0.0019730473967560103 -0.0094436772204348329 0 -0.0018950599122278269 -0.0095880168928906655 0 -0.0019370038797983566 -0.0095868138626056358 0 -0.0010866872254177765 -0.0094068630020577512 0 -0.0015526475560086227 -0.0093033984007330484 0 -0.0018778461358056762 -0.009702465668035112 0 -0.0015820527652829998 -0.0085526095540608554 0 -0.001533335428471662 -0.0084189462472652066 0 -0.0017804970618239913 -0.0085833732525741717 0 -0.0015686327868619516 -0.0086444634702137878 0 -0.0015820527652829998 -0.0085526095540608554 0 -0.0017804970618239913 -0.0085833732525741717 0 -0.00102444146842048 -0.0085127802654018127 0 -0.0019508619173562924 -0.009181027134629335 0 -0.0021248560940612432 -0.0090139946191779893 0 -0.0019508619173562924 -0.009181027134629335 0 -0.0015526475560086227 -0.0093033984007330484 0 -0.0019730473967560103 -0.0094436772204348329 0 -0.0018778461358056762 -0.009702465668035112 0 -0.002445571859104555 -0.0093508162166851937 0 -0.0021178589389006554 -0.0095453801196581662 0 -0.0022458596116640417 -0.0092857096471146237 0 -0.002445571859104555 -0.0093508162166851937 0 -0.0022458596116640417 -0.0092857096471146237 0 -0.0023375683293400361 -0.0091193401317902507 0 -0.0022458596116640417 -0.0092857096471146237 0 -0.0020878368738764378 -0.0092299084382849016 0 -0.0020947907692466248 -0.009393003907185539 0 -0.0021178589389006554 -0.0095453801196581662 0 -0.0022458596116640417 -0.0092857096471146237 0 -0.0020947907692466248 -0.009393003907185539 0 -0.0022458596116640417 -0.0092857096471146237 0 -0.0020878368738764378 -0.0092299084382849016 0 -0.002155572552226682 -0.0090630358840770742 0 -0.0022458596116640417 -0.0092857096471146237 0 -0.002155572552226682 -0.0090630358840770742 0 -0.0023375683293400361 -0.0091193401317902507 0 -0.0020878368738764378 -0.0092299084382849016 0 -0.0020054569581339824 -0.0093414585058034742 0 -0.0019621188418436387 -0.0091677212750392763 0 -0.0020878368738764378 -0.0092299084382849016 0 -0.0020947907692466248 -0.009393003907185539 0 -0.0020054569581339824 -0.0093414585058034742 0 -0.0020947907692466248 -0.009393003907185539 0 -0.0020242470537585647 -0.0094559121695612803 0 -0.0020054569581339824 -0.0093414585058034742 0 -0.0021178589389006554 -0.0095453801196581662 0 -0.0020947907692466248 -0.009393003907185539 0 -0.0020242470537585647 -0.0094559121695612803 0 -0.0020242470537585647 -0.0094559121695612803 0 -0.0019571373985200272 -0.0094505517992300603 0 -0.0020054569581339824 -0.0093414585058034742 0 -0.0019571373985200272 -0.0094505517992300603 0 -0.0020054569581339824 -0.0093414585058034742 0 -0.0018945653469365159 -0.0093997510114308697 0 -0.0019167857381815997 -0.0095123484320625128 0 -0.0019571373985200272 -0.0094505517992300603 0 -0.0018945653469365159 -0.0093997510114308697 0 -0.0018945653469365159 -0.0093997510114308697 0 -0.0019621188418436387 -0.0091677212750392763 0 -0.0017473612565144956 -0.0093073358714217784 0 -0.0020054569581339824 -0.0093414585058034742 0 -0.0018945653469365159 -0.0093997510114308697 0 -0.0019621188418436387 -0.0091677212750392763 0 -0.0019621188418436387 -0.0091677212750392763 0 -0.0019144306451132499 -0.0088995227301498867 0 -0.0017473612565144956 -0.0093073358714217784 0 -0.0019144306451132499 -0.0088995227301498867 0 -0.002155572552226682 -0.0090630358840770742 0 -0.0021520659499290823 -0.0088083222787384702 0 -0.0019621188418436387 -0.0091677212750392763 0 -0.0019144306451132499 -0.0088995227301498867 0 -0.002155572552226682 -0.0090630358840770742 0 -0.0020878368738764378 -0.0092299084382849016 0 -0.0019621188418436387 -0.0091677212750392763 0 -0.002155572552226682 -0.0090630358840770742 0 -0.002155572552226682 -0.0090630358840770742 0 -0.0023375683293400361 -0.0091193401317902507 0 -0.0021520659499290823 -0.0088083222787384702 0 -0.00084098056253822679 -0.0078483188615717393 0 -0.00075998266985752489 -0.0076783936813213374 0 -0.00246552710792773 -0.0089956207406245801 0 -0.0023375683293400361 -0.0091193401317902507 0 -0.0021520659499290823 -0.0088083222787384702 0 -0.0011981883831339126 -0.0091944877476487132 0 -0.0014057596271456359 -0.0095208358538704588 0 -0.0015540732988092493 -0.0090280438174277222 0 -0.0014057596271456359 -0.0095208358538704588 0 -0.0017473612565144956 -0.0093073358714217784 0 -0.0015540732988092493 -0.0090280438174277222 0 -0.0016419332780456242 -0.0095646278474852547 0 -0.0014057596271456359 -0.0095208358538704588 0 -0.0017473612565144956 -0.0093073358714217784 0 -0.0018353831697924584 -0.0095420783844390785 0 -0.0016419332780456242 -0.0095646278474852547 0 -0.0017473612565144956 -0.0093073358714217784 0 -0.0018353831697924584 -0.0095420783844390785 0 -0.0018945653469365159 -0.0093997510114308697 0 -0.0017473612565144956 -0.0093073358714217784 0 -0.0019144306451132499 -0.0088995227301498867 0 -0.0015540732988092493 -0.0090280438174277222 0 -0.0017955962414360784 -0.0084989640698716427 0 -0.0019144306451132499 -0.0088995227301498867 0 -0.0017473612565144956 -0.0093073358714217784 0 -0.0015540732988092493 -0.0090280438174277222 0 -0.0011981883831339126 -0.0091944877476487132 0 -0.0015540732988092493 -0.0090280438174277222 0 -0.0011574774680519736 -0.0086411542589170821 0 -0.0015540732988092493 -0.0090280438174277222 0 -0.0017955962414360784 -0.0084989640698716427 0 -0.0011574774680519736 -0.0086411542589170821 0 -0.0017955962414360784 -0.0084989640698716427 0 -0.001092638505193157 -0.0079842893364323094 0 -0.0011574774680519736 -0.0086411542589170821 0 -0.00040613056281730133 -0.007111514195371601 0 -5.90718736904095e-05 -0.0075203291930579152 0 -0.00060016910634712306 -0.0079535694730567576 0 -0.00040613056281730133 -0.007111514195371601 0 -0.001092638505193157 -0.0079842893364323094 0 -0.00060016910634712306 -0.0079535694730567576 0 -0.0010175710853888237 -0.0079235928940466181 0 -0.00096694951080190223 -0.0079838922280749888 0 -0.001092638505193157 -0.0079842893364323094 0 -0.00060016910634712306 -0.0079535694730567576 0 -0.0010418428572703635 -0.0080071131354114266 0 -0.0010584857968732814 -0.007808746452833977 0 -0.0010625726635952136 -0.0079317238058016475 0 0.00058978299975795693 -0.0065306236649951468 0 0.0010642466357390062 -0.0066276312053998414 0 0.00049458238279823986 -0.0072281577679783621 0 0.0010430644200683913 -0.0066148506400352438 0 0.00058978299975795693 -0.0065306236649951468 0 0.0010642466357390062 -0.0066276312053998414 0 -0.00040613056281730133 -0.007111514195371601 0 0.00058978299975795693 -0.0065306236649951468 0 0.00049458238279823986 -0.0072281577679783621 0 -0.0010584857968732814 -0.007808746452833977 0 -0.00075998266985752489 -0.0076783936813213374 0 -0.0019144306451132499 -0.0088995227301498867 0 -0.0017955962414360784 -0.0084989640698716427 0 -0.0021520659499290823 -0.0088083222787384702 0 -0.00040613056281730133 -0.007111514195371601 0 -5.90718736904095e-05 -0.0075203291930579152 0 0.00049458238279823986 -0.0072281577679783621 0 -5.90718736904095e-05 -0.0075203291930579152 0 0.00049458238279823986 -0.0072281577679783621 0 0.00047362266981814337 -0.0078759578544801319 0 0.00049458238279823986 -0.0072281577679783621 0 0.00072755986944180947 -0.0075328369180126054 0 0.00047362266981814337 -0.0078759578544801319 0 0.0010642466357390062 -0.0066276312053998414 0 0.00049458238279823986 -0.0072281577679783621 0 0.00098063086845668192 -0.0073692802172136895 0 0.00049458238279823986 -0.0072281577679783621 0 0.00098063086845668192 -0.0073692802172136895 0 0.00072755986944180947 -0.0075328369180126054 0 0.00098063086845668192 -0.0073692802172136895 0 0.001019383366217035 -0.0077810933646059177 0 0.00072755986944180947 -0.0075328369180126054 0 0.001019383366217035 -0.0077810933646059177 0 0.00072755986944180947 -0.0075328369180126054 0 0.00047362266981814337 -0.0078759578544801319 0 0.0014320341342736174 -0.007727233218166674 0 0.00030177651147542068 -0.007502925706879114 0 -5.90718736904095e-05 -0.0075203291930579152 0 0.00047362266981814337 -0.0078759578544801319 0 -0.00060016910634712306 -0.0079535694730567576 0 0.00030177651147542068 -0.007502925706879114 0 -0.0010175710853888237 -0.0079235928940466181 0 -0.0012515333970777446 -0.0077881309708325609 0 -0.0011274962601326907 -0.0078434703532257039 0 -0.0011648060674302413 -0.0077371016732838051 0 -0.0012515333970777446 -0.0077881309708325609 0 -0.0012099853298406238 -0.0076549128104795366 0 -0.001269508909854077 -0.0076706930918859564 0 -0.0012515333970777446 -0.0077881309708325609 0 -0.0012099853298406238 -0.0076549128104795366 0 -0.0011648060674302413 -0.0077371016732838051 0 -0.0012099853298406238 -0.0076549128104795366 0 -0.0011648060674302413 -0.0077371016732838051 0 -0.0011458426122189533 -0.0076593370356558025 0 0.001620715583640973 -0.0076270290398961302 0 0.0019639952773602425 -0.0077089066100572258 0 0.0019039452358849227 -0.0072745501052502992 0 0.00030177651147542068 -0.007502925706879114 0 0.00034415012039944523 -0.0077125676732091412 0 0.0014731340812707007 -0.0070549268130241675 0 0.001497406731749027 -0.0073711251145472598 0 0.0019039452358849227 -0.0072745501052502992 0 0.001497406731749027 -0.0073711251145472598 0 0.001620715583640973 -0.0076270290398961302 0 0.0019039452358849227 -0.0072745501052502992 0 -0.0010454492295794398 -0.0078183810405738838 0 -0.0011274962601326907 -0.0078434703532257039 0 -0.0010418428572703635 -0.0080071131354114266 0 -0.0010454492295794398 -0.0078183810405738838 0 -0.0011274962601326907 -0.0078434703532257039 0 -0.0010912239804758759 -0.0077325657128857646 0 -0.0011274962601326907 -0.0078434703532257039 0 -0.0010912239804758759 -0.0077325657128857646 0 -0.0011648060674302413 -0.0077371016732838051 0 -0.0010912239804758759 -0.0077325657128857646 0 -0.0011458426122189533 -0.0076593370356558025 0 -0.0010586231410196893 -0.0075862406651556235 0 -0.0010912239804758759 -0.0077325657128857646 0 -0.0011648060674302413 -0.0077371016732838051 0 -0.0011458426122189533 -0.0076593370356558025 0 -0.0010912239804758759 -0.0077325657128857646 0 -0.0010086009102176342 -0.0076742119350208986 0 -0.0010586231410196893 -0.0075862406651556235 0 -0.0010454492295794398 -0.0078183810405738838 0 -0.0010912239804758759 -0.0077325657128857646 0 -0.0010086009102176342 -0.0076742119350208986 0 0.00042762627057350112 -0.0087296472121077759 0 0.00045974021433176619 -0.0087891482826807452 0 0.00040535508173447925 -0.0089164428653880305 0 0.00042762627057350112 -0.0087296472121077759 0 0.00045974021433176619 -0.0087891482826807452 0 0.00049004661757168298 -0.0086674469133854442 0 -0.00028488804140338318 -0.0082088381926235868 0 -0.00021601884639732235 -0.0083744373495481857 0 -0.0010454492295794398 -0.0078183810405738838 0 -0.0010086009102176342 -0.0076742119350208986 0 -0.00085479148422451209 -0.0078182302627126093 0 0.00044736559136641056 -0.0088558734181786048 0 0.00043952885177497359 -0.0089310127728223342 0 0.00049712679444633085 -0.0087530954065221361 0 0.00045974021433176619 -0.0087891482826807452 0 0.00044736559136641056 -0.0088558734181786048 0 0.00040535508173447925 -0.0089164428653880305 0 0.00045974021433176619 -0.0087891482826807452 0 0.00044736559136641056 -0.0088558734181786048 0 0.00049712679444633085 -0.0087530954065221361 0 0.00040535508173447925 -0.0089164428653880305 0 0.00035814048017205187 -0.0090825621650958525 0 0.00043952885177497359 -0.0089310127728223342 0 0.00044736559136641056 -0.0088558734181786048 0 0.00040535508173447925 -0.0089164428653880305 0 0.00043952885177497359 -0.0089310127728223342 0 -0.0010454492295794398 -0.0078183810405738838 0 -0.00085479148422451209 -0.0078182302627126093 0 -0.0010418428572703635 -0.0080071131354114266 0 -0.00085479148422451209 -0.0078182302627126093 0 -0.0010418428572703635 -0.0080071131354114266 0 -0.00098129935935630224 -0.0081947306049816333 0 -0.00085479148422451209 -0.0078182302627126093 0 -0.00098129935935630224 -0.0081947306049816333 0 -0.00077940753917946212 -0.0084641073688519249 0 -0.001092638505193157 -0.0079842893364323094 0 -0.0010418428572703635 -0.0080071131354114266 0 -0.00098129935935630224 -0.0081947306049816333 0 -0.00085479148422451209 -0.0078182302627126093 0 -0.00077940753917946212 -0.0084641073688519249 0 -0.00037547436535992503 -0.0083273345229858756 0 -0.00021601884639732235 -0.0083744373495481857 0 -1.3190440665020398e-05 -0.0087224039529573659 0 -0.00084990659795963601 -0.0090835653580257723 0 -0.00042183681028728093 -0.008965839307490172 0 -0.00077940753917946212 -0.0084641073688519249 0 -0.00042183681028728093 -0.008965839307490172 0 -0.00077940753917946212 -0.0084641073688519249 0 -0.00037547436535992503 -0.0083273345229858756 0 -0.00098129935935630224 -0.0081947306049816333 0 -0.00077940753917946212 -0.0084641073688519249 0 -0.0011574774680519736 -0.0086411542589170821 0 -0.001092638505193157 -0.0079842893364323094 0 -0.00098129935935630224 -0.0081947306049816333 0 -0.0011574774680519736 -0.0086411542589170821 0 -0.00084990659795963601 -0.0090835653580257723 0 -0.00077940753917946212 -0.0084641073688519249 0 -0.0011574774680519736 -0.0086411542589170821 0 0.00015215015389290605 -0.0091740978238933329 0 0.00037818932986632519 -0.0091158921299334967 0 0.00043888900650042919 -0.0092075418850443465 0 0.00015215015389290605 -0.0091740978238933329 0 0.00035814048017205187 -0.0090825621650958525 0 0.00037818932986632519 -0.0091158921299334967 0 -0.00042183681028728093 -0.008965839307490172 0 0.00015215015389290605 -0.0091740978238933329 0 -0.00037547436535992503 -0.0083273345229858756 0 0.00016290831347374495 -0.0091334441130613529 0 -1.3190440665020398e-05 -0.0087224039529573659 0 0.00035814048017205187 -0.0090825621650958525 0 0.00037818932986632519 -0.0091158921299334967 0 0.00041277508492344788 -0.0090366028733458031 0 0.00037818932986632519 -0.0091158921299334967 0 0.00047147100595157186 -0.0090116781288188206 0 0.00041277508492344788 -0.0090366028733458031 0 0.00035814048017205187 -0.0090825621650958525 0 0.00041277508492344788 -0.0090366028733458031 0 0.00043952885177497359 -0.0089310127728223342 0 0.00047147100595157186 -0.0090116781288188206 0 0.00041277508492344788 -0.0090366028733458031 0 0.00043952885177497359 -0.0089310127728223342 0 0.00043952885177497359 -0.0089310127728223342 0 0.00048039243586950851 -0.0088524485851974553 0 0.00049712679444633085 -0.0087530954065221361 0 0.00047147100595157186 -0.0090116781288188206 0 0.00043952885177497359 -0.0089310127728223342 0 0.00048039243586950851 -0.0088524485851974553 0 0.00047147100595157186 -0.0090116781288188206 0 0.00048039243586950851 -0.0088524485851974553 0 0.00049651301512362075 -0.0088846489920933781 0 0.00047147100595157186 -0.0090116781288188206 0 0.00049651301512362075 -0.0088846489920933781 0 0.00052067105285186915 -0.0089299623935022894 0 0.00049651301512362075 -0.0088846489920933781 0 0.00050702525838282493 -0.0088862737056004167 0 0.00050320999733182532 -0.0087895206317922941 0 0.00048039243586950851 -0.0088524485851974553 0 0.00049651301512362075 -0.0088846489920933781 0 0.00050320999733182532 -0.0087895206317922941 0 0.00049651301512362075 -0.0088846489920933781 0 0.00050702525838282493 -0.0088862737056004167 0 0.00052067105285186915 -0.0089299623935022894 0 0.00050702525838282493 -0.0088862737056004167 0 0.00049597747728569131 -0.0088707080765801256 0 0.00050320999733182532 -0.0087895206317922941 0 0.00049597747728569131 -0.0088707080765801256 0 0.00050320999733182532 -0.0087895206317922941 0 0.00048677149501924613 -0.0088251607293016107 0 0.00050320999733182532 -0.0087895206317922941 0 0.00053508898660888289 -0.0086252197040604557 0 0.00049847826457458219 -0.0087424300905530553 0 0.00050320999733182532 -0.0087895206317922941 0 0.00048677149501924613 -0.0088251607293016107 0 0.00049847826457458219 -0.0087424300905530553 0 0.00050320999733182532 -0.0087895206317922941 0 0.00049712679444633085 -0.0087530954065221361 0 0.00053508898660888289 -0.0086252197040604557 0 0.00048039243586950851 -0.0088524485851974553 0 0.00050320999733182532 -0.0087895206317922941 0 0.00049712679444633085 -0.0087530954065221361 0 0.00045974021433176619 -0.0087891482826807452 0 0.00049712679444633085 -0.0087530954065221361 0 0.00049004661757168298 -0.0086674469133854442 0 0.00049712679444633085 -0.0087530954065221361 0 0.00049004661757168298 -0.0086674469133854442 0 0.00055789685065431359 -0.0084993176662240665 0 0.00049004661757168298 -0.0086674469133854442 0 0.00055789685065431359 -0.0084993176662240665 0 0.00046698021741016136 -0.0085261991637681448 0 0.00055789685065431359 -0.0084993176662240665 0 0.00053508898660888289 -0.0086252197040604557 0 0.00057852142846369944 -0.0084760493759658481 0 0.00055789685065431359 -0.0084993176662240665 0 0.00057852142846369944 -0.0084760493759658481 0 0.00062560275274070978 -0.0080373899571089032 0 0.00049712679444633085 -0.0087530954065221361 0 0.00055789685065431359 -0.0084993176662240665 0 0.00053508898660888289 -0.0086252197040604557 0 0.00052025277465032784 -0.0086623741830808582 0 0.00057852142846369944 -0.0084760493759658481 0 0.0005839972550886871 -0.0086665329139020697 0 0.00053508898660888289 -0.0086252197040604557 0 0.00052025277465032784 -0.0086623741830808582 0 0.00057852142846369944 -0.0084760493759658481 0 0.00057852142846369944 -0.0084760493759658481 0 0.0005839972550886871 -0.0086665329139020697 0 0.00062560275274070978 -0.0080373899571089032 0 0.00070695834726690972 -0.0079744423274683597 0 0.00059489826382728148 -0.0080570679534136651 0 0.00093368480380746563 -0.0072441667902284068 0 0.00077951973454134301 -0.0072910731580313878 0 0.00085233765165061118 -0.0072054066745165686 0 0.00093368480380746563 -0.0072441667902284068 0 0.00062560275274070978 -0.0080373899571089032 0 0.00077951973454134301 -0.0072910731580313878 0 0.00070695834726690972 -0.0079744423274683597 0 0.00043049868282795886 -0.0081995171763159218 0 0.0005839972550886871 -0.0086665329139020697 0 0.00050365388990454248 -0.0087596474191467735 0 0.00047152960924447848 -0.0088822470278905087 0 0.00052025277465032784 -0.0086623741830808582 0 0.0005839972550886871 -0.0086665329139020697 0 0.00050365388990454248 -0.0087596474191467735 0 0.00052025277465032784 -0.0086623741830808582 0 0.00050365388990454248 -0.0087596474191467735 0 0.00048550743514870959 -0.0087723589485816551 0 0.00050365388990454248 -0.0087596474191467735 0 0.00048550743514870959 -0.0087723589485816551 0 0.00047130450564546763 -0.0088214682080060454 0 0.00048550743514870959 -0.0087723589485816551 0 0.00046020614673963206 -0.0088394793865625119 0 0.00047430603685152478 -0.0088206449164593432 0 0.00048550743514870959 -0.0087723589485816551 0 0.00047130450564546763 -0.0088214682080060454 0 0.00046020614673963206 -0.0088394793865625119 0 0.00047130450564546763 -0.0088214682080060454 0 0.00045370619586997064 -0.0088576245250042273 0 0.00047152960924447848 -0.0088822470278905087 0 0.00050365388990454248 -0.0087596474191467735 0 0.00047130450564546763 -0.0088214682080060454 0 0.00047152960924447848 -0.0088822470278905087 0 0.00047130450564546763 -0.0088214682080060454 0 0.00045370619586997064 -0.0088576245250042273 0 0.00046020614673963206 -0.0088394793865625119 0 0.00045370619586997064 -0.0088576245250042273 0 0.00044677777887279366 -0.0088707532488314905 0 0.00044045849049241152 -0.0088706749046624563 0 0.00044677777887279366 -0.0088707532488314905 0 0.0004579028400894721 -0.0088692786964357437 0 0.00046020614673963206 -0.0088394793865625119 0 0.00045370619586997064 -0.0088576245250042273 0 0.00044677777887279366 -0.0088707532488314905 0 0.00046020614673963206 -0.0088394793865625119 0 0.00044785966009913399 -0.0088951001812448104 0 0.0004375250432737043 -0.0088841366274411519 0 0.00043922404691902394 -0.0089046196772242184 0 0.00044677777887279366 -0.0088707532488314905 0 0.00044785966009913399 -0.0088951001812448104 0 0.0004375250432737043 -0.0088841366274411519 0 0.00044677777887279366 -0.0088707532488314905 0 0.00044785966009913399 -0.0088951001812448104 0 0.0004579028400894721 -0.0088692786964357437 0 0.0004579028400894721 -0.0088692786964357437 0 0.00047231090360368139 -0.0088720689405680647 0 0.00046256690467079507 -0.0089095713046534169 0 0.00044785966009913399 -0.0088951001812448104 0 0.0004579028400894721 -0.0088692786964357437 0 0.00046256690467079507 -0.0089095713046534169 0 0.0004579028400894721 -0.0088692786964357437 0 0.00047430603685152478 -0.0088206449164593432 0 0.00047231090360368139 -0.0088720689405680647 0 0.0004579028400894721 -0.0088692786964357437 0 0.00046020614673963206 -0.0088394793865625119 0 0.00047430603685152478 -0.0088206449164593432 0 0.00047430603685152478 -0.0088206449164593432 0 0.00047231090360368139 -0.0088720689405680647 0 0.00048677149501924613 -0.0088251607293016107 0 0.00047231090360368139 -0.0088720689405680647 0 0.00048677149501924613 -0.0088251607293016107 0 0.00048535349730004576 -0.0088897203825349432 0 0.00049597747728569131 -0.0088707080765801256 0 0.00048677149501924613 -0.0088251607293016107 0 0.00048535349730004576 -0.0088897203825349432 0 0.00047430603685152478 -0.0088206449164593432 0 0.00048677149501924613 -0.0088251607293016107 0 0.00049847826457458219 -0.0087424300905530553 0 0.00053508898660888289 -0.0086252197040604557 0 0.00052025277465032784 -0.0086623741830808582 0 0.00049847826457458219 -0.0087424300905530553 0 0.00052025277465032784 -0.0086623741830808582 0 0.00048550743514870959 -0.0087723589485816551 0 0.00049847826457458219 -0.0087424300905530553 0 0.00048550743514870959 -0.0087723589485816551 0 0.00047430603685152478 -0.0088206449164593432 0 0.00049847826457458219 -0.0087424300905530553 0 -0.0013583849648452797 -0.0074434281501643803 0 -0.0012303593977669187 -0.0073411648762861945 0 -0.0014195406805066031 -0.0071433227343638524 0 0.0019763427786222958 -0.0021118916239907383 0 0.002294548282547145 -0.0025291566038095495 0 0.002217415319773344 -0.0020194618337509079 0 0.00066871343991415798 -0.0059910860538389381 0 0.00039801805077349075 -0.0041691346126708374 0 0.0014731340812707007 -0.0070549268130241675 0 0.0019039452358849227 -0.0072745501052502992 0 0.0018376903593947166 -0.0068188970012603121 0 0.00034415012039944523 -0.0077125676732091412 0 0.00066871343991415798 -0.0059910860538389381 0 -0.0012099853298406238 -0.0076549128104795366 0 -0.0012774203007568316 -0.0075535057310561378 0 -0.0011886518253600591 -0.0075840434727425443 0 0.00066871343991415798 -0.0059910860538389381 0 -0.0014809437209596956 -0.007534505621140406 0 -0.0012099853298406238 -0.0076549128104795366 0 -0.001269508909854077 -0.0076706930918859564 0 -0.0012774203007568316 -0.0075535057310561378 0 -0.0012099853298406238 -0.0076549128104795366 0 -0.0011458426122189533 -0.0076593370356558025 0 -0.0011886518253600591 -0.0075840434727425443 0 -0.0012303593977669187 -0.0073411648762861945 0 -0.0010641982447221635 -0.0074519192446347981 0 -0.0012095677033300805 -0.0071339553753783942 0 -0.0011612528330287614 -0.0075065172552454869 0 -0.0012303593977669187 -0.0073411648762861945 0 -0.0010641982447221635 -0.0074519192446347981 0 -0.0013583849648452797 -0.0074434281501643803 0 -0.0011612528330287614 -0.0075065172552454869 0 -0.0012303593977669187 -0.0073411648762861945 0 -0.00039592334007461252 -0.0078838886486003353 0 -0.00068669514368449038 -0.0076789454334202159 0 0.00028261743196468671 -0.0084139982424165198 0 0.00033852493768150529 -0.0079338887672535611 0 -8.5695440518609951e-05 -0.0077246851490632299 0 0.00028261743196468671 -0.0084139982424165198 0 0.00047515579585883391 -0.0082955560660032401 0 0.00033852493768150529 -0.0079338887672535611 0 -0.0011612528330287614 -0.0075065172552454869 0 -0.0010641982447221635 -0.0074519192446347981 0 -0.0010586231410196893 -0.0075862406651556235 0 -0.0011458426122189533 -0.0076593370356558025 0 -0.0011886518253600591 -0.0075840434727425443 0 -0.0010586231410196893 -0.0075862406651556235 0 -0.0014809437209596956 -0.007534505621140406 0 -0.00095584089584878416 -0.0076034613959579962 0 0.00042762627057350112 -0.0087296472121077759 0 0.00028261743196468671 -0.0084139982424165198 0 0.00046698021741016136 -0.0085261991637681448 0 -0.0010086009102176342 -0.0076742119350208986 0 -0.0010641982447221635 -0.0074519192446347981 0 -0.0010586231410196893 -0.0075862406651556235 0 0.00042762627057350112 -0.0087296472121077759 0 0.00049004661757168298 -0.0086674469133854442 0 0.00046698021741016136 -0.0085261991637681448 0 -0.00028488804140338318 -0.0082088381926235868 0 -0.00039592334007461252 -0.0078838886486003353 0 0.00055789685065431359 -0.0084993176662240665 0 0.00047515579585883391 -0.0082955560660032401 0 0.00062560275274070978 -0.0080373899571089032 0 0.00055789685065431359 -0.0084993176662240665 0 0.00046698021741016136 -0.0085261991637681448 0 0.00047515579585883391 -0.0082955560660032401 0 0.00028261743196468671 -0.0084139982424165198 0 0.00046698021741016136 -0.0085261991637681448 0 0.00047515579585883391 -0.0082955560660032401 0 0.00047515579585883391 -0.0082955560660032401 0 0.00062560275274070978 -0.0080373899571089032 0 0.00033852493768150529 -0.0079338887672535611 0 0.00062560275274070978 -0.0080373899571089032 0 0.00048911071825827389 -0.0075721527735916104 0 0.00033852493768150529 -0.0079338887672535611 0 0.00077951973454134301 -0.0072910731580313878 0 0.00048911071825827389 -0.0075721527735916104 0 0.00050540350300373011 -0.0071754157836599478 0 0.00077951973454134301 -0.0072910731580313878 0 0.00050540350300373011 -0.0071754157836599478 0 0.00068707555228640941 -0.0071017556110520132 0 0.00062560275274070978 -0.0080373899571089032 0 0.00077951973454134301 -0.0072910731580313878 0 0.00048911071825827389 -0.0075721527735916104 0 0.00050540350300373011 -0.0071754157836599478 0 0.00022339011485248339 -0.007425362409496622 0 0.00028408219753003216 -0.0068556169965872044 0 0.00048911071825827389 -0.0075721527735916104 0 0.00050540350300373011 -0.0071754157836599478 0 0.00022339011485248339 -0.007425362409496622 0 0.00022339011485248339 -0.007425362409496622 0 0.00033852493768150529 -0.0079338887672535611 0 -8.5695440518609951e-05 -0.0077246851490632299 0 0.00048911071825827389 -0.0075721527735916104 0 0.00022339011485248339 -0.007425362409496622 0 0.00033852493768150529 -0.0079338887672535611 0 -0.0012303593977669187 -0.0073411648762861945 0 -0.0012095677033300805 -0.0071339553753783942 0 -0.0014195406805066031 -0.0071433227343638524 0 0.00022339011485248339 -0.007425362409496622 0 -8.5695440518609951e-05 -0.0077246851490632299 0 -4.9118154777745992e-05 -0.0069997723360414894 0 0.00022339011485248339 -0.007425362409496622 0 -4.9118154777745992e-05 -0.0069997723360414894 0 0.00028408219753003216 -0.0068556169965872044 0 0.0020092025265272631 -0.0017043171277993611 0 0.0021263333740777148 -0.0015443957638797499 0 0.002217415319773344 -0.0020194618337509079 0 -8.5695440518609951e-05 -0.0077246851490632299 0 -4.9118154777745992e-05 -0.0069997723360414894 0 -0.00051571215307986767 -0.0067979435202673204 0 -4.9118154777745992e-05 -0.0069997723360414894 0 -0.00051571215307986767 -0.0067979435202673204 0 -0.00035339123871764129 -0.0067377311202740479 0 -0.00068669514368449038 -0.0076789454334202159 0 -0.00033049152521140755 -0.0052905956987323345 0 -0.00033049152521140755 -0.0052905956987323345 0 0.00039801805077349075 -0.0041691346126708374 0 -0.00033049152521140755 -0.0052905956987323345 0 -0.00031608486286980263 -0.0054598839705854007 0 -0.00051571215307986767 -0.0067979435202673204 0 -0.0005449293210202323 -0.0067232934425446346 0 -0.00044768981501417814 -0.0067079504282324103 0 -0.00051571215307986767 -0.0067979435202673204 0 -0.00044768981501417814 -0.0067079504282324103 0 -0.00035339123871764129 -0.0067377311202740479 0 -0.0012095677033300805 -0.0071339553753783942 0 -0.0014645996100787918 -0.0067721399021887048 0 -0.0014195406805066031 -0.0071433227343638524 0 -0.00016187093864479936 -0.0053713878472923761 0 -0.00040386374045837373 -0.0059509876392853664 0 -0.00023561257742408655 -0.0060775314466771776 0 -0.00016187093864479936 -0.0053713878472923761 0 -0.00023561257742408655 -0.0060775314466771776 0 1.8994225722359638e-05 -0.0064826632075170648 0 -0.00040386374045837373 -0.0059509876392853664 0 -0.00023561257742408655 -0.0060775314466771776 0 -0.00038526954157209814 -0.0064749213630018636 0 -0.00044768981501417814 -0.0067079504282324103 0 -0.00035339123871764129 -0.0067377311202740479 0 -0.00038526954157209814 -0.0064749213630018636 0 -0.0005449293210202323 -0.0067232934425446346 0 -0.00044768981501417814 -0.0067079504282324103 0 -0.00038526954157209814 -0.0064749213630018636 0 -0.00023561257742408655 -0.0060775314466771776 0 -0.00038526954157209814 -0.0064749213630018636 0 1.8994225722359638e-05 -0.0064826632075170648 0 -0.00035339123871764129 -0.0067377311202740479 0 -0.00038526954157209814 -0.0064749213630018636 0 1.8994225722359638e-05 -0.0064826632075170648 0 -4.9118154777745992e-05 -0.0069997723360414894 0 -0.00035339123871764129 -0.0067377311202740479 0 1.8994225722359638e-05 -0.0064826632075170648 0 1.8994225722359638e-05 -0.0064826632075170648 0 0.00039822272461082333 -0.0063664320642040743 0 0.00028408219753003216 -0.0068556169965872044 0 -4.9118154777745992e-05 -0.0069997723360414894 0 1.8994225722359638e-05 -0.0064826632075170648 0 0.00028408219753003216 -0.0068556169965872044 0 -0.00020277027223761069 -0.005436867844899866 0 0.00026456689266832342 -0.0056608410405220976 0 -0.00016187093864479936 -0.0053713878472923761 0 0.00019560680526269783 -0.0051484591203401625 0 0.00010293508093019644 -0.0048194383891064932 0 -0.00016187093864479936 -0.0053713878472923761 0 1.8994225722359638e-05 -0.0064826632075170648 0 0.00039822272461082333 -0.0063664320642040743 0 0.00039822272461082333 -0.0063664320642040743 0 0.00028408219753003216 -0.0068556169965872044 0 0.00063227900531839126 -0.0069209209058078494 0 0.00050540350300373011 -0.0071754157836599478 0 0.00028408219753003216 -0.0068556169965872044 0 0.00063227900531839126 -0.0069209209058078494 0 0.00039822272461082333 -0.0063664320642040743 0 0.00063227900531839126 -0.0069209209058078494 0 0.00084488072774607944 -0.0069889149437996397 0 0.00050540350300373011 -0.0071754157836599478 0 0.00063227900531839126 -0.0069209209058078494 0 0.00068707555228640941 -0.0071017556110520132 0 0.00063227900531839126 -0.0069209209058078494 0 0.00068707555228640941 -0.0071017556110520132 0 0.0007445012072184045 -0.0070477180783702466 0 0.00077951973454134301 -0.0072910731580313878 0 0.00068707555228640941 -0.0071017556110520132 0 0.00079038569796379408 -0.0071390459464434498 0 0.00068707555228640941 -0.0071017556110520132 0 0.0007445012072184045 -0.0070477180783702466 0 0.00079038569796379408 -0.0071390459464434498 0 0.00063227900531839126 -0.0069209209058078494 0 0.00082755483285172008 -0.0070349821233366095 0 0.00084488072774607944 -0.0069889149437996397 0 0.00063227900531839126 -0.0069209209058078494 0 0.0007445012072184045 -0.0070477180783702466 0 0.00082755483285172008 -0.0070349821233366095 0 0.0007445012072184045 -0.0070477180783702466 0 0.00079038569796379408 -0.0071390459464434498 0 0.00082755483285172008 -0.0070349821233366095 0 0.00035928571891239 -0.0066664474815149328 0 0.00033981924952338936 -0.0066017816299089654 0 0.00019560680526269783 -0.0051484591203401625 0 7.6243475713096866e-05 -0.0051061247741584362 0 0.00014589350831549792 -0.005138231407273851 0 7.6243475713096866e-05 -0.0051061247741584362 0 0.00014589350831549792 -0.005138231407273851 0 -3.3731040660299867e-05 -0.0053191838881696306 0 0.00026456689266832342 -0.0056608410405220976 0 0.00033981924952338936 -0.0066017816299089654 0 0.00014589350831549792 -0.005138231407273851 0 4.7031864305785504e-07 -0.0054633756915379297 0 -3.3731040660299867e-05 -0.0053191838881696306 0 0.00014589350831549792 -0.005138231407273851 0 4.7031864305785504e-07 -0.0054633756915379297 0 1.0183954700008467e-07 -0.0047340205518398917 0 0.00014589350831549792 -0.005138231407273851 0 1.0183954700008467e-07 -0.0047340205518398917 0 0.00010293508093019644 -0.0048194383891064932 0 0.00019560680526269783 -0.0051484591203401625 0 0.00014589350831549792 -0.005138231407273851 0 0.00010293508093019644 -0.0048194383891064932 0 1.0183954700008467e-07 -0.0047340205518398917 0 0.00010293508093019644 -0.0048194383891064932 0 7.325443540007054e-07 -0.0040043076061188473 0 -0.00030091575013511745 -0.0045751221508455904 0 0.00010293508093019644 -0.0048194383891064932 0 7.325443540007054e-07 -0.0040043076061188473 0 -0.00030091575013511745 -0.0045751221508455904 0 -0.00016187093864479936 -0.0053713878472923761 0 0.00010293508093019644 -0.0048194383891064932 0 0.00024283352006524537 -0.0073949317914832856 0 0.00019858881977263986 -0.0074576191306839623 0 0.00025839134281514927 -0.0075181099241910781 0 0.00024283352006524537 -0.0073949317914832856 0 0.0002711220235590429 -0.0074630412533287678 0 0.00025839134281514927 -0.0075181099241910781 0 0.00024283352006524537 -0.0073949317914832856 0 0.00019858881977263986 -0.0074576191306839623 0 9.2638622034633522e-05 -0.0073093219088913881 0 0.00024283352006524537 -0.0073949317914832856 0 9.2638622034633522e-05 -0.0073093219088913881 0 0.00021296560819815202 -0.0072759546684795376 0 0.00024283352006524537 -0.0073949317914832856 0 0.00024713107672460322 -0.0073438723357058117 0 0.0002637646991381245 -0.0073841378918817575 0 0.00024283352006524537 -0.0073949317914832856 0 0.00024713107672460322 -0.0073438723357058117 0 0.00021296560819815202 -0.0072759546684795376 0 0.00024713107672460322 -0.0073438723357058117 0 0.00018005192752632856 -0.0074155566940710335 0 0.00027408676775926712 -0.0073366317823819593 0 0.00024713107672460322 -0.0073438723357058117 0 0.0002637646991381245 -0.0073841378918817575 0 0.00027408676775926712 -0.0073366317823819593 0 0.0002637646991381245 -0.0073841378918817575 0 0.0002711220235590429 -0.0074630412533287678 0 0.00027408676775926712 -0.0073366317823819593 0 0.00024283352006524537 -0.0073949317914832856 0 0.0002637646991381245 -0.0073841378918817575 0 0.0002711220235590429 -0.0074630412533287678 0 0.00042790805747806843 -0.0088630305800034125 0 0.00047152960924447848 -0.0088822470278905087 0 0.00039678586453228954 -0.0088211910401792982 0 0.00030312942076440126 -0.0076959479203073632 0 0.0004244128828948488 -0.008882600124358828 0 0.00039678586453228954 -0.0088211910401792982 0 0.0002711220235590429 -0.0074630412533287678 0 0.00030312942076440126 -0.0076959479203073632 0 0.00027408676775926712 -0.0073366317823819593 0 0.00027576713503110485 -0.0074369742326016652 0 0.00030312942076440126 -0.0076959479203073632 0 0.00039678586453228954 -0.0088211910401792982 0 0.00043049868282795886 -0.0081995171763159218 0 0.00041755509642771879 -0.0086835150009286297 0 0.00028473324610239444 -0.0078187654242531084 0 0.00028714365259036847 -0.0081038560661854334 0 0.00042790805747806843 -0.0088630305800034125 0 0.00044045849049241152 -0.0088706749046624563 0 0.00047152960924447848 -0.0088822470278905087 0 0.00042790805747806843 -0.0088630305800034125 0 0.00042800303666638975 -0.0088877478556544046 0 0.00041835655760781863 -0.0088697829250237795 0 0.00043310349769344532 -0.0088758553415441959 0 0.0004375250432737043 -0.0088841366274411519 0 0.00042800303666638975 -0.0088877478556544046 0 0.00042790805747806843 -0.0088630305800034125 0 0.00043310349769344532 -0.0088758553415441959 0 0.00042800303666638975 -0.0088877478556544046 0 0.00042790805747806843 -0.0088630305800034125 0 0.00043310349769344532 -0.0088758553415441959 0 0.00044045849049241152 -0.0088706749046624563 0 0.00044677777887279366 -0.0088707532488314905 0 0.0004375250432737043 -0.0088841366274411519 0 0.00044045849049241152 -0.0088706749046624563 0 0.00043310349769344532 -0.0088758553415441959 0 0.0004375250432737043 -0.0088841366274411519 0 0.00044045849049241152 -0.0088706749046624563 0 0.00045370619586997064 -0.0088576245250042273 0 0.00044045849049241152 -0.0088706749046624563 0 0.00047152960924447848 -0.0088822470278905087 0 0.00093368480380746563 -0.0072441667902284068 0 0.00027576713503110485 -0.0074369742326016652 0 0.00031109012252793884 -0.007556875860606509 0 0.00027576713503110485 -0.0074369742326016652 0 0.00030312942076440126 -0.0076959479203073632 0 0.00031109012252793884 -0.007556875860606509 0 0.00030312942076440126 -0.0076959479203073632 0 0.00025839134281514927 -0.0075181099241910781 0 0.00031109012252793884 -0.007556875860606509 0 0.0002711220235590429 -0.0074630412533287678 0 0.00030312942076440126 -0.0076959479203073632 0 0.00025839134281514927 -0.0075181099241910781 0 0.00019858881977263986 -0.0074576191306839623 0 0.00025839134281514927 -0.0075181099241910781 0 0.00031109012252793884 -0.007556875860606509 0 0.00093368480380746563 -0.0072441667902284068 0 0.00031109012252793884 -0.007556875860606509 0 0.00077862916968954592 -0.0074091346106420711 0 0.00030469070566211727 -0.0075365758924798134 0 0.00026109239785273067 -0.0074943218113109524 0 0.00019858881977263986 -0.0074576191306839623 0 0.00031109012252793884 -0.007556875860606509 0 -0.00015133379199797078 -0.0075756889929112572 0 0.00083356739778636321 -0.00705119218054633 0 0.00077862916968954592 -0.0074091346106420711 0 0.00085233765165061118 -0.0072054066745165686 0 0.00033981924952338936 -0.0066017816299089654 0 0.00026109239785273067 -0.0074943218113109524 0 0.00093368480380746563 -0.0072441667902284068 0 0.00077862916968954592 -0.0074091346106420711 0 0.00085233765165061118 -0.0072054066745165686 0 0.00077951973454134301 -0.0072910731580313878 0 0.00079038569796379408 -0.0071390459464434498 0 0.00085233765165061118 -0.0072054066745165686 0 0.00079038569796379408 -0.0071390459464434498 0 0.00082755483285172008 -0.0070349821233366095 0 0.00085233765165061118 -0.0072054066745165686 0 0.00082755483285172008 -0.0070349821233366095 0 0.00083356739778636321 -0.00705119218054633 0 0.00085233765165061118 -0.0072054066745165686 0 0.00033981924952338936 -0.0066017816299089654 0 -0.00025559309340270102 -0.0061465792521033314 0 -0.00053982587797269201 -0.0075222290733498913 0 -0.00015133379199797078 -0.0075756889929112572 0 -0.00020749142696444624 -0.007316047791407319 0 -0.00053982587797269201 -0.0075222290733498913 0 -0.00020749142696444624 -0.007316047791407319 0 -0.00040852684713487124 -0.0070473972431006233 0 0.00019858881977263986 -0.0074576191306839623 0 9.2638622034633522e-05 -0.0073093219088913881 0 -0.00015133379199797078 -0.0075756889929112572 0 9.2638622034633522e-05 -0.0073093219088913881 0 -0.00015133379199797078 -0.0075756889929112572 0 -0.00020749142696444624 -0.007316047791407319 0 9.2638622034633522e-05 -0.0073093219088913881 0 -0.00020749142696444624 -0.007316047791407319 0 -3.2341375556050635e-05 -0.0070572604092779719 0 -0.00020749142696444624 -0.007316047791407319 0 -3.2341375556050635e-05 -0.0070572604092779719 0 -0.00040852684713487124 -0.0070473972431006233 0 -0.00025559309340270102 -0.0061465792521033314 0 -4.6840263798792577e-08 -0.0061925766715702534 0 4.7031864305785504e-07 -0.0054633756915379297 0 -3.3731040660299867e-05 -0.0053191838881696306 0 -7.0664015872711651e-07 -0.0061912212346748527 0 -7.2349523423594612e-07 -0.0061939873586611231 0 5.7764878624586211e-05 -0.0067688976862315666 0 4.4595035689647216e-07 -0.0069153069286441663 0 -3.2341375556050635e-05 -0.0070572604092779719 0 -0.00040852684713487124 -0.0070473972431006233 0 -7.2349523423594612e-07 -0.0061939873586611231 0 -3.2341375556050635e-05 -0.0070572604092779719 0 -7.2349523423594612e-07 -0.0061939873586611231 0 5.7764878624586211e-05 -0.0067688976862315666 0 5.7764878624586211e-05 -0.0067688976862315666 0 4.4595035689647216e-07 -0.0069153069286441663 0 0.00013610091877587819 -0.0070994329278794115 0 4.4595035689647216e-07 -0.0069153069286441663 0 0.00013610091877587819 -0.0070994329278794115 0 0.00019247424932764882 -0.0073368747638281415 0 -3.2341375556050635e-05 -0.0070572604092779719 0 5.7764878624586211e-05 -0.0067688976862315666 0 0.00013610091877587819 -0.0070994329278794115 0 9.2638622034633522e-05 -0.0073093219088913881 0 -3.2341375556050635e-05 -0.0070572604092779719 0 0.00013610091877587819 -0.0070994329278794115 0 9.2638622034633522e-05 -0.0073093219088913881 0 0.00013610091877587819 -0.0070994329278794115 0 0.00021296560819815202 -0.0072759546684795376 0 0.00013610091877587819 -0.0070994329278794115 0 0.00021296560819815202 -0.0072759546684795376 0 0.00019247424932764882 -0.0073368747638281415 0 0.00024713107672460322 -0.0073438723357058117 0 0.00019247424932764882 -0.0073368747638281415 0 0.00018005192752632856 -0.0074155566940710335 0 0.00024713107672460322 -0.0073438723357058117 0 0.00021296560819815202 -0.0072759546684795376 0 0.00019247424932764882 -0.0073368747638281415 0 4.4595035689647216e-07 -0.0069153069286441663 0 0.00019247424932764882 -0.0073368747638281415 0 4.7533817513453278e-07 -0.0076384021706740824 0 0.00019247424932764882 -0.0073368747638281415 0 4.7533817513453278e-07 -0.0076384021706740824 0 7.543714865460916e-05 -0.0077341014065745858 0 -7.3349028245166566e-07 -0.0083599418031435075 0 7.543714865460916e-05 -0.0077341014065745858 0 -0.00030669320811753029 -0.0079205188346722667 0 4.7533817513453278e-07 -0.0076384021706740824 0 -7.3349028245166566e-07 -0.0083599418031435075 0 7.543714865460916e-05 -0.0077341014065745858 0 0.00042081169301463314 -0.0089695825948692756 0 0.0004368256139053357 -0.0089889687385156687 0 0.00043760697919261994 -0.0089554829943625548 0 7.543714865460916e-05 -0.0077341014065745858 0 1.4952778980088943e-05 -0.0074551234517299253 0 -0.00030669320811753029 -0.0079205188346722667 0 0.00025545918753927608 -0.0081687500718504343 0 3.1396600211097758e-05 -0.0087872965526971849 0 1.4952778980088943e-05 -0.0074551234517299253 0 0.00018005192752632856 -0.0074155566940710335 0 0.00027408676775926712 -0.0073366317823819593 0 0.00019247424932764882 -0.0073368747638281415 0 7.543714865460916e-05 -0.0077341014065745858 0 0.00018005192752632856 -0.0074155566940710335 0 7.543714865460916e-05 -0.0077341014065745858 0 1.4952778980088943e-05 -0.0074551234517299253 0 0.00018005192752632856 -0.0074155566940710335 0 0.00042081169301463314 -0.0089695825948692756 0 0.0004244128828948488 -0.008882600124358828 0 0.00041740304000665966 -0.008947684497713132 0 0.0004244128828948488 -0.008882600124358828 0 0.00039678586453228954 -0.0088211910401792982 0 0.00041740304000665966 -0.008947684497713132 0 0.00025545918753927608 -0.0081687500718504343 0 0.00028714365259036847 -0.0081038560661854334 0 0.00039678586453228954 -0.0088211910401792982 0 0.00041740304000665966 -0.008947684497713132 0 0.00043060308829590747 -0.00890877973813692 0 0.00042081169301463314 -0.0089695825948692756 0 0.00041740304000665966 -0.008947684497713132 0 0.0004368256139053357 -0.0089889687385156687 0 0.00041740304000665966 -0.008947684497713132 0 0.00044091865770234554 -0.0090468796211148946 0 0.0004368256139053357 -0.0089889687385156687 0 0.00041740304000665966 -0.008947684497713132 0 0.00043887025890924946 -0.0089825611345527023 0 0.00043060308829590747 -0.00890877973813692 0 0.00041740304000665966 -0.008947684497713132 0 0.00043887025890924946 -0.0089825611345527023 0 0.00044091865770234554 -0.0090468796211148946 0 0.00043887025890924946 -0.0089825611345527023 0 0.00045729610110798943 -0.0090483984393154183 0 0.00044091865770234554 -0.0090468796211148946 0 0.00043887025890924946 -0.0089825611345527023 0 0.00045319842031154651 -0.0089962610181847178 0 0.00044418868870259255 -0.0089523589028858465 0 0.00043887025890924946 -0.0089825611345527023 0 0.00045729610110798943 -0.0090483984393154183 0 0.00045319842031154651 -0.0089962610181847178 0 0.00045319842031154651 -0.0089962610181847178 0 0.00044418868870259255 -0.0089523589028858465 0 0.0004554294341836422 -0.0089703580490186948 0 0.00044418868870259255 -0.0089523589028858465 0 0.0004554294341836422 -0.0089703580490186948 0 0.00044724292665146496 -0.0089318394242679042 0 0.00044418868870259255 -0.0089523589028858465 0 0.00043844688836790338 -0.0089217610489749546 0 0.00043060308829590747 -0.00890877973813692 0 0.00044418868870259255 -0.0089523589028858465 0 0.00043844688836790338 -0.0089217610489749546 0 0.00044724292665146496 -0.0089318394242679042 0 0.00043922404691902394 -0.0089046196772242184 0 0.00043844688836790338 -0.0089217610489749546 0 0.00044724292665146496 -0.0089318394242679042 0 0.0004375250432737043 -0.0088841366274411519 0 0.00043922404691902394 -0.0089046196772242184 0 0.00042800303666638975 -0.0088877478556544046 0 0.00043922404691902394 -0.0089046196772242184 0 0.00042800303666638975 -0.0088877478556544046 0 0.00043844688836790338 -0.0089217610489749546 0 0.00042800303666638975 -0.0088877478556544046 0 0.00043844688836790338 -0.0089217610489749546 0 0.00043060308829590747 -0.00890877973813692 0 0.00042790805747806843 -0.0088630305800034125 0 0.00039678586453228954 -0.0088211910401792982 0 0.00041835655760781863 -0.0088697829250237795 0 0.00042800303666638975 -0.0088877478556544046 0 0.00041835655760781863 -0.0088697829250237795 0 0.00043060308829590747 -0.00890877973813692 0 0.00039678586453228954 -0.0088211910401792982 0 0.00041835655760781863 -0.0088697829250237795 0 0.00043060308829590747 -0.00890877973813692 0 0.00043887025890924946 -0.0089825611345527023 0 0.00044418868870259255 -0.0089523589028858465 0 0.00043060308829590747 -0.00890877973813692 0 0.00046818384185123873 -0.009162491878234166 0 0.0005277274272962358 -0.0092013524536313177 0 0.00048133009614997446 -0.0093472341376045591 0 0.00046818384185123873 -0.009162491878234166 0 0.00048285927685924807 -0.0092193894649968688 0 0.00048133009614997446 -0.0093472341376045591 0 0.00046818384185123873 -0.009162491878234166 0 0.00046595335729406496 -0.0091280222371587956 0 0.00048285927685924807 -0.0092193894649968688 0 0.00045729610110798943 -0.0090483984393154183 0 0.00046595335729406496 -0.0091280222371587956 0 0.00044091865770234554 -0.0090468796211148946 0 0.00046818384185123873 -0.009162491878234166 0 0.00046595335729406496 -0.0091280222371587956 0 0.00044091865770234554 -0.0090468796211148946 0 0.00044091865770234554 -0.0090468796211148946 0 0.00047837557121845027 -0.0090182087387110799 0 0.0004368256139053357 -0.0089889687385156687 0 0.00046818384185123873 -0.009162491878234166 0 0.00044091865770234554 -0.0090468796211148946 0 0.00047837557121845027 -0.0090182087387110799 0 0.00046818384185123873 -0.009162491878234166 0 0.00047837557121845027 -0.0090182087387110799 0 0.0005277274272962358 -0.0092013524536313177 0 0.00021755445608376631 -0.0096178727332628961 0 0.00036842708387195317 -0.0096804609664280731 0 -5.1918681928430553e-05 -0.010094607980425161 0 -0.000117957584200943 -0.0096539626996225893 0 7.914566064464171e-05 -0.0097962913873708129 0 0.00021755445608376631 -0.0096178727332628961 0 3.1396600211097758e-05 -0.0087872965526971849 0 -5.1918681928430553e-05 -0.010094607980425161 0 -0.00060088664430588167 -0.0095300822024697984 0 -0.000117957584200943 -0.0096539626996225893 0 0.00047837557121845027 -0.0090182087387110799 0 0.0004368256139053357 -0.0089889687385156687 0 0.00043760697919261994 -0.0089554829943625548 0 -3.4481276584032051e-10 -0.008362070707348573 0 2.6977121094685711e-07 -0.0086048926323057384 0 1.3218149274553648e-09 -0.0089851762926074583 0 -0.00060088664430588167 -0.0095300822024697984 0 -0.000117957584200943 -0.0096539626996225893 0 -8.491703323128978e-07 -0.0089874762956797007 0 3.1396600211097758e-05 -0.0087872965526971849 0 -3.2257404558116346e-07 -0.00898630229948345 0 -2.5709641942384795e-07 -0.0083609330523245016 0 3.1396600211097758e-05 -0.0087872965526971849 0 -0.000117957584200943 -0.0096539626996225893 0 -8.491703323128978e-07 -0.0089874762956797007 0 7.914566064464171e-05 -0.0097962913873708129 0 -8.491703323128978e-07 -0.0089874762956797007 0 7.914566064464171e-05 -0.0097962913873708129 0 6.4371872764290355e-07 -0.0098696204903189252 0 7.914566064464171e-05 -0.0097962913873708129 0 6.4371872764290355e-07 -0.0098696204903189252 0 0.00022065137759342941 -0.010232128071214049 0 6.4371872764290355e-07 -0.0098696204903189252 0 0.00022065137759342941 -0.010232128071214049 0 0.00015329397343931376 -0.010490031866236444 0 -5.1918681928430553e-05 -0.010094607980425161 0 7.914566064464171e-05 -0.0097962913873708129 0 0.00022065137759342941 -0.010232128071214049 0 6.0940787772291658e-08 -0.010752914932127124 0 9.3713291618219687e-05 -0.010888863534594367 0 4.6750049292224861e-05 -0.011229863829676022 0 6.4371872764290355e-07 -0.0098696204903189252 0 6.0940787772291658e-08 -0.010752914932127124 0 0.00015329397343931376 -0.010490031866236444 0 0.00015329397343931376 -0.010490031866236444 0 9.3713291618219687e-05 -0.010888863534594367 0 0.00014902703740720091 -0.01057502507396414 0 6.0940787772291658e-08 -0.010752914932127124 0 0.00015329397343931376 -0.010490031866236444 0 9.3713291618219687e-05 -0.010888863534594367 0 9.0033019374987071e-05 -0.010659839963470301 0 5.2864936760821779e-05 -0.010854196582879857 0 3.230679644325994e-05 -0.010655426607627944 0 9.0033019374987071e-05 -0.010659839963470301 0 8.3142984661750829e-05 -0.010493994643177141 0 3.230679644325994e-05 -0.010655426607627944 0 9.3713291618219687e-05 -0.010888863534594367 0 9.0033019374987071e-05 -0.010659839963470301 0 5.2864936760821779e-05 -0.010854196582879857 0 9.3713291618219687e-05 -0.010888863534594367 0 9.0033019374987071e-05 -0.010659839963470301 0 0.00014902703740720091 -0.01057502507396414 0 9.0033019374987071e-05 -0.010659839963470301 0 0.00012755503425193767 -0.010507804924427284 0 8.3142984661750829e-05 -0.010493994643177141 0 9.0033019374987071e-05 -0.010659839963470301 0 0.00012755503425193767 -0.010507804924427284 0 0.00014902703740720091 -0.01057502507396414 0 0.00015329397343931376 -0.010490031866236444 0 0.00014902703740720091 -0.01057502507396414 0 0.00019187566851173489 -0.010357163749053556 0 0.00012755503425193767 -0.010507804924427284 0 0.00014902703740720091 -0.01057502507396414 0 0.00019187566851173489 -0.010357163749053556 0 0.00019187566851173489 -0.010357163749053556 0 0.00018627474455367826 -0.010094032071382432 0 0.00012223814049222044 -0.010343734967410485 0 0.00018627474455367826 -0.010094032071382432 0 0.00011632754062542886 -0.010171432735477839 0 0.00012223814049222044 -0.010343734967410485 0 0.00012755503425193767 -0.010507804924427284 0 0.00019187566851173489 -0.010357163749053556 0 0.00012223814049222044 -0.010343734967410485 0 0.00012223814049222044 -0.010343734967410485 0 8.3142984661750829e-05 -0.010493994643177141 0 8.4375579704789873e-05 -0.010359014701325745 0 0.00012755503425193767 -0.010507804924427284 0 0.00012223814049222044 -0.010343734967410485 0 8.3142984661750829e-05 -0.010493994643177141 0 0.00011632754062542886 -0.010171432735477839 0 0.00012223814049222044 -0.010343734967410485 0 8.4375579704789873e-05 -0.010359014701325745 0 0.00011632754062542886 -0.010171432735477839 0 8.4375579704789873e-05 -0.010359014701325745 0 5.7261389301458196e-05 -0.01031895607247716 0 8.3142984661750829e-05 -0.010493994643177141 0 8.4375579704789873e-05 -0.010359014701325745 0 3.8213440370003444e-05 -0.010424215849143581 0 8.4375579704789873e-05 -0.010359014701325745 0 5.7261389301458196e-05 -0.01031895607247716 0 3.8213440370003444e-05 -0.010424215849143581 0 8.3142984661750829e-05 -0.010493994643177141 0 3.8213440370003444e-05 -0.010424215849143581 0 3.230679644325994e-05 -0.010655426607627944 0 0.00022065137759342941 -0.010232128071214049 0 0.00027440864026069566 -0.010165467830070508 0 0.00026810417489555525 -0.010238832032347881 0 -5.1918681928430553e-05 -0.010094607980425161 0 0.00022065137759342941 -0.010232128071214049 0 0.00026810417489555525 -0.010238832032347881 0 0.00022065137759342941 -0.010232128071214049 0 0.00019187566851173489 -0.010357163749053556 0 0.00027440864026069566 -0.010165467830070508 0 0.00022065137759342941 -0.010232128071214049 0 0.00015329397343931376 -0.010490031866236444 0 0.00019187566851173489 -0.010357163749053556 0 0.00019187566851173489 -0.010357163749053556 0 0.00018627474455367826 -0.010094032071382432 0 0.00027440864026069566 -0.010165467830070508 0 0.00018627474455367826 -0.010094032071382432 0 0.00027440864026069566 -0.010165467830070508 0 0.00041061938002433837 -0.0097055262310840312 0 0.0005277274272962358 -0.0092013524536313177 0 0.00041061938002433837 -0.0097055262310840312 0 0.00048133009614997446 -0.0093472341376045591 0 0.00027440864026069566 -0.010165467830070508 0 0.00026810417489555525 -0.010238832032347881 0 0.00041061938002433837 -0.0097055262310840312 0 0.00036842708387195317 -0.0096804609664280731 0 0.00038251611568866607 -0.009675066012852002 0 0.00047539912849026286 -0.0093683463323991859 0 0.00041061938002433837 -0.0097055262310840312 0 0.00048133009614997446 -0.0093472341376045591 0 0.00047539912849026286 -0.0093683463323991859 0 0.00041061938002433837 -0.0097055262310840312 0 0.00038961074385215915 -0.0094810076120039732 0 0.00041061938002433837 -0.0097055262310840312 0 0.00038961074385215915 -0.0094810076120039732 0 0.00014681189010758755 -0.0097110792429344651 0 0.00018627474455367826 -0.010094032071382432 0 0.00041061938002433837 -0.0097055262310840312 0 0.00014681189010758755 -0.0097110792429344651 0 0.00052643657940849191 -0.0094345097952833312 0 0.00030540289375094427 -0.009841754024955289 0 0.00040611656819717333 -0.0092526910418113048 0 0.00038961074385215915 -0.0094810076120039732 0 0.00014681189010758755 -0.0097110792429344651 0 0.00047994189557292989 -0.0097262625494111306 0 0.00065775459443610351 -0.0096049298803944465 0 0.00044235713958042301 -0.0099587574205115235 0 0.00047994189557292989 -0.0097262625494111306 0 0.00065775459443610351 -0.0096049298803944465 0 0.000592400852757805 -0.0095829963285769867 0 0.00040611656819717333 -0.0092526910418113048 0 0.00045933692999435786 -0.0093026871802740201 0 0.00047985772853934055 -0.0091950318563078937 0 0.00047539912849026286 -0.0093683463323991859 0 0.00045933692999435786 -0.0093026871802740201 0 0.0004866298805522021 -0.009254524770741587 0 0.00040611656819717333 -0.0092526910418113048 0 0.00045933692999435786 -0.0093026871802740201 0 0.00038961074385215915 -0.0094810076120039732 0 0.00047539912849026286 -0.0093683463323991859 0 0.00045933692999435786 -0.0093026871802740201 0 0.00038961074385215915 -0.0094810076120039732 0 5.7261389301458196e-05 -0.01031895607247716 0 0.00016055080228782781 -0.01008226597992757 0 0.00044235713958042301 -0.0099587574205115235 0 5.7261389301458196e-05 -0.01031895607247716 0 3.8213440370003444e-05 -0.010424215849143581 0 -0.00017995462997162309 -0.010167618364966581 0 5.7261389301458196e-05 -0.01031895607247716 0 -1.0515639559093128e-05 -0.010089790767287945 0 0.00016055080228782781 -0.01008226597992757 0 -1.0515639559093128e-05 -0.010089790767287945 0 0.00016055080228782781 -0.01008226597992757 0 0.0001544662329105938 -0.0099597710435455952 0 6.7868220330793847e-05 -0.010250277527840732 0 0.00030540289375094427 -0.009841754024955289 0 0.00016055080228782781 -0.01008226597992757 0 0.00044235713958042301 -0.0099587574205115235 0 0.0001544662329105938 -0.0099597710435455952 0 0.00011632754062542886 -0.010171432735477839 0 5.7261389301458196e-05 -0.01031895607247716 0 0.00014681189010758755 -0.0097110792429344651 0 0.00018627474455367826 -0.010094032071382432 0 0.00011632754062542886 -0.010171432735477839 0 0.00014681189010758755 -0.0097110792429344651 0 0.00044235713958042301 -0.0099587574205115235 0 0.00025707124517327929 -0.0097746593886330023 0 0.0001544662329105938 -0.0099597710435455952 0 0.00047994189557292989 -0.0097262625494111306 0 0.00044235713958042301 -0.0099587574205115235 0 0.00025707124517327929 -0.0097746593886330023 0 0.00047994189557292989 -0.0097262625494111306 0 0.00025707124517327929 -0.0097746593886330023 0 0.00035130938465692925 -0.0096364878717470921 0 -1.0515639559093128e-05 -0.010089790767287945 0 0.0001544662329105938 -0.0099597710435455952 0 3.1700305861706328e-05 -0.0097834038918271585 0 0.00025707124517327929 -0.0097746593886330023 0 0.0001544662329105938 -0.0099597710435455952 0 3.1700305861706328e-05 -0.0097834038918271585 0 0.00018030196698576114 -0.0095503027659995035 0 -0.00015085602120468438 -0.0096555644229140581 0 -6.8920698005162456e-05 -0.0093399815906396733 0 3.1700305861706328e-05 -0.0097834038918271585 0 0.00018030196698576114 -0.0095503027659995035 0 -0.00015085602120468438 -0.0096555644229140581 0 0.00025707124517327929 -0.0097746593886330023 0 3.1700305861706328e-05 -0.0097834038918271585 0 0.00018030196698576114 -0.0095503027659995035 0 0.00018030196698576114 -0.0095503027659995035 0 0.00035130938465692925 -0.0096364878717470921 0 0.00048536949066541681 -0.0094590250850327441 0 0.00025707124517327929 -0.0097746593886330023 0 0.00018030196698576114 -0.0095503027659995035 0 0.00035130938465692925 -0.0096364878717470921 0 0.00035130938465692925 -0.0096364878717470921 0 0.00048045626691374321 -0.009599046845893161 0 0.00048536949066541681 -0.0094590250850327441 0 0.00047994189557292989 -0.0097262625494111306 0 0.00035130938465692925 -0.0096364878717470921 0 0.00048045626691374321 -0.009599046845893161 0 0.00018030196698576114 -0.0095503027659995035 0 0.00034911926293374021 -0.0092580026639444597 0 0.00048536949066541681 -0.0094590250850327441 0 0.00018030196698576114 -0.0095503027659995035 0 0.00034911926293374021 -0.0092580026639444597 0 -6.8920698005162456e-05 -0.0093399815906396733 0 0.00061759525041010495 -0.0092875547982444722 0 0.00043494927216230356 -0.0093987000814185675 0 0.00059222106206620556 -0.0095482446995660084 0 0.00068871875964169628 -0.0093529932119497082 0 0.00065775459443610351 -0.0096049298803944465 0 0.0006577791350177273 -0.009354431895656783 0 0.00066122296359896358 -0.0093079007686122164 0 0.00052643657940849191 -0.0094345097952833312 0 0.00057049442356665295 -0.0091942928757964837 0 0.00065775459443610351 -0.0096049298803944465 0 0.000592400852757805 -0.0095829963285769867 0 0.0006577791350177273 -0.009354431895656783 0 0.000592400852757805 -0.0095829963285769867 0 0.00065232220936473572 -0.0093816073403166292 0 0.00073074374599547173 -0.0093528038569439843 0 0.000592400852757805 -0.0095829963285769867 0 0.00048536949066541681 -0.0094590250850327441 0 0.00065232220936473572 -0.0093816073403166292 0 0.000592400852757805 -0.0095829963285769867 0 0.00048045626691374321 -0.009599046845893161 0 0.00048536949066541681 -0.0094590250850327441 0 0.00047994189557292989 -0.0097262625494111306 0 0.000592400852757805 -0.0095829963285769867 0 0.00048045626691374321 -0.009599046845893161 0 0.00034911926293374021 -0.0092580026639444597 0 0.00048536949066541681 -0.0094590250850327441 0 0.0007119236756509918 -0.0092605813018675678 0 0.00048536949066541681 -0.0094590250850327441 0 0.00065232220936473572 -0.0093816073403166292 0 0.0007119236756509918 -0.0092605813018675678 0 0.00065232220936473572 -0.0093816073403166292 0 0.00070159248006626811 -0.0093030376458936512 0 0.0007119236756509918 -0.0092605813018675678 0 0.00065232220936473572 -0.0093816073403166292 0 0.00070159248006626811 -0.0093030376458936512 0 0.00073074374599547173 -0.0093528038569439843 0 0.0007031525519890201 -0.009287299290523859 0 0.0006842109417078806 -0.0092523705430911131 0 0.00069362588286405802 -0.0092581384271370765 0 0.00068871875964169628 -0.0093529932119497082 0 0.00063084912314494764 -0.0091592233438790669 0 0.00070159248006626811 -0.0093030376458936512 0 0.0007031525519890201 -0.009287299290523859 0 0.00069362588286405802 -0.0092581384271370765 0 0.0006577791350177273 -0.009354431895656783 0 0.00066122296359896358 -0.0093079007686122164 0 0.00059171975468636526 -0.0090996787730760476 0 0.0006842109417078806 -0.0092523705430911131 0 0.00073074374599547173 -0.0093528038569439843 0 0.00065435561589524249 -0.0092086457075949667 0 0.00070159248006626811 -0.0093030376458936512 0 0.0007031525519890201 -0.009287299290523859 0 0.00073074374599547173 -0.0093528038569439843 0 0.0007031525519890201 -0.009287299290523859 0 0.0006842109417078806 -0.0092523705430911131 0 0.00073074374599547173 -0.0093528038569439843 0 0.00040611656819717333 -0.0092526910418113048 0 0.0004992891003769383 -0.0090679981821452354 0 0.00047985772853934055 -0.0091950318563078937 0 0.0004992891003769383 -0.0090679981821452354 0 0.00050321538155645982 -0.0091335627554047904 0 0.00051604646797244035 -0.0090963406144342496 0 0.00050321538155645982 -0.0091335627554047904 0 0.00051604646797244035 -0.0090963406144342496 0 0.00051264653110612431 -0.0091243629224126762 0 0.0004992891003769383 -0.0090679981821452354 0 0.00050321538155645982 -0.0091335627554047904 0 0.00047985772853934055 -0.0091950318563078937 0 0.0004992891003769383 -0.0090679981821452354 0 0.00052556356083824113 -0.0090648844166535663 0 0.00053792199107184722 -0.0090403909614768102 0 0.00052235055662135305 -0.0090754174427358086 0 0.00053034056986790636 -0.0090391867318355256 0 0.0005194975693437173 -0.0090415490353645753 0 0.00052235055662135305 -0.0090754174427358086 0 0.00052556356083824113 -0.0090648844166535663 0 0.00053034056986790636 -0.0090391867318355256 0 0.00052235055662135305 -0.0090754174427358086 0 0.00051604646797244035 -0.0090963406144342496 0 0.00051264653110612431 -0.0091243629224126762 0 0.00052235055662135305 -0.0090754174427358086 0 0.00051604646797244035 -0.0090963406144342496 0 0.00052556356083824113 -0.0090648844166535663 0 0.0004992891003769383 -0.0090679981821452354 0 0.00051604646797244035 -0.0090963406144342496 0 0.00052556356083824113 -0.0090648844166535663 0 0.00053034056986790636 -0.0090391867318355256 0 0.00053792199107184722 -0.0090403909614768102 0 0.00053652020553819103 -0.0090113382662210147 0 0.00052556356083824113 -0.0090648844166535663 0 0.00053034056986790636 -0.0090391867318355256 0 0.00053792199107184722 -0.0090403909614768102 0 0.00057049442356665295 -0.0091942928757964837 0 0.00056253949939732994 -0.0090616340837953169 0 0.00066122296359896358 -0.0093079007686122164 0 0.00059171975468636526 -0.0090996787730760476 0 0.00056426186758165337 -0.009030712394819897 0 0.00053792199107184722 -0.0090403909614768102 0 0.00056426186758165337 -0.009030712394819897 0 0.00054555788666428334 -0.009016612325312489 0 0.0004992891003769383 -0.0090679981821452354 0 0.00053792199107184722 -0.0090403909614768102 0 0.00056426186758165337 -0.009030712394819897 0 0.0006842109417078806 -0.0092523705430911131 0 0.00065435561589524249 -0.0092086457075949667 0 0.00065816198265162846 -0.0092279884620897566 0 0.00063084912314494764 -0.0091592233438790669 0 0.00053789840778306988 -0.0090581096981119848 0 0.00059171975468636526 -0.0090996787730760476 0 0.00056426186758165337 -0.009030712394819897 0 0.00053811977695948578 -0.0089675084623371641 0 0.00056426186758165337 -0.009030712394819897 0 0.00053591235747199573 -0.0089861400201732538 0 0.00053811977695948578 -0.0089675084623371641 0 0.00053591235747199573 -0.0089861400201732538 0 0.00051716114488198708 -0.0089413492474202383 0 0.00052785001757802796 -0.0089842512964293623 0 0.00056426186758165337 -0.009030712394819897 0 0.00053591235747199573 -0.0089861400201732538 0 0.00054555788666428334 -0.009016612325312489 0 0.00053591235747199573 -0.0089861400201732538 0 0.00054555788666428334 -0.009016612325312489 0 0.00053652020553819103 -0.0090113382662210147 0 0.00053792199107184722 -0.0090403909614768102 0 0.00054555788666428334 -0.009016612325312489 0 0.00053652020553819103 -0.0090113382662210147 0 0.00053591235747199573 -0.0089861400201732538 0 0.00053652020553819103 -0.0090113382662210147 0 0.00052785001757802796 -0.0089842512964293623 0 0.00053591235747199573 -0.0089861400201732538 0 0.00052067105285186915 -0.0089299623935022894 0 0.00053811977695948578 -0.0089675084623371641 0 0.00053591235747199573 -0.0089861400201732538 0 0.00052067105285186915 -0.0089299623935022894 0 0.00051716114488198708 -0.0089413492474202383 0 0.00050702525838282493 -0.0088862737056004167 0 0.00052067105285186915 -0.0089299623935022894 0 0.00051716114488198708 -0.0089413492474202383 0 0.00050702525838282493 -0.0088862737056004167 0 0.00051716114488198708 -0.0089413492474202383 0 0.00050166515820111886 -0.0089246108109559668 0 0.00051716114488198708 -0.0089413492474202383 0 0.00050166515820111886 -0.0089246108109559668 0 0.00051684742451390154 -0.0089663367380839309 0 0.00050166515820111886 -0.0089246108109559668 0 0.00051684742451390154 -0.0089663367380839309 0 0.00050890608890254011 -0.0089758137071339113 0 0.00050166515820111886 -0.0089246108109559668 0 0.00050890608890254011 -0.0089758137071339113 0 0.00049856849324255727 -0.0089590513426792626 0 0.00050702525838282493 -0.0088862737056004167 0 0.00049597747728569131 -0.0088707080765801256 0 0.00050166515820111886 -0.0089246108109559668 0 0.00049597747728569131 -0.0088707080765801256 0 0.00050166515820111886 -0.0089246108109559668 0 0.00048535349730004576 -0.0088897203825349432 0 0.00053034056986790636 -0.0090391867318355256 0 0.00053652020553819103 -0.0090113382662210147 0 0.00052357161520050254 -0.0090007955384757126 0 0.00053652020553819103 -0.0090113382662210147 0 0.00052785001757802796 -0.0089842512964293623 0 0.00052357161520050254 -0.0090007955384757126 0 0.00051716114488198708 -0.0089413492474202383 0 0.00052785001757802796 -0.0089842512964293623 0 0.00051684742451390154 -0.0089663367380839309 0 0.00052785001757802796 -0.0089842512964293623 0 0.00051684742451390154 -0.0089663367380839309 0 0.00052357161520050254 -0.0090007955384757126 0 0.00051684742451390154 -0.0089663367380839309 0 0.00050890608890254011 -0.0089758137071339113 0 0.00052357161520050254 -0.0090007955384757126 0 0.00050890608890254011 -0.0089758137071339113 0 0.00052357161520050254 -0.0090007955384757126 0 0.00051152865941370086 -0.0090113030183971658 0 0.00053034056986790636 -0.0090391867318355256 0 0.00052357161520050254 -0.0090007955384757126 0 0.0005194975693437173 -0.0090415490353645753 0 0.00052357161520050254 -0.0090007955384757126 0 0.0005194975693437173 -0.0090415490353645753 0 0.00051152865941370086 -0.0090113030183971658 0 0.0005194975693437173 -0.0090415490353645753 0 0.00050578628186864814 -0.0090433588915971135 0 0.00051152865941370086 -0.0090113030183971658 0 0.00050578628186864814 -0.0090433588915971135 0 0.00051152865941370086 -0.0090113030183971658 0 0.0004965660444694464 -0.0089953147522368448 0 0.00050890608890254011 -0.0089758137071339113 0 0.0004965660444694464 -0.0089953147522368448 0 0.00049856849324255727 -0.0089590513426792626 0 0.00050890608890254011 -0.0089758137071339113 0 0.00051152865941370086 -0.0090113030183971658 0 0.0004965660444694464 -0.0089953147522368448 0 0.0004965660444694464 -0.0089953147522368448 0 0.00048788248978316311 -0.0090334189898985083 0 0.0004803187181877407 -0.0089773795508772385 0 0.00050578628186864814 -0.0090433588915971135 0 0.0004965660444694464 -0.0089953147522368448 0 0.00048788248978316311 -0.0090334189898985083 0 0.00050578628186864814 -0.0090433588915971135 0 0.00048788248978316311 -0.0090334189898985083 0 0.00049793986441370043 -0.0090941201206889803 0 0.00050166515820111886 -0.0089246108109559668 0 0.00048535349730004576 -0.0088897203825349432 0 0.00048595376421169161 -0.0089407064355287828 0 0.00050166515820111886 -0.0089246108109559668 0 0.00049856849324255727 -0.0089590513426792626 0 0.00048595376421169161 -0.0089407064355287828 0 0.0004965660444694464 -0.0089953147522368448 0 0.00049856849324255727 -0.0089590513426792626 0 0.00048595376421169161 -0.0089407064355287828 0 0.0004965660444694464 -0.0089953147522368448 0 0.0004803187181877407 -0.0089773795508772385 0 0.00048595376421169161 -0.0089407064355287828 0 0.0004803187181877407 -0.0089773795508772385 0 0.00047342054068906216 -0.008939392623493473 0 0.00048595376421169161 -0.0089407064355287828 0 0.00048535349730004576 -0.0088897203825349432 0 0.00048595376421169161 -0.0089407064355287828 0 0.00047562161380532842 -0.0089101917370737783 0 0.00047342054068906216 -0.008939392623493473 0 0.00048595376421169161 -0.0089407064355287828 0 0.00047562161380532842 -0.0089101917370737783 0 0.00047342054068906216 -0.008939392623493473 0 0.00047562161380532842 -0.0089101917370737783 0 0.00046256690467079507 -0.0089095713046534169 0 0.00047231090360368139 -0.0088720689405680647 0 0.00047562161380532842 -0.0089101917370737783 0 0.00046256690467079507 -0.0089095713046534169 0 0.00047231090360368139 -0.0088720689405680647 0 0.00048535349730004576 -0.0088897203825349432 0 0.00047562161380532842 -0.0089101917370737783 0 0.00047342054068906216 -0.008939392623493473 0 0.00046256690467079507 -0.0089095713046534169 0 0.00046392441923109125 -0.0089562639024706979 0 0.00046256690467079507 -0.0089095713046534169 0 0.00046392441923109125 -0.0089562639024706979 0 0.000453607721979331 -0.0089209324620407506 0 0.0004803187181877407 -0.0089773795508772385 0 0.00047342054068906216 -0.008939392623493473 0 0.00046392441923109125 -0.0089562639024706979 0 0.00046392441923109125 -0.0089562639024706979 0 0.0004554294341836422 -0.0089703580490186948 0 0.00044724292665146496 -0.0089318394242679042 0 0.00046392441923109125 -0.0089562639024706979 0 0.0004554294341836422 -0.0089703580490186948 0 0.00046816386847844721 -0.0090085997935341628 0 0.00046392441923109125 -0.0089562639024706979 0 0.000453607721979331 -0.0089209324620407506 0 0.00044724292665146496 -0.0089318394242679042 0 0.00043922404691902394 -0.0089046196772242184 0 0.000453607721979331 -0.0089209324620407506 0 0.00044724292665146496 -0.0089318394242679042 0 0.00044785966009913399 -0.0088951001812448104 0 0.00043922404691902394 -0.0089046196772242184 0 0.000453607721979331 -0.0089209324620407506 0 0.00044785966009913399 -0.0088951001812448104 0 0.00046256690467079507 -0.0089095713046534169 0 0.000453607721979331 -0.0089209324620407506 0 0.00048788248978316311 -0.0090334189898985083 0 0.00047692109443953253 -0.0090798438989214067 0 0.00049793986441370043 -0.0090941201206889803 0 0.00048788248978316311 -0.0090334189898985083 0 0.00046816386847844721 -0.0090085997935341628 0 0.00047692109443953253 -0.0090798438989214067 0 0.00048788248978316311 -0.0090334189898985083 0 0.0004803187181877407 -0.0089773795508772385 0 0.00046816386847844721 -0.0090085997935341628 0 0.0004803187181877407 -0.0089773795508772385 0 0.00046392441923109125 -0.0089562639024706979 0 0.00046816386847844721 -0.0090085997935341628 0 0.00045729610110798943 -0.0090483984393154183 0 0.00045319842031154651 -0.0089962610181847178 0 0.00046816386847844721 -0.0090085997935341628 0 0.00045319842031154651 -0.0089962610181847178 0 0.0004554294341836422 -0.0089703580490186948 0 0.00046816386847844721 -0.0090085997935341628 0 0.00045729610110798943 -0.0090483984393154183 0 0.00046816386847844721 -0.0090085997935341628 0 0.00047692109443953253 -0.0090798438989214067 0 0.00046595335729406496 -0.0091280222371587956 0 0.00047692109443953253 -0.0090798438989214067 0 0.00048954899005316469 -0.0091558210722871135 0 0.00045729610110798943 -0.0090483984393154183 0 0.00046595335729406496 -0.0091280222371587956 0 0.00047692109443953253 -0.0090798438989214067 0 0.00047692109443953253 -0.0090798438989214067 0 0.00048954899005316469 -0.0091558210722871135 0 0.00049793986441370043 -0.0090941201206889803 0 0.00048954899005316469 -0.0091558210722871135 0 0.00049402213986966391 -0.0092393918123443736 0 0.00050409798392368722 -0.0091512082838944003 0 0.00046595335729406496 -0.0091280222371587956 0 0.00048954899005316469 -0.0091558210722871135 0 0.00048285927685924807 -0.0092193894649968688 0 0.00048285927685924807 -0.0092193894649968688 0 0.00048133009614997446 -0.0093472341376045591 0 0.00049402213986966391 -0.0092393918123443736 0 0.00047539912849026286 -0.0093683463323991859 0 0.00048133009614997446 -0.0093472341376045591 0 0.00049402213986966391 -0.0092393918123443736 0 0.00048954899005316469 -0.0091558210722871135 0 0.00048285927685924807 -0.0092193894649968688 0 0.00049402213986966391 -0.0092393918123443736 0 0.00049402213986966391 -0.0092393918123443736 0 0.00050078807179350544 -0.0091862232485594251 0 0.00050409798392368722 -0.0091512082838944003 0 0.00047539912849026286 -0.0093683463323991859 0 0.00049402213986966391 -0.0092393918123443736 0 0.0004866298805522021 -0.009254524770741587 0 0.00049402213986966391 -0.0092393918123443736 0 0.0004866298805522021 -0.009254524770741587 0 0.00050078807179350544 -0.0091862232485594251 0 0.00045933692999435786 -0.0093026871802740201 0 0.0004866298805522021 -0.009254524770741587 0 0.00047985772853934055 -0.0091950318563078937 0 0.0004866298805522021 -0.009254524770741587 0 0.00047985772853934055 -0.0091950318563078937 0 0.00050078807179350544 -0.0091862232485594251 0 0.00050321538155645982 -0.0091335627554047904 0 0.00050078807179350544 -0.0091862232485594251 0 0.00051264653110612431 -0.0091243629224126762 0 0.00050078807179350544 -0.0091862232485594251 0 0.00051264653110612431 -0.0091243629224126762 0 0.00050409798392368722 -0.0091512082838944003 0 0.00050321538155645982 -0.0091335627554047904 0 0.00047985772853934055 -0.0091950318563078937 0 0.00050078807179350544 -0.0091862232485594251 0 0.00051264653110612431 -0.0091243629224126762 0 0.00051255670879060895 -0.009089035594034376 0 0.00050409798392368722 -0.0091512082838944003 0 0.00052235055662135305 -0.0090754174427358086 0 0.00051264653110612431 -0.0091243629224126762 0 0.00051255670879060895 -0.009089035594034376 0 0.00052235055662135305 -0.0090754174427358086 0 0.0005194975693437173 -0.0090415490353645753 0 0.00051255670879060895 -0.009089035594034376 0 0.0005194975693437173 -0.0090415490353645753 0 0.00050578628186864814 -0.0090433588915971135 0 0.00051255670879060895 -0.009089035594034376 0 0.00050578628186864814 -0.0090433588915971135 0 0.00051255670879060895 -0.009089035594034376 0 0.00049793986441370043 -0.0090941201206889803 0 0.00051255670879060895 -0.009089035594034376 0 0.00049793986441370043 -0.0090941201206889803 0 0.00050409798392368722 -0.0091512082838944003 0 0.00048954899005316469 -0.0091558210722871135 0 0.00049793986441370043 -0.0090941201206889803 0 0.00050409798392368722 -0.0091512082838944003 0 -3.5800703277015704e-09 -0.014999875503047322 0 -2.0079401672157631e-05 -0.014828931130541895 0 -1.4717664684202191e-08 -0.014999835898876946 0 6.9218221600456295e-08 -0.014999854346177051 0 6.1797353057014903e-05 -0.014695909459194986 0 -2.0079401672157631e-05 -0.014828931130541895 0 -4.4139760066514507e-05 -0.014922888325431228 0 -1.4717664684202191e-08 -0.014999835898876946 0 -2.0079401672157631e-05 -0.014828931130541895 0 -0.00010428394142058777 -0.014847063653858688 0 -4.4139760066514507e-05 -0.014922888325431228 0 0.00011566736682046359 -0.014550989855499363 0 0.00012285714722172115 -0.014370465996310294 0 4.7145854626638891e-05 -0.013992263393889079 0 2.3549958462277058e-07 -0.014998598307815957 0 0.00011566736682046359 -0.014550989855499363 0 0.00012285714722172115 -0.014370465996310294 0 5.9199419862587699e-08 -0.014999221958700902 0 0.00012285714722172115 -0.014370465996310294 0 1.7732506951642002e-07 -0.013556695685398383 0 2.3549958462277058e-07 -0.014998598307815957 0 5.9199419862587699e-08 -0.014999221958700902 0 0.00012285714722172115 -0.014370465996310294 0 0.00012285714722172115 -0.014370465996310294 0 -2.5955118602016843e-05 -0.013199062339740627 0 4.7145854626638891e-05 -0.013992263393889079 0 0.00012460299281171153 -0.014183516888007957 0 -5.2075972623724716e-05 -0.013591573217980371 0 0.00012285714722172115 -0.014370465996310294 0 -1.0540207173234628e-05 -0.013927628526196202 0 1.7732506951642002e-07 -0.013556695685398383 0 -2.5955118602016843e-05 -0.013199062339740627 0 -0.00022813947640823592 -0.013516920093726445 0 4.7145854626638891e-05 -0.013992263393889079 0 -5.2075972623724716e-05 -0.013591573217980371 0 -0.00030244543880574357 -0.012928848753876341 0 -1.0540207173234628e-05 -0.013927628526196202 0 1.7732506951642002e-07 -0.013556695685398383 0 -3.5191370997912901e-05 -0.013331740100562244 0 -2.5955118602016843e-05 -0.013199062339740627 0 -0.00046033054264361375 -0.012974949738399093 0 -0.00068437415702501296 -0.012498906809662825 0 -2.5955118602016843e-05 -0.013199062339740627 0 -0.00046033054264361375 -0.012974949738399093 0 -0.00022813947640823592 -0.013516920093726445 0 -0.00046033054264361375 -0.012974949738399093 0 -0.00022813947640823592 -0.013516920093726445 0 -0.00046815390354068396 -0.013392898158130901 0 -0.00026872862761931072 -0.013959598004750955 0 6.4635879913411734e-06 -0.014257530505583411 0 -0.00067320739665745427 -0.014304437089549978 0 -0.00046815390354068396 -0.013392898158130901 0 -0.00026872862761931072 -0.013959598004750955 0 -0.00061931589945727684 -0.013696586962396567 0 -0.00026872862761931072 -0.013959598004750955 0 -0.00067320739665745427 -0.014304437089549978 0 -0.00061931589945727684 -0.013696586962396567 0 -0.00022813947640823592 -0.013516920093726445 0 -0.00046815390354068396 -0.013392898158130901 0 -0.00026872862761931072 -0.013959598004750955 0 -0.00022813947640823592 -0.013516920093726445 0 -0.00026872862761931072 -0.013959598004750955 0 4.7145854626638891e-05 -0.013992263393889079 0 0.00011566736682046359 -0.014550989855499363 0 4.7145854626638891e-05 -0.013992263393889079 0 6.4635879913411734e-06 -0.014257530505583411 0 -0.00026872862761931072 -0.013959598004750955 0 4.7145854626638891e-05 -0.013992263393889079 0 6.4635879913411734e-06 -0.014257530505583411 0 -2.0079401672157631e-05 -0.014828931130541895 0 -0.00017820402204902182 -0.014591694240814653 0 -0.00010428394142058777 -0.014847063653858688 0 6.1797353057014903e-05 -0.014695909459194986 0 -0.00012427356532968242 -0.014441906509322372 0 -0.00017820402204902182 -0.014591694240814653 0 -0.0004568976005869008 -0.01473570388466415 0 -0.00010428394142058777 -0.014847063653858688 0 -0.00012427356532968242 -0.014441906509322372 0 -0.0006422821021574485 -0.014326512872112998 0 -0.00017820402204902182 -0.014591694240814653 0 -0.0004568976005869008 -0.01473570388466415 0 -0.00067320739665745427 -0.014304437089549978 0 -0.00093257608217437479 -0.012682367735305174 0 -0.00071279888841158144 -0.012515736635672164 0 -0.00057257514090078222 -0.010815499876640948 0 -0.00090586590798342017 -0.011068157674688705 0 -0.00081159443754489149 -0.010483702241402887 0 -0.0004568976005869008 -0.01473570388466415 0 -0.00067320739665745427 -0.014304437089549978 0 -0.00083189634938605052 -0.014971260827741063 0 -0.00067320739665745427 -0.014304437089549978 0 -0.001000790095176641 -0.014221284333388628 0 -0.00083189634938605052 -0.014971260827741063 0 -0.00057257514090078222 -0.010815499876640948 0 -0.00050890980936783446 -0.011157984941324453 0 -0.00090586590798342017 -0.011068157674688705 0 -0.00057257514090078222 -0.010815499876640948 0 -0.00031795997461306813 -0.010937760961470058 0 -0.00015442468198831899 -0.010647266310205175 0 -0.00057257514090078222 -0.010815499876640948 0 -0.00031795997461306813 -0.010937760961470058 0 -0.00050890980936783446 -0.011157984941324453 0 -0.00031795997461306813 -0.010937760961470058 0 -0.00050890980936783446 -0.011157984941324453 0 -0.00015834895447049019 -0.011306956364006575 0 -0.00050890980936783446 -0.011157984941324453 0 -0.00046647160981325142 -0.011628141593102551 0 -0.00015834895447049019 -0.011306956364006575 0 -0.00093257608217437479 -0.012682367735305174 0 -0.00084787139170295397 -0.012414362678785209 0 -0.00046647160981325142 -0.011628141593102551 0 -0.00090586590798342017 -0.011068157674688705 0 -0.00081538405547388986 -0.012408963387613237 0 -0.001000790095176641 -0.014221284333388628 0 -0.00061931589945727684 -0.013696586962396567 0 -0.00081538405547388986 -0.012408963387613237 0 -0.00050890980936783446 -0.011157984941324453 0 -0.00046647160981325142 -0.011628141593102551 0 -0.00090586590798342017 -0.011068157674688705 0 -0.00067320739665745427 -0.014304437089549978 0 -0.001000790095176641 -0.014221284333388628 0 -0.00061931589945727684 -0.013696586962396567 0 1.7732506951642002e-07 -0.013556695685398383 0 -3.5191370997912901e-05 -0.013331740100562244 0 -3.5386882610625288e-07 -0.012520185576197477 0 -0.00046033054264361375 -0.012974949738399093 0 -0.00046815390354068396 -0.013392898158130901 0 -0.00081538405547388986 -0.012408963387613237 0 -0.00046815390354068396 -0.013392898158130901 0 -0.00061931589945727684 -0.013696586962396567 0 -0.00081538405547388986 -0.012408963387613237 0 -0.00046033054264361375 -0.012974949738399093 0 -0.00081538405547388986 -0.012408963387613237 0 -0.00068437415702501296 -0.012498906809662825 0 -0.00081538405547388986 -0.012408963387613237 0 -0.00068437415702501296 -0.012498906809662825 0 -1.6503221066369618e-06 -0.012518842692514352 0 -0.00030244543880574357 -0.012928848753876341 0 -1.0237537940923885e-07 -0.012519998605871925 0 -1.6503221066369618e-06 -0.012518842692514352 0 -0.0002648375412844505 -0.011930657320112439 0 -4.5126822451652804e-05 -0.011679533158796825 0 -0.00081538405547388986 -0.012408963387613237 0 -1.6503221066369618e-06 -0.012518842692514352 0 -0.0002648375412844505 -0.011930657320112439 0 -0.00046647160981325142 -0.011628141593102551 0 -0.00081538405547388986 -0.012408963387613237 0 -0.0002648375412844505 -0.011930657320112439 0 -0.00046647160981325142 -0.011628141593102551 0 -0.0002648375412844505 -0.011930657320112439 0 -0.00015834895447049019 -0.011306956364006575 0 -0.0002648375412844505 -0.011930657320112439 0 -4.5126822451652804e-05 -0.011679533158796825 0 -0.00015834895447049019 -0.011306956364006575 0 -4.5126822451652804e-05 -0.011679533158796825 0 1.6961252823702013e-05 -0.011184407504606749 0 -0.00015834895447049019 -0.011306956364006575 0 -1.6503221066369618e-06 -0.012518842692514352 0 -4.5126822451652804e-05 -0.011679533158796825 0 4.5012225639521407e-07 -0.01163636136303345 0 -4.5126822451652804e-05 -0.011679533158796825 0 4.6750049292224861e-05 -0.011229863829676022 0 4.5012225639521407e-07 -0.01163636136303345 0 6.0940787772291658e-08 -0.010752914932127124 0 4.6750049292224861e-05 -0.011229863829676022 0 4.5012225639521407e-07 -0.01163636136303345 0 9.3713291618219687e-05 -0.010888863534594367 0 1.6961252823702013e-05 -0.011184407504606749 0 5.2864936760821779e-05 -0.010854196582879857 0 -4.5126822451652804e-05 -0.011679533158796825 0 4.6750049292224861e-05 -0.011229863829676022 0 1.6961252823702013e-05 -0.011184407504606749 0 9.3713291618219687e-05 -0.010888863534594367 0 4.6750049292224861e-05 -0.011229863829676022 0 1.6961252823702013e-05 -0.011184407504606749 0 5.2864936760821779e-05 -0.010854196582879857 0 -8.4994698417505202e-06 -0.010870030519676175 0 3.230679644325994e-05 -0.010655426607627944 0 1.6961252823702013e-05 -0.011184407504606749 0 5.2864936760821779e-05 -0.010854196582879857 0 -8.4994698417505202e-06 -0.010870030519676175 0 1.6961252823702013e-05 -0.011184407504606749 0 -8.4994698417505202e-06 -0.010870030519676175 0 -0.00015834895447049019 -0.011306956364006575 0 -8.4994698417505202e-06 -0.010870030519676175 0 -0.00015834895447049019 -0.011306956364006575 0 -0.00013161519498316001 -0.010889879962319887 0 -0.00031795997461306813 -0.010937760961470058 0 -0.00015834895447049019 -0.011306956364006575 0 -0.00013161519498316001 -0.010889879962319887 0 -0.00031795997461306813 -0.010937760961470058 0 -0.00013161519498316001 -0.010889879962319887 0 -0.00015442468198831899 -0.010647266310205175 0 -0.00013161519498316001 -0.010889879962319887 0 -4.9991680208408259e-05 -0.010689140982194487 0 -0.00015442468198831899 -0.010647266310205175 0 3.8213440370003444e-05 -0.010424215849143581 0 3.230679644325994e-05 -0.010655426607627944 0 -4.9991680208408259e-05 -0.010689140982194487 0 3.8213440370003444e-05 -0.010424215849143581 0 -4.9991680208408259e-05 -0.010689140982194487 0 -0.00015442468198831899 -0.010647266310205175 0 8.205460732867548e-05 -0.010539429803747693 0 -0.00038393422121861759 -0.010117457803399071 0 -8.4994698417505202e-06 -0.010870030519676175 0 3.230679644325994e-05 -0.010655426607627944 0 -4.9991680208408259e-05 -0.010689140982194487 0 -8.4994698417505202e-06 -0.010870030519676175 0 -0.00013161519498316001 -0.010889879962319887 0 -4.9991680208408259e-05 -0.010689140982194487 0 3.8213440370003444e-05 -0.010424215849143581 0 -0.00017995462997162309 -0.010167618364966581 0 -0.00046803807713729557 -0.010267742562795104 0 -1.0515639559093128e-05 -0.010089790767287945 0 -0.00017995462997162309 -0.010167618364966581 0 -0.00014572609206092504 -0.009905678633063391 0 5.7261389301458196e-05 -0.01031895607247716 0 -1.0515639559093128e-05 -0.010089790767287945 0 -0.00017995462997162309 -0.010167618364966581 0 -0.00046803807713729557 -0.010267742562795104 0 -0.00040750532701071534 -0.009889231718991252 0 -0.00068593169090404543 -0.010008994653422292 0 -0.00017995462997162309 -0.010167618364966581 0 -0.00046803807713729557 -0.010267742562795104 0 -0.00040750532701071534 -0.009889231718991252 0 -0.00017995462997162309 -0.010167618364966581 0 -0.00040750532701071534 -0.009889231718991252 0 -0.00014572609206092504 -0.009905678633063391 0 -0.00040750532701071534 -0.009889231718991252 0 -0.00014572609206092504 -0.009905678633063391 0 -0.00015085602120468438 -0.0096555644229140581 0 -1.0515639559093128e-05 -0.010089790767287945 0 3.1700305861706328e-05 -0.0097834038918271585 0 -0.00014572609206092504 -0.009905678633063391 0 3.1700305861706328e-05 -0.0097834038918271585 0 -0.00014572609206092504 -0.009905678633063391 0 -0.00015085602120468438 -0.0096555644229140581 0 -0.00015085602120468438 -0.0096555644229140581 0 -6.8920698005162456e-05 -0.0093399815906396733 0 -0.00050414011429695486 -0.0094691487242633335 0 0.00043494927216230356 -0.0093987000814185675 0 0.00031975466890538578 -0.0091288687869404174 0 0.0010486076488379285 -0.0094165137918810361 0 0.0010646202171760767 -0.0094534917274890461 0 0.0010270800622382431 -0.0094394242786232062 0 0.00098039190427474552 -0.0093742357305065527 0 0.0010486076488379285 -0.0094165137918810361 0 0.0010270800622382431 -0.0094394242786232062 0 -0.00040750532701071534 -0.009889231718991252 0 -0.00050414011429695486 -0.0094691487242633335 0 -0.00069085591319150883 -0.0097824990834116266 0 -0.00040750532701071534 -0.009889231718991252 0 -0.00015085602120468438 -0.0096555644229140581 0 -0.00050414011429695486 -0.0094691487242633335 0 -0.00050414011429695486 -0.0094691487242633335 0 -0.00092592841163129623 -0.0096088356080253172 0 -0.00069085591319150883 -0.0097824990834116266 0 0.00031975466890538578 -0.0091288687869404174 0 0.00013873344748602928 -0.012088394450443228 0 0.0010486076488379285 -0.0094165137918810361 0 0.0010771079366521798 -0.0094487594127411357 0 0.0010646202171760767 -0.0094534917274890461 0 0.0010486076488379285 -0.0094165137918810361 0 0.0010771079366521798 -0.0094487594127411357 0 0.001083687447903714 -0.0094506785730921715 0 0.00013873344748602928 -0.012088394450443228 0 0.00071674483978506859 -0.011941759435601206 0 1.537111368215496e-05 -0.014581414458118716 0 1.2199140907891203e-05 -0.014771481272075941 0 0.00023294738796901727 -0.014387917904256161 0 1.2199140907891203e-05 -0.014771481272075941 0 0.00010546328606669742 -0.014932415838979123 0 0.00023294738796901727 -0.014387917904256161 0 0.0010771079366521798 -0.0094487594127411357 0 0.001083687447903714 -0.0094506785730921715 0 0.00110560925244006 -0.0094775259096590622 0 -8.6262721077550814e-05 -0.014898242679545155 0 -0.00010412243014090785 -0.014898065280646348 0 -7.9134038783245378e-05 -0.014908763133093255 0 0.00013873344748602928 -0.012088394450443228 0 -0.00051998775956275663 -0.012437198908970524 0 0.00013873344748602928 -0.012088394450443228 0 -0.00036597331556260021 -0.013734698593464899 0 1.2199140907891203e-05 -0.014771481272075941 0 0.00010546328606669742 -0.014932415838979123 0 -7.9134038783245378e-05 -0.014908763133093255 0 -0.00092592841163129623 -0.0096088356080253172 0 -0.00092981487906332793 -0.0099040557243276327 0 -0.00069085591319150883 -0.0097824990834116266 0 -0.00051998775956275663 -0.012437198908970524 0 -0.00071279888841158144 -0.012515736635672164 0 -0.00010412243014090785 -0.014898065280646348 0 -0.00011380717386561981 -0.014930990137092095 0 -0.00012842936169645808 -0.014909314378121352 0 -0.00010412243014090785 -0.014898065280646348 0 -0.00012842936169645808 -0.014909314378121352 0 -7.9134038783245378e-05 -0.014908763133093255 0 -0.00092981487906332793 -0.0099040557243276327 0 -0.00068593169090404543 -0.010008994653422292 0 -0.00092964742609916238 -0.01019628122825118 0 -0.00040750532701071534 -0.009889231718991252 0 -0.00069085591319150883 -0.0097824990834116266 0 -0.00068593169090404543 -0.010008994653422292 0 -0.00092981487906332793 -0.0099040557243276327 0 -0.00069085591319150883 -0.0097824990834116266 0 -0.00068593169090404543 -0.010008994653422292 0 -0.00046803807713729557 -0.010267742562795104 0 -0.00068593169090404543 -0.010008994653422292 0 -0.00092964742609916238 -0.01019628122825118 0 -0.00057257514090078222 -0.010815499876640948 0 -0.00015442468198831899 -0.010647266310205175 0 -0.00081159443754489149 -0.010483702241402887 0 -0.00038393422121861759 -0.010117457803399071 0 -0.00071279888841158144 -0.012515736635672164 0 -0.00071279888841158144 -0.012515736635672164 0 -3.5769545252709068e-05 -0.015373781047740731 0 -0.0004568976005869008 -0.01473570388466415 0 -0.00083189634938605052 -0.014971260827741063 0 -0.00020378944823602719 -0.014945075412264081 0 -0.00011380717386561981 -0.014930990137092095 0 -0.00020378944823602719 -0.014945075412264081 0 -0.00012842936169645808 -0.014909314378121352 0 -0.0004568976005869008 -0.01473570388466415 0 -0.00020378944823602719 -0.014945075412264081 0 -0.00010428394142058777 -0.014847063653858688 0 -0.00020378944823602719 -0.014945075412264081 0 -0.00010428394142058777 -0.014847063653858688 0 -9.4296251127593458e-05 -0.014933515076309304 0 -0.00020378944823602719 -0.014945075412264081 0 -0.0001284669646903929 -0.014917635172000726 0 -9.4296251127593458e-05 -0.014933515076309304 0 -0.00020378944823602719 -0.014945075412264081 0 -0.0001284669646903929 -0.014917635172000726 0 -0.00012842936169645808 -0.014909314378121352 0 -0.00012842936169645808 -0.014909314378121352 0 -0.0001233587040911142 -0.014893506603258461 0 -7.9134038783245378e-05 -0.014908763133093255 0 -0.0001284669646903929 -0.014917635172000726 0 -0.00012842936169645808 -0.014909314378121352 0 -0.0001233587040911142 -0.014893506603258461 0 -0.0001233587040911142 -0.014893506603258461 0 -7.9134038783245378e-05 -0.014908763133093255 0 -0.00012850831591899105 -0.014825490249208735 0 1.2199140907891203e-05 -0.014771481272075941 0 -7.9134038783245378e-05 -0.014908763133093255 0 -0.00012850831591899105 -0.014825490249208735 0 1.537111368215496e-05 -0.014581414458118716 0 1.2199140907891203e-05 -0.014771481272075941 0 -0.00012850831591899105 -0.014825490249208735 0 -0.00012850831591899105 -0.014825490249208735 0 -0.00010129232180845181 -0.014900215720359992 0 -6.5814994602470564e-05 -0.014935623321519313 0 -5.9585574681509079e-05 -0.014940731069005892 0 -6.8779870367740187e-05 -0.014940838752405046 0 -0.0001233587040911142 -0.014893506603258461 0 -0.00012850831591899105 -0.014825490249208735 0 -0.00010129232180845181 -0.014900215720359992 0 -0.0001284669646903929 -0.014917635172000726 0 -0.0001233587040911142 -0.014893506603258461 0 -0.00010129232180845181 -0.014900215720359992 0 -0.0001284669646903929 -0.014917635172000726 0 -0.00010129232180845181 -0.014900215720359992 0 -9.4296251127593458e-05 -0.014933515076309304 0 -1.9318517107303914e-05 -0.014973172255811891 0 -6.835129894800836e-06 -0.014989996848231936 0 -2.3710885335273384e-06 -0.014997079700868042 0 -5.9585574681509079e-05 -0.014940731069005892 0 -3.2269490852835441e-05 -0.014963083533821368 0 -1.9318517107303914e-05 -0.014973172255811891 0 -1.0640499363060824e-08 -0.014999969820822577 0 -1.7231155036017595e-05 -0.014978571198307014 0 -1.9318517107303914e-05 -0.014973172255811891 0 -1.0640499363060824e-08 -0.014999969820822577 0 -6.835129894800836e-06 -0.014989996848231936 0 -1.0640499363060824e-08 -0.014999969820822577 0 -6.835129894800836e-06 -0.014989996848231936 0 -8.5357692834971731e-09 -0.014999985643236083 0 -6.835129894800836e-06 -0.014989996848231936 0 -8.5357692834971731e-09 -0.014999985643236083 0 -2.3710885335273384e-06 -0.014997079700868042 0 -8.5357692834971731e-09 -0.014999985643236083 0 -2.3710885335273384e-06 -0.014997079700868042 0 3.5362563958843906e-09 -0.015000003690516156 0 -6.7923085343049596e-05 -0.014935823719190227 0 -9.4296251127593458e-05 -0.014933515076309304 0 -4.4139760066514507e-05 -0.014922888325431228 0 -0.00010129232180845181 -0.014900215720359992 0 -6.7923085343049596e-05 -0.014935823719190227 0 -9.4296251127593458e-05 -0.014933515076309304 0 -0.00010428394142058777 -0.014847063653858688 0 -9.4296251127593458e-05 -0.014933515076309304 0 -4.4139760066514507e-05 -0.014922888325431228 0 -3.2269490852835441e-05 -0.014963083533821368 0 -6.4140040641072825e-09 -0.014999975469033606 0 -6.7923085343049596e-05 -0.014935823719190227 0 -4.4139760066514507e-05 -0.014922888325431228 0 -1.4717664684202191e-08 -0.014999835898876946 0 2.5792635342054051e-09 -0.014988749454791638 0 -7.5755482871984336e-06 -0.014988008904250477 0 -1.4083089606623169e-08 -0.014999972370738444 0 -7.5755482871984336e-06 -0.014988008904250477 0 -3.0764669163792302e-05 -0.014974084955724058 0 -1.4083089606623169e-08 -0.014999972370738444 0 2.5792635342054051e-09 -0.014988749454791638 0 -7.5755482871984336e-06 -0.014988008904250477 0 -3.0764669163792302e-05 -0.014974084955724058 0 -3.8670100371040195e-05 -0.014970232578358033 0 -5.8863448376084994e-05 -0.014964877176097282 0 -8.5200799849081442e-05 -0.014955844851099104 0 -8.2255808782228436e-05 -0.014955937333318859 0 -8.1503268531220733e-05 -0.014953456451346542 0 -8.2255808782228436e-05 -0.014955937333318859 0 -8.1503268531220733e-05 -0.014953456451346542 0 -8.013541013977264e-05 -0.014956134577312956 0 -8.2255808782228436e-05 -0.014955937333318859 0 -8.2429674510818096e-05 -0.01495838885919645 0 -8.013541013977264e-05 -0.014956134577312956 0 -8.5200799849081442e-05 -0.014955844851099104 0 -8.2255808782228436e-05 -0.014955937333318859 0 -8.2429674510818096e-05 -0.01495838885919645 0 -3.8670100371040195e-05 -0.014970232578358033 0 -5.3782572357132203e-05 -0.014979307789570528 0 -6.4408849266363985e-10 -0.014988798196400787 0 -2.073386559254412e-05 -0.015002400170512112 0 -5.4341315502180353e-06 -0.014996888486384224 0 -6.4408849266363985e-10 -0.014988798196400787 0 -5.4341315502180353e-06 -0.014996888486384224 0 -1.1168457267591106e-08 -0.014999970914772332 0 -5.4341315502180353e-06 -0.014996888486384224 0 -1.1168457267591106e-08 -0.014999970914772332 0 -1.7231155036017595e-05 -0.014978571198307014 0 -1.0640499363060824e-08 -0.014999969820822577 0 -1.1168457267591106e-08 -0.014999970914772332 0 -1.7231155036017595e-05 -0.014978571198307014 0 -1.9318517107303914e-05 -0.014973172255811891 0 -1.7231155036017595e-05 -0.014978571198307014 0 -6.5814994602470564e-05 -0.014935623321519313 0 -2.073386559254412e-05 -0.015002400170512112 0 -5.4341315502180353e-06 -0.014996888486384224 0 -1.7231155036017595e-05 -0.014978571198307014 0 -2.073386559254412e-05 -0.015002400170512112 0 -1.7231155036017595e-05 -0.014978571198307014 0 -4.6468450985083956e-05 -0.014971361291998331 0 -5.3782572357132203e-05 -0.014979307789570528 0 -8.4838842955440113e-05 -0.014966525980701573 0 -8.2429674510818096e-05 -0.01495838885919645 0 -8.8107309464224105e-05 -0.014965709513849193 0 -8.3202232254498003e-05 -0.014960147228020347 0 -2.073386559254412e-05 -0.015002400170512112 0 -4.6468450985083956e-05 -0.014971361291998331 0 -8.8107309464224105e-05 -0.014965709513849193 0 -1.7231155036017595e-05 -0.014978571198307014 0 -4.6468450985083956e-05 -0.014971361291998331 0 -6.5814994602470564e-05 -0.014935623321519313 0 -4.6468450985083956e-05 -0.014971361291998331 0 -6.5814994602470564e-05 -0.014935623321519313 0 -8.8107309464224105e-05 -0.014965709513849193 0 -0.00012850831591899105 -0.014825490249208735 0 -6.5814994602470564e-05 -0.014935623321519313 0 -0.00010920325865862866 -0.014955350692977513 0 -0.00013675395409287763 -0.014800648093073701 0 -0.00015209632792973122 -0.014552031862274089 0 1.537111368215496e-05 -0.014581414458118716 0 -0.00012850831591899105 -0.014825490249208735 0 -0.00020815606976013203 -0.014156320486566431 0 -6.5814994602470564e-05 -0.014935623321519313 0 -0.00010920325865862866 -0.014955350692977513 0 -8.8107309464224105e-05 -0.014965709513849193 0 -0.00020815606976013203 -0.014156320486566431 0 -0.00018825542511547537 -0.013404812538872051 0 0.00027443847363783366 -0.013548823809449807 0 -0.00015209632792973122 -0.014552031862274089 0 -0.00013275575848819822 -0.014184682114128683 0 -0.00010920325865862866 -0.014955350692977513 0 -8.8107309464224105e-05 -0.014965709513849193 0 -7.9932186664211438e-05 -0.014960002893646362 0 -8.8107309464224105e-05 -0.014965709513849193 0 -7.9932186664211438e-05 -0.014960002893646362 0 -8.3202232254498003e-05 -0.014960147228020347 0 -8.2429674510818096e-05 -0.01495838885919645 0 -8.3202232254498003e-05 -0.014960147228020347 0 -8.013541013977264e-05 -0.014956134577312956 0 -7.9932186664211438e-05 -0.014960002893646362 0 -8.3202232254498003e-05 -0.014960147228020347 0 -8.013541013977264e-05 -0.014956134577312956 0 -8.1503268531220733e-05 -0.014953456451346542 0 -8.013541013977264e-05 -0.014956134577312956 0 -7.5359967269565355e-05 -0.014953081785984356 0 -0.00013275575848819822 -0.014184682114128683 0 -0.00014516398368760698 -0.013817038078641729 0 -7.5359967269565355e-05 -0.014953081785984356 0 -7.5185824889767691e-05 -0.014947423811171241 0 -6.9812939437611431e-05 -0.014957013483553553 0 -7.9932186664211438e-05 -0.014960002893646362 0 -8.013541013977264e-05 -0.014956134577312956 0 -7.5185824889767691e-05 -0.014947423811171241 0 -0.00018825542511547537 -0.013404812538872051 0 -0.00015499569471722364 -0.012697540779561704 0 2.3547935277040721e-05 -0.013066674081689636 0 -8.013541013977264e-05 -0.014956134577312956 0 -7.5359967269565355e-05 -0.014953081785984356 0 -7.5185824889767691e-05 -0.014947423811171241 0 -0.00015499569471722364 -0.012697540779561704 0 0.00027566836584556117 -0.012748449830567403 0 2.3547935277040721e-05 -0.013066674081689636 0 -0.00015499569471722364 -0.012697540779561704 0 0.00027566836584556117 -0.012748449830567403 0 6.6221451158591417e-05 -0.012371164653188096 0 0.0010954690681759594 -0.0096307276983291206 0 0.001040920546272222 -0.0096601215471921256 0 0.0011047797233781187 -0.009682079994124404 0 0.001158543734760418 -0.0096474421474578072 0 0.0010954690681759594 -0.0096307276983291206 0 0.0011123763986089184 -0.0095871914383441701 0 0.001158543734760418 -0.0096474421474578072 0 0.0010954690681759594 -0.0096307276983291206 0 0.0011047797233781187 -0.009682079994124404 0 0.0010954690681759594 -0.0096307276983291206 0 0.0011123763986089184 -0.0095871914383441701 0 0.0010683417855545431 -0.0095783944903642532 0 0.0011123763986089184 -0.0095871914383441701 0 0.0010890540423816833 -0.0095400133363253928 0 0.0011359290015671951 -0.0095471510304272183 0 0.0011123763986089184 -0.0095871914383441701 0 0.0010890540423816833 -0.0095400133363253928 0 0.0010683417855545431 -0.0095783944903642532 0 0.00027566836584556117 -0.012748449830567403 0 0.00027443847363783366 -0.013548823809449807 0 2.3547935277040721e-05 -0.013066674081689636 0 0.001158543734760418 -0.0096474421474578072 0 0.0011123763986089184 -0.0095871914383441701 0 0.0011359290015671951 -0.0095471510304272183 0 0.00071816321073329926 -0.011079307738257353 0 0.00069756926561700559 -0.011572438437622195 0 -0.00018825542511547537 -0.013404812538872051 0 0.00027443847363783366 -0.013548823809449807 0 2.3547935277040721e-05 -0.013066674081689636 0 0.0011359290015671951 -0.0095471510304272183 0 0.00110560925244006 -0.0094775259096590622 0 0.0010773713518027869 -0.0094924321031446476 0 0.00069756926561700559 -0.011572438437622195 0 0.00071674483978506859 -0.011941759435601206 0 -0.00020815606976013203 -0.014156320486566431 0 0.00027443847363783366 -0.013548823809449807 0 0.00023294738796901727 -0.014387917904256161 0 1.537111368215496e-05 -0.014581414458118716 0 -0.00020815606976013203 -0.014156320486566431 0 0.00023294738796901727 -0.014387917904256161 0 0.0010771079366521798 -0.0094487594127411357 0 0.00110560925244006 -0.0094775259096590622 0 0.0010646202171760767 -0.0094534917274890461 0 0.00110560925244006 -0.0094775259096590622 0 0.0010646202171760767 -0.0094534917274890461 0 0.0010773713518027869 -0.0094924321031446476 0 0.0010890540423816833 -0.0095400133363253928 0 0.0010773713518027869 -0.0094924321031446476 0 0.0010290116757371902 -0.0095047121638458625 0 0.0010890540423816833 -0.0095400133363253928 0 0.0011359290015671951 -0.0095471510304272183 0 0.0010773713518027869 -0.0094924321031446476 0 0.0010773713518027869 -0.0094924321031446476 0 0.0010290116757371902 -0.0095047121638458625 0 0.0010270800622382431 -0.0094394242786232062 0 0.0010646202171760767 -0.0094534917274890461 0 0.0010773713518027869 -0.0094924321031446476 0 0.0010270800622382431 -0.0094394242786232062 0 0.00098039190427474552 -0.0093742357305065527 0 0.0010270800622382431 -0.0094394242786232062 0 0.00095915110248141451 -0.00943580586574869 0 0.0010290116757371902 -0.0095047121638458625 0 0.00097451414643971149 -0.0095156691686439435 0 0.00095915110248141451 -0.00943580586574869 0 0.0010290116757371902 -0.0095047121638458625 0 0.0010270800622382431 -0.0094394242786232062 0 0.00095915110248141451 -0.00943580586574869 0 0.0010290116757371902 -0.0095047121638458625 0 0.00097451414643971149 -0.0095156691686439435 0 0.0010086389580440682 -0.0095776797834681449 0 0.0010890540423816833 -0.0095400133363253928 0 0.0010290116757371902 -0.0095047121638458625 0 0.0010683417855545431 -0.0095783944903642532 0 0.0010290116757371902 -0.0095047121638458625 0 0.0010683417855545431 -0.0095783944903642532 0 0.0010086389580440682 -0.0095776797834681449 0 0.0010683417855545431 -0.0095783944903642532 0 0.0010086389580440682 -0.0095776797834681449 0 0.001040920546272222 -0.0096601215471921256 0 0.0010954690681759594 -0.0096307276983291206 0 0.0010683417855545431 -0.0095783944903642532 0 0.001040920546272222 -0.0096601215471921256 0 0.0010086389580440682 -0.0095776797834681449 0 0.00098413901381581848 -0.0096584180474606901 0 0.001040920546272222 -0.0096601215471921256 0 0.00097451414643971149 -0.0095156691686439435 0 0.0010086389580440682 -0.0095776797834681449 0 0.00094076923683908821 -0.0095878979008627348 0 0.0010086389580440682 -0.0095776797834681449 0 0.00098413901381581848 -0.0096584180474606901 0 0.00094076923683908821 -0.0095878979008627348 0 0.00098413901381581848 -0.0096584180474606901 0 0.00098202154658259258 -0.0097465604443170741 0 0.00087626115432478269 -0.0097321289591571439 0 0.00098413901381581848 -0.0096584180474606901 0 0.001040920546272222 -0.0096601215471921256 0 0.00098202154658259258 -0.0097465604443170741 0 0.0010521110376723896 -0.0093732170409910592 0 0.00084786375948757789 -0.010728787407527047 0 0.001040920546272222 -0.0096601215471921256 0 0.0010748811860769481 -0.0097798654804185179 0 0.00098202154658259258 -0.0097465604443170741 0 0.001040920546272222 -0.0096601215471921256 0 0.0010748811860769481 -0.0097798654804185179 0 0.0011497141088326131 -0.0097817361209327127 0 0.00058123049852099832 -0.011638265129634139 0 0.00056512287072755466 -0.011305055223834322 0 0.00021689628263232846 -0.012876277398608468 0 0.00017833734625029283 -0.012933251549019366 0 0.00012390373205181811 -0.012892592403753435 0 0.00021689628263232846 -0.012876277398608468 0 0.00023701658333590047 -0.012867016319853418 0 0.00012390373205181811 -0.012892592403753435 0 0.00043380017038235804 -0.011784217186944369 0 0.00058123049852099832 -0.011638265129634139 0 0.00023377993902370028 -0.012911952666847632 0 0.00023469641092410738 -0.012958532897244475 0 0.00030511424717209588 -0.012919367352517272 0 0.00024406241586124108 -0.012865843339481712 0 0.00023377993902370028 -0.012911952666847632 0 0.00030511424717209588 -0.012919367352517272 0 0.00021689628263232846 -0.012876277398608468 0 0.00024406241586124108 -0.012865843339481712 0 0.00023377993902370028 -0.012911952666847632 0 0.00023377993902370028 -0.012911952666847632 0 0.00017833734625029283 -0.012933251549019366 0 0.00023469641092410738 -0.012958532897244475 0 0.00021689628263232846 -0.012876277398608468 0 0.00023377993902370028 -0.012911952666847632 0 0.00017833734625029283 -0.012933251549019366 0 0.00017833734625029283 -0.012933251549019366 0 0.00012390373205181811 -0.012892592403753435 0 0.00012166594744849223 -0.012981734410336919 0 0.00012390373205181811 -0.012892592403753435 0 0.00012166594744849223 -0.012981734410336919 0 6.2951118418050743e-05 -0.012968220913264678 0 0.00017833734625029283 -0.012933251549019366 0 0.00012166594744849223 -0.012981734410336919 0 0.00018591068330425279 -0.01300356865132633 0 0.00012166594744849223 -0.012981734410336919 0 0.00013804114525967968 -0.013062723806106964 0 0.00018591068330425279 -0.01300356865132633 0 0.00012166594744849223 -0.012981734410336919 0 0.00013804114525967968 -0.013062723806106964 0 6.6967862923966452e-05 -0.0130422785741408 0 0.00013804114525967968 -0.013062723806106964 0 6.6967862923966452e-05 -0.0130422785741408 0 8.2765233608548045e-05 -0.013145064759093307 0 0.00013804114525967968 -0.013062723806106964 0 0.00018428782220861862 -0.013150467380164699 0 8.2765233608548045e-05 -0.013145064759093307 0 0.00018428782220861862 -0.013150467380164699 0 0.00032454118451135918 -0.013103471756411592 0 0.00025820479117574796 -0.013267197095723889 0 0.00018428782220861862 -0.013150467380164699 0 0.00022189879705043769 -0.013062660181113588 0 0.00032454118451135918 -0.013103471756411592 0 0.00013804114525967968 -0.013062723806106964 0 0.00018428782220861862 -0.013150467380164699 0 0.00022189879705043769 -0.013062660181113588 0 0.00013804114525967968 -0.013062723806106964 0 0.00022189879705043769 -0.013062660181113588 0 0.00018591068330425279 -0.01300356865132633 0 0.00022189879705043769 -0.013062660181113588 0 0.00026788844586377757 -0.013005774705415925 0 0.00032454118451135918 -0.013103471756411592 0 0.00026788844586377757 -0.013005774705415925 0 0.00018591068330425279 -0.01300356865132633 0 0.00023469641092410738 -0.012958532897244475 0 0.00022189879705043769 -0.013062660181113588 0 0.00026788844586377757 -0.013005774705415925 0 0.00018591068330425279 -0.01300356865132633 0 0.00017833734625029283 -0.012933251549019366 0 0.00018591068330425279 -0.01300356865132633 0 0.00023469641092410738 -0.012958532897244475 0 0.00026788844586377757 -0.013005774705415925 0 0.00023469641092410738 -0.012958532897244475 0 0.00030511424717209588 -0.012919367352517272 0 0.00026788844586377757 -0.013005774705415925 0 0.00035307522501929948 -0.012994035814955528 0 0.00030511424717209588 -0.012919367352517272 0 0.00039482188766820663 -0.012944068667387149 0 0.00035307522501929948 -0.012994035814955528 0 0.00030511424717209588 -0.012919367352517272 0 0.00041493019901302902 -0.01303589399686696 0 0.00035307522501929948 -0.012994035814955528 0 0.00032454118451135918 -0.013103471756411592 0 0.00039482188766820663 -0.012944068667387149 0 0.00041493019901302902 -0.01303589399686696 0 0.00035307522501929948 -0.012994035814955528 0 0.00026788844586377757 -0.013005774705415925 0 0.00035307522501929948 -0.012994035814955528 0 0.00032454118451135918 -0.013103471756411592 0 0.00032454118451135918 -0.013103471756411592 0 0.00049892571008871396 -0.013117484821551348 0 0.0003934796565671261 -0.013249424626526115 0 0.00041493019901302902 -0.01303589399686696 0 0.00032454118451135918 -0.013103471756411592 0 0.00049892571008871396 -0.013117484821551348 0 0.00047147163977230398 -0.013534323249725774 0 0.00053501500072333807 -0.013486370487916746 0 0.00054394457043827093 -0.01361414172970578 0 0.00047147163977230398 -0.013534323249725774 0 0.00053501500072333807 -0.013486370487916746 0 0.00051445762370941827 -0.013420609770994038 0 0.00048163639669154677 -0.013352484038770219 0 0.00054673530761501898 -0.013036349227807727 0 0.00051445762370941827 -0.013420609770994038 0 0.0005418814516331467 -0.013404488283927105 0 0.000476830867955808 -0.013338569697373015 0 0.00047147163977230398 -0.013534323249725774 0 0.00051445762370941827 -0.013420609770994038 0 0.000476830867955808 -0.013338569697373015 0 0.00041493019901302902 -0.01303589399686696 0 0.00049892571008871396 -0.013117484821551348 0 0.00047026711083209292 -0.012943191983461036 0 0.00053501500072333807 -0.013486370487916746 0 0.00051445762370941827 -0.013420609770994038 0 0.00054294161293189872 -0.013404630963942572 0 0.00053676631644470067 -0.013655570459231695 0 0.00049351916218324957 -0.013713678450068666 0 0.00039482188766820663 -0.012944068667387149 0 0.00041493019901302902 -0.01303589399686696 0 0.00047026711083209292 -0.012943191983461036 0 0.00056092683328740371 -0.01338459904547698 0 0.00038866537072886808 -0.013213468835521932 0 0.00055246079908951597 -0.013207115287347139 0 0.00049351916218324957 -0.013713678450068666 0 0.00054673530761501898 -0.013036349227807727 0 0.00038866537072886808 -0.013213468835521932 0 0.00055246079908951597 -0.013207115287347139 0 0.00038972293607340808 -0.013040252314195354 0 0.00063785543582280384 -0.012527895528157465 0 0.00063869460112560912 -0.012995130190650482 0 0.00055246079908951597 -0.013207115287347139 0 0.00038972293607340808 -0.013040252314195354 0 0.0007040646520763955 -0.013107911989894855 0 0.00055403517668349014 -0.012967255485302981 0 0.00039398091506868336 -0.013033633777775619 0 0.0007040646520763955 -0.013107911989894855 0 0.00055403517668349014 -0.012967255485302981 0 0.00039458799149245824 -0.012869265130494432 0 0.00039398091506868336 -0.013033633777775619 0 0.00055403517668349014 -0.012967255485302981 0 0.00039458799149245824 -0.012869265130494432 0 0.0007243732551596246 -0.012858470318721548 0 0.00071220703407610063 -0.011440836663565145 0 0.00024687056766343367 -0.013538024114003755 0 0.00027661560183546836 -0.012007886877207604 0 6.6221451158591417e-05 -0.012371164653188096 0 -0.00013194019720149305 -0.012034914743865538 0 0.00071220703407610063 -0.011440836663565145 0 0.00084786375948757789 -0.010728787407527047 0 0.0011635162504559482 -0.009768922723102794 0 0.0011008028645353837 -0.0097637947935480304 0 0.0011324539179693581 -0.0097149718426112197 0 0.00069936665558656538 -0.012655641884884952 0 0.00070029535413673543 -0.012475646941438415 0 0.00046685570020042522 -0.012424980943614921 0 0.00063785543582280384 -0.012527895528157465 0 0.00065639465676790366 -0.012049381911789015 0 0.00071233979499414396 -0.011576285219269048 0 0.00071214105250637773 -0.011592875248769218 0 0.0006929093632614228 -0.011585444911247095 0 0.00054673530761501898 -0.013036349227807727 0 0.00065639465676790366 -0.012049381911789015 0 0.00039482188766820663 -0.012944068667387149 0 0.00047026711083209292 -0.012943191983461036 0 0.00038889297298615519 -0.012873283579825662 0 0.00071220703407610063 -0.011440836663565145 0 0.00063785543582280384 -0.012527895528157465 0 0.00054673530761501898 -0.013036349227807727 0 0.00063785543582280384 -0.012527895528157465 0 0.00024406241586124108 -0.012865843339481712 0 0.00038889297298615519 -0.012873283579825662 0 0.00030511424717209588 -0.012919367352517272 0 0.00039482188766820663 -0.012944068667387149 0 0.00038889297298615519 -0.012873283579825662 0 0.00030511424717209588 -0.012919367352517272 0 0.00058123049852099832 -0.011638265129634139 0 0.00065639465676790366 -0.012049381911789015 0 0.00059467541959219478 -0.011612128792962653 0 0.00068835598382936366 -0.011634396419202971 0 0.00066491543533922807 -0.011610050939498314 0 0.00058123049852099832 -0.011638265129634139 0 0.00084786375948757789 -0.010728787407527047 0 0.00071233979499414396 -0.011576285219269048 0 0.0006929093632614228 -0.011585444911247095 0 0.00068402508459180014 -0.011573839460332389 0 0.00065639465676790366 -0.012049381911789015 0 0.00084786375948757789 -0.010728787407527047 0 0.0011008028645353837 -0.0097637947935480304 0 0.0011047797233781187 -0.009682079994124404 0 0.0011324539179693581 -0.0097149718426112197 0 0.001040920546272222 -0.0096601215471921256 0 0.0011008028645353837 -0.0097637947935480304 0 0.0011047797233781187 -0.009682079994124404 0 0.00071816321073329926 -0.011079307738257353 0 0.00071220703407610063 -0.011440836663565145 0 0.001158543734760418 -0.0096474421474578072 0 0.0011635162504559482 -0.009768922723102794 0 0.0011324539179693581 -0.0097149718426112197 0 0.00027566836584556117 -0.012748449830567403 0 0.00027661560183546836 -0.012007886877207604 0 6.6221451158591417e-05 -0.012371164653188096 0 0.001158543734760418 -0.0096474421474578072 0 0.0011047797233781187 -0.009682079994124404 0 0.0011324539179693581 -0.0097149718426112197 0 -7.5185824889767691e-05 -0.014947423811171241 0 -6.9812939437611431e-05 -0.014957013483553553 0 -7.5108824968612723e-05 -0.014961268963047742 0 -0.00015499569471722364 -0.012697540779561704 0 6.6221451158591417e-05 -0.012371164653188096 0 -0.00013194019720149305 -0.012034914743865538 0 -6.9812939437611431e-05 -0.014957013483553553 0 -5.6554987408277484e-05 -0.014976254080605446 0 -7.5108824968612723e-05 -0.014961268963047742 0 -0.00014516398368760698 -0.013817038078641729 0 0.00024687056766343367 -0.013538024114003755 0 -8.1503268531220733e-05 -0.014953456451346542 0 -7.5359967269565355e-05 -0.014953081785984356 0 -6.9812939437611431e-05 -0.014957013483553553 0 -5.8863448376084994e-05 -0.014964877176097282 0 -6.9805185822582934e-05 -0.014959318177069792 0 -3.0764669163792302e-05 -0.014974084955724058 0 -6.9812939437611431e-05 -0.014957013483553553 0 -5.6554987408277484e-05 -0.014976254080605446 0 4.3948620450974506e-05 -0.014420642883931334 0 4.5795450223456374e-05 -0.014281367357169361 0 -0.00020630953699760324 -0.014438465321970736 0 -4.7937223783613573e-05 -0.01468084371275427 0 -3.966078771338818e-05 -0.014850930642318261 0 -5.0936051740397675e-06 -0.014678936796682493 0 -3.966078771338818e-05 -0.014850930642318261 0 4.3948620450974506e-05 -0.014420642883931334 0 4.5795450223456374e-05 -0.014281367357169361 0 0.00029541376470858152 -0.014403308350573499 0 0.0007243732551596246 -0.012858470318721548 0 0.0007040646520763955 -0.013107911989894855 0 0.00071927520101033328 -0.013289944193629976 0 0.00024687056766343367 -0.013538024114003755 0 0.00033108038342618493 -0.014112675232612027 0 4.5795450223456374e-05 -0.014281367357169361 0 0.00029541376470858152 -0.014403308350573499 0 0.0002992833931447519 -0.014127295771253217 0 -4.7937223783613573e-05 -0.01468084371275427 0 0.00024687056766343367 -0.013538024114003755 0 0.00055403517668349014 -0.012967255485302981 0 0.0007243732551596246 -0.012858470318721548 0 0.0007040646520763955 -0.013107911989894855 0 0.00055246079908951597 -0.013207115287347139 0 0.0007040646520763955 -0.013107911989894855 0 0.00071927520101033328 -0.013289944193629976 0 -5.0936051740397675e-06 -0.014678936796682493 0 0.00033108038342618493 -0.014112675232612027 0 0.00056092683328740371 -0.01338459904547698 0 0.00055246079908951597 -0.013207115287347139 0 0.00071927520101033328 -0.013289944193629976 0 5.961326304075646e-05 -0.014993060704007292 0 5.9050537602149076e-05 -0.014986678191057321 0 4.5955157847149125e-05 -0.014992574243038542 0 0.00033108038342618493 -0.014112675232612027 0 0.00042873125754535723 -0.014497297739783491 0 0.00032630492921876148 -0.014067476535505623 0 0.00044453256574971442 -0.013997117773753622 0 0.00044268657036726733 -0.014182222952677376 0 0.00053501500072333807 -0.013486370487916746 0 0.00054294161293189872 -0.013404630963942572 0 0.0006054417492658518 -0.013465987988183251 0 0.00049351916218324957 -0.013713678450068666 0 0.00033108038342618493 -0.014112675232612027 0 0.00049351916218324957 -0.013713678450068666 0 0.00042873125754535723 -0.014497297739783491 0 0.00042873125754535723 -0.014497297739783491 0 0.00059570898882782151 -0.014351946552642394 0 0.00053501500072333807 -0.013486370487916746 0 0.0006054417492658518 -0.013465987988183251 0 0.00054394457043827093 -0.01361414172970578 0 0.00042873125754535723 -0.014497297739783491 0 0.00017015510638903719 -0.015164558748584652 0 5.9050537602149076e-05 -0.014986678191057321 0 4.5955157847149125e-05 -0.014992574243038542 0 4.9314249333538525e-05 -0.014980188328113153 0 4.5955157847149125e-05 -0.014992574243038542 0 2.7442180311209576e-05 -0.014992895159159551 0 4.9314249333538525e-05 -0.014980188328113153 0 4.3024715338790346e-05 -0.015004723177616747 0 4.5955157847149125e-05 -0.014992574243038542 0 2.5692834356790293e-05 -0.014998810090523382 0 4.3024715338790346e-05 -0.015004723177616747 0 5.961326304075646e-05 -0.014993060704007292 0 4.5955157847149125e-05 -0.014992574243038542 0 4.5955157847149125e-05 -0.014992574243038542 0 2.5692834356790293e-05 -0.014998810090523382 0 2.7442180311209576e-05 -0.014992895159159551 0 2.7442180311209576e-05 -0.014992895159159551 0 1.0848030592139108e-08 -0.014999990139892052 0 2.2721201439959097e-08 -0.015000008551354407 0 2.5692834356790293e-05 -0.014998810090523382 0 2.7442180311209576e-05 -0.014992895159159551 0 1.0848030592139108e-08 -0.014999990139892052 0 2.5692834356790293e-05 -0.014998810090523382 0 1.0848030592139108e-08 -0.014999990139892052 0 1.0929596195084849e-05 -0.015002809982671393 0 6.9212727489152171e-08 -0.015000059253238933 0 -3.966078771338818e-05 -0.014850930642318261 0 1.0929596195084849e-05 -0.015002809982671393 0 8.8993516072155316e-09 -0.01500003241687493 0 2.3159315588921555e-05 -0.015012423620763379 0 1.0848030592139108e-08 -0.014999990139892052 0 1.0929596195084849e-05 -0.015002809982671393 0 8.8993516072155316e-09 -0.01500003241687493 0 2.5692834356790293e-05 -0.014998810090523382 0 1.0929596195084849e-05 -0.015002809982671393 0 2.3159315588921555e-05 -0.015012423620763379 0 4.3024715338790346e-05 -0.015004723177616747 0 2.5692834356790293e-05 -0.014998810090523382 0 2.3159315588921555e-05 -0.015012423620763379 0 -3.0764669163792302e-05 -0.014974084955724058 0 -3.3248800960423146e-05 -0.014988889192102711 0 -1.4083089606623169e-08 -0.014999972370738444 0 -3.0764669163792302e-05 -0.014974084955724058 0 -5.6554987408277484e-05 -0.014976254080605446 0 -3.3248800960423146e-05 -0.014988889192102711 0 -7.7869363694018179e-10 -0.014999998597282691 0 -9.4025844847966116e-07 -0.014997878276193735 0 3.7992279687578952e-10 -0.014999999624795762 0 -3.966078771338818e-05 -0.014850930642318261 0 -3.7165323759421837e-08 -0.015000105497790501 0 0.00056788639482124403 -0.0093063953591955052 0 0.0006956305092878888 -0.0093728216940133519 0 0.00062058267539998654 -0.0092561396687710767 0 0.0006956305092878888 -0.0093728216940133519 0 0.00082332187882568151 -0.0095195418547484468 0 0.00064525719802319527 -0.0095087337336546458 0 0.00056788639482124403 -0.0093063953591955052 0 0.0006956305092878888 -0.0093728216940133519 0 0.00064525719802319527 -0.0095087337336546458 0 0.00056788639482124403 -0.0093063953591955052 0 0.00064525719802319527 -0.0095087337336546458 0 0.00051682612179049529 -0.0093617580745931281 0 0.00056788639482124403 -0.0093063953591955052 0 0.00043888900650042919 -0.0092075418850443465 0 0.00051682612179049529 -0.0093617580745931281 0 0.00015215015389290605 -0.0091740978238933329 0 0.00043888900650042919 -0.0092075418850443465 0 0.00051682612179049529 -0.0093617580745931281 0 0.00037818932986632519 -0.0091158921299334967 0 0.00043888900650042919 -0.0092075418850443465 0 0.00049931485941123873 -0.0091725006294511632 0 0.00056788639482124403 -0.0093063953591955052 0 0.00043888900650042919 -0.0092075418850443465 0 0.00049931485941123873 -0.0091725006294511632 0 0.00056788639482124403 -0.0093063953591955052 0 0.00049931485941123873 -0.0091725006294511632 0 0.00062058267539998654 -0.0092561396687710767 0 0.00049931485941123873 -0.0091725006294511632 0 0.00053963177763455912 -0.0091566711341171739 0 0.00062058267539998654 -0.0092561396687710767 0 0.00047147100595157186 -0.0090116781288188206 0 0.00049931485941123873 -0.0091725006294511632 0 0.00053963177763455912 -0.0091566711341171739 0 0.00037818932986632519 -0.0091158921299334967 0 0.00047147100595157186 -0.0090116781288188206 0 0.00049931485941123873 -0.0091725006294511632 0 0.00047147100595157186 -0.0090116781288188206 0 0.00052067105285186915 -0.0089299623935022894 0 0.00053811977695948578 -0.0089675084623371641 0 0.00047147100595157186 -0.0090116781288188206 0 0.00053963177763455912 -0.0091566711341171739 0 0.00054206579756841409 -0.0091373063986028395 0 0.00047150204162645006 -0.0090261523441600624 0 0.00053789840778306988 -0.0090581096981119848 0 0.00053963177763455912 -0.0091566711341171739 0 0.00054206579756841409 -0.0091373063986028395 0 0.00060730640594288462 -0.009201112343468737 0 0.00054206579756841409 -0.0091373063986028395 0 0.00061657723633870543 -0.0091939086274594028 0 0.00060730640594288462 -0.009201112343468737 0 0.00065435561589524249 -0.0092086457075949667 0 0.00054206579756841409 -0.0091373063986028395 0 0.00061657723633870543 -0.0091939086274594028 0 0.00061657723633870543 -0.0091939086274594028 0 0.00065816198265162846 -0.0092279884620897566 0 0.00060730640594288462 -0.009201112343468737 0 0.00065435561589524249 -0.0092086457075949667 0 0.00061657723633870543 -0.0091939086274594028 0 0.00065816198265162846 -0.0092279884620897566 0 0.00065816198265162846 -0.0092279884620897566 0 0.00060730640594288462 -0.009201112343468737 0 0.00065462387531494695 -0.0092420160137509071 0 0.00053963177763455912 -0.0091566711341171739 0 0.00060730640594288462 -0.009201112343468737 0 0.00062058267539998654 -0.0092561396687710767 0 0.00060730640594288462 -0.009201112343468737 0 0.00062058267539998654 -0.0092561396687710767 0 0.00065462387531494695 -0.0092420160137509071 0 0.0006956305092878888 -0.0093728216940133519 0 0.00068949030477491078 -0.0092777384456239551 0 0.00075063505417263614 -0.0093630935421184416 0 0.0006956305092878888 -0.0093728216940133519 0 0.00062058267539998654 -0.0092561396687710767 0 0.00068949030477491078 -0.0092777384456239551 0 0.00062058267539998654 -0.0092561396687710767 0 0.00068949030477491078 -0.0092777384456239551 0 0.00065462387531494695 -0.0092420160137509071 0 0.00068949030477491078 -0.0092777384456239551 0 0.00065462387531494695 -0.0092420160137509071 0 0.00069362588286405802 -0.0092581384271370765 0 0.0006842109417078806 -0.0092523705430911131 0 0.00065816198265162846 -0.0092279884620897566 0 0.00069362588286405802 -0.0092581384271370765 0 0.00065816198265162846 -0.0092279884620897566 0 0.00065462387531494695 -0.0092420160137509071 0 0.00069362588286405802 -0.0092581384271370765 0 0.00068949030477491078 -0.0092777384456239551 0 0.00069362588286405802 -0.0092581384271370765 0 0.0007119236756509918 -0.0092605813018675678 0 0.00068949030477491078 -0.0092777384456239551 0 0.0007119236756509918 -0.0092605813018675678 0 0.00078630115366186447 -0.0093596844946950437 0 0.00070159248006626811 -0.0093030376458936512 0 0.00069362588286405802 -0.0092581384271370765 0 0.0007119236756509918 -0.0092605813018675678 0 0.0007119236756509918 -0.0092605813018675678 0 0.00078630115366186447 -0.0093596844946950437 0 0.00088043709710597753 -0.0093916203353102967 0 0.00089041057769595033 -0.0093211583948750645 0 0.0007119236756509918 -0.0092605813018675678 0 0.00088043709710597753 -0.0093916203353102967 0 0.00061759525041010495 -0.0092875547982444722 0 0.00069566564718123822 -0.0092663053155699181 0 0.00078630115366186447 -0.0093596844946950437 0 0.00088043709710597753 -0.0093916203353102967 0 0.00087520484495992069 -0.009450573363535433 0 0.00068949030477491078 -0.0092777384456239551 0 0.00078630115366186447 -0.0093596844946950437 0 0.00075063505417263614 -0.0093630935421184416 0 0.00089041057769595033 -0.0093211583948750645 0 0.00098039190427474552 -0.0093742357305065527 0 0.00095915110248141451 -0.00943580586574869 0 0.00089041057769595033 -0.0093211583948750645 0 0.00088043709710597753 -0.0093916203353102967 0 0.00095915110248141451 -0.00943580586574869 0 0.00088043709710597753 -0.0093916203353102967 0 0.00092839393171474888 -0.0095007455525221232 0 0.00087520484495992069 -0.009450573363535433 0 0.00088043709710597753 -0.0093916203353102967 0 0.00095915110248141451 -0.00943580586574869 0 0.00092839393171474888 -0.0095007455525221232 0 0.00097451414643971149 -0.0095156691686439435 0 0.00095915110248141451 -0.00943580586574869 0 0.00092839393171474888 -0.0095007455525221232 0 0.00097451414643971149 -0.0095156691686439435 0 0.00092839393171474888 -0.0095007455525221232 0 0.00094076923683908821 -0.0095878979008627348 0 0.00092839393171474888 -0.0095007455525221232 0 0.00087520484495992069 -0.009450573363535433 0 0.00090097241549001771 -0.0095148639795498372 0 0.00092839393171474888 -0.0095007455525221232 0 0.00090097241549001771 -0.0095148639795498372 0 0.00092864968874372907 -0.0095564477938646329 0 0.00092864968874372907 -0.0095564477938646329 0 0.00094076923683908821 -0.0095878979008627348 0 0.00094060864999537719 -0.0095894911124133082 0 0.00090097241549001771 -0.0095148639795498372 0 0.00092864968874372907 -0.0095564477938646329 0 0.00092131433661403971 -0.0095634495780606323 0 0.00092864968874372907 -0.0095564477938646329 0 0.00092131433661403971 -0.0095634495780606323 0 0.00094060864999537719 -0.0095894911124133082 0 0.00092839393171474888 -0.0095007455525221232 0 0.00092864968874372907 -0.0095564477938646329 0 0.00094076923683908821 -0.0095878979008627348 0 0.00078630115366186447 -0.0093596844946950437 0 0.00075063505417263614 -0.0093630935421184416 0 0.00083536475913656438 -0.0094569981383295833 0 0.0006956305092878888 -0.0093728216940133519 0 0.00075063505417263614 -0.0093630935421184416 0 0.00083536475913656438 -0.0094569981383295833 0 0.0006956305092878888 -0.0093728216940133519 0 0.00083536475913656438 -0.0094569981383295833 0 0.00082332187882568151 -0.0095195418547484468 0 0.00078630115366186447 -0.0093596844946950437 0 0.00087520484495992069 -0.009450573363535433 0 0.00083536475913656438 -0.0094569981383295833 0 0.00087520484495992069 -0.009450573363535433 0 0.00090097241549001771 -0.0095148639795498372 0 0.00083536475913656438 -0.0094569981383295833 0 0.00090097241549001771 -0.0095148639795498372 0 0.00083536475913656438 -0.0094569981383295833 0 0.0008774028516203309 -0.0095227143148010982 0 0.00083536475913656438 -0.0094569981383295833 0 0.0008774028516203309 -0.0095227143148010982 0 0.00082332187882568151 -0.0095195418547484468 0 0.00090097241549001771 -0.0095148639795498372 0 0.0008774028516203309 -0.0095227143148010982 0 0.00092131433661403971 -0.0095634495780606323 0 0.0008774028516203309 -0.0095227143148010982 0 0.00092131433661403971 -0.0095634495780606323 0 0.00091301138915919535 -0.0095913483848717191 0 0.00092131433661403971 -0.0095634495780606323 0 0.00093549973716438662 -0.0095894276289195512 0 0.00094060864999537719 -0.0095894911124133082 0 0.00092131433661403971 -0.0095634495780606323 0 0.00091301138915919535 -0.0095913483848717191 0 0.00093549973716438662 -0.0095894276289195512 0 0.0008774028516203309 -0.0095227143148010982 0 0.00091301138915919535 -0.0095913483848717191 0 0.00082332187882568151 -0.0095195418547484468 0 0.00091301138915919535 -0.0095913483848717191 0 0.00082332187882568151 -0.0095195418547484468 0 0.00087420124260420161 -0.009681155517696086 0 0.00082332187882568151 -0.0095195418547484468 0 0.00087420124260420161 -0.009681155517696086 0 0.00064525719802319527 -0.0095087337336546458 0 0.00087420124260420161 -0.009681155517696086 0 0.00088584130987392606 -0.0099266790540877125 0 0.00059974975924651799 -0.0099643638526859014 0 0.00087420124260420161 -0.009681155517696086 0 0.0009584766690240034 -0.0096365967469590474 0 0.00088584130987392606 -0.0099266790540877125 0 0.00091301138915919535 -0.0095913483848717191 0 0.00087420124260420161 -0.009681155517696086 0 0.00096474674610270896 -0.0096182171703748254 0 0.00093789491361702751 -0.010338244393053069 0 0.0010275703112952593 -0.010091272350062972 0 0.00087420124260420161 -0.009681155517696086 0 0.00096474674610270896 -0.0096182171703748254 0 0.0009584766690240034 -0.0096365967469590474 0 0.00091301138915919535 -0.0095913483848717191 0 0.00093549973716438662 -0.0095894276289195512 0 0.00096474674610270896 -0.0096182171703748254 0 0.00093549973716438662 -0.0095894276289195512 0 0.00096474674610270896 -0.0096182171703748254 0 0.00094060864999537719 -0.0095894911124133082 0 0.00088210493847809936 -0.010090756142964409 0 0.00093789491361702751 -0.010338244393053069 0 0.00050396109855704418 -0.010334579439098672 0 0.00056005089931170332 -0.010222206528266083 0 0.000655440812204031 -0.010259645014658052 0 0.00088210493847809936 -0.010090756142964409 0 0.0005771452758151943 -0.010694708266170971 0 0.0005771452758151943 -0.010694708266170971 0 0.00093789491361702751 -0.010338244393053069 0 0.0015876961933878164 -0.010114914748496059 0 0.0010520063504008701 -0.010372517219012056 0 0.0013424673215513532 -0.010762612779854019 0 0.0005771452758151943 -0.010694708266170971 0 0.00071044225768025803 -0.012060056709041089 0 0.0016299553059983458 -0.010132392259067065 0 0.0015876961933878164 -0.010114914748496059 0 0.0013424673215513532 -0.010762612779854019 0 2.6505299455994992e-05 -0.012915909126697737 0 3.936866311612136e-05 -0.012979925807395671 0 4.5839373337981101e-05 -0.013023933172635784 0 0.00098413901381581848 -0.0096584180474606901 0 0.00094076923683908821 -0.0095878979008627348 0 0.00087626115432478269 -0.0097321289591571439 0 0.00056512287072755466 -0.011305055223834322 0 0.00045127413165200786 -0.011351172672074724 0 0.00074046505964697089 -0.0096931790624740811 0 0.0007323489737033048 -0.0097103644746494803 0 0.00087626115432478269 -0.0097321289591571439 0 0.00094076923683908821 -0.0095878979008627348 0 0.00094056151674078072 -0.0095903325794059104 0 0.00094060864999537719 -0.0095894911124133082 0 2.6505299455994992e-05 -0.012915909126697737 0 6.5417300501651503e-05 -0.012916130733277603 0 5.0035772387655094e-05 -0.012946288072288679 0 0.00094076923683908821 -0.0095878979008627348 0 0.00074046505964697089 -0.0096931790624740811 0 0.00087626115432478269 -0.0097321289591571439 0 0.00094782340818961642 -0.0094507466036259091 0 0.00088210493847809936 -0.010090756142964409 0 0.0005771452758151943 -0.010694708266170971 0 0.00045127413165200786 -0.011351172672074724 0 0.00088210493847809936 -0.010090756142964409 0 0.0009671587050929715 -0.0098493684205891354 0 5.0035772387655094e-05 -0.012946288072288679 0 3.936866311612136e-05 -0.012979925807395671 0 6.2951118418050743e-05 -0.012968220913264678 0 2.6505299455994992e-05 -0.012915909126697737 0 5.0035772387655094e-05 -0.012946288072288679 0 3.936866311612136e-05 -0.012979925807395671 0 0.00012390373205181811 -0.012892592403753435 0 6.5417300501651503e-05 -0.012916130733277603 0 6.2951118418050743e-05 -0.012968220913264678 0 6.5417300501651503e-05 -0.012916130733277603 0 5.0035772387655094e-05 -0.012946288072288679 0 6.2951118418050743e-05 -0.012968220913264678 0 0.00012166594744849223 -0.012981734410336919 0 6.2951118418050743e-05 -0.012968220913264678 0 6.6967862923966452e-05 -0.0130422785741408 0 6.2951118418050743e-05 -0.012968220913264678 0 3.0065775042948627e-05 -0.013029513726302835 0 6.6967862923966452e-05 -0.0130422785741408 0 3.936866311612136e-05 -0.012979925807395671 0 3.1322789965924648e-05 -0.013017626191351741 0 3.0065775042948627e-05 -0.013029513726302835 0 3.936866311612136e-05 -0.012979925807395671 0 6.2951118418050743e-05 -0.012968220913264678 0 3.0065775042948627e-05 -0.013029513726302835 0 3.0065775042948627e-05 -0.013029513726302835 0 2.4725798971212149e-05 -0.013019358065625788 0 1.454481883386463e-05 -0.013077120172171282 0 3.1322789965924648e-05 -0.013017626191351741 0 3.0065775042948627e-05 -0.013029513726302835 0 2.4725798971212149e-05 -0.013019358065625788 0 3.0065775042948627e-05 -0.013029513726302835 0 6.6967862923966452e-05 -0.0130422785741408 0 1.454481883386463e-05 -0.013077120172171282 0 6.6967862923966452e-05 -0.0130422785741408 0 1.454481883386463e-05 -0.013077120172171282 0 8.2765233608548045e-05 -0.013145064759093307 0 0.0013424673215513532 -0.010762612779854019 0 0.00098569977102858151 -0.011509366478205219 0 0.00087522468955762483 -0.010834261875368761 0 0.0010520063504008701 -0.010372517219012056 0 0.0013424673215513532 -0.010762612779854019 0 0.00087522468955762483 -0.010834261875368761 0 3.1322789965924648e-05 -0.013017626191351741 0 4.5839373337981101e-05 -0.013023933172635784 0 2.4725798971212149e-05 -0.013019358065625788 0 3.936866311612136e-05 -0.012979925807395671 0 3.1322789965924648e-05 -0.013017626191351741 0 4.5839373337981101e-05 -0.013023933172635784 0 4.5839373337981101e-05 -0.013023933172635784 0 2.4725798971212149e-05 -0.013019358065625788 0 0.00020050919030769148 -0.012999915228472643 0 0.00071044225768025803 -0.012060056709041089 0 0.00058962851415078155 -0.012207283783944024 0 0.00098569977102858151 -0.011509366478205219 0 0.00038680424769515852 -0.011302575164918803 0 0.00057690555365957983 -0.010981805395358096 0 0.00098569977102858151 -0.011509366478205219 0 0.00087522468955762483 -0.010834261875368761 0 0.00057690555365957983 -0.010981805395358096 0 0.00038680424769515852 -0.011302575164918803 0 -2.0953714369157129e-05 -0.011246099601019728 0 0.00019271220804557363 -0.011777663118037471 0 0.00038680424769515852 -0.011302575164918803 0 0.0003126486597255665 -0.010904631856524074 0 -2.0953714369157129e-05 -0.011246099601019728 0 0.0003126486597255665 -0.010904631856524074 0 0.00020632501770669593 -0.010299205650126984 0 -2.0953714369157129e-05 -0.011246099601019728 0 0.0003126486597255665 -0.010904631856524074 0 0.00037327543978823405 -0.010594258805306849 0 0.00020632501770669593 -0.010299205650126984 0 0.00038680424769515852 -0.011302575164918803 0 0.0003126486597255665 -0.010904631856524074 0 0.00057690555365957983 -0.010981805395358096 0 0.0003126486597255665 -0.010904631856524074 0 0.00037327543978823405 -0.010594258805306849 0 0.00057690555365957983 -0.010981805395358096 0 0.00037327543978823405 -0.010594258805306849 0 0.00087522468955762483 -0.010834261875368761 0 0.00057690555365957983 -0.010981805395358096 0 0.0010275703112952593 -0.010091272350062972 0 0.00033869763053412545 -0.010597558591063351 0 0.0010520063504008701 -0.010372517219012056 0 0.00037327543978823405 -0.010594258805306849 0 0.00087522468955762483 -0.010834261875368761 0 0.00088584130987392606 -0.0099266790540877125 0 0.00037327543978823405 -0.010594258805306849 0 0.00059974975924651799 -0.0099643638526859014 0 0.00037327543978823405 -0.010594258805306849 0 0.00059974975924651799 -0.0099643638526859014 0 0.00020632501770669593 -0.010299205650126984 0 0.0004830828848604189 -0.010001822579365131 0 0.0006365865542957925 -0.0095396996601112508 0 0.00059974975924651799 -0.0099643638526859014 0 0.00020632501770669593 -0.010299205650126984 0 0.00064525719802319527 -0.0095087337336546458 0 0.0007362228973210467 -0.0096780914691766105 0 0.00064525719802319527 -0.0095087337336546458 0 0.00058019227482017822 -0.0095532942483250016 0 0.00064525719802319527 -0.0095087337336546458 0 0.00051682612179049529 -0.0093617580745931281 0 0.00058019227482017822 -0.0095532942483250016 0 0.00087420124260420161 -0.009681155517696086 0 0.00059974975924651799 -0.0099643638526859014 0 0.00064525719802319527 -0.0095087337336546458 0 0.00015215015389290605 -0.0091740978238933329 0 0.00012195674584333601 -0.0095420448802649334 0 0.00051682612179049529 -0.0093617580745931281 0 0.00012195674584333601 -0.0095420448802649334 0 0.00051682612179049529 -0.0093617580745931281 0 0.00040058806913572862 -0.0096576670870194854 0 0.00051682612179049529 -0.0093617580745931281 0 0.00058019227482017822 -0.0095532942483250016 0 0.00040058806913572862 -0.0096576670870194854 0 0.00058019227482017822 -0.0095532942483250016 0 0.00055484600044027532 -0.0098285885795501033 0 0.00040058806913572862 -0.0096576670870194854 0 0.0007362228973210467 -0.0096780914691766105 0 0.00058019227482017822 -0.0095532942483250016 0 0.00055484600044027532 -0.0098285885795501033 0 0.00012195674584333601 -0.0095420448802649334 0 0.00040058806913572862 -0.0096576670870194854 0 0.00026981448108150515 -0.009988382572259806 0 0.00055484600044027532 -0.0098285885795501033 0 0.00040058806913572862 -0.0096576670870194854 0 0.00026981448108150515 -0.009988382572259806 0 -0.00014147228343256178 -0.010001298678421979 0 0.00026981448108150515 -0.009988382572259806 0 3.798138732435478e-05 -0.010611160995673342 0 0.0004830828848604189 -0.010001822579365131 0 0.00033410089158276485 -0.010801478744550478 0 0.00055484600044027532 -0.0098285885795501033 0 0.00026981448108150515 -0.009988382572259806 0 0.00071406680468567233 -0.01036213303114436 0 0.0007362228973210467 -0.0096780914691766105 0 0.00055484600044027532 -0.0098285885795501033 0 0.00071406680468567233 -0.01036213303114436 0 0.00033410089158276485 -0.010801478744550478 0 0.00010682979655744464 -0.011477394058747791 0 0.00071406680468567233 -0.01036213303114436 0 3.798138732435478e-05 -0.010611160995673342 0 9.6865700372150929e-05 -0.011529432881567927 0 0.00026981448108150515 -0.009988382572259806 0 0.00071406680468567233 -0.01036213303114436 0 3.798138732435478e-05 -0.010611160995673342 0 9.6865700372150929e-05 -0.011529432881567927 0 -0.000235577803312026 -0.011194864260387743 0 -0.00015270859202214419 -0.011718006449333292 0 3.798138732435478e-05 -0.010611160995673342 0 9.6865700372150929e-05 -0.011529432881567927 0 -0.000235577803312026 -0.011194864260387743 0 -2.0953714369157129e-05 -0.011246099601019728 0 9.6865700372150929e-05 -0.011529432881567927 0 0.00019271220804557363 -0.011777663118037471 0 9.6865700372150929e-05 -0.011529432881567927 0 0.00016477618423259565 -0.012121389578037116 0 0.00019271220804557363 -0.011777663118037471 0 9.6865700372150929e-05 -0.011529432881567927 0 0.00016477618423259565 -0.012121389578037116 0 -0.00015270859202214419 -0.011718006449333292 0 -0.00015839099719514488 -0.012091741370337469 0 0.00016477618423259565 -0.012121389578037116 0 -0.00015270859202214419 -0.011718006449333292 0 -0.00015839099719514488 -0.012091741370337469 0 0.00016477618423259565 -0.012121389578037116 0 -2.390952626651664e-05 -0.012409174387701519 0 0.00016477618423259565 -0.012121389578037116 0 0.00018418532022115904 -0.012415037916557556 0 -2.390952626651664e-05 -0.012409174387701519 0 0.00018418532022115904 -0.012415037916557556 0 -2.390952626651664e-05 -0.012409174387701519 0 0.00023831783084817286 -0.012578505271529303 0 -0.00015839099719514488 -0.012091741370337469 0 -2.390952626651664e-05 -0.012409174387701519 0 -0.00024794561431827557 -0.012287806351914494 0 -2.390952626651664e-05 -0.012409174387701519 0 -0.00030066252439686018 -0.012450834951545194 0 -0.00025040517619102931 -0.012576224104883092 0 -2.390952626651664e-05 -0.012409174387701519 0 -0.00030066252439686018 -0.012450834951545194 0 -0.00024794561431827557 -0.012287806351914494 0 0.00031853146102400705 -0.012481842124480348 0 0.00015554159340189366 -0.012674192858603384 0 0.0002601221049104795 -0.012528986309796356 0 0.00018418532022115904 -0.012415037916557556 0 0.00031853146102400705 -0.012481842124480348 0 0.00023831783084817286 -0.012578505271529303 0 0.00016477618423259565 -0.012121389578037116 0 0.00031853146102400705 -0.012481842124480348 0 0.00044897955703509168 -0.012409777046623193 0 0.00016477618423259565 -0.012121389578037116 0 0.00018418532022115904 -0.012415037916557556 0 0.00031853146102400705 -0.012481842124480348 0 0.00031853146102400705 -0.012481842124480348 0 0.00044897955703509168 -0.012409777046623193 0 0.00015554159340189366 -0.012674192858603384 0 0.00098569977102858151 -0.011509366478205219 0 0.00038680424769515852 -0.011302575164918803 0 0.00019271220804557363 -0.011777663118037471 0 0.00098569977102858151 -0.011509366478205219 0 0.00044897955703509168 -0.012409777046623193 0 0.00019271220804557363 -0.011777663118037471 0 0.00016477618423259565 -0.012121389578037116 0 0.00044897955703509168 -0.012409777046623193 0 0.00019271220804557363 -0.011777663118037471 0 0.00058962851415078155 -0.012207283783944024 0 0.00045976371184596279 -0.012423077935676726 0 0.00044897955703509168 -0.012409777046623193 0 3.2377350425512574e-05 -0.012910678060320953 0 6.276050952551499e-05 -0.01281725341023974 0 0.00020050919030769148 -0.012999915228472643 0 0.00044897955703509168 -0.012409777046623193 0 3.2377350425512574e-05 -0.012910678060320953 0 2.4725798971212149e-05 -0.013019358065625788 0 0.00020050919030769148 -0.012999915228472643 0 3.2377350425512574e-05 -0.012910678060320953 0 2.4725798971212149e-05 -0.013019358065625788 0 3.2377350425512574e-05 -0.012910678060320953 0 -1.9266709929283086e-05 -0.013045585536748384 0 3.2377350425512574e-05 -0.012910678060320953 0 -6.5189521383928058e-05 -0.013057991303709928 0 6.276050952551499e-05 -0.01281725341023974 0 1.454481883386463e-05 -0.013077120172171282 0 -1.9266709929283086e-05 -0.013045585536748384 0 1.3727805078162135e-05 -0.013198318263837742 0 1.454481883386463e-05 -0.013077120172171282 0 1.3727805078162135e-05 -0.013198318263837742 0 8.2765233608548045e-05 -0.013145064759093307 0 2.4725798971212149e-05 -0.013019358065625788 0 1.454481883386463e-05 -0.013077120172171282 0 -1.9266709929283086e-05 -0.013045585536748384 0 3.2377350425512574e-05 -0.012910678060320953 0 -1.9266709929283086e-05 -0.013045585536748384 0 -6.5189521383928058e-05 -0.013057991303709928 0 -1.9266709929283086e-05 -0.013045585536748384 0 1.3727805078162135e-05 -0.013198318263837742 0 -6.5189521383928058e-05 -0.013057991303709928 0 1.3727805078162135e-05 -0.013198318263837742 0 -6.5189521383928058e-05 -0.013057991303709928 0 -2.7120195372355676e-06 -0.013340566096867327 0 -6.5189521383928058e-05 -0.013057991303709928 0 -0.00013766437503000799 -0.013008103479446489 0 6.276050952551499e-05 -0.01281725341023974 0 -6.5189521383928058e-05 -0.013057991303709928 0 -0.00013766437503000799 -0.013008103479446489 0 -2.7120195372355676e-06 -0.013340566096867327 0 -0.00013766437503000799 -0.013008103479446489 0 -2.7120195372355676e-06 -0.013340566096867327 0 -7.7941882701111672e-05 -0.013785825697045204 0 0.00044897955703509168 -0.012409777046623193 0 6.276050952551499e-05 -0.01281725341023974 0 0.00015554159340189366 -0.012674192858603384 0 -0.00013766437503000799 -0.013008103479446489 0 6.276050952551499e-05 -0.01281725341023974 0 0.00015554159340189366 -0.012674192858603384 0 -0.00013766437503000799 -0.013008103479446489 0 0.00015554159340189366 -0.012674192858603384 0 -9.9370306151793741e-05 -0.012640297532854151 0 -9.9370306151793741e-05 -0.012640297532854151 0 -0.00047965606611626645 -0.012760504132239061 0 -0.00082689502720861494 -0.012220789485758689 0 -0.00012841549646996371 -0.012588237931490463 0 -0.0003070034948829684 -0.012393017788464711 0 0.00015554159340189366 -0.012674192858603384 0 -9.9370306151793741e-05 -0.012640297532854151 0 0.0002601221049104795 -0.012528986309796356 0 -9.9370306151793741e-05 -0.012640297532854151 0 -0.00022931534294384515 -0.012902349145222742 0 -0.00011697255009209819 -0.012793826346435121 0 -0.00022931534294384515 -0.012902349145222742 0 -0.00047965606611626645 -0.012760504132239061 0 -0.00042894444261917341 -0.013101323611679127 0 -9.9370306151793741e-05 -0.012640297532854151 0 -0.00022931534294384515 -0.012902349145222742 0 -0.00047965606611626645 -0.012760504132239061 0 -0.00047965606611626645 -0.012760504132239061 0 -0.000689867803447338 -0.013068324356312036 0 -0.00084339427467083536 -0.012761071296019437 0 -0.00047965606611626645 -0.012760504132239061 0 -0.00082689502720861494 -0.012220789485758689 0 -0.00084339427467083536 -0.012761071296019437 0 -0.00013766437503000799 -0.013008103479446489 0 -9.9370306151793741e-05 -0.012640297532854151 0 -0.00011697255009209819 -0.012793826346435121 0 -0.00012462399364297444 -0.013062876559453953 0 -3.605420855001606e-05 -0.013312127520221708 0 -0.00013766437503000799 -0.013008103479446489 0 -3.19580302830425e-05 -0.012819760560489522 0 -0.00011697255009209819 -0.012793826346435121 0 -0.00022931534294384515 -0.012902349145222742 0 -0.00011697255009209819 -0.012793826346435121 0 -8.5864518076815961e-05 -0.013162008793132925 0 -3.19580302830425e-05 -0.012819760560489522 0 -0.00011697255009209819 -0.012793826346435121 0 -8.5864518076815961e-05 -0.013162008793132925 0 -3.19580302830425e-05 -0.012819760560489522 0 -8.5864518076815961e-05 -0.013162008793132925 0 0.00022061284962693209 -0.013178519463611132 0 -3.605420855001606e-05 -0.013312127520221708 0 0.00016974466929298984 -0.013667954180793153 0 -8.5864518076815961e-05 -0.013162008793132925 0 -7.6691589562405638e-05 -0.013467489645166223 0 8.7772410116389172e-05 -0.013534007477195922 0 -8.5864518076815961e-05 -0.013162008793132925 0 8.7772410116389172e-05 -0.013534007477195922 0 0.00022061284962693209 -0.013178519463611132 0 -0.00022931534294384515 -0.012902349145222742 0 -8.5864518076815961e-05 -0.013162008793132925 0 -0.00024844123616542827 -0.013179901244182571 0 -8.5864518076815961e-05 -0.013162008793132925 0 -0.00023862764214732773 -0.01344164719248055 0 -0.00024844123616542827 -0.013179901244182571 0 -8.5864518076815961e-05 -0.013162008793132925 0 -0.00023862764214732773 -0.01344164719248055 0 -7.6691589562405638e-05 -0.013467489645166223 0 -0.00023862764214732773 -0.01344164719248055 0 -0.00031062029388740151 -0.013654552087604042 0 -7.4444293567658715e-05 -0.013719028352071864 0 -0.00023862764214732773 -0.01344164719248055 0 -7.6691589562405638e-05 -0.013467489645166223 0 -7.4444293567658715e-05 -0.013719028352071864 0 -7.6691589562405638e-05 -0.013467489645166223 0 8.7772410116389172e-05 -0.013534007477195922 0 -7.4444293567658715e-05 -0.013719028352071864 0 -0.00047965606611626645 -0.012760504132239061 0 -0.000689867803447338 -0.013068324356312036 0 -0.00042894444261917341 -0.013101323611679127 0 -0.000689867803447338 -0.013068324356312036 0 -0.00042894444261917341 -0.013101323611679127 0 -0.00059288592733057846 -0.013348620336472616 0 -0.00022931534294384515 -0.012902349145222742 0 -0.00042894444261917341 -0.013101323611679127 0 -0.00024844123616542827 -0.013179901244182571 0 -0.00042894444261917341 -0.013101323611679127 0 -0.00024844123616542827 -0.013179901244182571 0 -0.00039038047350704592 -0.013390414541972265 0 -0.00042894444261917341 -0.013101323611679127 0 -0.00039038047350704592 -0.013390414541972265 0 -0.00059288592733057846 -0.013348620336472616 0 -0.00023862764214732773 -0.01344164719248055 0 -0.00024844123616542827 -0.013179901244182571 0 -0.00039038047350704592 -0.013390414541972265 0 -0.00023862764214732773 -0.01344164719248055 0 -0.00039038047350704592 -0.013390414541972265 0 -0.00031062029388740151 -0.013654552087604042 0 -0.00039038047350704592 -0.013390414541972265 0 -0.0005129466792838603 -0.013549831478298375 0 -0.00059288592733057846 -0.013348620336472616 0 -0.00039038047350704592 -0.013390414541972265 0 -0.0005129466792838603 -0.013549831478298375 0 -0.00031062029388740151 -0.013654552087604042 0 -0.0005129466792838603 -0.013549831478298375 0 -0.00059288592733057846 -0.013348620336472616 0 -0.00071069679707421016 -0.013600450624510837 0 -0.000689867803447338 -0.013068324356312036 0 -0.00059288592733057846 -0.013348620336472616 0 -0.00084400785714911462 -0.01332377643804823 0 -0.00059288592733057846 -0.013348620336472616 0 -0.00084400785714911462 -0.01332377643804823 0 -0.00071069679707421016 -0.013600450624510837 0 -0.00098066666391564061 -0.013517277023474453 0 -0.00084400785714911462 -0.01332377643804823 0 -0.00071069679707421016 -0.013600450624510837 0 -0.00098066666391564061 -0.013517277023474453 0 -0.0010866423175162597 -0.013316234551459624 0 -0.0012652528347754802 -0.013573170776086042 0 -0.00098066666391564061 -0.013517277023474453 0 -0.0010866423175162597 -0.013316234551459624 0 -0.00084400785714911462 -0.01332377643804823 0 -0.0010866423175162597 -0.013316234551459624 0 -0.00084400785714911462 -0.01332377643804823 0 -0.0010031199442219144 -0.013065773173887811 0 -0.0010031199442219144 -0.013065773173887811 0 -0.0013579669579123644 -0.013070648625796181 0 -0.0012086930602908509 -0.012594848718204477 0 -0.000689867803447338 -0.013068324356312036 0 -0.00084400785714911462 -0.01332377643804823 0 -0.0010031199442219144 -0.013065773173887811 0 -0.0010866423175162597 -0.013316234551459624 0 -0.0010031199442219144 -0.013065773173887811 0 -0.0013579669579123644 -0.013070648625796181 0 -0.0010031199442219144 -0.013065773173887811 0 -0.00084339427467083536 -0.012761071296019437 0 -0.0012086930602908509 -0.012594848718204477 0 -0.000689867803447338 -0.013068324356312036 0 -0.0010031199442219144 -0.013065773173887811 0 -0.00084339427467083536 -0.012761071296019437 0 -0.0013579669579123644 -0.013070648625796181 0 -0.0012086930602908509 -0.012594848718204477 0 -0.0016416975066320791 -0.012553872653121252 0 -0.0013579669579123644 -0.013070648625796181 0 -0.0018311556490447829 -0.012736303980638471 0 -0.0016416975066320791 -0.012553872653121252 0 -0.0013579669579123644 -0.013070648625796181 0 -0.0017027927321624234 -0.01302940631648707 0 -0.0014692992060021275 -0.01335037227628645 0 -0.0013579669579123644 -0.013070648625796181 0 -0.0017027927321624234 -0.01302940631648707 0 -0.0018311556490447829 -0.012736303980638471 0 -0.0017027927321624234 -0.01302940631648707 0 -0.0015259597959216247 -0.013568549344137794 0 -0.0020390347660428822 -0.012896921775647358 0 -0.0017027927321624234 -0.01302940631648707 0 -0.0014692992060021275 -0.01335037227628645 0 -0.0015259597959216247 -0.013568549344137794 0 -0.0013343409659042622 -0.013216530404101385 0 -0.0014362474089385418 -0.013390066170028123 0 -0.0018854572486046817 -0.013121203031879193 0 -0.001866708855442485 -0.013108137657156118 0 -0.0013579669579123644 -0.013070648625796181 0 -0.0014692992060021275 -0.01335037227628645 0 -0.0013032551350750919 -0.013717362980935489 0 -0.0010866423175162597 -0.013316234551459624 0 -0.0013579669579123644 -0.013070648625796181 0 -0.0012652528347754802 -0.013573170776086042 0 -0.0014692992060021275 -0.01335037227628645 0 -0.0013032551350750919 -0.013717362980935489 0 -0.0015259597959216247 -0.013568549344137794 0 -0.0016163886531560478 -0.01321570913490824 0 -0.0017754193373897015 -0.013104856049814758 0 -0.0016089410159827026 -0.013295286176894322 0 -0.0014362474089385418 -0.013390066170028123 0 -0.0018854572486046817 -0.013121203031879193 0 -0.002753197444383917 -0.012525475511140643 0 -0.0027533713314520699 -0.012502977140483528 0 -0.0027775182956225873 -0.01250217035476036 0 -0.0018854572486046817 -0.013121203031879193 0 -0.0016498407524605117 -0.013004407580641896 0 -0.002753197444383917 -0.012525475511140643 0 -0.0027322200009697022 -0.012514344252796192 0 -0.0027533713314520699 -0.012502977140483528 0 -0.002753197444383917 -0.012525475511140643 0 -0.0027322200009697022 -0.012514344252796192 0 -0.0027066760179648855 -0.012525978541263999 0 -0.0027322200009697022 -0.012514344252796192 0 -0.0027158433068628926 -0.012515386612572496 0 -0.002733301650359796 -0.012495805871324603 0 -0.0015413132575941872 -0.013488869033309417 0 -0.0020390347660428822 -0.012896921775647358 0 -0.0021622635611662686 -0.013054345894577832 0 -0.002753197444383917 -0.012525475511140643 0 -0.0027066760179648855 -0.012525978541263999 0 -0.0026859170974615249 -0.012532891876042375 0 -0.0018854572486046817 -0.013121203031879193 0 -0.0024728009865092526 -0.0127338365938587 0 -0.0027322200009697022 -0.012514344252796192 0 -0.0027158433068628926 -0.012515386612572496 0 -0.0027066760179648855 -0.012525978541263999 0 -0.0027158433068628926 -0.012515386612572496 0 -0.0027066760179648855 -0.012525978541263999 0 -0.0027166404781186638 -0.01252694773139418 0 -0.0027158433068628926 -0.012515386612572496 0 -0.0027166404781186638 -0.01252694773139418 0 -0.0027060302800965613 -0.012504902537051638 0 -0.0027090149095292883 -0.01253058416726084 0 -0.0027066760179648855 -0.012525978541263999 0 -0.0027166404781186638 -0.01252694773139418 0 -0.0027090149095292883 -0.01253058416726084 0 -0.0027066760179648855 -0.012525978541263999 0 -0.0026859170974615249 -0.012532891876042375 0 -0.0027166404781186638 -0.01252694773139418 0 -0.0027354877231572116 -0.012528056686689217 0 -0.0027060302800965613 -0.012504902537051638 0 -0.0027166404781186638 -0.01252694773139418 0 -0.0027354877231572116 -0.012528056686689217 0 -0.0027494124252341245 -0.012521209663091218 0 -0.0027090149095292883 -0.01253058416726084 0 -0.0027166404781186638 -0.01252694773139418 0 -0.0027494124252341245 -0.012521209663091218 0 -0.0027438986507249468 -0.012408078501214628 0 -0.0024728009865092526 -0.0127338365938587 0 -0.0028573485168746481 -0.011370289103803877 0 -0.0029582352625604027 -0.010882140554690913 0 -0.0024103665315684474 -0.012606305064243361 0 -0.002784368977491404 -0.012320586035671061 0 -0.0021622635611662686 -0.013054345894577832 0 -0.0027494124252341245 -0.012521209663091218 0 -0.002784368977491404 -0.012320586035671061 0 -0.0026859170974615249 -0.012532891876042375 0 -0.0030127200510477016 -0.010561109355271537 0 -0.0030385700995433375 -0.011115193548845428 0 -0.0029142066113601308 -0.01118504513181213 0 -0.0027494124252341245 -0.012521209663091218 0 -0.0028506059706955096 -0.01250138061893904 0 -0.002784368977491404 -0.012320586035671061 0 -0.0028573485168746481 -0.011370289103803877 0 -0.0029125363813970518 -0.011799066124850257 0 -0.0027354877231572116 -0.012528056686689217 0 -0.0027494124252341245 -0.012521209663091218 0 -0.0028506059706955096 -0.01250138061893904 0 -0.0024103665315684474 -0.012606305064243361 0 -0.002784368977491404 -0.012320586035671061 0 -0.0025012901903643252 -0.012233227365163435 0 -0.0024103665315684474 -0.012606305064243361 0 -0.0023035406368840934 -0.012436006386865242 0 -0.0025012901903643252 -0.012233227365163435 0 -0.0028506059706955096 -0.01250138061893904 0 -0.002784368977491404 -0.012320586035671061 0 -0.0028320052981265732 -0.011805080681602414 0 -0.0030385700995433375 -0.011115193548845428 0 -0.0028320052981265732 -0.011805080681602414 0 -0.0029142066113601308 -0.01118504513181213 0 -0.0017027927321624234 -0.01302940631648707 0 -0.0020390347660428822 -0.012896921775647358 0 -0.0018311556490447829 -0.012736303980638471 0 -0.0027090149095292883 -0.01253058416726084 0 -0.0027494124252341245 -0.012521209663091218 0 -0.0026859170974615249 -0.012532891876042375 0 -0.0024103665315684474 -0.012606305064243361 0 -0.0021622635611662686 -0.013054345894577832 0 -0.0021927689279224389 -0.012787783045754043 0 -0.0020390347660428822 -0.012896921775647358 0 -0.0021622635611662686 -0.013054345894577832 0 -0.0021927689279224389 -0.012787783045754043 0 -0.0023035406368840934 -0.012436006386865242 0 -0.0021606581495795434 -0.012601031795526421 0 -0.0021539903269703889 -0.012316335770550892 0 -0.0020390347660428822 -0.012896921775647358 0 -0.0021927689279224389 -0.012787783045754043 0 -0.0021606581495795434 -0.012601031795526421 0 -0.0024103665315684474 -0.012606305064243361 0 -0.0021927689279224389 -0.012787783045754043 0 -0.0021606581495795434 -0.012601031795526421 0 -0.0024103665315684474 -0.012606305064243361 0 -0.0023035406368840934 -0.012436006386865242 0 -0.0021606581495795434 -0.012601031795526421 0 -0.0021606581495795434 -0.012601031795526421 0 -0.0018311556490447829 -0.012736303980638471 0 -0.0021539903269703889 -0.012316335770550892 0 -0.0020390347660428822 -0.012896921775647358 0 -0.0021606581495795434 -0.012601031795526421 0 -0.0018311556490447829 -0.012736303980638471 0 -0.0021539903269703889 -0.012316335770550892 0 -0.0024019973954605522 -0.012017645768980782 0 -0.0016774107310377495 -0.011895595733395466 0 -0.0021539903269703889 -0.012316335770550892 0 -0.0016774107310377495 -0.011895595733395466 0 -0.0016416975066320791 -0.012553872653121252 0 -0.0018311556490447829 -0.012736303980638471 0 -0.0021539903269703889 -0.012316335770550892 0 -0.0016416975066320791 -0.012553872653121252 0 -0.0023035406368840934 -0.012436006386865242 0 -0.0021539903269703889 -0.012316335770550892 0 -0.0025012901903643252 -0.012233227365163435 0 -0.0021539903269703889 -0.012316335770550892 0 -0.0024019973954605522 -0.012017645768980782 0 -0.0025012901903643252 -0.012233227365163435 0 -0.002784368977491404 -0.012320586035671061 0 -0.0025012901903643252 -0.012233227365163435 0 -0.0028320052981265732 -0.011805080681602414 0 -0.0029125363813970518 -0.011799066124850257 0 -0.0028719506888312931 -0.011779186997650981 0 -0.0028320052981265732 -0.011805080681602414 0 -0.0027941861064311752 -0.011447290790423163 0 -0.0029142066113601308 -0.01118504513181213 0 -0.0024019973954605522 -0.012017645768980782 0 -0.0025012901903643252 -0.012233227365163435 0 -0.0028320052981265732 -0.011805080681602414 0 -0.0024019973954605522 -0.012017645768980782 0 -0.0028320052981265732 -0.011805080681602414 0 -0.0027148211410164876 -0.01173119827134763 0 -2.390952626651664e-05 -0.012409174387701519 0 -9.2873361973252699e-05 -0.012657404167823049 0 -0.00025040517619102931 -0.012576224104883092 0 -0.0024019973954605522 -0.012017645768980782 0 -0.0027148211410164876 -0.01173119827134763 0 -0.0016774107310377495 -0.011895595733395466 0 -2.390952626651664e-05 -0.012409174387701519 0 -9.2873361973252699e-05 -0.012657404167823049 0 0.00023831783084817286 -0.012578505271529303 0 -0.0014112526684415237 -0.012261846015893505 0 -0.0007435656018422997 -0.01223626336461118 0 -0.0016774107310377495 -0.011895595733395466 0 -0.00082689502720861494 -0.012220789485758689 0 -0.0012086930602908509 -0.012594848718204477 0 0.00031853146102400705 -0.012481842124480348 0 0.00023831783084817286 -0.012578505271529303 0 0.0002601221049104795 -0.012528986309796356 0 -0.0007435656018422997 -0.01223626336461118 0 -0.0003070034948829684 -0.012393017788464711 0 -0.00082689502720861494 -0.012220789485758689 0 -0.00084339427467083536 -0.012761071296019437 0 -0.0012086930602908509 -0.012594848718204477 0 -0.0016774107310377495 -0.011895595733395466 0 -0.0012086930602908509 -0.012594848718204477 0 -0.0016416975066320791 -0.012553872653121252 0 1.095358657711054e-07 -0.014999924186132522 0 0.00011087473103061438 -0.014809197034108436 0 0.00010729171194593683 -0.014807826004430117 0 0.00011087473103061438 -0.014809197034108436 0 0.00010729171194593683 -0.014807826004430117 0 0.00024120240422703209 -0.014625790735185358 0 0.00010729171194593683 -0.014807826004430117 0 5.3028445844323565e-05 -0.014951748207234048 0 0.00026666288089484494 -0.014759618848093691 0 0.00010729171194593683 -0.014807826004430117 0 -1.1955247254696629e-08 -0.014999823899860506 0 5.3028445844323565e-05 -0.014951748207234048 0 1.095358657711054e-07 -0.014999924186132522 0 0.00010729171194593683 -0.014807826004430117 0 -1.1955247254696629e-08 -0.014999823899860506 0 -1.1955247254696629e-08 -0.014999823899860506 0 2.2721201439959097e-08 -0.015000008551354407 0 5.3028445844323565e-05 -0.014951748207234048 0 2.7442180311209576e-05 -0.014992895159159551 0 2.2721201439959097e-08 -0.015000008551354407 0 5.3028445844323565e-05 -0.014951748207234048 0 4.1860609345591321e-05 -0.014919201382410773 0 0.00017015510638903719 -0.015164558748584652 0 2.7442180311209576e-05 -0.014992895159159551 0 5.3028445844323565e-05 -0.014951748207234048 0 4.9314249333538525e-05 -0.014980188328113153 0 5.3028445844323565e-05 -0.014951748207234048 0 0.00026666288089484494 -0.014759618848093691 0 0.00026647353668913111 -0.014958661828610787 0 0.00026666288089484494 -0.014759618848093691 0 0.00026647353668913111 -0.014958661828610787 0 0.00054140981993977511 -0.014999198969423741 0 5.3028445844323565e-05 -0.014951748207234048 0 0.00026647353668913111 -0.014958661828610787 0 0.00026622752331163237 -0.015133285331657373 0 0.00026647353668913111 -0.014958661828610787 0 0.00026622752331163237 -0.015133285331657373 0 0.00054140981993977511 -0.014999198969423741 0 0.0006054417492658518 -0.013465987988183251 0 0.00062702737351685346 -0.013749791455273884 0 0.00054394457043827093 -0.01361414172970578 0 0.00051780544564093375 -0.015362629174057299 0 0.00026622752331163237 -0.015133285331657373 0 0.00054140981993977511 -0.014999198969423741 0 0.00026666288089484494 -0.014759618848093691 0 0.00054140981993977511 -0.014999198969423741 0 0.00052138372741044573 -0.014312950913486737 0 0.00059570898882782151 -0.014351946552642394 0 0.00052752887598615068 -0.014321244793392996 0 0.00062702737351685346 -0.013749791455273884 0 0.00052138372741044573 -0.014312950913486737 0 0.00050225070064608096 -0.013942883602593898 0 0.00010729171194593683 -0.014807826004430117 0 0.00026666288089484494 -0.014759618848093691 0 0.00030322123608861876 -0.014569646710955023 0 0.00026666288089484494 -0.014759618848093691 0 0.00052138372741044573 -0.014312950913486737 0 0.00030322123608861876 -0.014569646710955023 0 0.00030322123608861876 -0.014569646710955023 0 0.00041944466946188306 -0.014398599784553072 0 0.00024120240422703209 -0.014625790735185358 0 0.00010729171194593683 -0.014807826004430117 0 0.00030322123608861876 -0.014569646710955023 0 0.00024120240422703209 -0.014625790735185358 0 0.00052138372741044573 -0.014312950913486737 0 0.00030322123608861876 -0.014569646710955023 0 0.00041944466946188306 -0.014398599784553072 0 0.00052138372741044573 -0.014312950913486737 0 0.00041944466946188306 -0.014398599784553072 0 0.0004535820497999721 -0.014138931257134458 0 0.00041944466946188306 -0.014398599784553072 0 0.0004535820497999721 -0.014138931257134458 0 0.00042564428154106941 -0.014288473551448575 0 0.0004535820497999721 -0.014138931257134458 0 0.00036513782883474305 -0.014092079784518888 0 0.00042564428154106941 -0.014288473551448575 0 0.00033028971688796148 -0.013844458659770437 0 0.00025921040681947574 -0.013820566204692204 0 0.00036513782883474305 -0.014092079784518888 0 0.0004535820497999721 -0.014138931257134458 0 0.00033028971688796148 -0.013844458659770437 0 0.00036513782883474305 -0.014092079784518888 0 0.00033028971688796148 -0.013844458659770437 0 0.00047607949859608848 -0.013964935851430518 0 0.00036570359695490694 -0.013667495251668381 0 0.00033028971688796148 -0.013844458659770437 0 0.00036570359695490694 -0.013667495251668381 0 0.00025189626137281173 -0.013537385346321533 0 0.0004535820497999721 -0.014138931257134458 0 0.00033028971688796148 -0.013844458659770437 0 0.00047607949859608848 -0.013964935851430518 0 0.00052138372741044573 -0.014312950913486737 0 0.00047607949859608848 -0.013964935851430518 0 0.00050225070064608096 -0.013942883602593898 0 0.00052138372741044573 -0.014312950913486737 0 0.0004535820497999721 -0.014138931257134458 0 0.00047607949859608848 -0.013964935851430518 0 0.00047607949859608848 -0.013964935851430518 0 0.00050225070064608096 -0.013942883602593898 0 0.00044896839197764192 -0.013786825641109548 0 0.00048356960951665925 -0.013925161695953406 0 0.00049807363114697965 -0.013590799313923289 0 0.00047607949859608848 -0.013964935851430518 0 0.00055914413874628315 -0.013382659445169734 0 0.00036570359695490694 -0.013667495251668381 0 0.00062702737351685346 -0.013749791455273884 0 0.00050225070064608096 -0.013942883602593898 0 0.00044896839197764192 -0.013786825641109548 0 0.00048163639669154677 -0.013352484038770219 0 0.00049807363114697965 -0.013590799313923289 0 0.00062702737351685346 -0.013749791455273884 0 0.00044896839197764192 -0.013786825641109548 0 0.00054394457043827093 -0.01361414172970578 0 0.00049892571008871396 -0.013117484821551348 0 0.00055914413874628315 -0.013382659445169734 0 0.0003934796565671261 -0.013249424626526115 0 0.00047147163977230398 -0.013534323249725774 0 0.00044896839197764192 -0.013786825641109548 0 0.00054394457043827093 -0.01361414172970578 0 0.00032454118451135918 -0.013103471756411592 0 0.0003934796565671261 -0.013249424626526115 0 0.00025820479117574796 -0.013267197095723889 0 0.00055914413874628315 -0.013382659445169734 0 0.0003934796565671261 -0.013249424626526115 0 0.00034712045221825359 -0.013436403089044565 0 0.0003934796565671261 -0.013249424626526115 0 0.00034712045221825359 -0.013436403089044565 0 0.00025820479117574796 -0.013267197095723889 0 0.00034712045221825359 -0.013436403089044565 0 0.00025189626137281173 -0.013537385346321533 0 0.00025820479117574796 -0.013267197095723889 0 0.00055914413874628315 -0.013382659445169734 0 0.00034712045221825359 -0.013436403089044565 0 0.00036570359695490694 -0.013667495251668381 0 0.00034712045221825359 -0.013436403089044565 0 0.00036570359695490694 -0.013667495251668381 0 0.00025189626137281173 -0.013537385346321533 0 0.00025189626137281173 -0.013537385346321533 0 0.00014003001624011551 -0.013301485597583308 0 0.00025820479117574796 -0.013267197095723889 0 0.00025189626137281173 -0.013537385346321533 0 0.00014003001624011551 -0.013301485597583308 0 0.00014150165044369734 -0.013528851941322426 0 0.00018428782220861862 -0.013150467380164699 0 0.00014003001624011551 -0.013301485597583308 0 0.00025820479117574796 -0.013267197095723889 0 0.00018428782220861862 -0.013150467380164699 0 0.00014003001624011551 -0.013301485597583308 0 8.2765233608548045e-05 -0.013145064759093307 0 1.3727805078162135e-05 -0.013198318263837742 0 0.00014003001624011551 -0.013301485597583308 0 8.2765233608548045e-05 -0.013145064759093307 0 1.3727805078162135e-05 -0.013198318263837742 0 0.00014003001624011551 -0.013301485597583308 0 0.00014150165044369734 -0.013528851941322426 0 1.3727805078162135e-05 -0.013198318263837742 0 -2.7120195372355676e-06 -0.013340566096867327 0 0.00014150165044369734 -0.013528851941322426 0 0.00033028971688796148 -0.013844458659770437 0 0.00025189626137281173 -0.013537385346321533 0 0.00014150165044369734 -0.013528851941322426 0 0.00014150165044369734 -0.013528851941322426 0 0.00025921040681947574 -0.013820566204692204 0 0.0001890556794657103 -0.013834503112696487 0 0.00033028971688796148 -0.013844458659770437 0 0.00014150165044369734 -0.013528851941322426 0 0.00025921040681947574 -0.013820566204692204 0 -2.7120195372355676e-06 -0.013340566096867327 0 0.00014150165044369734 -0.013528851941322426 0 0.0001890556794657103 -0.013834503112696487 0 -2.7120195372355676e-06 -0.013340566096867327 0 -7.7941882701111672e-05 -0.013785825697045204 0 0.0001890556794657103 -0.013834503112696487 0 -7.7941882701111672e-05 -0.013785825697045204 0 0.0001890556794657103 -0.013834503112696487 0 0.00013150757193283922 -0.014171526834901147 0 0.00025921040681947574 -0.013820566204692204 0 0.0001890556794657103 -0.013834503112696487 0 0.00036513782883474305 -0.014092079784518888 0 0.0001890556794657103 -0.013834503112696487 0 0.00029341943656422103 -0.014155238078250799 0 0.00036513782883474305 -0.014092079784518888 0 0.0001890556794657103 -0.013834503112696487 0 0.00029341943656422103 -0.014155238078250799 0 0.00013150757193283922 -0.014171526834901147 0 8.7772410116389172e-05 -0.013534007477195922 0 0.00022061284962693209 -0.013178519463611132 0 0.00036071570109321653 -0.013642302810948897 0 8.7772410116389172e-05 -0.013534007477195922 0 0.00036071570109321653 -0.013642302810948897 0 0.00017589038222454821 -0.013961175466078377 0 0.00029341943656422103 -0.014155238078250799 0 0.00032605687780968792 -0.014298672676641535 0 0.00036536990897503645 -0.014262161845354648 0 0.00029341943656422103 -0.014155238078250799 0 0.00013150757193283922 -0.014171526834901147 0 0.00032605687780968792 -0.014298672676641535 0 0.00016974466929298984 -0.013667954180793153 0 0.00032652471540570648 -0.013958636512672347 0 0.00032605687780968792 -0.014298672676641535 0 0.00036536990897503645 -0.014262161845354648 0 0.00034861957555498143 -0.014287580636269918 0 0.00032652471540570648 -0.013958636512672347 0 0.00036926134484505243 -0.014124295359740056 0 0.00032605687780968792 -0.014298672676641535 0 0.00034861957555498143 -0.014287580636269918 0 0.00037373899105092701 -0.014159896823484496 0 0.00034861957555498143 -0.014287580636269918 0 0.00037264593017589817 -0.014322941363851371 0 0.0003401104853324265 -0.014323693273490083 0 0.00034861957555498143 -0.014287580636269918 0 0.0003401104853324265 -0.014323693273490083 0 0.00032519835035962403 -0.014298436122588066 0 0.00036536990897503645 -0.014262161845354648 0 0.00034861957555498143 -0.014287580636269918 0 0.00037264593017589817 -0.014322941363851371 0 0.00036536990897503645 -0.014262161845354648 0 0.00037264593017589817 -0.014322941363851371 0 0.00039729337329413747 -0.014262487941557593 0 0.00037264593017589817 -0.014322941363851371 0 0.00039729337329413747 -0.014262487941557593 0 0.00038207042295291432 -0.014372909956267681 0 0.00029341943656422103 -0.014155238078250799 0 0.00036536990897503645 -0.014262161845354648 0 0.00036513782883474305 -0.014092079784518888 0 0.00036536990897503645 -0.014262161845354648 0 0.00039729337329413747 -0.014262487941557593 0 0.00036513782883474305 -0.014092079784518888 0 0.00039729337329413747 -0.014262487941557593 0 0.00042564428154106941 -0.014288473551448575 0 0.00038207042295291432 -0.014372909956267681 0 0.00039729337329413747 -0.014262487941557593 0 0.00036513782883474305 -0.014092079784518888 0 0.00042564428154106941 -0.014288473551448575 0 0.00042564428154106941 -0.014288473551448575 0 0.00036192184099953642 -0.014448865033304677 0 0.00038207042295291432 -0.014372909956267681 0 0.00041944466946188306 -0.014398599784553072 0 0.00042564428154106941 -0.014288473551448575 0 0.00036192184099953642 -0.014448865033304677 0 0.00041944466946188306 -0.014398599784553072 0 0.00036192184099953642 -0.014448865033304677 0 0.00024120240422703209 -0.014625790735185358 0 0.00036192184099953642 -0.014448865033304677 0 0.00024120240422703209 -0.014625790735185358 0 0.00029724847263290662 -0.014528079168784005 0 0.00029724847263290662 -0.014528079168784005 0 0.00038207042295291432 -0.014372909956267681 0 0.00034062608588722308 -0.014385518891308565 0 0.00036192184099953642 -0.014448865033304677 0 0.00029724847263290662 -0.014528079168784005 0 0.00038207042295291432 -0.014372909956267681 0 0.00037264593017589817 -0.014322941363851371 0 0.00038207042295291432 -0.014372909956267681 0 0.00034062608588722308 -0.014385518891308565 0 0.00037264593017589817 -0.014322941363851371 0 0.0003401104853324265 -0.014323693273490083 0 0.00034062608588722308 -0.014385518891308565 0 0.0003401104853324265 -0.014323693273490083 0 0.00031378633123748626 -0.014347365175794128 0 0.00034062608588722308 -0.014385518891308565 0 0.00029724847263290662 -0.014528079168784005 0 0.00034062608588722308 -0.014385518891308565 0 0.00016656453306524639 -0.01448575651814742 0 0.0002043960652971264 -0.014897355813901118 0 4.4096250381386623e-05 -0.015019771435052318 0 4.3746996641285631e-05 -0.014927769450395752 0 0.00031378633123748626 -0.014347365175794128 0 0.00034062608588722308 -0.014385518891308565 0 0.00016656453306524639 -0.01448575651814742 0 0.00024598869995853578 -0.014618605711039316 0 0.00012037287127393469 -0.014753511768401504 0 4.4096250381386623e-05 -0.015019771435052318 0 8.8903907077205075e-08 -0.015000178881376379 0 4.3746996641285631e-05 -0.014927769450395752 0 4.4096250381386623e-05 -0.015019771435052318 0 8.8903907077205075e-08 -0.015000178881376379 0 -2.7538161175170046e-08 -0.014999956966200692 0 0.00016656453306524639 -0.01448575651814742 0 -2.0005163329880993e-08 -0.01499887958325685 0 0.00012820346937759012 -0.014790119454416115 0 0.00012037287127393469 -0.014753511768401504 0 3.701586936806034e-08 -0.014999898479964221 0 0.00029724847263290662 -0.014528079168784005 0 0.00016656453306524639 -0.01448575651814742 0 0.00012820346937759012 -0.014790119454416115 0 0.00024120240422703209 -0.014625790735185358 0 0.00029724847263290662 -0.014528079168784005 0 0.00012820346937759012 -0.014790119454416115 0 0.00011087473103061438 -0.014809197034108436 0 0.00024120240422703209 -0.014625790735185358 0 0.00012820346937759012 -0.014790119454416115 0 1.095358657711054e-07 -0.014999924186132522 0 -2.0005163329880993e-08 -0.01499887958325685 0 0.00012820346937759012 -0.014790119454416115 0 1.095358657711054e-07 -0.014999924186132522 0 0.00011087473103061438 -0.014809197034108436 0 0.00012820346937759012 -0.014790119454416115 0 4.6309938336022734e-09 -0.015000004253548856 0 4.4110075033267908e-06 -0.015000963162630212 0 4.9601980712037816e-06 -0.014997864141186746 0 4.6309938336022734e-09 -0.015000004253548856 0 4.4110075033267908e-06 -0.015000963162630212 0 1.2091110002758366e-06 -0.015000376459720362 0 1.9533642900261369e-05 -0.014968230987912322 0 1.6204095886501863e-05 -0.014946447736398024 0 3.8004504431239452e-05 -0.014957040737360342 0 1.9533642900261369e-05 -0.014968230987912322 0 1.6204095886501863e-05 -0.014946447736398024 0 9.7086093825409077e-06 -0.014973543102465922 0 0.00017900145000479284 -0.014347908374873828 0 0.00017171770231019527 -0.01451402892319556 0 -5.4213856189649514e-06 -0.014522927549410087 0 1.6204095886501863e-05 -0.014946447736398024 0 3.8004504431239452e-05 -0.014957040737360342 0 5.8104471712030349e-05 -0.014908138477050524 0 0.00017900145000479284 -0.014347908374873828 0 0.00017171770231019527 -0.01451402892319556 0 0.00022339110338891757 -0.014406944279058285 0 9.9483056146612204e-05 -0.014643068826806825 0 3.7622282095493151e-05 -0.014846229422573151 0 4.6309938336022734e-09 -0.015000004253548856 0 1.2091110002758366e-06 -0.015000376459720362 0 1.0848034777902483e-10 -0.01499999953967256 0 1.2091110002758366e-06 -0.015000376459720362 0 8.4222588186901867e-07 -0.015000169373928056 0 1.0848034777902483e-10 -0.01499999953967256 0 4.4110075033267908e-06 -0.015000963162630212 0 1.2091110002758366e-06 -0.015000376459720362 0 8.4222588186901867e-07 -0.015000169373928056 0 1.4577486640691934e-05 -0.014998606878745728 0 3.7622282095493151e-05 -0.014846229422573151 0 3.7622282095493151e-05 -0.014846229422573151 0 -6.1807773325682279e-08 -0.014999994269790345 0 5.9726443232402401e-07 -0.014999177913772897 0 1.9783627461929317e-09 -0.014999994985329994 0 -1.3374834664796688e-09 -0.01500000317426815 0 -5.4213856189649514e-06 -0.014522927549410087 0 8.387012391548449e-05 -0.014746063598335859 0 -2.347812807657123e-07 -0.014999130105407901 0 3.7622282095493151e-05 -0.014846229422573151 0 9.9360139338493258e-09 -0.014999809648185305 0 8.387012391548449e-05 -0.014746063598335859 0 -2.347812807657123e-07 -0.014999130105407901 0 4.3746996641285631e-05 -0.014927769450395752 0 8.8903907077205075e-08 -0.015000178881376379 0 -2.347812807657123e-07 -0.014999130105407901 0 4.3746996641285631e-05 -0.014927769450395752 0 8.387012391548449e-05 -0.014746063598335859 0 4.3746996641285631e-05 -0.014927769450395752 0 0.00019458455690224999 -0.014638994748667963 0 0.0002043960652971264 -0.014897355813901118 0 4.3746996641285631e-05 -0.014927769450395752 0 0.00019458455690224999 -0.014638994748667963 0 0.00017171770231019527 -0.01451402892319556 0 -5.4213856189649514e-06 -0.014522927549410087 0 8.387012391548449e-05 -0.014746063598335859 0 0.00017171770231019527 -0.01451402892319556 0 8.387012391548449e-05 -0.014746063598335859 0 0.00019458455690224999 -0.014638994748667963 0 0.00017171770231019527 -0.01451402892319556 0 0.00019458455690224999 -0.014638994748667963 0 0.00027148951532994747 -0.014416046444054427 0 0.00019458455690224999 -0.014638994748667963 0 0.00032587496280279905 -0.014440316125787622 0 0.00027148951532994747 -0.014416046444054427 0 0.0002043960652971264 -0.014897355813901118 0 0.00019458455690224999 -0.014638994748667963 0 0.00032587496280279905 -0.014440316125787622 0 0.00024598869995853578 -0.014618605711039316 0 0.0003202487428129556 -0.014470729495969486 0 0.0003401104853324265 -0.014323693273490083 0 0.00031378633123748626 -0.014347365175794128 0 0.00032587496280279905 -0.014440316125787622 0 0.0003401104853324265 -0.014323693273490083 0 0.00032587496280279905 -0.014440316125787622 0 0.00032519835035962403 -0.014298436122588066 0 0.00032587496280279905 -0.014440316125787622 0 0.00030748554789499774 -0.014358754256236712 0 0.00027148951532994747 -0.014416046444054427 0 0.00032587496280279905 -0.014440316125787622 0 0.00030748554789499774 -0.014358754256236712 0 0.00032519835035962403 -0.014298436122588066 0 0.00030748554789499774 -0.014358754256236712 0 0.00027171823124701931 -0.014350664045398663 0 0.00027148951532994747 -0.014416046444054427 0 0.00030748554789499774 -0.014358754256236712 0 0.00027171823124701931 -0.014350664045398663 0 0.00027614046587887798 -0.014329288645100977 0 0.00017171770231019527 -0.01451402892319556 0 0.00027148951532994747 -0.014416046444054427 0 0.00022339110338891757 -0.014406944279058285 0 0.00017900145000479284 -0.014347908374873828 0 0.00022339110338891757 -0.014406944279058285 0 0.00024401537042174925 -0.014357822951831819 0 0.00027148951532994747 -0.014416046444054427 0 0.00022339110338891757 -0.014406944279058285 0 0.00024401537042174925 -0.014357822951831819 0 0.00027171823124701931 -0.014350664045398663 0 0.00027148951532994747 -0.014416046444054427 0 0.00024401537042174925 -0.014357822951831819 0 0.00017900145000479284 -0.014347908374873828 0 0.00024401537042174925 -0.014357822951831819 0 0.00025588582852577757 -0.01430822080845206 0 1.6204095886501863e-05 -0.014946447736398024 0 -6.9850115764730989e-06 -0.01497686512137766 0 9.7086093825409077e-06 -0.014973543102465922 0 0.00027171823124701931 -0.014350664045398663 0 0.00024401537042174925 -0.014357822951831819 0 0.00025770970821715409 -0.01432941023791647 0 9.9483056146612204e-05 -0.014643068826806825 0 0.00012137852325526478 -0.014569339587560482 0 0.00024401537042174925 -0.014357822951831819 0 0.00025770970821715409 -0.01432941023791647 0 0.00025588582852577757 -0.01430822080845206 0 0.00014266004182533304 -0.014401270863700546 0 0.00012137852325526478 -0.014569339587560482 0 0.00025770970821715409 -0.01432941023791647 0 0.0002518316879751514 -0.014332849986933089 0 0.00021500034570310869 -0.014339801768859012 0 0.00025770970821715409 -0.01432941023791647 0 0.00021500034570310869 -0.014339801768859012 0 0.00025942147427286287 -0.014346028250810159 0 0.0002518316879751514 -0.014332849986933089 0 0.00023890521126021524 -0.014329392131903238 0 0.00021500034570310869 -0.014339801768859012 0 0.00027171823124701931 -0.014350664045398663 0 0.0002518316879751514 -0.014332849986933089 0 0.00027614046587887798 -0.014329288645100977 0 0.0002518316879751514 -0.014332849986933089 0 0.00023890521126021524 -0.014329392131903238 0 0.00027614046587887798 -0.014329288645100977 0 0.00027171823124701931 -0.014350664045398663 0 0.00025770970821715409 -0.01432941023791647 0 0.0002518316879751514 -0.014332849986933089 0 0.00023890521126021524 -0.014329392131903238 0 0.00025395285540094235 -0.014298345729594963 0 0.00027614046587887798 -0.014329288645100977 0 0.00023890521126021524 -0.014329392131903238 0 0.00025395285540094235 -0.014298345729594963 0 0.00019932766400638475 -0.01434119685071124 0 0.00023890521126021524 -0.014329392131903238 0 0.00019932766400638475 -0.01434119685071124 0 0.00021500034570310869 -0.014339801768859012 0 0.00025395285540094235 -0.014298345729594963 0 0.00019891612030071767 -0.014300663976313023 0 0.00019932766400638475 -0.01434119685071124 0 0.00025395285540094235 -0.014298345729594963 0 0.00026053082419790944 -0.014203169040159572 0 0.00019891612030071767 -0.014300663976313023 0 0.00025395285540094235 -0.014298345729594963 0 0.00031071041525448928 -0.014275260261636684 0 0.00026053082419790944 -0.014203169040159572 0 0.00025395285540094235 -0.014298345729594963 0 0.00027614046587887798 -0.014329288645100977 0 0.00031071041525448928 -0.014275260261636684 0 0.00030748554789499774 -0.014358754256236712 0 0.00027614046587887798 -0.014329288645100977 0 0.00031071041525448928 -0.014275260261636684 0 0.00030748554789499774 -0.014358754256236712 0 0.00031071041525448928 -0.014275260261636684 0 0.00032519835035962403 -0.014298436122588066 0 0.00031071041525448928 -0.014275260261636684 0 0.00032519835035962403 -0.014298436122588066 0 0.00037373899105092701 -0.014159896823484496 0 0.00034861957555498143 -0.014287580636269918 0 0.00032519835035962403 -0.014298436122588066 0 0.00037373899105092701 -0.014159896823484496 0 0.00031071041525448928 -0.014275260261636684 0 0.00037373899105092701 -0.014159896823484496 0 0.00026053082419790944 -0.014203169040159572 0 0.00037373899105092701 -0.014159896823484496 0 0.00026053082419790944 -0.014203169040159572 0 0.00017589038222454821 -0.013961175466078377 0 0.00036071570109321653 -0.013642302810948897 0 0.00037373899105092701 -0.014159896823484496 0 0.00017589038222454821 -0.013961175466078377 0 0.00017589038222454821 -0.013961175466078377 0 0.00010204194212248756 -0.014193829795862948 0 -2.8117176788366676e-05 -0.014014480796206071 0 0.00026053082419790944 -0.014203169040159572 0 0.00017589038222454821 -0.013961175466078377 0 0.00010204194212248756 -0.014193829795862948 0 0.00026053082419790944 -0.014203169040159572 0 0.00010204194212248756 -0.014193829795862948 0 0.00019891612030071767 -0.014300663976313023 0 0.00010204194212248756 -0.014193829795862948 0 0.00019891612030071767 -0.014300663976313023 0 0.00010609811765325557 -0.014337841500245828 0 0.00019891612030071767 -0.014300663976313023 0 0.00010609811765325557 -0.014337841500245828 0 0.00016567949570778101 -0.014350337429452733 0 0.00010609811765325557 -0.014337841500245828 0 0.00012963976320769208 -0.014357595701641518 0 0.00016567949570778101 -0.014350337429452733 0 0.00012963976320769208 -0.014357595701641518 0 0.00013814186012279573 -0.014352934930978851 0 0.00016567949570778101 -0.014350337429452733 0 0.00012963976320769208 -0.014357595701641518 0 0.00013814186012279573 -0.014352934930978851 0 9.0102337863256522e-05 -0.014390450483710099 0 0.00010609811765325557 -0.014337841500245828 0 0.00012963976320769208 -0.014357595701641518 0 9.0102337863256522e-05 -0.014390450483710099 0 6.8467025703187417e-06 -0.013824225238528838 0 -0.00018011006385445938 -0.013691516580472971 0 0.00016884648368067023 -0.014321498289581866 0 0.00013814186012279573 -0.014352934930978851 0 9.0102337863256522e-05 -0.014390450483710099 0 -0.000119517418016422 -0.013320228406065129 0 -0.00045301216360397166 -0.012994706216193841 0 -0.00038485118129461194 -0.013319475810662774 0 -0.00045244642239469329 -0.013531340419682325 0 -0.00024570051496974784 -0.013581141644100571 0 -0.00038485118129461194 -0.013319475810662774 0 -0.00024570051496974784 -0.013581141644100571 0 -0.000119517418016422 -0.013320228406065129 0 -0.00038485118129461194 -0.013319475810662774 0 0.00010341754103737499 -0.014042077580323444 0 0.00016884648368067023 -0.014321498289581866 0 0.00010322921535421489 -0.014234190122459784 0 0.00016884648368067023 -0.014321498289581866 0 0.00010322921535421489 -0.014234190122459784 0 0.00010474635055221077 -0.014302192483462655 0 9.4358487662918585e-05 -0.014003670287211875 0 6.8467025703187417e-06 -0.013824225238528838 0 0.00016884648368067023 -0.014321498289581866 0 0.00013814186012279573 -0.014352934930978851 0 0.00010474635055221077 -0.014302192483462655 0 0.00013814186012279573 -0.014352934930978851 0 0.00010474635055221077 -0.014302192483462655 0 6.0981293086418461e-05 -0.014309727653401178 0 0.00013814186012279573 -0.014352934930978851 0 6.0981293086418461e-05 -0.014309727653401178 0 0.00013400953329917772 -0.014347006575874283 0 0.00010474635055221077 -0.014302192483462655 0 2.8100668481820031e-05 -0.014259500066738819 0 6.0981293086418461e-05 -0.014309727653401178 0 0.00010322921535421489 -0.014234190122459784 0 0.00010474635055221077 -0.014302192483462655 0 2.8100668481820031e-05 -0.014259500066738819 0 1.5207105869284711e-06 -0.014289850364792862 0 6.0981293086418461e-05 -0.014309727653401178 0 2.4871963226649669e-05 -0.014317411338454038 0 2.8100668481820031e-05 -0.014259500066738819 0 1.5207105869284711e-06 -0.014289850364792862 0 6.0981293086418461e-05 -0.014309727653401178 0 6.0981293086418461e-05 -0.014309727653401178 0 0.00013400953329917772 -0.014347006575874283 0 7.7719951154073586e-05 -0.014320177715062074 0 6.0981293086418461e-05 -0.014309727653401178 0 7.7719951154073586e-05 -0.014320177715062074 0 2.4871963226649669e-05 -0.014317411338454038 0 0.00013400953329917772 -0.014347006575874283 0 0.00015661862921652114 -0.014357345748037268 0 7.7719951154073586e-05 -0.014320177715062074 0 0.00013814186012279573 -0.014352934930978851 0 0.00013400953329917772 -0.014347006575874283 0 0.00016567949570778101 -0.014350337429452733 0 0.00019891612030071767 -0.014300663976313023 0 0.00016567949570778101 -0.014350337429452733 0 0.00019932766400638475 -0.01434119685071124 0 0.00013400953329917772 -0.014347006575874283 0 0.00016567949570778101 -0.014350337429452733 0 0.00019932766400638475 -0.01434119685071124 0 0.00019932766400638475 -0.01434119685071124 0 0.00015661862921652114 -0.014357345748037268 0 0.00021500034570310869 -0.014339801768859012 0 0.00013400953329917772 -0.014347006575874283 0 0.00019932766400638475 -0.01434119685071124 0 0.00015661862921652114 -0.014357345748037268 0 0.00015661862921652114 -0.014357345748037268 0 9.4416992841417965e-05 -0.014414177641107605 0 6.7039820755272888e-05 -0.014331037923883983 0 0.00020588763216625305 -0.014314843044706474 0 0.00012137852325526478 -0.014569339587560482 0 0.00015661862921652114 -0.014357345748037268 0 0.00021500034570310869 -0.014339801768859012 0 0.00025942147427286287 -0.014346028250810159 0 0.00012137852325526478 -0.014569339587560482 0 3.3762828004391342e-05 -0.014687377085306272 0 -6.9850115764730989e-06 -0.01497686512137766 0 5.94743334022901e-06 -0.014986846872487754 0 1.0250761244868662e-05 -0.014997082856404716 0 -6.9850115764730989e-06 -0.01497686512137766 0 9.7086093825409077e-06 -0.014973543102465922 0 5.94743334022901e-06 -0.014986846872487754 0 5.94743334022901e-06 -0.014986846872487754 0 1.0250761244868662e-05 -0.014997082856404716 0 1.2581699900925457e-05 -0.014993515321810967 0 0.00015661862921652114 -0.014357345748037268 0 6.7039820755272888e-05 -0.014331037923883983 0 7.7719951154073586e-05 -0.014320177715062074 0 7.7719951154073586e-05 -0.014320177715062074 0 2.4871963226649669e-05 -0.014317411338454038 0 6.0301478351642399e-05 -0.014318055849558085 0 2.0526135016953889e-05 -0.014374883960208857 0 2.4871963226649669e-05 -0.014317411338454038 0 6.0301478351642399e-05 -0.014318055849558085 0 6.7039820755272888e-05 -0.014331037923883983 0 7.7719951154073586e-05 -0.014320177715062074 0 6.0301478351642399e-05 -0.014318055849558085 0 3.3762828004391342e-05 -0.014687377085306272 0 4.4037580501524602e-05 -0.014652257457004693 0 1.0250761244868662e-05 -0.014997082856404716 0 2.5442186470498972e-05 -0.014994319125012322 0 1.0689075554426107e-05 -0.014998791347886415 0 2.5442186470498972e-05 -0.014994319125012322 0 3.2825437563166704e-08 -0.015000045873908239 0 1.0689075554426107e-05 -0.014998791347886415 0 4.3899916445106598e-05 -0.014977984535856829 0 2.5442186470498972e-05 -0.014994319125012322 0 3.2825437563166704e-08 -0.015000045873908239 0 6.0374817886098611e-05 -0.014708107952782398 0 4.4037580501524602e-05 -0.014652257457004693 0 3.2825437563166704e-08 -0.015000045873908239 0 2.2630088202287139e-09 -0.014999983626110991 0 1.0689075554426107e-05 -0.014998791347886415 0 2.2630088202287139e-09 -0.014999983626110991 0 1.0689075554426107e-05 -0.014998791347886415 0 4.9601980712037816e-06 -0.014997864141186746 0 1.0689075554426107e-05 -0.014998791347886415 0 1.2581699900925457e-05 -0.014993515321810967 0 4.9601980712037816e-06 -0.014997864141186746 0 1.0250761244868662e-05 -0.014997082856404716 0 1.0689075554426107e-05 -0.014998791347886415 0 1.2581699900925457e-05 -0.014993515321810967 0 1.4577486640691934e-05 -0.014998606878745728 0 1.6971613402827864e-05 -0.01498414820573798 0 1.9533642900261369e-05 -0.014968230987912322 0 3.8004504431239452e-05 -0.014957040737360342 0 1.2581699900925457e-05 -0.014993515321810967 0 4.4110075033267908e-06 -0.015000963162630212 0 1.2581699900925457e-05 -0.014993515321810967 0 4.9601980712037816e-06 -0.014997864141186746 0 1.9533642900261369e-05 -0.014968230987912322 0 9.7086093825409077e-06 -0.014973543102465922 0 1.2581699900925457e-05 -0.014993515321810967 0 9.7086093825409077e-06 -0.014973543102465922 0 5.94743334022901e-06 -0.014986846872487754 0 1.2581699900925457e-05 -0.014993515321810967 0 4.6309938336022734e-09 -0.015000004253548856 0 2.2630088202287139e-09 -0.014999983626110991 0 4.9601980712037816e-06 -0.014997864141186746 0 -0.0027984727658142859 -0.012357305816928201 0 -0.0027251989860517878 -0.012318079956835195 0 -0.0027408837179271239 -0.012421429307155601 0 -0.0013996653072641081 -0.012728228179276404 0 -0.0020998544403100874 -0.012511630365818099 0 -0.00091422932669585788 -0.012387436596910188 0 -0.0010809293310157112 -0.012678335810334628 0 -0.0011992562343910319 -0.01246882546372695 0 -0.0008902186438946877 -0.012730694414648471 0 -0.00086313125904574964 -0.012779978160715329 0 -0.00083841276171694827 -0.012767776786239674 0 -0.0013690838502905308 -0.01326353201749215 0 -0.0012820188927732225 -0.013135736673652238 0 -0.001106242124982954 -0.013188305367903965 0 -0.0008902186438946877 -0.012730694414648471 0 -0.0008142096704243729 -0.012705690603011986 0 -0.00083841276171694827 -0.012767776786239674 0 -0.0013996653072641081 -0.012728228179276404 0 -0.00077861070179020039 -0.013471342039990512 0 -0.0008902186438946877 -0.012730694414648471 0 -0.00086313125904574964 -0.012779978160715329 0 -0.0008840103697418391 -0.012806971524705378 0 -0.0013996653072641081 -0.012728228179276404 0 -0.0007650368806521639 -0.012730269027104597 0 -0.00086313125904574964 -0.012779978160715329 0 -0.00083841276171694827 -0.012767776786239674 0 -0.0008334289882693342 -0.012822879127605052 0 -0.00086313125904574964 -0.012779978160715329 0 -0.0008334289882693342 -0.012822879127605052 0 -0.0008840103697418391 -0.012806971524705378 0 -0.0010809293310157112 -0.012678335810334628 0 -0.0010084282305491015 -0.0128054645495926 0 -0.0008840103697418391 -0.012806971524705378 0 -0.00091422932669585788 -0.012387436596910188 0 -0.0010809293310157112 -0.012678335810334628 0 -0.0008840103697418391 -0.012806971524705378 0 -0.0012739159548509123 -0.012691081891572496 0 -0.001482661162286421 -0.012539152161671794 0 -0.0011992562343910319 -0.01246882546372695 0 -0.0010809293310157112 -0.012678335810334628 0 -0.0012739159548509123 -0.012691081891572496 0 -0.0011992562343910319 -0.01246882546372695 0 -0.0012739159548509123 -0.012691081891572496 0 -0.001482661162286421 -0.012539152161671794 0 -0.001434680340221149 -0.012873835212906059 0 -0.0019415792972874153 -0.0085129434873060812 0 -0.0019382131382139193 -0.008504698077152267 0 -0.0019372242721731917 -0.008496480534271867 0 -0.0021078356240612378 -0.010275021429237337 0 -0.0010428710113848394 -0.011762452537694824 0 -0.0021078356240612378 -0.010275021429237337 0 -0.0017052216489938984 -0.0087834652019695425 0 -0.0020052532646236123 -0.008516117315379856 0 -0.0020036672447573942 -0.0086371141036345519 0 -0.0019552618774053877 -0.0085673293450178392 0 -0.0026197346719721176 -0.012257799022393361 0 -0.002663116852082524 -0.012339379180486786 0 -0.0026043727837226733 -0.012390716065882917 0 -0.0020052532646236123 -0.008516117315379856 0 -0.0019372242721731917 -0.008496480534271867 0 -0.0019552618774053877 -0.0085673293450178392 0 -0.0021078356240612378 -0.010275021429237337 0 -0.0026613305595121384 -0.011030814066630772 0 -0.0021078356240612378 -0.010275021429237337 0 -0.0020998544403100874 -0.012511630365818099 0 -0.0027251989860517878 -0.012318079956835195 0 -0.0026941800314492339 -0.012396530012869294 0 -0.0027408837179271239 -0.012421429307155601 0 -0.0026197346719721176 -0.012257799022393361 0 -0.0027251989860517878 -0.012318079956835195 0 -0.002663116852082524 -0.012339379180486786 0 -0.0027251989860517878 -0.012318079956835195 0 -0.002663116852082524 -0.012339379180486786 0 -0.0026941800314492339 -0.012396530012869294 0 -0.0027289821346260746 -0.012467756607538434 0 -0.0027006530712805239 -0.012454400792543252 0 -0.0027408837179271239 -0.012421429307155601 0 -0.0026941800314492339 -0.012396530012869294 0 -0.0027006530712805239 -0.012454400792543252 0 -0.0027408837179271239 -0.012421429307155601 0 -0.0028317492116424758 -0.010692026369426746 0 -0.0027752591735481767 -0.011157568282163778 0 -0.0026598776210032937 -0.010696413368930242 0 -0.0026616744491362787 -0.012402973857325044 0 -0.0026756571624936653 -0.012477380664242199 0 -0.0027006530712805239 -0.012454400792543252 0 -0.0026613305595121384 -0.011030814066630772 0 -0.0027047526599427887 -0.012024222392772357 0 -0.0028293854701860735 -0.01082613423209236 0 -0.0023908346455290192 -0.0097985344234705063 0 -0.0020036672447573942 -0.0086371141036345519 0 -0.0019552618774053877 -0.0085673293450178392 0 -0.0019582442685782495 -0.0086401365954455311 0 -0.0026613305595121384 -0.011030814066630772 0 -0.0023908346455290192 -0.0097985344234705063 0 -0.0026587356634213692 -0.012159755131550196 0 -0.0026613305595121384 -0.011030814066630772 0 -0.002663116852082524 -0.012339379180486786 0 -0.0026941800314492339 -0.012396530012869294 0 -0.0026043727837226733 -0.012390716065882917 0 -0.0026941800314492339 -0.012396530012869294 0 -0.0026616744491362787 -0.012402973857325044 0 -0.0027006530712805239 -0.012454400792543252 0 -0.0027260700343027223 -0.011600153770028869 0 -0.0026912987676159655 -0.011159702294499734 0 -0.0027752591735481767 -0.011157568282163778 0 -0.0026912987676159655 -0.011159702294499734 0 -0.0027752591735481767 -0.011157568282163778 0 -0.0026598776210032937 -0.010696413368930242 0 -0.0028573485168746481 -0.011370289103803877 0 -0.0028293854701860735 -0.01082613423209236 0 -0.0027354877231572116 -0.012528056686689217 0 -0.0026756571624936653 -0.012477380664242199 0 -0.0027060302800965613 -0.012504902537051638 0 -0.0028573485168746481 -0.011370289103803877 0 -0.0027047526599427887 -0.012024222392772357 0 -0.0026756571624936653 -0.012477380664242199 0 -0.0027060302800965613 -0.012504902537051638 0 -0.0027006530712805239 -0.012454400792543252 0 -0.0027289821346260746 -0.012467756607538434 0 -0.0027006530712805239 -0.012454400792543252 0 -0.0027163477622142249 -0.012489564375739413 0 -0.0027158433068628926 -0.012515386612572496 0 -0.0027060302800965613 -0.012504902537051638 0 -0.0027163477622142249 -0.012489564375739413 0 -0.0027060302800965613 -0.012504902537051638 0 -0.0027006530712805239 -0.012454400792543252 0 -0.0027163477622142249 -0.012489564375739413 0 -0.0027289821346260746 -0.012467756607538434 0 -0.0027163477622142249 -0.012489564375739413 0 -0.002733301650359796 -0.012495805871324603 0 -0.0027158433068628926 -0.012515386612572496 0 -0.0027163477622142249 -0.012489564375739413 0 -0.002733301650359796 -0.012495805871324603 0 -0.0016498407524605117 -0.013004407580641896 0 -0.0021006347513773814 -0.012685109335399829 0 -0.002733301650359796 -0.012495805871324603 0 -0.0027533713314520699 -0.012502977140483528 0 -0.0027582109109596134 -0.012469538346689586 0 -0.0027322200009697022 -0.012514344252796192 0 -0.002733301650359796 -0.012495805871324603 0 -0.0027533713314520699 -0.012502977140483528 0 -0.0027775182956225873 -0.01250217035476036 0 -0.0027582109109596134 -0.012469538346689586 0 -0.0027911061722798239 -0.012435146347060696 0 -0.0027533713314520699 -0.012502977140483528 0 -0.0027775182956225873 -0.01250217035476036 0 -0.0027582109109596134 -0.012469538346689586 0 -0.0014362474089385418 -0.013390066170028123 0 -0.0016498407524605117 -0.013004407580641896 0 -0.0027289821346260746 -0.012467756607538434 0 -0.002733301650359796 -0.012495805871324603 0 -0.0027582109109596134 -0.012469538346689586 0 -0.0027289821346260746 -0.012467756607538434 0 -0.0027582109109596134 -0.012469538346689586 0 -0.0027408837179271239 -0.012421429307155601 0 -0.0027582109109596134 -0.012469538346689586 0 -0.0027408837179271239 -0.012421429307155601 0 -0.0027911061722798239 -0.012435146347060696 0 -0.0027984727658142859 -0.012357305816928201 0 -0.0027408837179271239 -0.012421429307155601 0 -0.0027911061722798239 -0.012435146347060696 0 -0.0013996653072641081 -0.012728228179276404 0 -0.0021006347513773814 -0.012685109335399829 0 -0.0013690838502905308 -0.01326353201749215 0 -0.001388765283261043 -0.013052386375007169 0 -0.0012820188927732225 -0.013135736673652238 0 -0.0012820188927732225 -0.013135736673652238 0 -0.001257781988356659 -0.013013948833857028 0 -0.001106242124982954 -0.013188305367903965 0 -0.001388765283261043 -0.013052386375007169 0 -0.0012820188927732225 -0.013135736673652238 0 -0.001257781988356659 -0.013013948833857028 0 -0.00088010408928900104 -0.013856343049730661 0 -0.00087946307005316946 -0.013680926331326532 0 -0.00064165075630181491 -0.013874214157895682 0 -0.0014101834813633354 -0.012842408178002578 0 -0.001388765283261043 -0.013052386375007169 0 -0.001257781988356659 -0.013013948833857028 0 -0.0016498407524605117 -0.013004407580641896 0 -0.001018540391035948 -0.013493073634236243 0 -0.0011556715924154494 -0.013549599967657809 0 -0.00088010408928900104 -0.013856343049730661 0 -0.00087946307005316946 -0.013680926331326532 0 -0.00098066666391564061 -0.013517277023474453 0 -0.0012652528347754802 -0.013573170776086042 0 -0.00092714537355106301 -0.013747355283844886 0 -0.0014362474089385418 -0.013390066170028123 0 -0.00087447270996979254 -0.01373741909603729 0 -0.0011621094737846707 -0.013480728305422452 0 -0.0011556715924154494 -0.013549599967657809 0 -0.00087946307005316946 -0.013680926331326532 0 -0.00098066666391564061 -0.013517277023474453 0 -0.00092714537355106301 -0.013747355283844886 0 -0.00071069679707421016 -0.013600450624510837 0 -0.00071069679707421016 -0.013600450624510837 0 -0.00049282464722592454 -0.013744116977144715 0 -0.00064165075630181491 -0.013874214157895682 0 -0.00092714537355106301 -0.013747355283844886 0 -0.00071069679707421016 -0.013600450624510837 0 -0.00064165075630181491 -0.013874214157895682 0 -0.00087447270996979254 -0.01373741909603729 0 -0.00069615886194318685 -0.013845760644543575 0 -0.00049282464722592454 -0.013744116977144715 0 -0.00047031885991768866 -0.013917006876335186 0 -0.00064165075630181491 -0.013874214157895682 0 -0.0005129466792838603 -0.013549831478298375 0 -0.00071069679707421016 -0.013600450624510837 0 -0.00049282464722592454 -0.013744116977144715 0 -0.0005129466792838603 -0.013549831478298375 0 -0.00031062029388740151 -0.013654552087604042 0 -0.00049282464722592454 -0.013744116977144715 0 -0.00031062029388740151 -0.013654552087604042 0 -0.00049282464722592454 -0.013744116977144715 0 -0.0003289691672940345 -0.013871533328030993 0 -0.00049282464722592454 -0.013744116977144715 0 -0.00047031885991768866 -0.013917006876335186 0 -0.0003289691672940345 -0.013871533328030993 0 -0.00047031885991768866 -0.013917006876335186 0 -0.0003289691672940345 -0.013871533328030993 0 -0.0003608752840058743 -0.014026153660821997 0 -0.0003289691672940345 -0.013871533328030993 0 -0.0003608752840058743 -0.014026153660821997 0 -0.00020213895052172189 -0.014066971914477429 0 -0.00047031885991768866 -0.013917006876335186 0 -0.0003608752840058743 -0.014026153660821997 0 -0.00051002848746165951 -0.01404456302716302 0 -0.00051002848746165951 -0.01404456302716302 0 -0.00063806145557417353 -0.014090981178289566 0 -0.00064165075630181491 -0.013874214157895682 0 -0.00067078275873245347 -0.013678518386553692 0 -0.00077861070179020039 -0.013471342039990512 0 -0.001018540391035948 -0.013493073634236243 0 -0.00077861070179020039 -0.013471342039990512 0 -0.00088010408928900104 -0.013856343049730661 0 -0.00063806145557417353 -0.014090981178289566 0 -0.00064165075630181491 -0.013874214157895682 0 -0.00047031885991768866 -0.013917006876335186 0 -0.00051002848746165951 -0.01404456302716302 0 -0.00064165075630181491 -0.013874214157895682 0 8.7772410116389172e-05 -0.013534007477195922 0 0.00017589038222454821 -0.013961175466078377 0 -7.4444293567658715e-05 -0.013719028352071864 0 0.00017589038222454821 -0.013961175466078377 0 -7.4444293567658715e-05 -0.013719028352071864 0 -2.8117176788366676e-05 -0.014014480796206071 0 -7.4444293567658715e-05 -0.013719028352071864 0 -0.00017413802360704195 -0.013874037504435246 0 -2.8117176788366676e-05 -0.014014480796206071 0 -0.00031062029388740151 -0.013654552087604042 0 -7.4444293567658715e-05 -0.013719028352071864 0 -0.00017413802360704195 -0.013874037504435246 0 -0.00031062029388740151 -0.013654552087604042 0 -0.0003289691672940345 -0.013871533328030993 0 -0.00017413802360704195 -0.013874037504435246 0 -0.00017413802360704195 -0.013874037504435246 0 -0.00020213895052172189 -0.014066971914477429 0 -2.8117176788366676e-05 -0.014014480796206071 0 -0.0003289691672940345 -0.013871533328030993 0 -0.00017413802360704195 -0.013874037504435246 0 -0.00020213895052172189 -0.014066971914477429 0 0.00010204194212248756 -0.014193829795862948 0 -2.8117176788366676e-05 -0.014014480796206071 0 -5.3916576669206849e-05 -0.014238851881359513 0 -0.00020213895052172189 -0.014066971914477429 0 -5.3916576669206849e-05 -0.014238851881359513 0 -0.00030660603275872679 -0.014273724209117242 0 -0.00020213895052172189 -0.014066971914477429 0 -2.8117176788366676e-05 -0.014014480796206071 0 -5.3916576669206849e-05 -0.014238851881359513 0 -5.3916576669206849e-05 -0.014238851881359513 0 -0.00030660603275872679 -0.014273724209117242 0 -6.7859379862690851e-05 -0.014375608367823008 0 -0.00051468816585776493 -0.013508139731605681 0 -0.00035319277519745446 -0.013614562263076108 0 0.00010204194212248756 -0.014193829795862948 0 0.00010609811765325557 -0.014337841500245828 0 -5.3916576669206849e-05 -0.014238851881359513 0 -0.00077861070179020039 -0.013471342039990512 0 -0.00051468816585776493 -0.013508139731605681 0 -0.00051002848746165951 -0.01404456302716302 0 -0.00059191374336913633 -0.014068120558733953 0 -0.00030660603275872679 -0.014273724209117242 0 -0.0008142096704243729 -0.012705690603011986 0 -0.00073563593813385955 -0.012776515115781801 0 -0.00079867340229712168 -0.012780424612125786 0 -0.0008142096704243729 -0.012705690603011986 0 -0.00079867340229712168 -0.012780424612125786 0 -0.00083841276171694827 -0.012767776786239674 0 -0.0003608752840058743 -0.014026153660821997 0 -0.00051002848746165951 -0.01404456302716302 0 -0.00030660603275872679 -0.014273724209117242 0 -0.0003608752840058743 -0.014026153660821997 0 -0.00020213895052172189 -0.014066971914477429 0 -0.00030660603275872679 -0.014273724209117242 0 -0.00073563593813385955 -0.012776515115781801 0 -0.00079867340229712168 -0.012780424612125786 0 -0.00077030864286710507 -0.012840600088177345 0 -0.00079867340229712168 -0.012780424612125786 0 -0.0008334289882693342 -0.012822879127605052 0 -0.00077030864286710507 -0.012840600088177345 0 -0.00079867340229712168 -0.012780424612125786 0 -0.00083841276171694827 -0.012767776786239674 0 -0.0008334289882693342 -0.012822879127605052 0 -0.0008334289882693342 -0.012822879127605052 0 -0.00081964374372616887 -0.012888535923475122 0 -0.00086170835182992488 -0.012864688115774148 0 -0.00081964374372616887 -0.012888535923475122 0 -0.00077030864286710507 -0.012840600088177345 0 -0.00077055023196842293 -0.012925854701841894 0 -0.0008334289882693342 -0.012822879127605052 0 -0.00081964374372616887 -0.012888535923475122 0 -0.00077030864286710507 -0.012840600088177345 0 -0.00073563593813385955 -0.012776515115781801 0 -0.00077030864286710507 -0.012840600088177345 0 -0.00063162943378307986 -0.01285679407565957 0 -0.00077030864286710507 -0.012840600088177345 0 -0.00077055023196842293 -0.012925854701841894 0 -0.00063162943378307986 -0.01285679407565957 0 -0.00077055023196842293 -0.012925854701841894 0 -0.00072838094530144838 -0.012996701141455709 0 -0.00063162943378307986 -0.01285679407565957 0 -0.00077055023196842293 -0.012925854701841894 0 -0.00072838094530144838 -0.012996701141455709 0 -0.00079093723924444058 -0.013004029564998755 0 -0.00077055023196842293 -0.012925854701841894 0 -0.00083347384485727284 -0.012951515625901461 0 -0.00079093723924444058 -0.013004029564998755 0 -0.00081964374372616887 -0.012888535923475122 0 -0.00083347384485727284 -0.012951515625901461 0 -0.00087465646386557976 -0.012913779661395947 0 -0.00081964374372616887 -0.012888535923475122 0 -0.00077055023196842293 -0.012925854701841894 0 -0.00083347384485727284 -0.012951515625901461 0 0.00010609811765325557 -0.014337841500245828 0 -6.7859379862690851e-05 -0.014375608367823008 0 9.0102337863256522e-05 -0.014390450483710099 0 0.00010609811765325557 -0.014337841500245828 0 -5.3916576669206849e-05 -0.014238851881359513 0 -6.7859379862690851e-05 -0.014375608367823008 0 -0.00072838094530144838 -0.012996701141455709 0 -0.00063162943378307986 -0.01285679407565957 0 -0.00066056895899633497 -0.013077371427215377 0 -0.00035319277519745446 -0.013614562263076108 0 -0.00018011006385445938 -0.013691516580472971 0 -0.00063162943378307986 -0.01285679407565957 0 -0.00045301216360397166 -0.012994706216193841 0 -0.00066056895899633497 -0.013077371427215377 0 -0.00045301216360397166 -0.012994706216193841 0 -0.00066056895899633497 -0.013077371427215377 0 -0.00058902640090519195 -0.013238690196127416 0 -0.00045301216360397166 -0.012994706216193841 0 -0.00058902640090519195 -0.013238690196127416 0 -0.00038485118129461194 -0.013319475810662774 0 -0.00075163160614858282 -0.013300316491862052 0 -0.00066056895899633497 -0.013077371427215377 0 -0.00077125191562105503 -0.013103241066713588 0 -0.00075163160614858282 -0.013300316491862052 0 -0.00066056895899633497 -0.013077371427215377 0 -0.00058902640090519195 -0.013238690196127416 0 -0.00075163160614858282 -0.013300316491862052 0 -0.00045244642239469329 -0.013531340419682325 0 -0.00058902640090519195 -0.013238690196127416 0 -0.00045244642239469329 -0.013531340419682325 0 -0.00058902640090519195 -0.013238690196127416 0 -0.00038485118129461194 -0.013319475810662774 0 -0.00083347384485727284 -0.012951515625901461 0 -0.00079093723924444058 -0.013004029564998755 0 -0.00083748109868237168 -0.013015071670768015 0 -0.00079093723924444058 -0.013004029564998755 0 -0.00077125191562105503 -0.013103241066713588 0 -0.00083748109868237168 -0.013015071670768015 0 -0.00072838094530144838 -0.012996701141455709 0 -0.00066056895899633497 -0.013077371427215377 0 -0.00077125191562105503 -0.013103241066713588 0 -0.00072838094530144838 -0.012996701141455709 0 -0.00079093723924444058 -0.013004029564998755 0 -0.00077125191562105503 -0.013103241066713588 0 -0.00074690458194183289 -0.013179282834576098 0 -0.00075163160614858282 -0.013300316491862052 0 -0.00077125191562105503 -0.013103241066713588 0 -0.00074690458194183289 -0.013179282834576098 0 -0.00077125191562105503 -0.013103241066713588 0 -0.00079517382528243141 -0.013089774666381015 0 -0.00077125191562105503 -0.013103241066713588 0 -0.00079517382528243141 -0.013089774666381015 0 -0.00083748109868237168 -0.013015071670768015 0 -0.00081202057266887044 -0.013070091315934671 0 -0.00079517382528243141 -0.013089774666381015 0 -0.00083748109868237168 -0.013015071670768015 0 -0.00081202057266887044 -0.013070091315934671 0 -0.00083748109868237168 -0.013015071670768015 0 -0.00086416764150275499 -0.012996651219123486 0 -0.00083748109868237168 -0.013015071670768015 0 -0.00086416764150275499 -0.012996651219123486 0 -0.00088328894732846185 -0.0129481246812583 0 -0.00086416764150275499 -0.012996651219123486 0 -0.00088457812166574531 -0.012950631955752325 0 -0.00088328894732846185 -0.0129481246812583 0 -0.00088457812166574531 -0.012950631955752325 0 -0.00088328894732846185 -0.0129481246812583 0 -0.00089375472439823093 -0.012905564952936661 0 -0.00088328894732846185 -0.0129481246812583 0 -0.00087196429247865612 -0.012943917492915716 0 -0.00090151995938100036 -0.012908265008610349 0 -0.00088328894732846185 -0.0129481246812583 0 -0.00090151995938100036 -0.012908265008610349 0 -0.00089375472439823093 -0.012905564952936661 0 -0.00083748109868237168 -0.013015071670768015 0 -0.00088328894732846185 -0.0129481246812583 0 -0.00087196429247865612 -0.012943917492915716 0 -0.00083347384485727284 -0.012951515625901461 0 -0.00083748109868237168 -0.013015071670768015 0 -0.00087196429247865612 -0.012943917492915716 0 -0.00087196429247865612 -0.012943917492915716 0 -0.00087465646386557976 -0.012913779661395947 0 -0.00090151995938100036 -0.012908265008610349 0 -0.00083347384485727284 -0.012951515625901461 0 -0.00087196429247865612 -0.012943917492915716 0 -0.00087465646386557976 -0.012913779661395947 0 -0.00087465646386557976 -0.012913779661395947 0 -0.00090151995938100036 -0.012908265008610349 0 -0.00090968034624605836 -0.012892427081132373 0 -0.00092222126383534363 -0.012895880790512992 0 -0.0010480472310712701 -0.012893577098506958 0 -0.00090968034624605836 -0.012892427081132373 0 -0.0010084282305491015 -0.0128054645495926 0 -0.0011750413206202774 -0.012896072252715057 0 -0.00090151995938100036 -0.012908265008610349 0 -0.00090968034624605836 -0.012892427081132373 0 -0.00090395386099212729 -0.012900536426230468 0 -0.0010809293310157112 -0.012678335810334628 0 -0.0010084282305491015 -0.0128054645495926 0 -0.0011750413206202774 -0.012896072252715057 0 -0.00090968034624605836 -0.012892427081132373 0 -0.0010084282305491015 -0.0128054645495926 0 -0.0008840103697418391 -0.012806971524705378 0 -0.00090968034624605836 -0.012892427081132373 0 -0.0008840103697418391 -0.012806971524705378 0 -0.00086170835182992488 -0.012864688115774148 0 -0.0008334289882693342 -0.012822879127605052 0 -0.0008840103697418391 -0.012806971524705378 0 -0.00086170835182992488 -0.012864688115774148 0 -0.00081964374372616887 -0.012888535923475122 0 -0.00087465646386557976 -0.012913779661395947 0 -0.00086170835182992488 -0.012864688115774148 0 -0.00087465646386557976 -0.012913779661395947 0 -0.00090968034624605836 -0.012892427081132373 0 -0.00086170835182992488 -0.012864688115774148 0 -0.0010428710113848394 -0.011762452537694824 0 -0.0014886988940027914 -0.010571115991570115 0 -0.0008817385229803775 -0.01283413208786501 0 -0.00088625847085661304 -0.012845271011036755 0 -0.0008825807034710389 -0.012840432288151902 0 -0.0010428710113848394 -0.011762452537694824 0 -0.0010480472310712701 -0.012893577098506958 0 -0.0012739159548509123 -0.012691081891572496 0 -0.001434680340221149 -0.012873835212906059 0 -0.0011750413206202774 -0.012896072252715057 0 -0.0010809293310157112 -0.012678335810334628 0 -0.0012739159548509123 -0.012691081891572496 0 -0.0011750413206202774 -0.012896072252715057 0 -0.00089082968301259331 -0.01289502192698091 0 -0.00090395386099212729 -0.012900536426230468 0 -0.00089168563762178493 -0.012878093052377273 0 -0.00090151995938100036 -0.012908265008610349 0 -0.00090395386099212729 -0.012900536426230468 0 -0.00089168563762178493 -0.012878093052377273 0 -0.00089168563762178493 -0.012878093052377273 0 -0.00087827623303681174 -0.012833611642775767 0 -0.00088625847085661304 -0.012845271011036755 0 -0.0008817385229803775 -0.01283413208786501 0 -0.00089168563762178493 -0.012878093052377273 0 -0.00088625847085661304 -0.012845271011036755 0 -0.0010428710113848394 -0.011762452537694824 0 -0.00082794601931732202 -0.013336046631871155 0 -0.00089168563762178493 -0.012878093052377273 0 -0.00088822173908668803 -0.012844212669635686 0 -0.00087827623303681174 -0.012833611642775767 0 -0.00089168563762178493 -0.012878093052377273 0 -0.00089375472439823093 -0.012905564952936661 0 -0.00089266720310765589 -0.012875969980339649 0 -0.00090151995938100036 -0.012908265008610349 0 -0.00089168563762178493 -0.012878093052377273 0 -0.00089375472439823093 -0.012905564952936661 0 -0.00088642008740962431 -0.012907991569695125 0 -0.00089375472439823093 -0.012905564952936661 0 -0.00089266720310765589 -0.012875969980339649 0 -0.00088642008740962431 -0.012907991569695125 0 -0.00088457812166574531 -0.012950631955752325 0 -0.00089375472439823093 -0.012905564952936661 0 -0.00089384405964897638 -0.012836747508602173 0 -0.00088822173908668803 -0.012844212669635686 0 -0.00089266720310765589 -0.012875969980339649 0 -0.00089168563762178493 -0.012878093052377273 0 -0.00088822173908668803 -0.012844212669635686 0 -0.00089266720310765589 -0.012875969980339649 0 -0.00089384405964897638 -0.012836747508602173 0 -0.00088053676933934582 -0.012802178483662689 0 -0.00088822173908668803 -0.012844212669635686 0 -0.00088053676933934582 -0.012802178483662689 0 -0.00088822173908668803 -0.012844212669635686 0 -0.0008723471398751401 -0.01281371184866568 0 -0.00088053676933934582 -0.012802178483662689 0 -0.00085536418051156669 -0.012765046308268302 0 -0.0008723471398751401 -0.01281371184866568 0 -0.00085536418051156669 -0.012765046308268302 0 -0.0008723471398751401 -0.01281371184866568 0 -0.00084535821706945122 -0.012796845821922666 0 -0.00085536418051156669 -0.012765046308268302 0 -0.00084535821706945122 -0.012796845821922666 0 -0.00082740070122956308 -0.01276148491076497 0 -0.0008723471398751401 -0.01281371184866568 0 -0.00084535821706945122 -0.012796845821922666 0 -0.00087827623303681174 -0.012833611642775767 0 -0.00084535821706945122 -0.012796845821922666 0 -0.00087827623303681174 -0.012833611642775767 0 -0.0008404116076678144 -0.012817844944095869 0 -0.00088822173908668803 -0.012844212669635686 0 -0.0008723471398751401 -0.01281371184866568 0 -0.00087827623303681174 -0.012833611642775767 0 -0.00080181966742386612 -0.012711485596032374 0 -0.00078444826548277116 -0.012763736827848709 0 -0.00072951095534051866 -0.012713492547510547 0 -0.00078444826548277116 -0.012763736827848709 0 -0.0007303728074377914 -0.01275946667240932 0 -0.00072951095534051866 -0.012713492547510547 0 -0.00080181966742386612 -0.012711485596032374 0 -0.00078444826548277116 -0.012763736827848709 0 -0.00082740070122956308 -0.01276148491076497 0 -0.00078444826548277116 -0.012763736827848709 0 -0.00082740070122956308 -0.01276148491076497 0 -0.0008180066281227678 -0.012791624938077098 0 -0.00084535821706945122 -0.012796845821922666 0 -0.00082740070122956308 -0.01276148491076497 0 -0.0008180066281227678 -0.012791624938077098 0 -0.00085536418051156669 -0.012765046308268302 0 -0.00080181966742386612 -0.012711485596032374 0 -0.00082740070122956308 -0.01276148491076497 0 -0.00084535821706945122 -0.012796845821922666 0 -0.0008180066281227678 -0.012791624938077098 0 -0.0008404116076678144 -0.012817844944095869 0 -0.00078444826548277116 -0.012763736827848709 0 -0.0008180066281227678 -0.012791624938077098 0 -0.0007988168502224758 -0.012802533446915171 0 -0.0008180066281227678 -0.012791624938077098 0 -0.0007988168502224758 -0.012802533446915171 0 -0.0008404116076678144 -0.012817844944095869 0 -0.00078444826548277116 -0.012763736827848709 0 -0.00076180265172793237 -0.012786195731251811 0 -0.0007303728074377914 -0.01275946667240932 0 -0.00078444826548277116 -0.012763736827848709 0 -0.00076180265172793237 -0.012786195731251811 0 -0.0007988168502224758 -0.012802533446915171 0 -0.0015631915107788704 -0.0095714630914885135 0 -0.0010668718625148307 -0.010637761613307985 0 -0.00076180265172793237 -0.012786195731251811 0 -0.00077532289117090395 -0.012809876907363656 0 -0.0007166518879724136 -0.012793049330695328 0 -0.00077532289117090395 -0.012809876907363656 0 -0.00081065732815057854 -0.012823282669041054 0 -0.00079028847074552578 -0.012837323713749868 0 -0.00077532289117090395 -0.012809876907363656 0 -0.00079028847074552578 -0.012837323713749868 0 -0.0007166518879724136 -0.012793049330695328 0 -0.00076180265172793237 -0.012786195731251811 0 -0.00077532289117090395 -0.012809876907363656 0 -0.0007988168502224758 -0.012802533446915171 0 -0.00077532289117090395 -0.012809876907363656 0 -0.00081065732815057854 -0.012823282669041054 0 -0.0007988168502224758 -0.012802533446915171 0 -0.00081065732815057854 -0.012823282669041054 0 -0.0008404116076678144 -0.012817844944095869 0 -0.00084333234457429165 -0.01284189953501863 0 -0.00081065732815057854 -0.012823282669041054 0 -0.0007988168502224758 -0.012802533446915171 0 -0.0008404116076678144 -0.012817844944095869 0 -0.0017662438141148576 -0.008341206077444395 0 -0.0018506350069214426 -0.0084053187194578598 0 -0.001830630421186151 -0.008421957090124348 0 -0.0015631915107788704 -0.0095714630914885135 0 -0.0012614337756276584 -0.010696657109175443 0 -0.0017662438141148576 -0.008341206077444395 0 -0.001759934257588372 -0.0083316505630068073 0 -0.0018506350069214426 -0.0084053187194578598 0 -0.00081065732815057854 -0.012823282669041054 0 -0.00079028847074552578 -0.012837323713749868 0 -0.00084333234457429165 -0.01284189953501863 0 -0.0015631915107788704 -0.0095714630914885135 0 -0.0016016280907202084 -0.0082325718501832495 0 -0.001757577094102605 -0.0083224592982630626 0 -0.0017156757844768496 -0.0083460549594274874 0 -0.0016445256050575583 -0.0082447754947523842 0 -0.0017662438141148576 -0.008341206077444395 0 -0.001757577094102605 -0.0083224592982630626 0 -0.0017156757844768496 -0.0083460549594274874 0 -0.0015041875060197232 -0.0094299385709579828 0 -0.0015631915107788704 -0.0095714630914885135 0 -0.00088625847085661304 -0.012845271011036755 0 -0.00086794242692737954 -0.012834121979335911 0 -0.0008825807034710389 -0.012840432288151902 0 -0.00087827623303681174 -0.012833611642775767 0 -0.00088625847085661304 -0.012845271011036755 0 -0.00086794242692737954 -0.012834121979335911 0 -0.00086794242692737954 -0.012834121979335911 0 -0.0008404116076678144 -0.012817844944095869 0 -0.00084333234457429165 -0.01284189953501863 0 -0.00087827623303681174 -0.012833611642775767 0 -0.00086794242692737954 -0.012834121979335911 0 -0.0008404116076678144 -0.012817844944095869 0 -0.0018506350069214426 -0.0084053187194578598 0 -0.0019177890604763926 -0.0084632057931154619 0 -0.0018914472960310309 -0.0084717136616616773 0 -0.0012614337756276584 -0.010696657109175443 0 -0.0014886988940027914 -0.010571115991570115 0 -0.00086794242692737954 -0.012834121979335911 0 -0.00084333234457429165 -0.01284189953501863 0 -0.0008825807034710389 -0.012840432288151902 0 -0.0019382131382139193 -0.008504698077152267 0 -0.0019177890604763926 -0.0084632057931154619 0 -0.0019372242721731917 -0.008496480534271867 0 -0.0019372242721731917 -0.008496480534271867 0 -0.0019212491531542591 -0.0085151948555877606 0 -0.0018914472960310309 -0.0084717136616616773 0 -0.0019177890604763926 -0.0084632057931154619 0 -0.0019372242721731917 -0.008496480534271867 0 -0.0018914472960310309 -0.0084717136616616773 0 -0.0019212491531542591 -0.0085151948555877606 0 -0.0019056102002098861 -0.0085298500444896501 0 -0.0018914472960310309 -0.0084717136616616773 0 -0.0019372242721731917 -0.008496480534271867 0 -0.0019212491531542591 -0.0085151948555877606 0 -0.0019552618774053877 -0.0085673293450178392 0 -0.0019056102002098861 -0.0085298500444896501 0 -0.001960751064445846 -0.0085970004070564775 0 -0.0018677391376888484 -0.0085747773014871829 0 -0.0019212491531542591 -0.0085151948555877606 0 -0.0019552618774053877 -0.0085673293450178392 0 -0.0019056102002098861 -0.0085298500444896501 0 -0.0019552618774053877 -0.0085673293450178392 0 -0.0019056102002098861 -0.0085298500444896501 0 -0.001960751064445846 -0.0085970004070564775 0 -0.0021031923219829497 -0.0084808690872449528 0 -0.0023908346455290192 -0.0097985344234705063 0 -0.0019056102002098861 -0.0085298500444896501 0 -0.0018420709288640294 -0.0084778169757100553 0 -0.0018677391376888484 -0.0085747773014871829 0 -0.0019056102002098861 -0.0085298500444896501 0 -0.0018914472960310309 -0.0084717136616616773 0 -0.0018420709288640294 -0.0084778169757100553 0 -0.0018914472960310309 -0.0084717136616616773 0 -0.001830630421186151 -0.008421957090124348 0 -0.0018420709288640294 -0.0084778169757100553 0 -0.0018506350069214426 -0.0084053187194578598 0 -0.0018914472960310309 -0.0084717136616616773 0 -0.001830630421186151 -0.008421957090124348 0 -0.0017662438141148576 -0.008341206077444395 0 -0.001830630421186151 -0.008421957090124348 0 -0.0017739191199081731 -0.0084134755679718381 0 -0.001830630421186151 -0.008421957090124348 0 -0.0018420709288640294 -0.0084778169757100553 0 -0.0017739191199081731 -0.0084134755679718381 0 -0.0017662438141148576 -0.008341206077444395 0 -0.0017156757844768496 -0.0083460549594274874 0 -0.0017739191199081731 -0.0084134755679718381 0 -0.0017156757844768496 -0.0083460549594274874 0 -0.0017739191199081731 -0.0084134755679718381 0 -0.0017027169742650772 -0.008425197807863714 0 -0.0017027169742650772 -0.008425197807863714 0 -0.0017723811766229547 -0.0084923896703755289 0 -0.0016531679098757482 -0.0084798205173089568 0 -0.0017723811766229547 -0.0084923896703755289 0 -0.0017385837766789086 -0.0085711352127102441 0 -0.0016531679098757482 -0.0084798205173089568 0 -0.0017739191199081731 -0.0084134755679718381 0 -0.0017027169742650772 -0.008425197807863714 0 -0.0017723811766229547 -0.0084923896703755289 0 -0.0018420709288640294 -0.0084778169757100553 0 -0.0017723811766229547 -0.0084923896703755289 0 -0.0018677391376888484 -0.0085747773014871829 0 -0.0018420709288640294 -0.0084778169757100553 0 -0.0017739191199081731 -0.0084134755679718381 0 -0.0017723811766229547 -0.0084923896703755289 0 -0.0017723811766229547 -0.0084923896703755289 0 -0.0017385837766789086 -0.0085711352127102441 0 -0.0018677391376888484 -0.0085747773014871829 0 -0.0020928852685673642 -0.010097120336432074 0 -0.0022617762611818982 -0.010283251812844717 0 -0.0024409543502953075 -0.010067620455225936 0 -0.0019075173784074086 -0.0093312497502909715 0 -0.0021703652602036703 -0.0092605070555618705 0 -0.0020928852685673642 -0.010097120336432074 0 -0.0020913445737713796 -0.010341860547416006 0 -0.0019453697356328235 -0.010221114772770937 0 -0.0020928852685673642 -0.010097120336432074 0 -0.0020913445737713796 -0.010341860547416006 0 -0.0022617762611818982 -0.010283251812844717 0 -0.0020913445737713796 -0.010341860547416006 0 -0.0022617762611818982 -0.010283251812844717 0 -0.0022917802518725148 -0.010545638570576164 0 -0.0022617762611818982 -0.010283251812844717 0 -0.0024740599952139792 -0.01040211574281363 0 -0.0022917802518725148 -0.010545638570576164 0 -0.0022617762611818982 -0.010283251812844717 0 -0.0024740599952139792 -0.01040211574281363 0 -0.0024409543502953075 -0.010067620455225936 0 -0.0024740599952139792 -0.01040211574281363 0 -0.0026893471552119621 -0.010282996144653398 0 -0.0024409543502953075 -0.010067620455225936 0 -0.0024740599952139792 -0.01040211574281363 0 -0.0026893471552119621 -0.010282996144653398 0 -0.0027013017759845623 -0.010578744456279918 0 -0.0029451329658431854 -0.010357727766108348 0 -0.0026893471552119621 -0.010282996144653398 0 -0.0027013017759845623 -0.010578744456279918 0 -0.0023908346455290192 -0.0097985344234705063 0 -0.0021703652602036703 -0.0092605070555618705 0 -0.0026893471552119621 -0.010282996144653398 0 -0.0029105977395974965 -0.010035608013167024 0 -0.0024409543502953075 -0.010067620455225936 0 -0.0029451329658431854 -0.010357727766108348 0 -0.0026893471552119621 -0.010282996144653398 0 -0.0029105977395974965 -0.010035608013167024 0 -0.0015139850086965763 -0.0094351513668444915 0 -0.0020234037491432739 -0.0094208566716338336 0 -0.0014449690311184101 -0.0087876128468000001 0 -0.0012538264473088161 -0.0091354307683346753 0 -0.0015139850086965763 -0.0094351513668444915 0 -0.0010487593107988448 -0.0094162705771984826 0 -0.0015139850086965763 -0.0094351513668444915 0 -0.0010487593107988448 -0.0094162705771984826 0 -0.0013223498108479983 -0.0097819206930761637 0 -0.0015139850086965763 -0.0094351513668444915 0 -0.0013223498108479983 -0.0097819206930761637 0 -0.001650619464794507 -0.0098304992067757158 0 -0.0012538264473088161 -0.0091354307683346753 0 -0.0010487593107988448 -0.0094162705771984826 0 -0.00092414517349002402 -0.0088093477727361827 0 -0.0010487593107988448 -0.0094162705771984826 0 -0.00092414517349002402 -0.0088093477727361827 0 -0.00059903542019012763 -0.0092812850134816622 0 -0.0010487593107988448 -0.0094162705771984826 0 -0.00076842456360857959 -0.009639235792945627 0 -0.00059903542019012763 -0.0092812850134816622 0 -0.0010487593107988448 -0.0094162705771984826 0 -0.00076842456360857959 -0.009639235792945627 0 -0.00099726431230734956 -0.0099128155131033586 0 -0.0010487593107988448 -0.0094162705771984826 0 -0.00099726431230734956 -0.0099128155131033586 0 -0.0013223498108479983 -0.0097819206930761637 0 -0.00076842456360857959 -0.009639235792945627 0 -0.00099726431230734956 -0.0099128155131033586 0 -0.00072410191796603858 -0.01004407963089644 0 -0.00099726431230734956 -0.0099128155131033586 0 -0.0013223498108479983 -0.0097819206930761637 0 -0.0012408914409000858 -0.010092173811543275 0 -0.0013223498108479983 -0.0097819206930761637 0 -0.0014979381873574231 -0.010095684966802085 0 -0.001650619464794507 -0.0098304992067757158 0 -0.0013223498108479983 -0.0097819206930761637 0 -0.0014979381873574231 -0.010095684966802085 0 -0.0012408914409000858 -0.010092173811543275 0 -0.001650619464794507 -0.0098304992067757158 0 -0.0018002603185197539 -0.010186472602818103 0 -0.0019499231101500326 -0.0099277651250061598 0 -0.0014979381873574231 -0.010095684966802085 0 -0.001650619464794507 -0.0098304992067757158 0 -0.0018002603185197539 -0.010186472602818103 0 -0.0020913445737713796 -0.010341860547416006 0 -0.0018002603185197539 -0.010186472602818103 0 -0.0019499231101500326 -0.0099277651250061598 0 -0.0020624133472684544 -0.010269895590635198 0 -0.0019810716539139682 -0.010112141366605121 0 -0.0020928852685673642 -0.010097120336432074 0 -0.0019453697356328235 -0.010221114772770937 0 -0.0018086030741118649 -0.01009485401856477 0 -0.0019075173784074086 -0.0093312497502909715 0 -0.0016920723223297423 -0.0094209943273762704 0 -0.0017385837766789086 -0.0085711352127102441 0 -0.001530875611576206 -0.0085870004295201582 0 -0.0016531679098757482 -0.0084798205173089568 0 -0.0019810716539139682 -0.010112141366605121 0 -0.0016920723223297423 -0.0094209943273762704 0 -0.001650619464794507 -0.0098304992067757158 0 -0.0019499231101500326 -0.0099277651250061598 0 -0.0017465368351123737 -0.0095604252933845606 0 -0.0015139850086965763 -0.0094351513668444915 0 -0.001650619464794507 -0.0098304992067757158 0 -0.0017465368351123737 -0.0095604252933845606 0 -0.0016083973080340869 -0.0094502548921335007 0 -0.0016920723223297423 -0.0094209943273762704 0 -0.0016920723223297423 -0.0094209943273762704 0 -0.0013771856366746791 -0.0085359490981553217 0 -0.001530875611576206 -0.0085870004295201582 0 -0.0015373424651388015 -0.0083898752439976899 0 -0.0013577975620063349 -0.008437526587413164 0 -0.0017027169742650772 -0.008425197807863714 0 -0.0016531679098757482 -0.0084798205173089568 0 -0.0016316294831407402 -0.0083486309784282595 0 -0.0015373424651388015 -0.0083898752439976899 0 -0.0016531679098757482 -0.0084798205173089568 0 -0.0016316294831407402 -0.0083486309784282595 0 -0.001530875611576206 -0.0085870004295201582 0 -0.0015373424651388015 -0.0083898752439976899 0 -0.0016531679098757482 -0.0084798205173089568 0 -0.0017156757844768496 -0.0083460549594274874 0 -0.0017027169742650772 -0.008425197807863714 0 -0.0016316294831407402 -0.0083486309784282595 0 -0.0017156757844768496 -0.0083460549594274874 0 -0.0016316294831407402 -0.0083486309784282595 0 -0.0016445256050575583 -0.0082447754947523842 0 -0.0015373424651388015 -0.0083898752439976899 0 -0.0014261784879610565 -0.0082393722661299618 0 -0.0014820838106632944 -0.008171028729597624 0 -0.0015373424651388015 -0.0083898752439976899 0 -0.0014261784879610565 -0.0082393722661299618 0 -0.0013577975620063349 -0.008437526587413164 0 -0.0015373424651388015 -0.0083898752439976899 0 -0.0016316294831407402 -0.0083486309784282595 0 -0.0014820838106632944 -0.008171028729597624 0 -0.0014261784879610565 -0.0082393722661299618 0 -0.0012793937332519906 -0.0080862003652267811 0 -0.0013577975620063349 -0.008437526587413164 0 -0.0014261784879610565 -0.0082393722661299618 0 -0.0012793937332519906 -0.0080862003652267811 0 -0.0014155773722612731 -0.0081251964651730176 0 -0.0012538264473088161 -0.0091354307683346753 0 -0.0015139850086965763 -0.0094351513668444915 0 -0.0014449690311184101 -0.0087876128468000001 0 -0.0014449690311184101 -0.0087876128468000001 0 -0.00092414517349002402 -0.0088093477727361827 0 -0.0009516949941411547 -0.0081225030823450176 0 -0.0012538264473088161 -0.0091354307683346753 0 -0.0014449690311184101 -0.0087876128468000001 0 -0.00092414517349002402 -0.0088093477727361827 0 -0.0013771856366746791 -0.0085359490981553217 0 -0.00097644234268611982 -0.0081739882023684884 0 -0.0012793937332519906 -0.0080862003652267811 0 -0.0013577975620063349 -0.008437526587413164 0 -0.0009516949941411547 -0.0081225030823450176 0 -0.00092414517349002402 -0.0088093477727361827 0 -0.0009516949941411547 -0.0081225030823450176 0 -0.00059921043544430136 -0.0084308745366071403 0 -0.0009516949941411547 -0.0081225030823450176 0 -0.0010636437886126829 -0.0076257776440881702 0 -0.00068167475427579802 -0.0075975248241295437 0 -0.0010636437886126829 -0.0076257776440881702 0 -0.00095824119414017223 -0.0072071346452546583 0 -0.00068167475427579802 -0.0075975248241295437 0 -0.0012793937332519906 -0.0080862003652267811 0 -0.0009516949941411547 -0.0081225030823450176 0 -0.0010636437886126829 -0.0076257776440881702 0 -0.0012793937332519906 -0.0080862003652267811 0 -0.0014155773722612731 -0.0081251964651730176 0 -0.0014344296279467383 -0.0081038486171865314 0 -0.0012652825623071565 -0.0081247886937788477 0 -0.001413596489817807 -0.007556880900269884 0 -0.0012793937332519906 -0.0080862003652267811 0 -0.0010636437886126829 -0.0076257776440881702 0 -0.0013514045537786911 -0.0071848978756599733 0 -0.0010636437886126829 -0.0076257776440881702 0 -0.0013514045537786911 -0.0071848978756599733 0 -0.00095824119414017223 -0.0072071346452546583 0 -0.0013514045537786911 -0.0071848978756599733 0 -0.00095824119414017223 -0.0072071346452546583 0 -0.0010296315030427273 -0.0069370909705062864 0 -0.0016016280907202084 -0.0082325718501832495 0 -0.0014818028759023794 -0.0081882354553900905 0 -0.0015727615884252733 -0.0081920098075519057 0 -0.0015194861253455946 -0.0081812922320203471 0 -0.0015024469244044731 -0.0081135746807340422 0 -0.0016316294831407402 -0.0083486309784282595 0 -0.0016445256050575583 -0.0082447754947523842 0 -0.0014820838106632944 -0.008171028729597624 0 -0.0015194861253455946 -0.0081812922320203471 0 -0.0014820838106632944 -0.008171028729597624 0 -0.0014677384716779754 -0.0081251426666262387 0 -0.0014261784879610565 -0.0082393722661299618 0 -0.0014155773722612731 -0.0081251964651730176 0 -0.0014820838106632944 -0.008171028729597624 0 -0.0014155773722612731 -0.0081251964651730176 0 -0.0014820838106632944 -0.008171028729597624 0 -0.0014677384716779754 -0.0081251426666262387 0 -0.0014155773722612731 -0.0081251964651730176 0 -0.0014344296279467383 -0.0081038486171865314 0 -0.0014677384716779754 -0.0081251426666262387 0 -0.0014344296279467383 -0.0081038486171865314 0 -0.0014634340035632324 -0.0081035027051710017 0 -0.0014677384716779754 -0.0081251426666262387 0 -0.0014634340035632324 -0.0081035027051710017 0 -0.0014677384716779754 -0.0081251426666262387 0 -0.0015024469244044731 -0.0081135746807340422 0 -0.0015194861253455946 -0.0081812922320203471 0 -0.0014677384716779754 -0.0081251426666262387 0 -0.0015024469244044731 -0.0081135746807340422 0 -0.0007166518879724136 -0.012793049330695328 0 -0.0007303728074377914 -0.01275946667240932 0 -0.00069279578353247313 -0.012746708553814805 0 -0.0007166518879724136 -0.012793049330695328 0 -0.00069279578353247313 -0.012746708553814805 0 -0.00065578336568395941 -0.012743253919769328 0 -0.00076180265172793237 -0.012786195731251811 0 -0.0007166518879724136 -0.012793049330695328 0 -0.0007303728074377914 -0.01275946667240932 0 -0.0010668718625148307 -0.010637761613307985 0 -0.001272360858809384 -0.010306928956631689 0 -0.0014344296279467383 -0.0081038486171865314 0 -0.0014634340035632324 -0.0081035027051710017 0 -0.0014595345483666533 -0.0080816113088841967 0 -0.0014634340035632324 -0.0081035027051710017 0 -0.0014671968702696244 -0.0080913956764591868 0 -0.0014595345483666533 -0.0080816113088841967 0 -0.0014634340035632324 -0.0081035027051710017 0 -0.0015024469244044731 -0.0081135746807340422 0 -0.0014671968702696244 -0.0080913956764591868 0 -0.0011597405440853094 -0.0098588920034107796 0 -0.00090175652419358327 -0.0095635864266769184 0 -0.00097227396775526281 -0.0093310497334132599 0 -0.001272360858809384 -0.010306928956631689 0 -0.00083697229260042225 -0.010390473583888704 0 -0.001272360858809384 -0.010306928956631689 0 -0.001293651817542643 -0.0079637239862883832 0 -0.001293651817542643 -0.0079637239862883832 0 -0.00083697229260042225 -0.010390473583888704 0 -0.0013270035454934757 -0.0069916155245607122 0 -0.0013496420732380947 -0.0069122582732236036 0 -0.001220693556448083 -0.0068389902213364939 0 -0.00066810455848937149 -0.012681518040352922 0 -0.00062855845823386121 -0.012695196059482711 0 -0.00068063314759900457 -0.012715786799358407 0 -0.00065578336568395941 -0.012743253919769328 0 -0.00062855845823386121 -0.012695196059482711 0 -0.00068063314759900457 -0.012715786799358407 0 -0.00069279578353247313 -0.012746708553814805 0 -0.00065578336568395941 -0.012743253919769328 0 -0.00068063314759900457 -0.012715786799358407 0 -0.0007303728074377914 -0.01275946667240932 0 -0.00069279578353247313 -0.012746708553814805 0 -0.00068063314759900457 -0.012715786799358407 0 -0.00066810455848937149 -0.012681518040352922 0 -0.00068063314759900457 -0.012715786799358407 0 -0.00072951095534051866 -0.012713492547510547 0 -0.0007303728074377914 -0.01275946667240932 0 -0.00068063314759900457 -0.012715786799358407 0 -0.00072951095534051866 -0.012713492547510547 0 -0.00095872666883140153 -0.0071742803864053902 0 -0.00096170969502172457 -0.0066241796752608932 0 -0.0013514045537786911 -0.0071848978756599733 0 -0.0010296315030427273 -0.0069370909705062864 0 -0.0011853895901220044 -0.0069115440760425069 0 -0.0013514045537786911 -0.0071848978756599733 0 -0.0013327777768710602 -0.0069202362713965473 0 -0.0011853895901220044 -0.0069115440760425069 0 -0.001413596489817807 -0.007556880900269884 0 -0.001293651817542643 -0.0079637239862883832 0 -0.0010187020716409074 -0.0067385456334139796 0 -0.0011853895901220044 -0.0069115440760425069 0 -0.001220693556448083 -0.0068389902213364939 0 -0.001293651817542643 -0.0079637239862883832 0 -0.0010472815690963932 -0.0067564713026510162 0 -0.0013327777768710602 -0.0069202362713965473 0 -0.0011853895901220044 -0.0069115440760425069 0 -0.001220693556448083 -0.0068389902213364939 0 -0.00091496662112573431 -0.0063151756347307872 0 -0.00096170969502172457 -0.0066241796752608932 0 -0.0010187020716409074 -0.0067385456334139796 0 -0.0010296315030427273 -0.0069370909705062864 0 -0.0011853895901220044 -0.0069115440760425069 0 -0.00054897332536662656 -0.0059082737432685781 0 -0.00081096239292148781 -0.0058865701769083125 0 -0.00090492077732517333 -0.0062653178099373111 0 -0.00054897332536662656 -0.0059082737432685781 0 -0.00090492077732517333 -0.0062653178099373111 0 -0.00019908842845373559 -0.0062886229036810751 0 -0.00090492077732517333 -0.0062653178099373111 0 -0.00019908842845373559 -0.0062886229036810751 0 -0.00043304584874667669 -0.0069527329227434195 0 -0.00019908842845373559 -0.0062886229036810751 0 0.0003415978189638734 -0.0068580131198392614 0 -0.00043304584874667669 -0.0069527329227434195 0 -0.00052279272567980846 -0.0055932368144180752 0 -0.00022645939257729915 -0.0062717038202900061 0 0.00014898906320196296 -0.0053021175274346848 0 -0.0005041313807443757 -0.0052935865091387896 0 -0.00019908842845373559 -0.0062886229036810751 0 0.00014898906320196296 -0.0053021175274346848 0 0.00076306484827433211 -0.0055930134971402179 0 0.00046983050740695794 -0.0062306338319030059 0 0.00014898906320196296 -0.0053021175274346848 0 -0.00019908842845373559 -0.0062886229036810751 0 0.00046983050740695794 -0.0062306338319030059 0 0.00076306484827433211 -0.0055930134971402179 0 0.00098405724455518121 -0.0064903210986594585 0 0.00046983050740695794 -0.0062306338319030059 0 0.00076306484827433211 -0.0055930134971402179 0 0.00098405724455518121 -0.0064903210986594585 0 0.0013770700718368513 -0.0061113988050239222 0 -0.00019908842845373559 -0.0062886229036810751 0 0.00046983050740695794 -0.0062306338319030059 0 0.0003415978189638734 -0.0068580131198392614 0 0.00098405724455518121 -0.0064903210986594585 0 0.00046983050740695794 -0.0062306338319030059 0 0.0003415978189638734 -0.0068580131198392614 0 0.00098405724455518121 -0.0064903210986594585 0 0.0003415978189638734 -0.0068580131198392614 0 0.0009290245793050734 -0.0074240929952111706 0 0.00098405724455518121 -0.0064903210986594585 0 0.0009290245793050734 -0.0074240929952111706 0 0.0014518295209101132 -0.0069417272490144887 0 0.0009290245793050734 -0.0074240929952111706 0 0.0014518295209101132 -0.0069417272490144887 0 0.0012802260267756255 -0.0074421685819750704 0 0.0009290245793050734 -0.0074240929952111706 0 -0.0001066233583659932 -0.0075618301533235165 0 0.00025949428583277073 -0.0080987282591619726 0 0.0003415978189638734 -0.0068580131198392614 0 0.0009290245793050734 -0.0074240929952111706 0 -0.0001066233583659932 -0.0075618301533235165 0 -0.0001066233583659932 -0.0075618301533235165 0 -0.00068167475427579802 -0.0075975248241295437 0 -0.00043304584874667669 -0.0069527329227434195 0 -0.0001066233583659932 -0.0075618301533235165 0 -0.00068167475427579802 -0.0075975248241295437 0 -0.00056888067946423695 -0.0080197605608352714 0 -0.00095824119414017223 -0.0072071346452546583 0 -0.00068167475427579802 -0.0075975248241295437 0 -0.00043304584874667669 -0.0069527329227434195 0 -0.00095824119414017223 -0.0072071346452546583 0 -0.00090492077732517333 -0.0062653178099373111 0 -0.00043304584874667669 -0.0069527329227434195 0 0.0003415978189638734 -0.0068580131198392614 0 -0.0001066233583659932 -0.0075618301533235165 0 -0.00043304584874667669 -0.0069527329227434195 0 0.0024525024635156166 -0.0066223707024819908 0 0.0025131066290727988 -0.0060350490893430553 0 0.0021813881141900435 -0.0063839733663457084 0 0.0019722927519990794 -0.0052787659048286638 0 0.0020651990368877105 -0.0051560954923090992 0 0.0020468350680526034 -0.0054177127541788859 0 0.0018649070792688947 -0.0050908626041144449 0 0.0019722927519990794 -0.0052787659048286638 0 0.0020651990368877105 -0.0051560954923090992 0 0.002205969307516817 -0.0059867250646047599 0 0.0026648462796761484 -0.0053065465124668906 0 0.0019722927519990794 -0.0052787659048286638 0 0.0020258755091538297 -0.00543968844185905 0 0.0020468350680526034 -0.0054177127541788859 0 0.0031365976365730526 -0.0053270915483286559 0 0.0031161058420226821 -0.0054976473155138724 0 0.0025917665693661308 -0.0053660967210305719 0 0.0028531887615803595 -0.0046399952926606935 0 0.002868374374859831 -0.0046549318746384773 0 0.0028702127993504873 -0.0046226697235949047 0 0.0029803517511338288 -0.0048173966114697809 0 0.0026648462796761484 -0.0053065465124668906 0 0.0028765383681789067 -0.0049134306089936627 0 0.002924635695765745 -0.0050270562657490567 0 0.002871493624066539 -0.0049752134723402754 0 0.0030551876801679211 -0.0043338466889784599 0 0.0029803517511338288 -0.0048173966114697809 0 0.0030551876801679211 -0.0043338466889784599 0 0.0026648462796761484 -0.0053065465124668906 0 0.0026648462796761484 -0.0053065465124668906 0 0.0023285699116756013 -0.0062967884411062229 0 0.0031161058420226821 -0.0054976473155138724 0 0.0025917665693661308 -0.0053660967210305719 0 0.0025156207128853828 -0.006106692684583896 0 0.0025917665693661308 -0.0053660967210305719 0 0.002245103703800066 -0.0056713924333295467 0 0.0025156207128853828 -0.006106692684583896 0 0.0020395033705396851 -0.0051984916229271547 0 0.0025917665693661308 -0.0053660967210305719 0 0.002245103703800066 -0.0056713924333295467 0 0.0024525024635156166 -0.0066223707024819908 0 0.0021813881141900435 -0.0063839733663457084 0 0.0021731127750925744 -0.006648801556101906 0 0.0021813881141900435 -0.0063839733663457084 0 0.0019246202245686132 -0.0066708185340511976 0 0.0021731127750925744 -0.006648801556101906 0 0.0023285699116756013 -0.0062967884411062229 0 0.0019743354668553727 -0.0066186810978216028 0 0.0018580828415066968 -0.0059544158003716693 0 0.0013770700718368513 -0.0061113988050239222 0 0.0019246202245686132 -0.0066708185340511976 0 0.0025156207128853828 -0.006106692684583896 0 0.0018580828415066968 -0.0059544158003716693 0 0.0019246202245686132 -0.0066708185340511976 0 0.0020395033705396851 -0.0051984916229271547 0 0.001426549579256904 -0.005391143850656031 0 0.0018580828415066968 -0.0059544158003716693 0 0.0020395033705396851 -0.0051984916229271547 0 0.002245103703800066 -0.0056713924333295467 0 0.0018580828415066968 -0.0059544158003716693 0 0.002245103703800066 -0.0056713924333295467 0 0.0025156207128853828 -0.006106692684583896 0 0.0018580828415066968 -0.0059544158003716693 0 0.001426549579256904 -0.005391143850656031 0 0.00076306484827433211 -0.0055930134971402179 0 0.0013770700718368513 -0.0061113988050239222 0 0.001426549579256904 -0.005391143850656031 0 0.0018580828415066968 -0.0059544158003716693 0 0.0013770700718368513 -0.0061113988050239222 0 0.00098405724455518121 -0.0064903210986594585 0 0.0013770700718368513 -0.0061113988050239222 0 0.0014518295209101132 -0.0069417272490144887 0 0.0013770700718368513 -0.0061113988050239222 0 0.0014518295209101132 -0.0069417272490144887 0 0.0019246202245686132 -0.0066708185340511976 0 0.0014518295209101132 -0.0069417272490144887 0 0.001685583174642846 -0.007283928511388124 0 0.0012802260267756255 -0.0074421685819750704 0 0.0014518295209101132 -0.0069417272490144887 0 0.001685583174642846 -0.007283928511388124 0 0.0019711291792716547 -0.0070773794366942788 0 0.0019711291792716547 -0.0070773794366942788 0 0.0021644970810511675 -0.0071479204868896678 0 0.0019686486496639823 -0.0073036416556254945 0 0.001685583174642846 -0.007283928511388124 0 0.0019711291792716547 -0.0070773794366942788 0 0.0019686486496639823 -0.0073036416556254945 0 0.0014518295209101132 -0.0069417272490144887 0 0.0019711291792716547 -0.0070773794366942788 0 0.0019246202245686132 -0.0066708185340511976 0 0.0019711291792716547 -0.0070773794366942788 0 0.0019246202245686132 -0.0066708185340511976 0 0.0021738800221057846 -0.0069270407274036432 0 0.0024525024635156166 -0.0066223707024819908 0 0.0021738800221057846 -0.0069270407274036432 0 0.0022418165424140501 -0.0072728572028483733 0 0.0019246202245686132 -0.0066708185340511976 0 0.0021731127750925744 -0.006648801556101906 0 0.0021738800221057846 -0.0069270407274036432 0 0.0024525024635156166 -0.0066223707024819908 0 0.0021731127750925744 -0.006648801556101906 0 0.0021738800221057846 -0.0069270407274036432 0 0.0019711291792716547 -0.0070773794366942788 0 0.0021738800221057846 -0.0069270407274036432 0 0.0021644970810511675 -0.0071479204868896678 0 0.0021644970810511675 -0.0071479204868896678 0 0.0022728651130527523 -0.0070527387703715732 0 0.0019686486496639823 -0.0073036416556254945 0 0.0021644970810511675 -0.0071479204868896678 0 0.0022418165424140501 -0.0072728572028483733 0 0.0022728651130527523 -0.0070527387703715732 0 0.0021738800221057846 -0.0069270407274036432 0 0.0021644970810511675 -0.0071479204868896678 0 0.0022418165424140501 -0.0072728572028483733 0 0.0020982228841603845 -0.0048785312398453226 0 0.001948229593585883 -0.0048443207786443903 0 0.0020090555793763859 -0.0047167482227713341 0 0.0020982228841603845 -0.0048785312398453226 0 0.001948229593585883 -0.0048443207786443903 0 0.0019748751732083765 -0.0049896710218070043 0 0.0020651990368877105 -0.0051560954923090992 0 0.0020982228841603845 -0.0048785312398453226 0 0.0019748751732083765 -0.0049896710218070043 0 0.0018649070792688947 -0.0050908626041144449 0 0.0020651990368877105 -0.0051560954923090992 0 0.0019748751732083765 -0.0049896710218070043 0 0.002205969307516817 -0.0059867250646047599 0 0.0021693245005039463 -0.0060211756115678382 0 0.0018921948070151819 -0.0043852420624327215 0 0.0019829728746160098 -0.0045765883127400087 0 0.0020649158582246091 -0.004449266267351564 0 0.0019829728746160098 -0.0045765883127400087 0 0.0021351588607928908 -0.0045832339185546151 0 0.0020649158582246091 -0.004449266267351564 0 0.0021693245005039463 -0.0060211756115678382 0 0.0020981657246180101 -0.0054319361908416316 0 0.0020982228841603845 -0.0048785312398453226 0 0.0020090555793763859 -0.0047167482227713341 0 0.0021351588607928908 -0.0045832339185546151 0 0.0018735303680773611 -0.0047015660813807944 0 0.0019829728746160098 -0.0045765883127400087 0 0.0020090555793763859 -0.0047167482227713341 0 0.0018735303680773611 -0.0047015660813807944 0 0.001948229593585883 -0.0048443207786443903 0 0.0020090555793763859 -0.0047167482227713341 0 0.0019829728746160098 -0.0045765883127400087 0 0.0020090555793763859 -0.0047167482227713341 0 0.0021351588607928908 -0.0045832339185546151 0 0.0022728651130527523 -0.0070527387703715732 0 0.0018829102175160521 -0.0079089487423834332 0 0.0019686486496639823 -0.0073036416556254945 0 0.0022728651130527523 -0.0070527387703715732 0 0.0024524193248023265 -0.0065613638378517573 0 0.0020077799791615807 -0.0063291917828209006 0 0.0022418165424140501 -0.0072728572028483733 0 0.0022728651130527523 -0.0070527387703715732 0 0.0020077799791615807 -0.0063291917828209006 0 0.0022728651130527523 -0.0070527387703715732 0 0.0024524193248023265 -0.0065613638378517573 0 0.0030294700012698256 -0.0061593162018282232 0 0.0020776753621335842 -0.0072292875415911383 0 0.0029706276290403979 -0.0067273978309611545 0 0.0024524193248023265 -0.0065613638378517573 0 0.0027144472850575449 -0.0055957127940457719 0 0.0033429162538390934 -0.0058777974388533431 0 0.0026844481599603062 -0.0063940263350320868 0 0.0029706276290403979 -0.0067273978309611545 0 0.0020077799791615807 -0.0063291917828209006 0 0.0027144472850575449 -0.0055957127940457719 0 0.0022444836255750378 -0.0044258735230558377 0 0.0024524193248023265 -0.0065613638378517573 0 0.0020077799791615807 -0.0063291917828209006 0 0.0027144472850575449 -0.0055957127940457719 0 0.0027144472850575449 -0.0055957127940457719 0 0.0033429162538390934 -0.0058777974388533431 0 0.003381653547253572 -0.0048138933067770843 0 0.0018829102175160521 -0.0079089487423834332 0 0.0016072562004243146 -0.0075856315929711407 0 0.0015064314182348887 -0.0079106857918869369 0 0.0018829102175160521 -0.0079089487423834332 0 0.0019686486496639823 -0.0073036416556254945 0 0.0016072562004243146 -0.0075856315929711407 0 0.001685583174642846 -0.007283928511388124 0 0.0019686486496639823 -0.0073036416556254945 0 0.0016072562004243146 -0.0075856315929711407 0 0.001685583174642846 -0.007283928511388124 0 0.0016072562004243146 -0.0075856315929711407 0 0.0012802260267756255 -0.0074421685819750704 0 0.0016072562004243146 -0.0075856315929711407 0 0.0012802260267756255 -0.0074421685819750704 0 0.0013752997563051222 -0.0077297551901759414 0 0.0029706276290403979 -0.0067273978309611545 0 0.0019263261697340872 -0.0078740930450795499 0 0.0013752997563051222 -0.0077297551901759414 0 0.0015064314182348887 -0.0079106857918869369 0 0.0012152607415574076 -0.0080106656777954831 0 0.0018829102175160521 -0.0079089487423834332 0 0.0015064314182348887 -0.0079106857918869369 0 0.0013944997739286868 -0.0082388783598346341 0 0.0016072562004243146 -0.0075856315929711407 0 0.0013752997563051222 -0.0077297551901759414 0 0.0015064314182348887 -0.0079106857918869369 0 0.0015064314182348887 -0.0079106857918869369 0 0.0013944997739286868 -0.0082388783598346341 0 0.0012152607415574076 -0.0080106656777954831 0 0.0029706276290403979 -0.0067273978309611545 0 0.0027208521707235869 -0.0055278899317924169 0 0.0036539392038637546 -0.0066261963222339028 0 0.0026107191364106433 -0.007337552130335428 0 0.0026403969474365647 -0.0077837434710934647 0 0.0026107191364106433 -0.007337552130335428 0 0.0026403969474365647 -0.0077837434710934647 0 0.0024127676910090531 -0.0076578666715404736 0 0.0027208521707235869 -0.0055278899317924169 0 0.0029718860940527829 -0.0061191859209681534 0 0.001678496555135146 -0.0029225442914083818 0 0.0016678966163253257 -0.0034248499992810882 0 0.0022517080113599467 -0.0033217675550721911 0 0.0043392702871561748 -0.0046239271823697945 0 0.0030899938159398414 -0.0039140569860224642 0 0.003381653547253572 -0.0048138933067770843 0 0.0027208521707235869 -0.0055278899317924169 0 0.0026377437441283823 -0.0034127281570410957 0 0.0030899938159398414 -0.0039140569860224642 0 0.003381653547253572 -0.0048138933067770843 0 0.0022444836255750378 -0.0044258735230558377 0 0.0033429162538390934 -0.0058777974388533431 0 0.0043392702871561748 -0.0046239271823697945 0 0.003381653547253572 -0.0048138933067770843 0 0.0027144472850575449 -0.0055957127940457719 0 0.003381653547253572 -0.0048138933067770843 0 0.0022444836255750378 -0.0044258735230558377 0 0.0020981657246180101 -0.0054319361908416316 0 0.0022191456346228504 -0.0044885282916012929 0 0.0030899938159398414 -0.0039140569860224642 0 0.0024046537268474725 -0.0039836748209218639 0 0.002203685858249752 -0.003651244862258784 0 0.0030899938159398414 -0.0039140569860224642 0 0.0022444836255750378 -0.0044258735230558377 0 0.0024046537268474725 -0.0039836748209218639 0 0.0024046537268474725 -0.0039836748209218639 0 0.0021355048884394013 -0.0039906833529970145 0 0.002203685858249752 -0.003651244862258784 0 0.0022444836255750378 -0.0044258735230558377 0 0.0024046537268474725 -0.0039836748209218639 0 0.0021355048884394013 -0.0039906833529970145 0 0.0022444836255750378 -0.0044258735230558377 0 0.0021355048884394013 -0.0039906833529970145 0 0.0019771273850933543 -0.0041542459055417605 0 0.0018703164401211944 -0.0038252041738790067 0 0.0021355048884394013 -0.0039906833529970145 0 0.0019771273850933543 -0.0041542459055417605 0 0.0021351588607928908 -0.0045832339185546151 0 0.0022444836255750378 -0.0044258735230558377 0 0.0020649158582246091 -0.004449266267351564 0 0.0022444836255750378 -0.0044258735230558377 0 0.0019771273850933543 -0.0041542459055417605 0 0.0020649158582246091 -0.004449266267351564 0 0.0018921948070151819 -0.0043852420624327215 0 0.0019771273850933543 -0.0041542459055417605 0 0.0020649158582246091 -0.004449266267351564 0 0.00010879850577350883 -0.0088082892177035483 0 -0.00039453629347994046 -0.0088409757016751894 0 -9.3413366646498855e-05 -0.0093793720298677597 0 0.00010879850577350883 -0.0088082892177035483 0 -0.00039453629347994046 -0.0088409757016751894 0 -0.00022631242999443039 -0.0083047319106002299 0 -0.00092414517349002402 -0.0088093477727361827 0 -0.00039453629347994046 -0.0088409757016751894 0 -0.00059903542019012763 -0.0092812850134816622 0 -0.00092414517349002402 -0.0088093477727361827 0 -0.00039453629347994046 -0.0088409757016751894 0 -0.00059921043544430136 -0.0084308745366071403 0 -0.00039453629347994046 -0.0088409757016751894 0 -0.00059921043544430136 -0.0084308745366071403 0 -0.00022631242999443039 -0.0083047319106002299 0 -0.00059921043544430136 -0.0084308745366071403 0 -0.00056888067946423695 -0.0080197605608352714 0 -0.00022631242999443039 -0.0083047319106002299 0 -0.0001066233583659932 -0.0075618301533235165 0 -0.00056888067946423695 -0.0080197605608352714 0 -0.00022631242999443039 -0.0083047319106002299 0 -0.0009516949941411547 -0.0081225030823450176 0 -0.00059921043544430136 -0.0084308745366071403 0 -0.00056888067946423695 -0.0080197605608352714 0 -0.0009516949941411547 -0.0081225030823450176 0 -0.00068167475427579802 -0.0075975248241295437 0 -0.00056888067946423695 -0.0080197605608352714 0 0.00010879850577350883 -0.0088082892177035483 0 0.00025949428583277073 -0.0080987282591619726 0 -0.00022631242999443039 -0.0083047319106002299 0 -0.0001066233583659932 -0.0075618301533235165 0 0.00025949428583277073 -0.0080987282591619726 0 -0.00022631242999443039 -0.0083047319106002299 0 0.00092588233699313896 -0.0074840567741876196 0 0.00077413515782838286 -0.0081064333416575058 0 0.0009290245793050734 -0.0074240929952111706 0 0.00025949428583277073 -0.0080987282591619726 0 0.0007387784434867335 -0.0084391419943036713 0 0.0012802260267756255 -0.0074421685819750704 0 0.0013752997563051222 -0.0077297551901759414 0 0.00082239697244439116 -0.0077980108970565959 0 0.0009290245793050734 -0.0074240929952111706 0 0.0012802260267756255 -0.0074421685819750704 0 0.00082239697244439116 -0.0077980108970565959 0 0.0013752997563051222 -0.0077297551901759414 0 0.0012152607415574076 -0.0080106656777954831 0 0.00082239697244439116 -0.0077980108970565959 0 0.0012152607415574076 -0.0080106656777954831 0 0.00082239697244439116 -0.0077980108970565959 0 0.00097544832935728403 -0.0081611551562061138 0 0.00010879850577350883 -0.0088082892177035483 0 0.0007387784434867335 -0.0084391419943036713 0 0.0004688135549395457 -0.0092698984723001317 0 0.00077413515782838286 -0.0081064333416575058 0 0.00056503469190361151 -0.0087989562562661872 0 0.00010879850577350883 -0.0088082892177035483 0 0.00025949428583277073 -0.0080987282591619726 0 0.0007387784434867335 -0.0084391419943036713 0 0.00082239697244439116 -0.0077980108970565959 0 0.00065657121837182908 -0.008309687037103386 0 0.00097544832935728403 -0.0081611551562061138 0 0.00065657121837182908 -0.008309687037103386 0 0.00097544832935728403 -0.0081611551562061138 0 0.00095013479641345758 -0.0085394818983246055 0 0.0026486335403099947 -0.007805179484453465 0 0.0024127676910090531 -0.0076578666715404736 0 0.0014762077055853302 -0.0081129558067674409 0 0.0011336821407272322 -0.0082379752907134583 0 0.00097544832935728403 -0.0081611551562061138 0 0.00095013479641345758 -0.0085394818983246055 0 0.0019263261697340872 -0.0078740930450795499 0 0.0012743288098837867 -0.0082526323549972601 0 0.0013944997739286868 -0.0082388783598346341 0 0.0011336821407272322 -0.0082379752907134583 0 0.00095013479641345758 -0.0085394818983246055 0 0.0026107191364106433 -0.007337552130335428 0 0.0024127676910090531 -0.0076578666715404736 0 0.0014762077055853302 -0.0081129558067674409 0 0.0012152607415574076 -0.0080106656777954831 0 0.0011336821407272322 -0.0082379752907134583 0 0.00097544832935728403 -0.0081611551562061138 0 0.0013944997739286868 -0.0082388783598346341 0 0.0012152607415574076 -0.0080106656777954831 0 0.0011336821407272322 -0.0082379752907134583 0 0.0026486335403099947 -0.007805179484453465 0 0.0014762077055853302 -0.0081129558067674409 0 0.0015623469506812059 -0.0090645642865370187 0 0.0027208521707235869 -0.0055278899317924169 0 0.001208368158619439 -0.0062700391866776966 0 0.001678496555135146 -0.0029225442914083818 0 0.0016678966163253257 -0.0034248499992810882 0 0.0010895272079522755 -0.0034520268022684574 0 0.0012743288098837867 -0.0082526323549972601 0 0.00030161701387441817 -0.0093592502114764921 0 0.00056503469190361151 -0.0087989562562661872 0 0.00030161701387441817 -0.0093592502114764921 0 0.00065657121837182908 -0.008309687037103386 0 0.00095013479641345758 -0.0085394818983246055 0 0.0004903735886307031 -0.0088520145137591256 0 0.0014762077055853302 -0.0081129558067674409 0 0.00032063568206914476 -0.0089304898508947034 0 0.0015623469506812059 -0.0090645642865370187 0 0.00020177942355947717 -0.0099911472786626005 0 -9.3413366646498855e-05 -0.0093793720298677597 0 -0.00045420620804800197 -0.0097882909761260201 0 0.0004688135549395457 -0.0092698984723001317 0 0.00020177942355947717 -0.0099911472786626005 0 -9.3413366646498855e-05 -0.0093793720298677597 0 0.00010879850577350883 -0.0088082892177035483 0 0.0004688135549395457 -0.0092698984723001317 0 -9.3413366646498855e-05 -0.0093793720298677597 0 -0.00076842456360857959 -0.009639235792945627 0 -0.00059903542019012763 -0.0092812850134816622 0 -0.00045420620804800197 -0.0097882909761260201 0 -0.00039453629347994046 -0.0088409757016751894 0 -9.3413366646498855e-05 -0.0093793720298677597 0 -0.00059903542019012763 -0.0092812850134816622 0 -9.3413366646498855e-05 -0.0093793720298677597 0 -0.00059903542019012763 -0.0092812850134816622 0 -0.00045420620804800197 -0.0097882909761260201 0 -0.00076842456360857959 -0.009639235792945627 0 -0.00045420620804800197 -0.0097882909761260201 0 -0.00072410191796603858 -0.01004407963089644 0 -0.00045420620804800197 -0.0097882909761260201 0 -0.00072410191796603858 -0.01004407963089644 0 -0.00043609109867933797 -0.01034165890845222 0 -0.00072410191796603858 -0.01004407963089644 0 -0.00043609109867933797 -0.01034165890845222 0 -0.0010262629430817752 -0.01026266995510103 0 -0.000393792101581384 -0.0099938512783333613 0 -0.00042922548786315096 -0.01047133527283527 0 -0.00097590059985561009 -0.010541837417338332 0 -0.00045276068934223897 -0.010226193768470393 0 -0.00090199983706021759 -0.010486970401480498 0 -0.00042922548786315096 -0.01047133527283527 0 -0.00034917175414828165 -0.010999515522476763 0 -0.00097590059985561009 -0.010541837417338332 0 -0.000393792101581384 -0.0099938512783333613 0 -0.00042922548786315096 -0.01047133527283527 0 3.2974707714790966e-05 -0.010229571956992912 0 -0.00042922548786315096 -0.01047133527283527 0 3.2974707714790966e-05 -0.010229571956992912 0 -0.00034917175414828165 -0.010999515522476763 0 3.2974707714790966e-05 -0.010229571956992912 0 0.00043553084354667842 -0.010323564284413254 0 -0.00034917175414828165 -0.010999515522476763 0 0.00051983195302020594 -0.0072049191631578247 0 -0.001249411007100878 -0.0077345113709233922 0 0.00032063568206914476 -0.0089304898508947034 0 3.2974707714790966e-05 -0.010229571956992912 0 0.00043553084354667842 -0.010323564284413254 0 0.00030161701387441817 -0.0093592502114764921 0 4.845541991632471e-05 -0.010108668185468576 0 0.00030161701387441817 -0.0093592502114764921 0 -0.00045276068934223897 -0.010226193768470393 0 0.00022784137641249775 -0.0095704809296168238 0 -0.000393792101581384 -0.0099938512783333613 0 3.2974707714790966e-05 -0.010229571956992912 0 0.00020177942355947717 -0.0099911472786626005 0 -0.00045420620804800197 -0.0097882909761260201 0 -0.00043609109867933797 -0.01034165890845222 0 0.0010895272079522755 -0.0034520268022684574 0 0.0010595690538891564 -0.0040168219322338017 0 0.00031528219671761004 -0.0041045745335283297 0 0.001208368158619439 -0.0062700391866776966 0 0.00051983195302020594 -0.0072049191631578247 0 0.00032063568206914476 -0.0089304898508947034 0 0.0015623469506812059 -0.0090645642865370187 0 0.00043553084354667842 -0.010323564284413254 0 0.0014122329454817058 -0.0036715117619002991 0 0.0010595690538891564 -0.0040168219322338017 0 0.0016804971638088712 -0.0039594485142424351 0 0.0016678966163253257 -0.0034248499992810882 0 0.0014122329454817058 -0.0036715117619002991 0 0.0010895272079522755 -0.0034520268022684574 0 0.0014122329454817058 -0.0036715117619002991 0 0.0010895272079522755 -0.0034520268022684574 0 0.0010595690538891564 -0.0040168219322338017 0 0.0010595690538891564 -0.0040168219322338017 0 0.0011828457427194472 -0.0045186567548835127 0 0.0016804971638088712 -0.0039594485142424351 0 0.0010595690538891564 -0.0040168219322338017 0 0.00063415701355032275 -0.0044707298214283165 0 0.0011828457427194472 -0.0045186567548835127 0 0.00031528219671761004 -0.0041045745335283297 0 0.00063415701355032275 -0.0044707298214283165 0 0.00021875779587148003 -0.004780905142273785 0 0.0010595690538891564 -0.0040168219322338017 0 0.00031528219671761004 -0.0041045745335283297 0 0.00063415701355032275 -0.0044707298214283165 0 0.00063415701355032275 -0.0044707298214283165 0 0.0011828457427194472 -0.0045186567548835127 0 0.0006574132351616467 -0.0051987662050180204 0 0.00063415701355032275 -0.0044707298214283165 0 0.0006574132351616467 -0.0051987662050180204 0 0.00021875779587148003 -0.004780905142273785 0 0.0006574132351616467 -0.0051987662050180204 0 -1.1002792983549797e-05 -0.0052517576486421002 0 0.00021875779587148003 -0.004780905142273785 0 0.0011828457427194472 -0.0045186567548835127 0 0.0013200885875516741 -0.0051420861421194505 0 0.0006574132351616467 -0.0051987662050180204 0 0.0011828457427194472 -0.0045186567548835127 0 0.0013200885875516741 -0.0051420861421194505 0 0.0018066566022272956 -0.0045644180742308148 0 0.0013200885875516741 -0.0051420861421194505 0 0.0011491915799312885 -0.0057451528700590022 0 0.0006574132351616467 -0.0051987662050180204 0 0.0013200885875516741 -0.0051420861421194505 0 0.0011491915799312885 -0.0057451528700590022 0 0.0018458270292820427 -0.0055263927696403399 0 0.0011491915799312885 -0.0057451528700590022 0 0.0006574132351616467 -0.0051987662050180204 0 0.00059311216390539004 -0.0060301797029172844 0 0.0006574132351616467 -0.0051987662050180204 0 7.7997688169951016e-05 -0.0057533234486576035 0 0.00059311216390539004 -0.0060301797029172844 0 0.0006574132351616467 -0.0051987662050180204 0 7.7997688169951016e-05 -0.0057533234486576035 0 -1.1002792983549797e-05 -0.0052517576486421002 0 7.7997688169951016e-05 -0.0057533234486576035 0 -1.1002792983549797e-05 -0.0052517576486421002 0 -0.00047874323605515351 -0.0055827539867090471 0 -1.1002792983549797e-05 -0.0052517576486421002 0 -0.00047874323605515351 -0.0055827539867090471 0 -0.00058629021377680805 -0.0049280193144278853 0 7.7997688169951016e-05 -0.0057533234486576035 0 -0.00047874323605515351 -0.0055827539867090471 0 -0.00059105952940732289 -0.0061500254227327862 0 -0.00047874323605515351 -0.0055827539867090471 0 -0.00058629021377680805 -0.0049280193144278853 0 -0.001348777861974904 -0.0058105097139796984 0 -0.001249411007100878 -0.0077345113709233922 0 -0.0024217962548702177 -0.0078223595145848444 0 -0.00047874323605515351 -0.0055827539867090471 0 -0.00059105952940732289 -0.0061500254227327862 0 -0.001348777861974904 -0.0058105097139796984 0 -0.001249411007100878 -0.0077345113709233922 0 -0.0023777227130744477 -0.010926811429456116 0 -1.1002792983549797e-05 -0.0052517576486421002 0 -0.00058629021377680805 -0.0049280193144278853 0 0.00021875779587148003 -0.004780905142273785 0 0.00031528219671761004 -0.0041045745335283297 0 -0.00049866408011227836 -0.0049390009456798736 0 0.00021875779587148003 -0.004780905142273785 0 -0.001249411007100878 -0.0077345113709233922 0 0.00052827897735708022 -0.0047506843960380112 0 0.0032140659320055356 -0.0040058089304802679 0 0.0027595608863189461 -0.0036856264193696345 0 0.0027477901375295992 -0.003973837171220641 0 0.0024132937333155042 -0.0042848591712776425 0 0.0025089683744490073 -0.0042384112754650779 0 0.0025758940507930365 -0.0042360393247619886 0 0.002403285429129379 -0.0039869948758928277 0 0.0027343416808077079 -0.0041130519221666099 0 0.0025089683744490073 -0.0042384112754650779 0 0.0025758940507930365 -0.0042360393247619886 0 0.002583605811835732 -0.0043310162876361242 0 0.0018259972087422364 -0.0035807220444892588 0 0.0018703164401211944 -0.0038252041738790067 0 0.002203685858249752 -0.003651244862258784 0 0.002403285429129379 -0.0039869948758928277 0 0.002528400522445079 -0.0036828792710434555 0 0.0018703164401211944 -0.0038252041738790067 0 0.0021355048884394013 -0.0039906833529970145 0 0.002203685858249752 -0.003651244862258784 0 0.0027595608863189461 -0.0036856264193696345 0 0.0027477901375295992 -0.003973837171220641 0 0.0022324385589462736 -0.0039580692087571962 0 0.0022517080113599467 -0.0033217675550721911 0 0.0027595608863189461 -0.0036856264193696345 0 0.0022324385589462736 -0.0039580692087571962 0 0.0026377437441283823 -0.0034127281570410957 0 0.002528400522445079 -0.0036828792710434555 0 0.0027343416808077079 -0.0041130519221666099 0 0.0022761778642974746 -0.0040215838585005463 0 0.0025758940507930365 -0.0042360393247619886 0 0.0024181166630956475 -0.0040806454154266912 0 0.002583605811835732 -0.0043310162876361242 0 0.0022517080113599467 -0.0033217675550721911 0 0.0022324385589462736 -0.0039580692087571962 0 0.0019626703901647401 -0.0036675823370649922 0 0.0016678966163253257 -0.0034248499992810882 0 0.0022517080113599467 -0.0033217675550721911 0 0.0019626703901647401 -0.0036675823370649922 0 0.0022324385589462736 -0.0039580692087571962 0 0.0019626703901647401 -0.0036675823370649922 0 0.0016804971638088712 -0.0039594485142424351 0 0.0016678966163253257 -0.0034248499992810882 0 0.0019626703901647401 -0.0036675823370649922 0 0.0016804971638088712 -0.0039594485142424351 0 0.0016678966163253257 -0.0034248499992810882 0 0.0014122329454817058 -0.0036715117619002991 0 0.0016804971638088712 -0.0039594485142424351 0 0.0011828457427194472 -0.0045186567548835127 0 0.0016804971638088712 -0.0039594485142424351 0 0.0018066566022272956 -0.0045644180742308148 0 0.0022761778642974746 -0.0040215838585005463 0 0.0017408060802611596 -0.0039669416359716953 0 0.0024181166630956475 -0.0040806454154266912 0 0.0016804971638088712 -0.0039594485142424351 0 0.0018066566022272956 -0.0045644180742308148 0 0.0018066566022272956 -0.0045644180742308148 0 0.0018458270292820427 -0.0055263927696403399 0 0.0025394274551952135 -0.0046093716569713577 0 0.0013200885875516741 -0.0051420861421194505 0 0.0018066566022272956 -0.0045644180742308148 0 0.0018458270292820427 -0.0055263927696403399 0 0.0018458270292820427 -0.0055263927696403399 0 0.0025394274551952135 -0.0046093716569713577 0 0.0025497450054643499 -0.0057572822929336989 0 0.0024181166630956475 -0.0040806454154266912 0 0.0018066566022272956 -0.0045644180742308148 0 0.0025394274551952135 -0.0046093716569713577 0 0.0024181166630956475 -0.0040806454154266912 0 0.0025394274551952135 -0.0046093716569713577 0 0.002583605811835732 -0.0043310162876361242 0 0.0025394274551952135 -0.0046093716569713577 0 0.002583605811835732 -0.0043310162876361242 0 0.0025270258638937079 -0.0041603072346449227 0 0.0025394274551952135 -0.0046093716569713577 0 0.0025270258638937079 -0.0041603072346449227 0 0.0025975438600147364 -0.0039404027066404406 0 0.002546354774064659 -0.0045445294572954769 0 0.0030414499664901872 -0.0050413354414580221 0 0.0025394274551952135 -0.0046093716569713577 0 0.0034523645184940722 -0.0059274134628031511 0 0.0025497450054643499 -0.0057572822929336989 0 0.0024455917791708251 -0.0038657911879913338 0 0.0023826854580562972 -0.0039971053131377214 0 0.0025270258638937079 -0.0041603072346449227 0 0.0023826854580562972 -0.0039971053131377214 0 0.0025270258638937079 -0.0041603072346449227 0 0.0024782076653179063 -0.004166950157881405 0 0.0024455917791708251 -0.0038657911879913338 0 0.0025270258638937079 -0.0041603072346449227 0 0.0025975438600147364 -0.0039404027066404406 0 0.0025089683744490073 -0.0042384112754650779 0 0.002583605811835732 -0.0043310162876361242 0 0.0024782076653179063 -0.004166950157881405 0 0.002583605811835732 -0.0043310162876361242 0 0.0025270258638937079 -0.0041603072346449227 0 0.0024782076653179063 -0.004166950157881405 0 0.0024127032877800493 -0.0041936945335851114 0 0.0025089683744490073 -0.0042384112754650779 0 0.0024782076653179063 -0.004166950157881405 0 0.0031983282246267905 -0.0048625246949720756 0 0.0030414499664901872 -0.0050413354414580221 0 0.004147615232117271 -0.0069648702847942799 0 0.0034523645184940722 -0.0059274134628031511 0 0.00350337441619226 -0.0067211556199535142 0 0.004147615232117271 -0.0069648702847942799 0 0.00350337441619226 -0.0067211556199535142 0 0.0041395077399553606 -0.0070343848340116127 0 0.003323344022328127 -0.0067543153488408003 0 0.0033006114734881352 -0.0072115898950820007 0 0.0038422756934445332 -0.007025409679882598 0 0.0028841750400734468 -0.0045298314742784965 0 0.0031983282246267905 -0.0048625246949720756 0 0.0031698290046926459 -0.0049342641165093489 0 0.0034402552426765253 -0.0053067649525020289 0 0.0034643546828714185 -0.0050809400726775141 0 0.0031983282246267905 -0.0048625246949720756 0 0.0033766677540891053 -0.0055252368240397238 0 0.0035866758350459236 -0.0068249087288302368 0 0.0033766677540891053 -0.0055252368240397238 0 0.0024455917791708251 -0.0038657911879913338 0 0.0024798633628147727 -0.0037467327881925178 0 0.0025975438600147364 -0.0039404027066404406 0 0.0034523645184940722 -0.0059274134628031511 0 0.00350337441619226 -0.0067211556199535142 0 0.0027838202435567241 -0.0064237375299241043 0 0.0034523645184940722 -0.0059274134628031511 0 0.0027838202435567241 -0.0064237375299241043 0 0.0025497450054643499 -0.0057572822929336989 0 0.0035866758350459236 -0.0068249087288302368 0 0.0027866337924121482 -0.0064248274215965833 0 0.003323344022328127 -0.0067543153488408003 0 0.0027636099865760723 -0.0069801517878289553 0 0.0027838202435567241 -0.0064237375299241043 0 0.003323344022328127 -0.0067543153488408003 0 0.0027636099865760723 -0.0069801517878289553 0 0.0033006114734881352 -0.0072115898950820007 0 0.0027636099865760723 -0.0069801517878289553 0 0.0022928564897565467 -0.0067401925523648317 0 0.0023802042326903348 -0.0071036724170466716 0 0.0022928564897565467 -0.0067401925523648317 0 0.0021288149678366105 -0.0069896043518893622 0 0.0023802042326903348 -0.0071036724170466716 0 0.0022928564897565467 -0.0067401925523648317 0 0.0027838202435567241 -0.0064237375299241043 0 0.0022181502503822916 -0.0062359792749882778 0 0.0027636099865760723 -0.0069801517878289553 0 0.0022928564897565467 -0.0067401925523648317 0 0.0027838202435567241 -0.0064237375299241043 0 0.0027838202435567241 -0.0064237375299241043 0 0.0025497450054643499 -0.0057572822929336989 0 0.0022181502503822916 -0.0062359792749882778 0 0.0018458270292820427 -0.0055263927696403399 0 0.0025497450054643499 -0.0057572822929336989 0 0.0022181502503822916 -0.0062359792749882778 0 0.0018458270292820427 -0.0055263927696403399 0 0.0022181502503822916 -0.0062359792749882778 0 0.0017277157143058008 -0.0063233116910153247 0 0.0018458270292820427 -0.0055263927696403399 0 0.0017277157143058008 -0.0063233116910153247 0 0.0013532458923412882 -0.0061471637105442525 0 0.0022181502503822916 -0.0062359792749882778 0 0.0017277157143058008 -0.0063233116910153247 0 0.0019738534863250282 -0.0066077306449320514 0 0.0017277157143058008 -0.0063233116910153247 0 0.0016875020036929093 -0.0068154984456976304 0 0.0013381829620377167 -0.0066893339837025929 0 0.0017277157143058008 -0.0063233116910153247 0 0.0019738534863250282 -0.0066077306449320514 0 0.0016875020036929093 -0.0068154984456976304 0 0.0022928564897565467 -0.0067401925523648317 0 0.0022181502503822916 -0.0062359792749882778 0 0.0019738534863250282 -0.0066077306449320514 0 0.0022928564897565467 -0.0067401925523648317 0 0.0019738534863250282 -0.0066077306449320514 0 0.0019443625113325612 -0.0069149761608122357 0 0.0019738534863250282 -0.0066077306449320514 0 0.0019443625113325612 -0.0069149761608122357 0 0.0016875020036929093 -0.0068154984456976304 0 0.0022928564897565467 -0.0067401925523648317 0 0.0019443625113325612 -0.0069149761608122357 0 0.0021288149678366105 -0.0069896043518893622 0 0.0019443625113325612 -0.0069149761608122357 0 0.0021288149678366105 -0.0069896043518893622 0 0.0018998709905288954 -0.0071956607059741268 0 0.0019443625113325612 -0.0069149761608122357 0 0.0017587410713517536 -0.0070682764736654862 0 0.0018998709905288954 -0.0071956607059741268 0 0.0017587410713517536 -0.0070682764736654862 0 0.0016875020036929093 -0.0068154984456976304 0 0.0013868455182742022 -0.0072235719124411815 0 0.0019443625113325612 -0.0069149761608122357 0 0.0017587410713517536 -0.0070682764736654862 0 0.0016875020036929093 -0.0068154984456976304 0 0.001563881841405997 -0.0064431433909380503 0 0.0015853444606185084 -0.0065614593275105468 0 0.0014610994586271651 -0.0065083962203488352 0 0.0017366453631380081 -0.0070459903341892728 0 0.0015473332222387846 -0.0071704853057827584 0 0.0017587410713517536 -0.0070682764736654862 0 0.0018035273764258073 -0.0072695832100703617 0 0.0013868455182742022 -0.0072235719124411815 0 0.0017587410713517536 -0.0070682764736654862 0 0.0018035273764258073 -0.0072695832100703617 0 0.0018998709905288954 -0.0071956607059741268 0 0.0017366453631380081 -0.0070459903341892728 0 0.0017484388706969975 -0.0070578174138235328 0 0.0021288149678366105 -0.0069896043518893622 0 0.0018998709905288954 -0.0071956607059741268 0 0.0023802042326903348 -0.0071036724170466716 0 0.0017000764832517073 -0.0066056096840059137 0 0.0015853444606185084 -0.0065614593275105468 0 0.0017140735059576904 -0.0064867771622702007 0 0.001563881841405997 -0.0064431433909380503 0 0.0015853444606185084 -0.0065614593275105468 0 0.0017140735059576904 -0.0064867771622702007 0 0.0017366453631380081 -0.0070459903341892728 0 0.0023229744605275534 -0.0071217423168810747 0 0.0018080719741517591 -0.0072591826236158103 0 0.0018998709905288954 -0.0071956607059741268 0 0.0028443480748517455 -0.0075004361422063908 0 0.0018998709905288954 -0.0071956607059741268 0 0.0023802042326903348 -0.0071036724170466716 0 0.0028443480748517455 -0.0075004361422063908 0 0.0027636099865760723 -0.0069801517878289553 0 0.0023802042326903348 -0.0071036724170466716 0 0.0028443480748517455 -0.0075004361422063908 0 0.0033006114734881352 -0.0072115898950820007 0 0.0028443480748517455 -0.0075004361422063908 0 0.0037551965081849912 -0.0077578049663070588 0 0.0027636099865760723 -0.0069801517878289553 0 0.0033006114734881352 -0.0072115898950820007 0 0.0028443480748517455 -0.0075004361422063908 0 0.0017894237204927209 -0.0065777113414502387 0 0.0017140735059576904 -0.0064867771622702007 0 0.0018444347556312178 -0.0065219762913205429 0 0.0017000764832517073 -0.0066056096840059137 0 0.0017894237204927209 -0.0065777113414502387 0 0.0017140735059576904 -0.0064867771622702007 0 0.0023229744605275534 -0.0071217423168810747 0 0.0026237557415527317 -0.0060318437520456326 0 0.0026237557415527317 -0.0060318437520456326 0 0.0033766677540891053 -0.0055252368240397238 0 0.0028014389582659907 -0.0051922351122426639 0 0.002932451679325552 -0.0046060336449936018 0 0.0028658973033752378 -0.005224847622944462 0 0.0033006114734881352 -0.0072115898950820007 0 0.0037551965081849912 -0.0077578049663070588 0 0.0038422756934445332 -0.007025409679882598 0 0.0028841750400734468 -0.0045298314742784965 0 0.0033766677540891053 -0.0055252368240397238 0 -7.0169401788861146e-05 -0.0067904580403081701 0 -0.00049908764746154743 -0.0072993589055192452 0 -0.00057894379955466342 -0.0066921612597063253 0 -7.0169401788861146e-05 -0.0067904580403081701 0 9.9627134526932169e-05 -0.0073386515291605295 0 -0.00049908764746154743 -0.0072993589055192452 0 -7.0169401788861146e-05 -0.0067904580403081701 0 9.9627134526932169e-05 -0.0073386515291605295 0 0.00026833151251665625 -0.0069526570580954279 0 -0.0011885778621876398 -0.0071707882273292535 0 -0.00057894379955466342 -0.0066921612597063253 0 -0.0011844330804764377 -0.0065135061432188375 0 -0.00049908764746154743 -0.0072993589055192452 0 -0.0011885778621876398 -0.0071707882273292535 0 -0.00057894379955466342 -0.0066921612597063253 0 -0.0011844330804764377 -0.0065135061432188375 0 -0.00059105952940732289 -0.0061500254227327862 0 -0.001348777861974904 -0.0058105097139796984 0 -0.00057894379955466342 -0.0066921612597063253 0 -0.0011844330804764377 -0.0065135061432188375 0 -0.00059105952940732289 -0.0061500254227327862 0 7.7997688169951016e-05 -0.0057533234486576035 0 -0.00059105952940732289 -0.0061500254227327862 0 -7.8353862134575217e-06 -0.0063389077350304917 0 -0.00057894379955466342 -0.0066921612597063253 0 -0.00059105952940732289 -0.0061500254227327862 0 -7.8353862134575217e-06 -0.0063389077350304917 0 -7.0169401788861146e-05 -0.0067904580403081701 0 -0.00057894379955466342 -0.0066921612597063253 0 -7.8353862134575217e-06 -0.0063389077350304917 0 -7.0169401788861146e-05 -0.0067904580403081701 0 -7.8353862134575217e-06 -0.0063389077350304917 0 0.00048301630031758722 -0.0066020471644610253 0 7.7997688169951016e-05 -0.0057533234486576035 0 -7.8353862134575217e-06 -0.0063389077350304917 0 0.00059311216390539004 -0.0060301797029172844 0 0.00059311216390539004 -0.0060301797029172844 0 0.00097522448025314391 -0.0063854769932113319 0 0.00048301630031758722 -0.0066020471644610253 0 -7.8353862134575217e-06 -0.0063389077350304917 0 0.00059311216390539004 -0.0060301797029172844 0 0.00048301630031758722 -0.0066020471644610253 0 0.0011491915799312885 -0.0057451528700590022 0 0.0018458270292820427 -0.0055263927696403399 0 0.0013532458923412882 -0.0061471637105442525 0 0.0011491915799312885 -0.0057451528700590022 0 0.00097522448025314391 -0.0063854769932113319 0 0.0013532458923412882 -0.0061471637105442525 0 0.0011491915799312885 -0.0057451528700590022 0 0.00059311216390539004 -0.0060301797029172844 0 0.00097522448025314391 -0.0063854769932113319 0 0.0017277157143058008 -0.0063233116910153247 0 0.0013532458923412882 -0.0061471637105442525 0 0.0013381829620377167 -0.0066893339837025929 0 0.00097522448025314391 -0.0063854769932113319 0 0.0013532458923412882 -0.0061471637105442525 0 0.0013381829620377167 -0.0066893339837025929 0 0.00097522448025314391 -0.0063854769932113319 0 0.0013381829620377167 -0.0066893339837025929 0 0.00093613370470908928 -0.006930822586123612 0 0.00093613370470908928 -0.006930822586123612 0 0.0013868455182742022 -0.0072235719124411815 0 0.0009184190996662662 -0.0074190097986093721 0 0.0016875020036929093 -0.0068154984456976304 0 0.0013381829620377167 -0.0066893339837025929 0 0.0013868455182742022 -0.0072235719124411815 0 0.0013381829620377167 -0.0066893339837025929 0 0.00093613370470908928 -0.006930822586123612 0 0.0013868455182742022 -0.0072235719124411815 0 0.00048301630031758722 -0.0066020471644610253 0 0.00026833151251665625 -0.0069526570580954279 0 0.0005426499777198109 -0.0071543007255473919 0 -7.0169401788861146e-05 -0.0067904580403081701 0 0.00048301630031758722 -0.0066020471644610253 0 0.00026833151251665625 -0.0069526570580954279 0 0.00093613370470908928 -0.006930822586123612 0 0.00048301630031758722 -0.0066020471644610253 0 0.0005426499777198109 -0.0071543007255473919 0 0.00097522448025314391 -0.0063854769932113319 0 0.00093613370470908928 -0.006930822586123612 0 0.00048301630031758722 -0.0066020471644610253 0 0.00093613370470908928 -0.006930822586123612 0 0.0005426499777198109 -0.0071543007255473919 0 0.0009184190996662662 -0.0074190097986093721 0 9.9627134526932169e-05 -0.0073386515291605295 0 0.00026833151251665625 -0.0069526570580954279 0 0.0005426499777198109 -0.0071543007255473919 0 9.9627134526932169e-05 -0.0073386515291605295 0 0.00050065826991025383 -0.0074918427988733237 0 0.00034166965479794634 -0.0078370051271644259 0 9.9627134526932169e-05 -0.0073386515291605295 0 0.0005426499777198109 -0.0071543007255473919 0 0.00050065826991025383 -0.0074918427988733237 0 0.00050065826991025383 -0.0074918427988733237 0 0.00071794214766566003 -0.0076752644174263359 0 0.00034166965479794634 -0.0078370051271644259 0 0.0005426499777198109 -0.0071543007255473919 0 0.00050065826991025383 -0.0074918427988733237 0 0.0009184190996662662 -0.0074190097986093721 0 0.00050065826991025383 -0.0074918427988733237 0 0.00071794214766566003 -0.0076752644174263359 0 0.0009184190996662662 -0.0074190097986093721 0 0.00071794214766566003 -0.0076752644174263359 0 0.00034166965479794634 -0.0078370051271644259 0 0.00097152413389306024 -0.007928712372231932 0 0.0017366453631380081 -0.0070459903341892728 0 0.00081945571170742972 -0.0071543627120284458 0 0.0019276474106641973 -0.0074133406893841991 0 0.0012251627943977101 -0.0075835432569350538 0 0.0010954223336094825 -0.0079951791215778258 0 0.0019276474106641973 -0.0074133406893841991 0 0.0013868455182742022 -0.0072235719124411815 0 0.0012251627943977101 -0.0075835432569350538 0 0.0013868455182742022 -0.0072235719124411815 0 0.0012251627943977101 -0.0075835432569350538 0 0.0009184190996662662 -0.0074190097986093721 0 0.0012251627943977101 -0.0075835432569350538 0 0.0009184190996662662 -0.0074190097986093721 0 0.0009609458342249974 -0.0076488951667129787 0 0.00071794214766566003 -0.0076752644174263359 0 0.0009184190996662662 -0.0074190097986093721 0 0.0009609458342249974 -0.0076488951667129787 0 0.0012251627943977101 -0.0075835432569350538 0 0.00097152413389306024 -0.007928712372231932 0 0.0010954223336094825 -0.0079951791215778258 0 0.00071794214766566003 -0.0076752644174263359 0 0.0009609458342249974 -0.0076488951667129787 0 0.00097152413389306024 -0.007928712372231932 0 0.00094106799622440318 -0.0072821974557287835 0 0.00081945571170742972 -0.0071543627120284458 0 0.0012251627943977101 -0.0075835432569350538 0 0.0009609458342249974 -0.0076488951667129787 0 0.00097152413389306024 -0.007928712372231932 0 0.00018391438890357195 -0.0070516068500482941 0 0.0004972760707767968 -0.0068693428453643615 0 0.00016716166205940668 -0.0066966239497504481 0 0.00099072186129149534 -0.0066335576691048418 0 0.00081945571170742972 -0.0071543627120284458 0 0.00097152413389306024 -0.007928712372231932 0 0.0010992065281999264 -0.0079951493954668624 0 9.0241941970958814e-05 -0.0087380231104862253 0 0.00018391438890357195 -0.0070516068500482941 0 0.00016716166205940668 -0.0066966239497504481 0 -0.00019701454048218984 -0.0069342305546311687 0 0.00081945571170742972 -0.0071543627120284458 0 -3.5232466279345888e-05 -0.0078268753935390057 0 0.00034166965479794634 -0.0078370051271644259 0 0.00097152413389306024 -0.007928712372231932 0 9.0241941970958814e-05 -0.0087380231104862253 0 0.00034166965479794634 -0.0078370051271644259 0 9.0241941970958814e-05 -0.0087380231104862253 0 -0.00028460331711813701 -0.0079232158430561899 0 9.0241941970958814e-05 -0.0087380231104862253 0 -0.00028460331711813701 -0.0079232158430561899 0 -0.0006938406281394797 -0.0085244400228319216 0 9.9627134526932169e-05 -0.0073386515291605295 0 -0.00049908764746154743 -0.0072993589055192452 0 -0.00028460331711813701 -0.0079232158430561899 0 9.9627134526932169e-05 -0.0073386515291605295 0 0.00034166965479794634 -0.0078370051271644259 0 -0.00028460331711813701 -0.0079232158430561899 0 -0.00049908764746154743 -0.0072993589055192452 0 -0.0011885778621876398 -0.0071707882273292535 0 -0.00096571747884721497 -0.007877754257763752 0 -0.00049908764746154743 -0.0072993589055192452 0 -0.00028460331711813701 -0.0079232158430561899 0 -0.00096571747884721497 -0.007877754257763752 0 -0.00028460331711813701 -0.0079232158430561899 0 -0.00096571747884721497 -0.007877754257763752 0 -0.0006938406281394797 -0.0085244400228319216 0 -0.00089900669953823695 -0.0094095632718428825 0 -0.0006938406281394797 -0.0085244400228319216 0 -0.0013926633836824909 -0.0086441802100455586 0 -0.00096571747884721497 -0.007877754257763752 0 -0.0006938406281394797 -0.0085244400228319216 0 -0.0013926633836824909 -0.0086441802100455586 0 -0.0013926633836824909 -0.0086441802100455586 0 -0.0022445810747966557 -0.0084554805548934606 0 -0.001773590690504735 -0.0077988519658345997 0 -0.0019730473967560103 -0.0094436772204348329 0 -0.0013926633836824909 -0.0086441802100455586 0 -0.0022445810747966557 -0.0084554805548934606 0 -0.0019730473967560103 -0.0094436772204348329 0 -0.0022445810747966557 -0.0084554805548934606 0 -0.0028865044759101002 -0.0086389482740729211 0 -0.0022445810747966557 -0.0084554805548934606 0 -0.001773590690504735 -0.0077988519658345997 0 -0.0026650979920408032 -0.0077322425547105243 0 -0.00096571747884721497 -0.007877754257763752 0 -0.0013926633836824909 -0.0086441802100455586 0 -0.001773590690504735 -0.0077988519658345997 0 -0.0011885778621876398 -0.0071707882273292535 0 -0.00096571747884721497 -0.007877754257763752 0 -0.001773590690504735 -0.0077988519658345997 0 -0.0011885778621876398 -0.0071707882273292535 0 -0.001773590690504735 -0.0077988519658345997 0 -0.0020564929211187 -0.0067535596097464783 0 -0.0011885778621876398 -0.0071707882273292535 0 -0.0011844330804764377 -0.0065135061432188375 0 -0.0020564929211187 -0.0067535596097464783 0 -0.001773590690504735 -0.0077988519658345997 0 -0.0020564929211187 -0.0067535596097464783 0 -0.0026650979920408032 -0.0077322425547105243 0 -0.0026392231598444675 -0.0081718406420746015 0 -0.0028354453819604318 -0.0084535850574046969 0 -0.0032727042499773227 -0.009617909336556936 0 -0.0029682011686558512 -0.0095388816312741414 0 -0.0030795621670987043 -0.0091906021971329219 0 -0.0032727042499773227 -0.009617909336556936 0 -0.0032528109502947813 -0.009843882769968516 0 -0.0031259579919721203 -0.0098637051185619783 0 -0.0032727042499773227 -0.009617909336556936 0 -0.0029682011686558512 -0.0095388816312741414 0 -0.0031259579919721203 -0.0098637051185619783 0 -0.0011844330804764377 -0.0065135061432188375 0 -0.0020564929211187 -0.0067535596097464783 0 -0.001348777861974904 -0.0058105097139796984 0 -0.0026392231598444675 -0.0081718406420746015 0 -0.0024217962548702177 -0.0078223595145848444 0 -0.0032727042499773227 -0.009617909336556936 0 -0.0032528109502947813 -0.009843882769968516 0 -0.0033279085109753441 -0.0098739391336737682 0 -0.0026290891183065662 -0.0096203506353956698 0 -0.0025954683487433307 -0.0098986699279015721 0 -0.002303116669707948 -0.009800819384635704 0 -0.0026290891183065662 -0.0096203506353956698 0 -0.0025954683487433307 -0.0098986699279015721 0 -0.002874780979796336 -0.0098157202492500165 0 -0.002874780979796336 -0.0098157202492500165 0 -0.0029682011686558512 -0.0095388816312741414 0 -0.0031259579919721203 -0.0098637051185619783 0 -0.0026290891183065662 -0.0096203506353956698 0 -0.002874780979796336 -0.0098157202492500165 0 -0.0029682011686558512 -0.0095388816312741414 0 -0.0029682011686558512 -0.0095388816312741414 0 -0.0026141312214725079 -0.0091477748966294591 0 -0.0030795621670987043 -0.0091906021971329219 0 -0.0026290891183065662 -0.0096203506353956698 0 -0.0029682011686558512 -0.0095388816312741414 0 -0.0026141312214725079 -0.0091477748966294591 0 -0.0026290891183065662 -0.0096203506353956698 0 -0.0026141312214725079 -0.0091477748966294591 0 -0.0022743335032570943 -0.0094084880947181253 0 -0.0026141312214725079 -0.0091477748966294591 0 -0.0030795621670987043 -0.0091906021971329219 0 -0.0027728410469434798 -0.0086680653615032223 0 -0.0026141312214725079 -0.0091477748966294591 0 -0.0027728410469434798 -0.0086680653615032223 0 -0.002311900902595026 -0.0087338777390198203 0 -0.0028354453819604318 -0.0084535850574046969 0 -0.0027803011319618349 -0.0086056885646212181 0 -0.0022445810747966557 -0.0084554805548934606 0 -0.0026650979920408032 -0.0077322425547105243 0 -0.0026420807126170971 -0.0083544340430617772 0 -0.0026650979920408032 -0.0077322425547105243 0 -0.0026420807126170971 -0.0083544340430617772 0 -0.0027728410469434798 -0.0086680653615032223 0 -0.0022445810747966557 -0.0084554805548934606 0 -0.0026420807126170971 -0.0083544340430617772 0 -0.0028865044759101002 -0.0086389482740729211 0 -0.0026420807126170971 -0.0083544340430617772 0 -0.0028865044759101002 -0.0086389482740729211 0 -0.0027728410469434798 -0.0086680653615032223 0 -0.0022098975550578497 -0.0094175414037441559 0 -0.0017860799624644964 -0.0094701031197913146 0 -0.0028865044759101002 -0.0086389482740729211 0 -0.0027728410469434798 -0.0086680653615032223 0 -0.002311900902595026 -0.0087338777390198203 0 -0.0013845683932704024 -0.010128813765077727 0 -0.0016488042007927867 -0.010138625777388484 0 -0.0011894390892894402 -0.010438341295434493 0 -0.0011522322436968309 -0.010184685433492375 0 -0.0013845683932704024 -0.010128813765077727 0 -0.0011894390892894402 -0.010438341295434493 0 -0.0011522322436968309 -0.010184685433492375 0 -0.00094782044255071454 -0.010368104306142018 0 -0.0011894390892894402 -0.010438341295434493 0 -0.0010147750390343989 -0.010256238304889875 0 -0.00092543606266421005 -0.010876454313613891 0 -0.00092543606266421005 -0.010876454313613891 0 -0.001137989330120072 -0.01060784645610067 0 -0.001988623358313141 -0.0091461113431548866 0 -0.002311900902595026 -0.0087338777390198203 0 -0.0014430831847833448 -0.0091440792839196771 0 -0.0017860799624644964 -0.0094701031197913146 0 -0.001137989330120072 -0.01060784645610067 0 -0.00094782044255071454 -0.010368104306142018 0 -0.0011894390892894402 -0.010438341295434493 0 -0.00089443855159356792 -0.010595929517994882 0 -0.001988623358313141 -0.0091461113431548866 0 -0.0023034088626385923 -0.0091111366348323557 0 -0.002311900902595026 -0.0087338777390198203 0 -0.0026141312214725079 -0.0091477748966294591 0 -0.0023034088626385923 -0.0091111366348323557 0 -0.002311900902595026 -0.0087338777390198203 0 -0.00049747429879244524 -0.010623072009009336 0 -0.000235577803312026 -0.011194864260387743 0 -0.00060554710509183563 -0.011439984949025726 0 -0.00049747429879244524 -0.010623072009009336 0 -0.0010062610582533757 -0.011138604552815092 0 -0.00060554710509183563 -0.011439984949025726 0 -0.0010062610582533757 -0.011138604552815092 0 -0.00086823922933647747 -0.011830144999135286 0 -0.00060554710509183563 -0.011439984949025726 0 -0.00086823922933647747 -0.011830144999135286 0 -0.00060554710509183563 -0.011439984949025726 0 -0.00077941072308122209 -0.011878141867172952 0 -0.00060554710509183563 -0.011439984949025726 0 -0.00046742163772706943 -0.01179754621414286 0 -0.00077941072308122209 -0.011878141867172952 0 -0.00060554710509183563 -0.011439984949025726 0 -0.00015270859202214419 -0.011718006449333292 0 -0.00046742163772706943 -0.01179754621414286 0 -0.000235577803312026 -0.011194864260387743 0 -0.00060554710509183563 -0.011439984949025726 0 -0.00015270859202214419 -0.011718006449333292 0 -0.00015839099719514488 -0.012091741370337469 0 -0.00015270859202214419 -0.011718006449333292 0 -0.00046742163772706943 -0.01179754621414286 0 -0.00015839099719514488 -0.012091741370337469 0 -0.00046742163772706943 -0.01179754621414286 0 -0.00047154117738727844 -0.012096671019937378 0 -0.00015839099719514488 -0.012091741370337469 0 -0.00047154117738727844 -0.012096671019937378 0 -0.00024794561431827557 -0.012287806351914494 0 -0.00046742163772706943 -0.01179754621414286 0 -0.00047154117738727844 -0.012096671019937378 0 -0.00058984261224172274 -0.011950952967965351 0 -0.001137989330120072 -0.01060784645610067 0 -0.00087849091937331077 -0.01114714220055474 0 -0.0014430831847833448 -0.0091440792839196771 0 -0.0012364462579275057 -0.009939129572161259 0 -0.0015392222560103163 -0.0094283453150681689 0 -0.00084572471988511577 -0.011846496206440514 0 -0.00067597558708902181 -0.012134271614210324 0 -0.00065833037838295869 -0.012336674926174148 0 -0.00047154117738727844 -0.012096671019937378 0 -0.00067597558708902181 -0.012134271614210324 0 -0.00056289325665346028 -0.012222668886149892 0 -0.00047154117738727844 -0.012096671019937378 0 -0.00067597558708902181 -0.012134271614210324 0 -0.00058984261224172274 -0.011950952967965351 0 -0.00046742163772706943 -0.01179754621414286 0 -0.00058984261224172274 -0.011950952967965351 0 -0.00077941072308122209 -0.011878141867172952 0 -0.00067597558708902181 -0.012134271614210324 0 -0.00058984261224172274 -0.011950952967965351 0 -0.00072225051578208492 -0.011967511976018299 0 -0.00058984261224172274 -0.011950952967965351 0 -0.00072225051578208492 -0.011967511976018299 0 -0.00077941072308122209 -0.011878141867172952 0 -0.00084572471988511577 -0.011846496206440514 0 -0.00067597558708902181 -0.012134271614210324 0 -0.00072225051578208492 -0.011967511976018299 0 -0.00084572471988511577 -0.011846496206440514 0 -0.00072225051578208492 -0.011967511976018299 0 -0.00077941072308122209 -0.011878141867172952 0 -0.001137989330120072 -0.01060784645610067 0 -0.00092939435779879195 -0.010824133888224488 0 -0.0012364462579275057 -0.009939129572161259 0 -0.0015392222560103163 -0.0094283453150681689 0 -0.0015289632392318146 -0.0096395100675729616 0 -0.0015158520879956028 -0.0098544206028235524 0 -0.0012364462579275057 -0.009939129572161259 0 -0.0015289632392318146 -0.0096395100675729616 0 -0.0015158520879956028 -0.0098544206028235524 0 -0.0014290840563605774 -0.0099969070168034 0 -0.0012364462579275057 -0.009939129572161259 0 -0.0014290840563605774 -0.0099969070168034 0 -0.001295276400975081 -0.010244581645219729 0 -0.0012364462579275057 -0.009939129572161259 0 -0.0014290840563605774 -0.0099969070168034 0 -0.001295276400975081 -0.010244581645219729 0 -0.0016617395240698665 -0.009950462822092913 0 -0.00065833037838295869 -0.012336674926174148 0 -0.00044885840810033511 -0.012317017439610493 0 -0.00046915078146012989 -0.012488141667969091 0 -0.00065833037838295869 -0.012336674926174148 0 -0.00056289325665346028 -0.012222668886149892 0 -0.00044885840810033511 -0.012317017439610493 0 -0.00067597558708902181 -0.012134271614210324 0 -0.00065833037838295869 -0.012336674926174148 0 -0.00056289325665346028 -0.012222668886149892 0 -0.00047154117738727844 -0.012096671019937378 0 -0.00044885840810033511 -0.012317017439610493 0 -0.00024794561431827557 -0.012287806351914494 0 -0.00047154117738727844 -0.012096671019937378 0 -0.00056289325665346028 -0.012222668886149892 0 -0.00044885840810033511 -0.012317017439610493 0 -0.00044885840810033511 -0.012317017439610493 0 -0.00030066252439686018 -0.012450834951545194 0 -0.00046915078146012989 -0.012488141667969091 0 -0.00044885840810033511 -0.012317017439610493 0 -0.00030066252439686018 -0.012450834951545194 0 -0.00024794561431827557 -0.012287806351914494 0 -0.0022743335032570943 -0.0094084880947181253 0 -0.0019466694859689398 -0.0094114191647426092 0 -0.0019718352957176183 -0.0096683657410235602 0 -0.0026141312214725079 -0.0091477748966294591 0 -0.0023034088626385923 -0.0091111366348323557 0 -0.0022743335032570943 -0.0094084880947181253 0 -0.001988623358313141 -0.0091461113431548866 0 -0.0023034088626385923 -0.0091111366348323557 0 -0.0022743335032570943 -0.0094084880947181253 0 -0.001988623358313141 -0.0091461113431548866 0 -0.0022743335032570943 -0.0094084880947181253 0 -0.0019466694859689398 -0.0094114191647426092 0 -0.001988623358313141 -0.0091461113431548866 0 -0.0014430831847833448 -0.0091440792839196771 0 -0.0016834816521763872 -0.0092582209532396705 0 -0.001988623358313141 -0.0091461113431548866 0 -0.0016834816521763872 -0.0092582209532396705 0 -0.0017591867066630283 -0.0093225270226822005 0 -0.001988623358313141 -0.0091461113431548866 0 -0.0017591867066630283 -0.0093225270226822005 0 -0.0019466694859689398 -0.0094114191647426092 0 -0.0014430831847833448 -0.0091440792839196771 0 -0.0016834816521763872 -0.0092582209532396705 0 -0.0015392222560103163 -0.0094283453150681689 0 -0.0016834816521763872 -0.0092582209532396705 0 -0.0017591867066630283 -0.0093225270226822005 0 -0.0015392222560103163 -0.0094283453150681689 0 -0.0015392222560103163 -0.0094283453150681689 0 -0.0017189450142541666 -0.0095109054258253299 0 -0.0015289632392318146 -0.0096395100675729616 0 -0.0017591867066630283 -0.0093225270226822005 0 -0.0015392222560103163 -0.0094283453150681689 0 -0.0017189450142541666 -0.0095109054258253299 0 -0.0017189450142541666 -0.0095109054258253299 0 -0.0015289632392318146 -0.0096395100675729616 0 -0.0017133067771514417 -0.0097078018370965538 0 -0.0017189450142541666 -0.0095109054258253299 0 -0.0019718352957176183 -0.0096683657410235602 0 -0.0017133067771514417 -0.0097078018370965538 0 -0.0017189450142541666 -0.0095109054258253299 0 -0.0019466694859689398 -0.0094114191647426092 0 -0.0019718352957176183 -0.0096683657410235602 0 -0.0017591867066630283 -0.0093225270226822005 0 -0.0017189450142541666 -0.0095109054258253299 0 -0.0019466694859689398 -0.0094114191647426092 0 -0.0019718352957176183 -0.0096683657410235602 0 -0.0016617395240698665 -0.009950462822092913 0 -0.002045948994484386 -0.0098961335320532223 0 -0.001295276400975081 -0.010244581645219729 0 -0.0016617395240698665 -0.009950462822092913 0 -0.0022288854293020478 -0.010161415909537305 0 -0.0019718352957176183 -0.0096683657410235602 0 -0.0017133067771514417 -0.0097078018370965538 0 -0.0016617395240698665 -0.009950462822092913 0 -0.0016617395240698665 -0.009950462822092913 0 -0.002045948994484386 -0.0098961335320532223 0 -0.0022288854293020478 -0.010161415909537305 0 -0.0015158520879956028 -0.0098544206028235524 0 -0.0015289632392318146 -0.0096395100675729616 0 -0.0017133067771514417 -0.0097078018370965538 0 -0.0015158520879956028 -0.0098544206028235524 0 -0.0017133067771514417 -0.0097078018370965538 0 -0.0016617395240698665 -0.009950462822092913 0 -0.0015158520879956028 -0.0098544206028235524 0 -0.0014290840563605774 -0.0099969070168034 0 -0.0016617395240698665 -0.009950462822092913 0 -0.002045948994484386 -0.0098961335320532223 0 -0.002303116669707948 -0.009800819384635704 0 -0.0022288854293020478 -0.010161415909537305 0 -0.0019718352957176183 -0.0096683657410235602 0 -0.002045948994484386 -0.0098961335320532223 0 -0.002303116669707948 -0.009800819384635704 0 -0.0022743335032570943 -0.0094084880947181253 0 -0.0019718352957176183 -0.0096683657410235602 0 -0.002303116669707948 -0.009800819384635704 0 -0.0026290891183065662 -0.0096203506353956698 0 -0.0022743335032570943 -0.0094084880947181253 0 -0.002303116669707948 -0.009800819384635704 0 -0.0025954683487433307 -0.0098986699279015721 0 -0.002303116669707948 -0.009800819384635704 0 -0.0022288854293020478 -0.010161415909537305 0 -0.0018209756655430732 -0.010689546965035154 0 -0.0016037275819655518 -0.010767637749662124 0 -0.0018240762384738693 -0.010817492984934828 0 -0.001295276400975081 -0.010244581645219729 0 -0.0018209756655430732 -0.010689546965035154 0 -0.0016037275819655518 -0.010767637749662124 0 -0.0013022566321611898 -0.010249666402413947 0 -0.0019945769152063236 -0.010428904372629343 0 -0.0022957988920876693 -0.011271799110063839 0 -0.0022465521835927284 -0.011028702855343943 0 -0.0024451323460077303 -0.011236498172739515 0 -0.0022465521835927284 -0.011028702855343943 0 -0.0024451323460077303 -0.011236498172739515 0 -0.0024128246703767745 -0.011037716916088316 0 -0.0022957988920876693 -0.011271799110063839 0 -0.0022465521835927284 -0.011028702855343943 0 -0.0020046099031446039 -0.011105024477745437 0 -0.0022465521835927284 -0.011028702855343943 0 -0.0020046099031446039 -0.011105024477745437 0 -0.0020419999540932168 -0.010905779543006077 0 -0.00199834738031009 -0.010986230909367876 0 -0.0019091691789421795 -0.010972047442707699 0 -0.0020046099031446039 -0.011105024477745437 0 -0.0020419999540932168 -0.010905779543006077 0 -0.0019048913642686015 -0.01093922660859414 0 -9.2873361973252699e-05 -0.012657404167823049 0 -0.00025040517619102931 -0.012576224104883092 0 -0.00053136081888172191 -0.012721503793820647 0 -0.0014112526684415237 -0.012261846015893505 0 -0.001553493667206746 -0.011639257770387127 0 -0.00025040517619102931 -0.012576224104883092 0 -0.00038402196460269011 -0.012564779677247421 0 -0.00053136081888172191 -0.012721503793820647 0 -0.00030066252439686018 -0.012450834951545194 0 -0.00025040517619102931 -0.012576224104883092 0 -0.00038402196460269011 -0.012564779677247421 0 -0.00030066252439686018 -0.012450834951545194 0 -0.00038402196460269011 -0.012564779677247421 0 -0.00046915078146012989 -0.012488141667969091 0 -0.00038402196460269011 -0.012564779677247421 0 -0.00046915078146012989 -0.012488141667969091 0 -0.00053136081888172191 -0.012721503793820647 0 -0.001295276400975081 -0.010244581645219729 0 -0.0012364462579275057 -0.009939129572161259 0 -0.0010494512287237859 -0.010722071947663187 0 -0.00065833037838295869 -0.012336674926174148 0 -0.00046915078146012989 -0.012488141667969091 0 -0.00053136081888172191 -0.012721503793820647 0 -0.00199834738031009 -0.010986230909367876 0 -0.001553493667206746 -0.011639257770387127 0 -0.00087849091937331077 -0.01114714220055474 0 -0.001553493667206746 -0.011639257770387127 0 -0.001295276400975081 -0.010244581645219729 0 -0.0016037275819655518 -0.010767637749662124 0 -0.0010494512287237859 -0.010722071947663187 0 -0.0022957988920876693 -0.011271799110063839 0 -0.00255878404016842 -0.011421112517845675 0 -0.0024451323460077303 -0.011236498172739515 0 -0.0024451323460077303 -0.011236498172739515 0 -0.0025239433158107485 -0.011174827560973022 0 -0.0024128246703767745 -0.011037716916088316 0 -0.0024451323460077303 -0.011236498172739515 0 -0.0025971318233004629 -0.01140735569727095 0 -0.0025239433158107485 -0.011174827560973022 0 -0.001553493667206746 -0.011639257770387127 0 -0.0023103592247932154 -0.011290019883742949 0 -0.00255878404016842 -0.011421112517845675 0 -0.0024451323460077303 -0.011236498172739515 0 -0.0025971318233004629 -0.01140735569727095 0 -0.0028320052981265732 -0.011805080681602414 0 -0.0027148211410164876 -0.01173119827134763 0 -0.0026451807113261473 -0.011628205292612723 0 -0.0028320052981265732 -0.011805080681602414 0 -0.0026451807113261473 -0.011628205292612723 0 -0.0027195269462239389 -0.011503412345178302 0 -0.0026451807113261473 -0.011628205292612723 0 -0.0025971318233004629 -0.01140735569727095 0 -0.0027195269462239389 -0.011503412345178302 0 -0.0025971318233004629 -0.01140735569727095 0 -0.0027195269462239389 -0.011503412345178302 0 -0.0027254908873765703 -0.011276496043372114 0 -0.0028320052981265732 -0.011805080681602414 0 -0.0027195269462239389 -0.011503412345178302 0 -0.0027941861064311752 -0.011447290790423163 0 -0.0027195269462239389 -0.011503412345178302 0 -0.0027941861064311752 -0.011447290790423163 0 -0.0027254908873765703 -0.011276496043372114 0 -0.0029862912364234176 -0.010723779174568087 0 -0.0027967988641608068 -0.010912232697927429 0 -0.0029142066113601308 -0.01118504513181213 0 -0.0027967988641608068 -0.010912232697927429 0 -0.0026384111292792039 -0.011097607088304047 0 -0.0025068469720713415 -0.010810693715500053 0 -0.0027967988641608068 -0.010912232697927429 0 -0.0029142066113601308 -0.01118504513181213 0 -0.0027636466895408986 -0.01111383902719333 0 -0.0027941861064311752 -0.011447290790423163 0 -0.0029142066113601308 -0.01118504513181213 0 -0.0027254908873765703 -0.011276496043372114 0 -0.0029142066113601308 -0.01118504513181213 0 -0.0027254908873765703 -0.011276496043372114 0 -0.0027636466895408986 -0.01111383902719333 0 -0.0025971318233004629 -0.01140735569727095 0 -0.0027254908873765703 -0.011276496043372114 0 -0.0026384111292792039 -0.011097607088304047 0 -0.0027254908873765703 -0.011276496043372114 0 -0.0027636466895408986 -0.01111383902719333 0 -0.0026384111292792039 -0.011097607088304047 0 -0.0027967988641608068 -0.010912232697927429 0 -0.0027636466895408986 -0.01111383902719333 0 -0.0026384111292792039 -0.011097607088304047 0 -0.0026384111292792039 -0.011097607088304047 0 -0.0025239433158107485 -0.011174827560973022 0 -0.0025068469720713415 -0.010810693715500053 0 -0.0025239433158107485 -0.011174827560973022 0 -0.0024128246703767745 -0.011037716916088316 0 -0.0025068469720713415 -0.010810693715500053 0 -0.0025971318233004629 -0.01140735569727095 0 -0.0026384111292792039 -0.011097607088304047 0 -0.0025239433158107485 -0.011174827560973022 0 -0.0024128246703767745 -0.011037716916088316 0 -0.0025068469720713415 -0.010810693715500053 0 -0.0023430411835658011 -0.010799476959769291 0 -0.0024740599952139792 -0.01040211574281363 0 -0.0025068469720713415 -0.010810693715500053 0 -0.0027013017759845623 -0.010578744456279918 0 -0.0024740599952139792 -0.01040211574281363 0 -0.0025068469720713415 -0.010810693715500053 0 -0.0022917802518725148 -0.010545638570576164 0 -0.0027967988641608068 -0.010912232697927429 0 -0.0025068469720713415 -0.010810693715500053 0 -0.0027013017759845623 -0.010578744456279918 0 -0.0029862912364234176 -0.010723779174568087 0 -0.0029451329658431854 -0.010357727766108348 0 -0.0027013017759845623 -0.010578744456279918 0 -0.0029862912364234176 -0.010723779174568087 0 -0.0027967988641608068 -0.010912232697927429 0 -0.0027013017759845623 -0.010578744456279918 0 -0.0021790648975768814 -0.010812170095408809 0 -0.0020337046696686937 -0.0107146442763594 0 -0.0021176238275849323 -0.010571581951540983 0 -0.0021790648975768814 -0.010812170095408809 0 -0.0020337046696686937 -0.0107146442763594 0 -0.0020419999540932168 -0.010905779543006077 0 -0.0020337046696686937 -0.0107146442763594 0 -0.0020419999540932168 -0.010905779543006077 0 -0.0018771824419344307 -0.010768416221285075 0 -0.0022465521835927284 -0.011028702855343943 0 -0.0021790648975768814 -0.010812170095408809 0 -0.0020419999540932168 -0.010905779543006077 0 -0.0022465521835927284 -0.011028702855343943 0 -0.0021790648975768814 -0.010812170095408809 0 -0.0023430411835658011 -0.010799476959769291 0 -0.0022465521835927284 -0.011028702855343943 0 -0.0024128246703767745 -0.011037716916088316 0 -0.0023430411835658011 -0.010799476959769291 0 -0.0021790648975768814 -0.010812170095408809 0 -0.0023430411835658011 -0.010799476959769291 0 -0.0022917802518725148 -0.010545638570576164 0 -0.0021790648975768814 -0.010812170095408809 0 -0.0022917802518725148 -0.010545638570576164 0 -0.0021176238275849323 -0.010571581951540983 0 -0.0025068469720713415 -0.010810693715500053 0 -0.0023430411835658011 -0.010799476959769291 0 -0.0022917802518725148 -0.010545638570576164 0 -0.0020913445737713796 -0.010341860547416006 0 -0.0022917802518725148 -0.010545638570576164 0 -0.0021176238275849323 -0.010571581951540983 0 -0.0020337046696686937 -0.0107146442763594 0 -0.0021176238275849323 -0.010571581951540983 0 -0.0019431517771221624 -0.010515708627048247 0 -0.0020913445737713796 -0.010341860547416006 0 -0.0021176238275849323 -0.010571581951540983 0 -0.0019431517771221624 -0.010515708627048247 0 -0.0020913445737713796 -0.010341860547416006 0 -0.0018002603185197539 -0.010186472602818103 0 -0.0019431517771221624 -0.010515708627048247 0 -0.0018002603185197539 -0.010186472602818103 0 -0.0019431517771221624 -0.010515708627048247 0 -0.001675937753314604 -0.010491202777038029 0 -0.0020337046696686937 -0.0107146442763594 0 -0.0019431517771221624 -0.010515708627048247 0 -0.0018771824419344307 -0.010768416221285075 0 -0.0019431517771221624 -0.010515708627048247 0 -0.0018771824419344307 -0.010768416221285075 0 -0.001675937753314604 -0.010491202777038029 0 -0.0018771824419344307 -0.010768416221285075 0 -0.0016771120250146639 -0.01076699186280821 0 -0.0017966759176303725 -0.010865629747042973 0 -0.001675937753314604 -0.010491202777038029 0 -0.001337273589794541 -0.010373036390107582 0 -0.0014510983921167686 -0.010669198899458473 0 -0.0016771120250146639 -0.01076699186280821 0 -0.0014510983921167686 -0.010669198899458473 0 -0.0015886414009240954 -0.010888625294506755 0 -0.0018771824419344307 -0.010768416221285075 0 -0.0016771120250146639 -0.01076699186280821 0 -0.001675937753314604 -0.010491202777038029 0 -0.0016771120250146639 -0.01076699186280821 0 -0.001675937753314604 -0.010491202777038029 0 -0.0014510983921167686 -0.010669198899458473 0 -0.0014979381873574231 -0.010095684966802085 0 -0.001675937753314604 -0.010491202777038029 0 -0.001337273589794541 -0.010373036390107582 0 -0.0014979381873574231 -0.010095684966802085 0 -0.0018002603185197539 -0.010186472602818103 0 -0.001675937753314604 -0.010491202777038029 0 -0.0014979381873574231 -0.010095684966802085 0 -0.0012408914409000858 -0.010092173811543275 0 -0.001337273589794541 -0.010373036390107582 0 -0.0012408914409000858 -0.010092173811543275 0 -0.001337273589794541 -0.010373036390107582 0 -0.0010262629430817752 -0.01026266995510103 0 -0.00043609109867933797 -0.01034165890845222 0 -0.0010262629430817752 -0.01026266995510103 0 -0.00097590059985561009 -0.010541837417338332 0 -0.001337273589794541 -0.010373036390107582 0 -0.0010262629430817752 -0.01026266995510103 0 -0.00097590059985561009 -0.010541837417338332 0 -0.00099726431230734956 -0.0099128155131033586 0 -0.00072410191796603858 -0.01004407963089644 0 -0.0010262629430817752 -0.01026266995510103 0 -0.00099726431230734956 -0.0099128155131033586 0 -0.0012408914409000858 -0.010092173811543275 0 -0.0010262629430817752 -0.01026266995510103 0 -0.00097590059985561009 -0.010541837417338332 0 -0.0014510983921167686 -0.010669198899458473 0 -0.0013762783614559534 -0.010905376575857469 0 -0.001337273589794541 -0.010373036390107582 0 -0.00097590059985561009 -0.010541837417338332 0 -0.0014510983921167686 -0.010669198899458473 0 -0.0013762783614559534 -0.010905376575857469 0 -0.0011580892388596883 -0.011097483150478914 0 -0.0017294180996667015 -0.011027947346033466 0 -0.0014510983921167686 -0.010669198899458473 0 -0.0013762783614559534 -0.010905376575857469 0 -0.0015886414009240954 -0.010888625294506755 0 -0.00097590059985561009 -0.010541837417338332 0 -0.0013762783614559534 -0.010905376575857469 0 -0.0011580892388596883 -0.011097483150478914 0 -0.00034917175414828165 -0.010999515522476763 0 -0.00097590059985561009 -0.010541837417338332 0 -0.0011580892388596883 -0.011097483150478914 0 -0.0033298332111867299 -0.0099002882245810015 0 -0.0032708160464359633 -0.0099647563942047747 0 -0.0033279085109753441 -0.0098739391336737682 0 -0.0032708160464359633 -0.0099647563942047747 0 -0.0032528109502947813 -0.009843882769968516 0 -0.0033279085109753441 -0.0098739391336737682 0 -0.0023777227130744477 -0.010926811429456116 0 -0.0022396897148327433 -0.010478210721765002 0 -0.0032708160464359633 -0.0099647563942047747 0 -0.0031259579919721203 -0.0098637051185619783 0 -0.0028890795281758621 -0.010067741479595002 0 -0.0032708160464359633 -0.0099647563942047747 0 -0.0032528109502947813 -0.009843882769968516 0 -0.0031259579919721203 -0.0098637051185619783 0 -0.002874780979796336 -0.0098157202492500165 0 -0.0031259579919721203 -0.0098637051185619783 0 -0.0028890795281758621 -0.010067741479595002 0 -0.0018209756655430732 -0.010689546965035154 0 -0.0018240762384738693 -0.010817492984934828 0 -0.0017294180996667015 -0.011027947346033466 0 -0.0025954683487433307 -0.0098986699279015721 0 -0.002874780979796336 -0.0098157202492500165 0 -0.0028890795281758621 -0.010067741479595002 0 -0.0019945769152063236 -0.010428904372629343 0 -0.0022396897148327433 -0.010478210721765002 0 -0.0025954683487433307 -0.0098986699279015721 0 -0.0022288854293020478 -0.010161415909537305 0 -0.0028890795281758621 -0.010067741479595002 0 -0.0019091691789421795 -0.010972047442707699 0 -0.0017527648808090474 -0.010956702635222111 0 -0.0018240762384738693 -0.010817492984934828 0 -0.0017294180996667015 -0.011027947346033466 0 -0.0017134857779093581 -0.010958226313279914 0 -0.0020046099031446039 -0.011105024477745437 0 -0.0019048913642686015 -0.01093922660859414 0 -0.0017134857779093581 -0.010958226313279914 0 -0.0020419999540932168 -0.010905779543006077 0 -0.0018771824419344307 -0.010768416221285075 0 -0.0019048913642686015 -0.01093922660859414 0 -0.0019048913642686015 -0.01093922660859414 0 -0.0017966759176303725 -0.010865629747042973 0 -0.0017134857779093581 -0.010958226313279914 0 -0.0018771824419344307 -0.010768416221285075 0 -0.0019048913642686015 -0.01093922660859414 0 -0.0017966759176303725 -0.010865629747042973 0 -0.0016771120250146639 -0.01076699186280821 0 -0.0015886414009240954 -0.010888625294506755 0 -0.0017134857779093581 -0.010958226313279914 0 -0.0016771120250146639 -0.01076699186280821 0 -0.0017966759176303725 -0.010865629747042973 0 -0.0017134857779093581 -0.010958226313279914 0 -0.0013762783614559534 -0.010905376575857469 0 -0.0017294180996667015 -0.011027947346033466 0 -0.0015886414009240954 -0.010888625294506755 0 -0.0017294180996667015 -0.011027947346033466 0 -0.0015886414009240954 -0.010888625294506755 0 -0.0017134857779093581 -0.010958226313279914 0 
</DataArray>
</PointData>
<CellData Scalars="region_id,cross_section_updated," Vectors="" Tensors="stress,">
<DataArray type="Float64" Name="region_id" format="ascii">
6 5 5 5 5 5 5 5 5 6 5 5 5 6 5 5 5 5 5 5 5 5 5 5 5 5 5 5 5 6 5 5 6 5 5 5 6 5 5 5 6 5 5 5 5 5 5 5 5 6 5 5 5 5 5 5 6 5 5 5 5 5 5 5 5 5 6 5 5 6 5 5 5 6 5 6 5 6 6 5 5 5 5 5 5 5 5 5 6 5 6 5 5 6 5 5 5 5 5 5 5 5 5 5 5 5 5 5 5 6 5 5 5 5 6 5 5 6 6 5 5 6 5 5 5 6 6 6 5 6 5 5 5 5 5 5 5 5 5 6 6 5 5 5 5 5 5 6 5 5 5 5 5 6 6 5 5 6 5 5 6 6 5 6 6 5 5 5 5 5 5 5 5 5 5 5 5 6 5 5 6 5 5 5 5 5 5 5 5 5 5 5 5 5 5 5 5 5 5 5 5 6 5 5 5 5 5 5 5 5 5 5 5 5 5 5 5 6 5 5 6 5 5 5 5 6 6 5 5 5 5 5 5 5 5 5 5 5 5 5 5 5 6 5 5 5 6 5 5 5 5 5 5 5 5 6 6 5 5 5 5 5 5 5 5 5 6 5 5 5 5 5 6 5 6 5 5 5 5 5 6 6 5 5 5 6 5 6 5 5 5 6 5 6 5 5 6 5 5 5 6 5 5 5 5 5 6 6 5 5 6 5 6 6 5 5 6 5 6 5 5 5 5 6 5 6 5 5 6 6 6 5 6 5 6 6 5 5 5 5 5 5 5 5 5 6 5 5 5 5 5 5 5 5 5 5 5 5 5 5 5 5 5 5 5 5 5 5 5 5 6 5 6 5 5 5 5 5 6 5 6 5 5 6 5 5 5 5 6 5 6 5 5 5 5 5 5 5 5 5 5 5 5 5 6 5 5 6 5 5 5 5 5 5 5 5 5 5 5 5 5 5 5 5 5 6 5 5 5 5 5 5 5 5 5 5 6 5 5 5 6 6 5 5 5 5 5 5 5 5 5 5 5 5 5 5 5 5 5 5 5 5 5 5 5 6 5 5 6 5 5 6 5 6 5 5 5 6 5 6 6 5 5 5 5 5 5 5 5 5 5 6 5 5 5 5 5 5 5 5 5 5 5 5 5 5 5 5 5 5 5 5 5 5 5 5 5 5 5 5 5 5 5 5 6 5 5 5 5 6 5 5 5 5 5 5 5 6 5 5 5 5 5 5 5 5 5 6 5 6 6 5 5 6 5 6 5 5 5 5 5 5 5 5 6 5 5 5 5 5 6 5 5 5 5 5 5 6 5 5 5 5 5 5 5 5 6 5 6 5 5 5 5 5 6 5 6 5 5 5 5 5 5 6 5 5 5 5 5 5 5 5 5 5 6 6 5 5 5 5 6 5 5 5 5 5 5 5 5 5 5 5 5 6 5 5 6 5 5 5 5 5 5 5 5 5 5 6 6 5 5 5 5 5 5 5 5 5 5 6 5 6 5 5 5 5 5 5 5 5 5 5 5 5 5 5 5 5 5 5 5 5 5 5 5 5 5 5 5 5 5 5 5 5 5 5 5 5 5 5 5 6 5 5 5 6 5 6 5 6 5 5 6 5 6 5 6 5 5 6 5 5 5 5 5 5 5 5 6 5 5 6 5 5 5 5 6 5 5 5 5 5 5 5 5 5 5 6 5 6 5 6 5 6 5 6 5 5 5 6 5 6 5 5 5 5 5 5 5 5 5 5 5 5 6 5 5 6 6 5 5 5 6 5 5 6 5 5 6 5 5 5 6 5 5 5 5 5 6 5 5 6 6 5 5 5 6 6 6 5 5 6 5 5 6 5 5 5 5 5 5 6 5 5 6 5 5 6 5 5 5 5 5 5 5 5 6 5 5 5 5 5 6 6 6 5 5 5 5 5 5 5 5 5 5 5 6 5 5 5 5 6 5 5 5 5 5 5 5 6 5 5 5 6 5 6 5 6 5 6 5 5 5 5 5 5 5 5 5 5 6 5 5 5 5 5 5 5 5 6 5 5 6 5 5 5 5 6 5 5 5 5 5 5 6 5 6 5 5 5 5 5 5 6 6 5 5 5 5 6 5 6 5 5 5 6 5 5 5 5 5 5 5 6 6 5 5 6 5 6 6 6 5 5 5 5 5 5 5 6 5 5 5 5 5 5 5 5 5 5 5 5 5 6 5 5 5 5 5 5 5 5 5 5 6 5 5 6 5 5 5 5 5 6 5 5 5 5 5 5 5 5 6 5 6 5 5 6 5 5 6 5 5 5 5 6 5 5 5 5 5 6 5 5 5 5 5 5 5 5 5 6 5 5 6 6 5 5 5 5 6 5 6 5 5 6 6 5 6 5 6 5 5 5 5 5 6 5 5 5 6 5 5 5 6 5 5 5 5 5 5 5 5 5 5 6 5 5 5 5 5 5 5 5 5 5 5 5 5 5 5 5 5 5 6 5 5 6 5 5 5 5 6 5 5 5 5 5 5 5 5 5 5 5 5 5 5 5 5 5 5 5 5 5 5 5 5 5 5 5 5 5 5 5 5 5 5 5 5 5 5 5 5 5 5 5 5 5 5 5 5 5 5 5 5 5 5 5 5 5 5 6 5 5 5 5 5 5 5 5 5 5 5 5 5 5 5 5 5 5 5 6 5 5 5 5 6 5 5 5 5 5 5 5 5 5 5 5 5 5 5 5 5 5 5 6 5 5 5 5 6 5 5 5 5 5 6 6 5 5 5 5 5 5 5 5 5 5 5 5 5 5 5 5 5 5 6 5 5 5 6 5 6 5 5 5 5 5 5 5 5 5 6 5 5 5 5 6 6 5 5 5 5 5 5 5 5 5 5 5 5 5 5 5 5 5 5 5 6 5 5 5 5 5 5 5 5 5 5 5 5 5 6 5 5 5 5 5 5 5 5 5 5 5 5 5 5 5 5 5 5 5 5 5 5 6 5 5 5 5 5 5 5 6 5 5 5 6 5 5 5 5 5 5 5 5 5 5 5 5 5 5 5 5 5 5 5 5 5 5 5 5 6 5 6 5 5 5 5 6 5 6 5 5 5 5 5 5 5 6 5 5 5 5 6 5 5 5 5 5 5 5 5 5 5 5 6 5 5 5 5 5 5 6 5 6 5 5 5 5 5 6 5 5 6 5 5 6 5 5 5 5 5 5 5 5 5 5 5 5 5 5 5 5 5 5 5 5 5 5 5 5 5 5 5 6 5 5 5 6 5 6 5 5 6 6 5 5 5 6 5 5 5 5 6 5 6 5 5 6 5 5 5 5 5 6 5 5 5 5 5 6 5 5 5 5 5 5 5 5 5 5 5 5 5 5 5 5 5 5 5 5 5 5 5 5 5 5 5 5 5 5 5 5 5 5 5 5 5 5 5 5 5 5 5 6 6 5 5 5 5 5 5 5 5 5 5 5 5 5 5 5 5 5 5 5 5 5 5 5 5 5 5 5 5 6 5 5 5 5 6 5 5 5 5 6 5 5 5 5 5 5 5 6 5 6 5 5 5 5 5 6 5 5 5 5 5 5 5 5 5 5 6 5 5 5 5 5 5 5 5 5 5 5 5 5 5 5 5 5 5 5 5 5 5 5 5 5 6 5 5 5 5 6 5 6 5 5 6 5 6 5 5 5 5 5 5 6 5 5 5 6 5 5 5 5 5 5 5 5 5 5 5 5 5 5 5 5 5 6 5 6 5 5 5 5 5 6 5 6 5 5 5 5 5 5 5 5 6 5 5 5 5 5 5 5 5 5 5 5 5 5 5 5 5 5 5 5 5 5 5 5 6 5 6 5 5 5 5 5 5 5 5 5 5 5 5 6 5 5 5 5 5 5 5 5 5 5 5 5 5 5 5 5 5 5 5 5 5 5 5 5 5 5 5 6 5 5 5 6 5 6 6 5 5 5 5 5 6 5 5 5 5 5 5 5 5 5 5 5 5 5 5 5 5 5 5 5 5 5 5 5 5 6 5 5 6 5 5 5 5 5 5 5 5 6 6 5 5 5 5 5 5 5 5 5 5 6 5 5 6 6 5 6 5 5 5 5 5 6 5 6 6 6 5 5 5 5 5 5 6 5 5 5 5 5 5 5 5 5 6 5 6 5 5 6 5 5 5 5 5 5 5 5 5 5 5 5 5 5 5 5 5 5 5 5 5 5 5 5 5 5 6 6 5 5 5 5 5 5 5 5 5 5 5 5 5 5 5 5 5 5 5 5 5 5 5 5 5 5 5 5 5 5 5 5 5 5 5 5 5 5 5 5 5 5 5 5 5 5 5 5 5 5 5 5 5 5 5 5 6 5 5 5 5 5 5 5 5 5 6 6 5 5 5 6 5 5 5 5 5 5 5 5 5 5 5 5 5 5 5 5 5 5 5 5 5 5 5 5 5 5 5 5 5 5 6 5 5 5 5 5 5 5 6 5 5 5 5 5 5 5 6 5 5 6 5 5 5 5 5 5 5 5 5 6 5 5 6 6 5 5 5 6 5 5 5 5 5 5 5 5 5 5 5 6 5 5 5 5 6 5 6 5 5 6 5 5 6 6 5 5 5 5 5 5 5 5 5 5 6 6 5 5 5 5 5 5 6 5 5 5 5 5 5 6 5 6 5 5 5 5 5 6 6 5 5 5 5 5 5 5 5 5 5 5 5 5 5 5 5 5 5 5 6 6 5 5 6 5 5 5 5 5 5 5 5 5 5 5 6 5 5 5 5 5 5 5 5 5 5 5 5 5 5 5 5 5 5 5 5 5 5 5 5 5 5 5 5 6 5 5 5 5 6 6 5 5 5 5 5 5 5 6 5 6 5 5 5 5 5 5 5 5 5 5 5 5 5 5 5 5 5 5 5 5 6 6 5 6 5 5 5 5 5 6 5 5 5 5 5 5 5 5 5 5 5 5 5 5 5 5 5 6 5 5 5 5 5 5 5 5 5 5 5 6 5 5 5 5 5 5 5 5 5 5 6 5 5 5 5 5 5 5 5 5 6 5 5 5 5 6 5 5 5 6 5 5 5 5 6 5 5 5 5 5 5 5 5 5 6 5 5 5 5 6 5 5 5 5 5 5 5 5 6 5 6 6 5 6 6 5 5 5 6 5 5 5 6 5 6 5 5 5 5 5 6 5 5 5 6 5 5 5 5 5 5 6 6 5 5 5 5 5 5 5 5 5 5 5 6 5 6 6 5 5 5 5 5 6 6 5 5 6 5 5 5 5 6 5 5 5 5 5 6 5 5 5 5 6 6 5 5 6 5 6 6 5 5 5 5 5 5 5 5 5 5 5 5 5 5 5 5 5 5 5 5 5 6 5 5 6 5 6 5 5 5 6 5 5 5 5 5 5 6 6 5 5 5 5 5 5 6 5 5 6 5 5 5 5 5 5 6 5 5 5 6 5 5 5 5 5 5 6 5 5 5 5 5 5 5 5 5 5 5 5 5 6 5 6 5 5 5 5 5 5 5 5 5 6 5 5 5 6 5 5 5 5 5 5 5 5 5 5 6 5 5 5 5 5 5 5 5 5 5 5 5 5 5 5 5 5 5 5 5 5 5 5 5 5 6 5 5 5 6 5 5 6 5 5 5 5 5 6 5 5 5 6 5 5 5 5 5 5 5 6 5 5 5 5 5 5 5 5 5 5 5 5 5 5 5 5 5 6 5 6 5 5 5 5 5 5 5 5 5 6 5 6 5 6 5 6 6 5 5 5 5 6 5 5 5 5 6 5 5 5 5 5 6 5 6 5 5 6 5 5 5 5 5 5 5 5 5 5 5 5 5 5 5 5 5 6 5 5 5 5 5 5 6 5 5 5 5 5 6 5 5 5 5 5 5 5 6 5 5 6 5 5 5 5 5 5 6 5 5 5 6 5 5 5 5 5 5 5 5 5 5 5 5 5 5 5 5 5 6 5 5 5 5 5 6 6 5 5 5 5 5 6 5 6 5 6 5 6 6 5 5 5 6 6 5 5 5 5 5 5 5 5 5 5 5 5 5 5 5 5 5 5 5 5 5 5 5 5 5 5 5 5 5 5 5 5 5 5 5 5 5 5 6 5 5 5 5 5 5 5 6 5 6 5 5 5 5 5 5 6 5 5 5 6 5 5 5 6 6 5 6 5 5 5 5 5 5 6 5 5 6 5 5 5 5 5 5 5 5 5 5 5 5 6 6 6 5 5 5 6 5 5 5 5 5 5 5 5 5 5 5 5 5 5 5 5 5 5 5 5 5 5 6 5 5 5 5 6 5 5 5 5 5 5 5 6 5 5 5 5 5 6 5 5 5 5 5 6 5 5 5 5 5 5 5 5 5 6 5 5 5 5 6 5 5 5 5 5 5 5 5 5 5 6 5 5 6 5 5 5 5 5 5 5 5 5 5 5 5 5 5 5 5 5 5 5 5 6 5 5 5 5 6 5 5 5 5 5 5 5 5 6 5 5 5 5 5 6 5 5 6 5 5 5 5 5 5 5 5 5 5 5 5 6 5 5 5 5 5 5 5 5 5 5 5 5 5 5 5 5 5 5 5 5 5 5 5 5 5 5 5 5 6 5 5 5 5 5 5 5 5 5 5 5 5 5 5 6 5 5 5 5 5 5 5 5 5 5 5 5 5 5 5 5 5 5 5 6 5 5 5 5 5 5 5 6 5 5 5 5 5 5 5 5 5 5 5 5 5 5 5 5 5 5 5 5 5 5 5 5 6 5 5 5 5 5 6 5 5 5 5 5 5 5 5 5 5 6 5 5 6 5 6 5 5 5 5 5 5 5 6 5 6 5 6 5 5 5 5 5 5 5 5 5 5 5 5 5 5 5 5 5 5 5 5 5 5 5 5 5 5 5 5 5 5 5 5 5 5 5 5 6 5 5 5 5 5 5 5 5 5 5 5 5 5 5 5 5 5 5 5 5 5 5 5 5 5 5 5 5 5 5 5 6 5 5 5 5 5 5 6 6 5 5 5 5 5 5 5 5 5 5 5 5 5 6 5 5 5 5 5 5 5 5 5 5 6 6 5 6 5 5 5 6 5 6 6 5 6 5 5 5 5 5 5 5 6 6 5 5 5 5 6 5 5 5 5 6 5 6 5 6 6 5 6 5 5 5 5 5 6 5 6 6 6 6 5 5 5 5 5 6 5 5 6 6 5 5 5 6 5 5 6 5 5 5 5 6 5 5 6 5 5 6 5 5 5 5 5 5 5 5 5 5 5 5 5 5 6 5 6 5 5 5 5 5 6 5 5 6 5 5 5 5 5 6 5 5 5 5 5 5 5 5 5 5 6 5 5 5 5 5 5 5 5 5 5 5 6 5 5 5 5 5 5 6 5 5 5 5 5 5 5 5 5 5 5 5 5 5 6 5 5 5 6 5 5 5 5 5 5 5 6 5 6 5 5 5 5 5 5 5 5 5 5 5 5 5 5 5 5 5 5 5 5 5 5 5 5 5 5 5 5 5 5 5 5 5 5 5 5 6 5 6 5 5 6 5 6 5 5 5 5 5 5 6 5 5 6 6 5 5 5 5 5 5 6 5 5 5 5 5 5 5 6 5 5 5 5 5 5 5 5 5 5 5 5 5 5 5 5 5 5 5 6 5 5 5 6 5 6 5 6 5 5 5 5 6 5 5 5 5 5 5 6 5 5 5 5 5 5 6 5 5 6 5 5 5 5 5 5 6 5 5 5 5 5 5 5 5 5 6 5 6 5 5 5 5 5 6 6 5 5 5 6 6 5 5 5 5 5 5 6 5 5 6 6 5 5 6 5 5 6 5 5 5 5 6 5 5 5 5 5 5 6 5 5 5 5 5 5 5 5 5 5 6 5 5 5 6 6 5 5 5 5 5 5 5 5 5 6 5 5 5 5 5 5 5 5 5 5 5 6 6 5 5 5 5 6 5 5 5 5 6 5 5 5 5 6 5 5 5 6 5 5 5 5 6 5 5 5 5 5 6 5 5 5 5 6 5 5 5 5 5 5 5 5 5 5 5 5 5 5 5 5 5 5 5 5 5 5 5 5 5 5 5 5 5 5 5 5 6 5 5 5 5 6 5 5 5 5 5 5 6 5 5 5 6 5 6 5 5 5 5 5 5 5 5 5 5 5 5 5 5 5 5 5 5 5 5 5 5 5 6 5 6 5 5 5 6 5 5 5 5 5 5 5 5 5 5 5 5 5 6 5 5 6 5 5 6 6 5 6 5 5 5 5 5 5 5 5 5 5 5 5 5 5 5 5 5 6 5 5 5 5 5 6 5 5 5 5 5 5 5 6 5 5 5 5 5 5 5 6 5 5 5 5 5 5 5 5 5 5 5 5 5 5 5 6 5 5 5 6 5 5 5 5 5 5 5 5 5 5 5 6 5 5 5 5 5 5 6 5 5 6 5 6 5 5 5 6 5 5 5 5 5 5 5 5 5 5 5 6 5 5 5 5 5 6 5 5 5 6 5 5 5 6 5 5 5 5 5 6 5 6 5 5 5 5 5 5 5 5 6 5 6 5 5 6 5 6 5 6 5 5 5 5 5 5 5 5 5 5 6 5 6 5 5 5 5 6 5 5 5 6 6 5 5 5 6 5 6 6 5 5 6 6 5 6 6 5 5 6 6 5 5 6 5 5 6 5 6 5 5 6 5 5 6 5 6 5 5 5 6 5 6 5 5 6 6 5 5 5 6 6 5 6 5 5 5 5 5 5 5 5 6 5 5 6 6 5 6 5 6 6 5 5 5 6 5 5 6 5 5 5 5 5 5 6 6 5 5 5 5 5 5 5 6 6 5 5 5 5 6 5 5 5 6 5 5 6 5 5 5 5 5 6 5 5 6 5 5 5 6 6 5 5 6 5 5 5 6 5 5 5 6 6 5 5 6 5 5 5 5 6 6 5 5 6 6 5 6 6 5 5 5 5 5 5 6 5 5 5 5 5 5 5 5 5 5 6 6 5 5 5 5 5 5 5 6 5 5 5 5 5 5 5 5 5 6 5 5 6 5 5 6 5 5 5 5 5 5 5 5 5 5 5 5 5 5 5 5 5 5 6 6 5 5 5 5 6 5 5 6 5 5 5 5 5 5 5 5 5 6 5 5 6 5 5 5 5 5 5 5 5 5 5 5 6 5 6 5 5 5 5 5 5 5 5 5 5 6 5 5 5 5 5 5 5 5 5 5 5 5 5 5 5 5 5 5 5 5 5 5 5 5 5 5 5 5 5 5 5 5 5 5 5 5 5 5 5 6 5 5 5 5 5 5 5 5 5 6 5 5 6 5 5 5 5 5 5 5 5 5 5 5 5 5 5 5 5 6 5 6 5 5 6 5 5 5 6 6 5 6 6 5 6 5 5 6 5 5 6 5 5 5 5 5 5 5 5 5 5 5 5 5 5 5 5 5 5 5 5 5 6 5 5 5 5 5 5 5 5 5 5 5 5 5 5 5 5 5 5 5 6 5 5 5 5 5 6 5 5 5 5 5 5 5 5 5 5 5 5 5 5 5 5 5 5 5 5 5 5 5 5 6 5 5 5 5 5 5 6 5 5 5 5 5 5 5 5 5 5 5 5 5 5 5 6 5 5 5 6 6 5 5 5 6 5 5 5 5 5 5 5 5 6 5 5 5 5 6 5 5 5 5 5 5 5 5 5 5 5 5 5 6 5 5 5 5 5 5 5 5 5 5 5 5 5 5 5 5 5 5 5 5 5 5 5 5 5 5 5 6 5 5 5 5 5 5 5 5 5 5 5 5 5 5 5 6 6 5 5 5 6 5 5 5 5 5 5 5 5 5 5 5 5 5 5 5 5 5 5 5 5 5 5 5 5 5 5 5 5 5 5 6 5 5 5 5 5 5 5 5 5 5 5 5 5 5 5 5 5 5 5 5 5 5 5 5 5 6 5 5 5 5 5 5 5 6 5 5 5 6 5 5 6 5 5 5 5 5 5 5 5 6 6 5 5 5 5 5 6 5 5 5 5 5 5 5 5 5 5 5 5 5 5 5 5 5 5 5 6 5 6 5 6 5 5 5 6 5 6 5 5 5 5 5 5 5 5 5 5 5 5 6 5 5 5 5 6 5 5 6 5 6 5 5 6 5 5 5 6 5 5 5 5 5 5 5 5 5 6 5 5 5 5 6 5 5 5 5 6 5 5 5 5 5 5 6 5 6 5 6 5 5 5 6 5 5 5 5 5 5 6 6 5 5 5 5 5 6 5 5 5 5 5 5 5 5 5 5 5 5 5 5 5 5 5 5 5 6 5 5 5 5 5 5 5 5 5 6 5 6 5 6 5 5 5 5 5 5 5 5 5 5 5 5 6 5 5 6 5 5 5 5 5 5 5 5 5 6 5 6 5 5 5 5 5 5 6 5 5 5 5 5 5 5 5 5 5 5 5 5 5 5 5 5 5 5 5 5 5 5 5 5 5 5 5 5 5 5 5 5 5 5 5 5 5 5 5 5 6 5 5 6 5 6 5 5 5 6 6 5 5 6 5 5 5 5 5 5 5 5 5 5 5 5 6 5 5 5 5 5 5 5 5 5 5 5 5 6 5 5 5 5 5 5 5 5 5 5 5 5 5 5 5 6 5 5 5 5 5 6 5 5 5 5 5 5 5 5 5 6 5 5 5 5 6 5 5 5 5 5 5 5 5 5 5 5 6 5 6 5 6 5 5 5 6 5 5 5 5 5 5 5 5 5 5 5 5 5 5 5 5 5 5 5 5 6 5 5 5 5 5 5 5 5 5 5 5 5 5 5 5 5 5 5 6 5 5 5 5 5 6 5 5 5 5 5 5 5 5 6 5 5 6 5 5 5 5 5 5 5 6 5 5 5 5 5 5 5 5 5 6 5 5 5 5 5 5 5 5 5 5 5 5 5 5 5 5 5 5 5 5 5 5 5 5 6 5 6 5 5 6 5 5 5 5 5 5 5 5 6 5 5 5 5 5 5 6 5 5 5 5 5 5 5 5 5 5 5 5 6 5 5 5 5 5 5 5 5 5 5 5 5 5 5 6 5 5 5 6 5 5 5 5 6 5 5 5 5 5 5 5 5 5 5 5 5 5 5 5 5 5 5 5 5 5 5 5 5 5 5 6 5 5 6 5 5 5 5 5 5 5 5 5 6 5 5 6 5 5 6 5 5 5 5 5 5 5 5 5 5 5 5 5 5 5 5 5 5 5 5 5 5 5 5 5 5 5 5 5 5 5 5 5 5 5 5 5 5 5 5 5 5 5 5 5 5 5 5 5 5 5 5 5 5 5 5 5 5 5 5 5 5 5 6 5 5 5 5 5 5 6 5 5 5 5 5 5 5 5 5 5 5 6 6 5 5 6 5 6 5 5 6 5 5 6 5 5 5 5 5 5 5 5 6 5 5 5 5 5 5 5 5 5 6 5 5 5 5 6 5 5 5 5 5 5 5 5 5 5 5 5 5 5 5 6 5 5 5 5 6 5 6 5 5 5 6 5 5 6 5 5 5 5 5 5 5 5 5 5 5 6 5 5 6 5 5 5 6 5 5 6 6 5 5 6 5 5 5 5 5 5 5 5 6 5 5 5 5 6 5 6 5 6 5 5 5 5 6 5 5 5 6 5 5 5 5 5 5 5 5 5 5 5 5 5 5 5 5 5 5 6 5 5 5 5 5 5 5 5 5 5 5 5 5 5 5 5 5 5 5 5 5 5 5 5 5 5 5 5 5 5 5 5 5 5 5 5 5 5 5 5 6 5 5 5 5 5 6 5 5 5 5 5 5 5 5 5 5 5 5 5 6 5 5 6 5 5 5 6 5 6 5 5 5 5 6 5 5 5 5 5 5 5 5 5 6 5 5 6 6 5 6 5 5 5 5 5 5 5 5 5 5 5 5 5 5 5 5 5 5 5 5 5 5 5 6 5 5 5 6 5 5 5 5 5 5 5 6 5 5 5 5 5 5 5 5 5 5 5 5 5 5 5 5 5 5 5 5 5 5 5 6 5 5 5 5 5 6 5 6 6 5 5 5 6 5 5 6 5 5 5 5 5 5 5 5 5 5 5 6 5 5 5 6 5 6 5 5 5 5 5 6 5 6 5 6 5 5 5 5 5 5 5 5 6 6 6 5 5 6 5 5 5 5 5 5 5 5 5 5 5 5 5 5 5 5 5 5 5 5 5 5 5 5 5 5 5 5 5 5 5 5 5 5 5 5 5 6 5 5 5 5 5 5 5 6 5 5 6 5 5 5 5 5 5 5 5 5 5 5 5 5 5 5 5 5 5 5 5 5 5 5 6 5 5 5 5 5 5 5 5 5 5 6 5 5 5 5 6 5 5 5 5 6 5 6 6 5 5 5 5 6 5 5 6 5 5 6 6 5 5 5 5 5 5 5 6 5 5 5 5 5 5 5 5 5 5 5 5 5 6 5 5 5 5 5 5 5 6 6 5 6 5 6 5 5 5 6 5 5 5 5 5 6 5 5 6 5 5 5 5 5 5 5 6 5 5 5 5 5 5 5 5 6 5 5 5 6 5 5 5 5 5 6 6 5 5 6 5 5 5 5 5 5 5 5 5 5 5 5 5 5 6 5 5 6 5 6 5 5 5 5 6 5 5 5 5 5 6 5 5 6 6 5 5 5 5 6 5 5 5 5 5 5 5 5 6 5 6 5 5 5 5 5 5 5 5 6 5 5 5 5 6 5 5 5 5 5 5 5 5 5 5 5 5 5 5 5 5 5 5 5 5 5 5 5 5 5 5 5 5 5 5 5 5 5 6 5 5 5 5 5 5 5 6 5 5 5 5 5 5 5 5 5 5 5 5 6 5 5 5 5 6 5 5 5 5 5 5 5 5 5 5 5 5 5 6 5 5 6 5 5 5 5 6 5 5 5 5 5 5 5 5 5 5 5 6 5 6 5 5 6 5 5 5 5 6 5 5 5 5 5 5 5 5 5 5 5 5 5 5 5 5 5 5 5 5 5 5 5 5 5 5 5 5 6 5 5 5 5 6 5 5 5 5 5 5 5 5 5 6 5 5 5 6 5 5 5 5 5 5 6 5 6 5 6 5 5 5 5 5 5 5 5 5 5 5 5 5 5 5 5 5 5 5 5 5 5 5 5 5 5 5 5 5 5 5 5 5 5 5 6 5 6 5 5 5 5 5 5 5 5 6 5 5 5 5 5 5 5 5 5 5 5 5 6 5 5 5 5 5 5 5 5 5 5 5 5 5 6 5 5 6 5 5 5 5 6 5 5 5 5 6 5 5 5 5 5 6 6 5 6 5 5 6 5 5 5 5 6 5 6 5 5 5 5 5 5 5 5 6 5 5 5 5 6 5 5 5 5 5 5 5 5 5 5 5 5 5 5 5 5 5 5 5 5 5 5 6 5 5 5 5 5 5 5 5 5 5 5 5 5 5 5 5 5 5 5 5 5 6 5 5 5 5 5 5 5 6 5 6 5 5 5 5 5 5 5 5 5 5 5 5 5 5 5 5 5 5 5 5 5 5 5 5 5 5 6 5 5 5 5 5 6 5 6 5 5 5 5 6 6 6 5 6 5 5 5 6 5 5 5 5 6 5 6 5 5 5 5 6 5 5 5 6 6 6 5 6 5 6 5 5 6 5 5 5 5 5 5 5 5 5 5 6 5 6 5 6 5 5 5 5 6 5 5 5 5 6 5 5 5 5 5 5 5 5 5 5 6 5 6 5 5 6 5 5 6 5 5 5 5 5 6 5 5 5 5 5 5 5 5 5 5 5 5 6 5 5 5 6 5 5 5 5 5 6 5 5 5 5 5 5 5 5 5 5 5 5 5 5 5 5 5 5 5 5 5 6 5 5 5 5 6 5 5 5 6 5 6 5 5 6 5 6 5 5 5 5 5 5 6 5 5 5 5 6 5 6 5 5 5 5 5 5 5 6 5 5 5 5 5 5 5 6 5 5 5 5 5 5 5 5 5 5 5 5 5 5 5 5 5 6 5 5 5 6 5 5 5 5 5 5 5 5 5 5 5 5 5 5 6 5 5 5 5 5 5 5 5 5 5 5 5 5 5 5 5 5 5 5 5 5 5 5 5 5 5 5 6 5 6 5 5 5 6 5 5 5 6 5 5 6 6 5 5 5 5 5 5 5 5 6 5 5 6 5 5 5 5 6 5 6 5 5 5 6 5 5 5 5 5 5 5 5 5 5 6 5 5 6 5 5 6 5 5 5 5 5 5 5 6 5 5 6 6 5 5 5 6 5 5 5 5 5 5 6 5 5 5 5 6 5 5 5 6 5 5 5 5 6 5 5 6 5 5 5 5 5 5 5 5 5 5 5 6 5 5 5 5 6 5 6 5 6 5 6 5 5 5 5 5 5 5 5 5 5 5 6 6 5 5 5 5 5 5 6 5 5 6 5 5 5 5 5 5 6 5 5 5 6 5 6 5 5 5 6 5 5 5 5 5 5 6 5 5 5 5 5 5 6 5 6 5 5 5 6 5 5 5 5 6 5 5 5 5 5 5 5 6 5 6 5 6 5 5 5 6 6 5 5 6 5 5 5 5 5 6 5 6 6 6 6 5 5 5 5 5 6 6 5 5 6 5 5 5 6 5 5 5 5 5 5 5 5 5 6 5 5 5 6 5 5 5 5 5 5 5 6 5 6 5 5 5 5 6 5 6 5 5 5 5 6 5 5 5 5 5 5 5 5 5 6 5 5 5 5 5 5 5 5 5 5 5 5 5 5 5 5 5 5 5 5 5 6 5 5 5 5 6 5 5 5 5 5 6 5 6 5 5 5 5 5 5 5 5 5 5 5 6 5 6 5 6 6 5 6 5 6 5 5 5 6 5 5 5 6 5 5 5 5 6 5 6 5 5 5 5 5 5 5 5 6 5 5 5 5 5 5 5 5 6 5 5 5 5 5 5 5 5 5 6 5 5 6 5 5 5 6 5 5 5 5 5 5 5 5 5 5 5 5 6 5 5 5 5 6 5 5 5 5 5 5 6 5 5 5 5 6 5 6 5 5 5 5 5 5 5 6 5 5 5 6 6 5 5 5 5 6 5 6 5 5 6 5 5 5 5 5 5 5 5 5 5 5 5 5 5 5 5 5 5 5 5 5 5 5 5 5 5 5 5 5 5 5 5 5 5 5 6 5 5 5 6 5 5 5 5 5 5 5 5 5 5 5 5 5 6 5 6 5 5 5 5 5 5 5 5 5 5 5 5 5 6 5 5 6 5 5 5 5 5 6 5 5 5 5 5 5 5 5 5 5 5 5 5 5 5 5 5 5 5 6 6 5 5 6 5 5 6 5 5 5 5 5 5 5 6 5 5 5 5 6 5 5 5 5 5 5 5 5 5 5 5 5 5 5 6 5 5 6 5 5 5 5 5 5 5 6 6 5 5 5 5 5 5 5 5 5 5 5 5 5 5 5 5 6 5 5 5 5 6 5 5 6 5 5 6 5 5 5 5 5 5 5 5 5 5 5 5 6 5 5 5 5 6 5 5 5 5 5 5 5 5 5 6 6 6 5 5 5 6 5 5 6 6 5 6 5 5 5 6 5 5 5 5 5 5 5 5 5 5 5 5 5 5 5 5 5 5 5 5 5 5 5 5 5 5 5 5 5 5 5 5 5 5 5 5 5 5 5 5 5 5 5 5 5 5 5 5 6 5 6 5 5 5 5 5 5 5 5 5 6 5 5 5 5 5 5 6 5 5 5 5 5 6 5 5 5 5 5 5 5 5 5 5 5 5 5 5 5 6 5 5 5 5 5 5 5 6 5 5 5 5 5 6 6 5 5 5 5 6 5 5 5 5 5 5 5 5 5 5 5 5 5 5 5 5 5 5 5 5 5 6 5 5 5 5 5 5 6 5 5 5 6 5 5 5 5 5 5 5 5 5 5 5 5 5 5 5 5 5 5 6 5 6 5 5 5 5 5 6 6 5 5 5 6 5 5 5 5 5 5 6 5 5 5 5 5 6 5 6 5 5 6 5 5 5 5 6 5 5 5 5 6 5 5 5 5 6 5 5 5 5 5 5 5 5 5 5 5 5 5 6 5 5 5 5 5 5 5 5 5 5 5 5 5 5 5 5 6 5 5 5 5 6 5 5 5 5 6 5 5 5 5 5 5 5 5 5 5 6 5 5 5 5 6 5 5 5 5 5 5 5 5 5 5 5 5 5 5 5 6 5 5 5 6 5 5 5 5 5 5 5 5 5 5 5 5 5 5 6 5 5 5 5 5 5 5 5 5 5 5 6 5 5 6 5 5 5 5 5 5 6 6 5 5 5 5 6 5 6 5 5 5 6 5 5 6 5 5 5 5 5 5 5 5 5 5 5 5 5 5 5 5 6 5 5 5 5 5 5 5 5 6 6 5 5 5 6 6 5 6 5 6 5 5 5 5 6 5 5 5 5 5 5 5 5 5 5 5 5 5 6 5 6 5 5 5 5 5 5 5 5 6 6 5 5 6 6 6 5 5 5 5 5 5 6 5 5 6 5 5 6 6 6 6 5 5 5 5 5 5 5 5 5 5 5 5 5 6 5 5 6 5 6 5 5 5 5 5 5 5 6 6 5 5 6 5 5 6 5 5 5 5 6 6 6 6 5 5 5 5 5 5 5 5 5 5 5 5 5 5 6 5 5 6 5 5 5 5 6 5 5 5 6 5 5 6 5 5 6 5 5 6 6 5 6 5 5 5 5 5 5 6 5 5 5 5 6 5 5 5 5 5 6 5 5 6 5 6 6 5 5 5 6 5 5 5 5 5 6 5 5 5 6 5 5 5 6 5 5 5 5 5 5 5 6 5 5 5 5 5 6 5 5 5 5 5 5 5 6 5 6 6 5 5 6 5 5 5 5 5 5 6 5 5 5 5 5 5 6 5 5 5 5 5 5 6 5 6 5 6 5 5 6 5 5 5 5 6 6 6 6 5 5 5 5 5 5 5 5 6 5 5 5 6 5 6 5 5 5 5 5 5 5 5 5 5 5 5 5 5 5 5 6 5 6 5 5 5 5 5 5 5 5 6 5 5 5 5 5 6 5 5 6 5 5 5 5 5 5 6 6 5 5 6 5 5 5 5 5 5 5 5 5 5 5 6 6 5 5 5 5 6 5 5 5 5 5 5 5 5 6 5 5 5 5 6 5 5 5 5 5 5 6 5 6 5 6 5 5 5 5 5 5 5 5 5 5 5 5 5 5 5 5 5 5 6 5 5 5 5 5 5 5 5 5 5 5 5 5 5 5 5 5 6 6 5 5 5 5 5 5 5 5 5 5 5 5 5 5 5 5 5 5 5 5 5 5 5 5 5 5 5 5 5 5 5 5 5 5 5 5 5 5 5 5 5 5 5 5 5 6 5 6 5 5 5 5 5 5 5 6 5 5 5 6 5 6 6 6 5 6 6 5 5 6 6 6 5 5 5 5 5 6 5 6 6 5 5 5 5 5 5 5 6 5 5 6 5 5 6 6 5 5 5 5 5 5 6 5 5 6 6 5 5 6 5 5 5 6 5 5 5 5 6 5 5 5 6 5 5 6 5 5 5 5 5 5 5 5 5 5 5 5 5 5 5 5 5 5 5 6 6 5 5 5 6 5 5 5 5 6 5 5 5 5 5 6 6 5 5 5 5 5 5 5 5 5 6 5 5 5 5 5 5 5 5 5 5 5 5 5 5 5 5 5 5 5 5 5 5 5 5 5 5 5 6 5 6 6 5 5 5 5 5 5 5 5 5 5 5 5 5 5 5 5 5 5 5 5 5 5 5 5 5 5 5 6 5 5 6 5 5 6 5 5 6 5 6 5 5 5 5 5 5 5 6 5 5 5 5 5 5 5 5 5 5 5 5 6 5 6 5 6 5 5 5 5 5 6 5 5 5 5 6 5 5 6 5 5 5 5 5 5 5 5 6 5 5 5 5 5 5 6 5 5 5 5 6 5 5 5 6 5 5 5 5 5 5 5 5 5 5 5 5 5 5 5 5 5 5 6 5 6 5 5 5 6 5 5 5 5 5 5 5 5 5 5 5 5 5 5 5 5 5 5 5 6 5 5 5 6 5 5 5 6 5 5 5 5 5 5 5 5 5 5 5 5 5 5 5 6 5 5 5 5 6 5 5 6 5 5 5 5 5 5 6 5 6 5 6 6 6 5 5 5 6 6 5 5 5 5 5 5 5 6 5 5 5 6 5 6 5 5 5 5 5 5 5 5 5 6 5 5 5 5 5 5 5 5 6 5 5 5 5 6 5 5 5 5 5 5 5 5 5 5 5 5 5 5 5 5 5 5 5 5 5 6 6 5 5 5 5 5 5 5 5 6 5 5 5 5 5 5 5 5 5 5 6 5 5 5 5 5 5 6 5 5 5 5 5 6 5 6 5 5 6 6 5 5 5 5 5 5 5 5 5 5 5 5 5 5 5 5 5 5 5 5 5 5 5 5 5 5 5 5 5 5 5 5 5 5 5 5 5 5 5 5 5 5 5 5 5 5 5 5 6 6 5 5 6 5 5 5 5 5 6 6 5 5 6 6 5 5 5 5 5 5 5 5 5 5 6 5 5 5 5 5 5 5 5 5 5 5 5 5 5 5 6 5 5 5 5 5 5 5 5 5 5 5 5 5 6 5 6 6 6 5 5 5 5 5 5 5 5 6 6 5 5 5 5 6 5 5 5 5 5 5 5 5 6 5 5 5 5 5 5 5 5 5 5 5 5 5 5 5 5 5 6 5 5 5 5 5 5 6 5 5 6 5 5 5 5 5 5 5 5 5 5 5 5 5 5 5 5 5 5 6 5 5 5 6 5 5 6 5 6 6 5 5 6 5 5 5 6 5 5 6 5 6 6 5 5 5 5 6 5 5 5 5 5 5 6 5 6 5 5 5 6 5 5 5 5 6 5 6 6 5 5 5 5 5 6 5 6 5 6 5 6 6 5 5 5 5 5 5 5 6 5 6 5 5 6 5 5 6 5 5 5 5 5 5 5 5 5 5 5 5 5 5 5 5 5 5 5 5 5 5 5 5 5 5 5 5 5 5 5 6 5 5 5 5 5 5 5 5 5 5 5 5 5 5 5 5 5 5 5 5 5 5 5 6 5 5 5 5 5 6 6 5 5 5 5 5 5 5 5 5 5 5 5 5 5 5 5 5 5 5 5 5 6 5 5 5 5 5 5 5 5 5 5 5 5 5 6 5 6 5 5 5 6 5 5 5 5 5 5 5 5 6 5 6 5 5 5 5 5 6 5 5 5 5 5 5 5 5 5 5 5 6 5 5 5 5 5 5 5 5 5 5 5 6 5 5 5 5 5 5 5 5 6 5 5 5 5 5 5 5 5 5 5 5 5 5 5 5 5 5 5 5 5 5 5 5 5 5 5 6 5 5 6 5 5 5 5 5 5 5 5 5 5 5 5 5 5 5 5 5 5 5 5 5 5 5 5 5 5 5 5 6 5 6 5 6 5 5 5 5 5 6 5 5 5 5 6 5 5 5 6 5 5 5 5 5 5 5 5 5 5 5 5 5 5 5 5 5 5 6 6 6 5 5 5 5 5 5 5 5 5 5 5 5 5 6 5 5 5 5 5 5 5 5 5 5 5 5 6 5 5 6 5 5 5 5 5 5 5 5 5 5 5 5 5 5 5 5 5 5 5 5 5 6 6 5 5 5 5 5 5 5 5 5 5 5 5 5 5 6 5 5 6 5 5 5 5 6 5 5 5 5 5 5 6 5 5 5 5 5 5 5 5 5 5 5 5 5 5 5 5 5 5 6 5 5 5 5 5 6 5 5 5 5 5 5 5 5 5 5 5 5 5 5 5 5 5 5 5 5 5 5 5 5 5 5 5 5 6 5 6 5 5 5 5 6 6 5 5 5 5 5 5 5 5 5 5 5 5 5 5 5 5 5 5 5 5 5 5 5 5 5 5 5 5 5 5 5 5 5 5 5 6 5 5 5 5 6 5 5 5 5 5 5 5 5 5 5 5 6 5 5 5 5 5 5 5 5 5 5 5 5 5 5 5 5 5 6 6 5 6 5 5 5 5 5 5 5 5 5 5 6 5 5 5 5 5 5 5 5 5 5 5 5 5 5 5 5 5 6 5 5 5 5 6 5 5 5 5 5 5 5 5 5 5 5 5 5 5 5 5 5 5 5 5 5 5 5 5 5 5 5 5 5 5 5 5 5 5 5 5 5 5 5 5 5 5 5 5 5 5 5 5 5 5 5 5 5 5 5 5 5 5 5 5 5 5 5 5 5 5 5 5 5 5 5 5 5 5 5 5 5 5 5 5 5 6 5 5 5 5 5 5 5 6 5 5 6 5 5 5 5 5 5 5 5 5 5 5 5 6 5 6 5 6 5 5 5 5 5 5 5 5 6 5 5 5 5 5 5 5 5 5 6 5 5 5 5 5 5 5 5 5 5 5 5 5 5 5 5 5 5 5 5 5 6 5 5 5 5 5 5 5 5 5 5 5 5 6 5 5 5 5 5 6 5 5 6 5 5 5 5 6 6 5 5 6 5 5 5 5 5 5 5 6 6 5 5 5 5 5 5 5 5 5 5 5 5 6 5 5 5 5 6 5 5 5 5 5 5 5 5 6 5 5 5 5 6 5 5 5 5 6 5 5 5 5 5 5 5 6 5 5 5 5 5 6 5 5 5 6 5 5 5 5 5 6 5 5 5 5 5 5 5 5 5 5 5 5 5 5 6 5 5 6 5 5 5 5 5 5 5 5 5 5 5 5 5 5 5 5 5 5 5 5 5 6 5 5 6 5 5 6 5 5 5 5 5 5 5 5 5 5 5 5 5 5 5 5 5 5 5 5 5 5 5 5 5 5 5 5 5 5 6 5 5 5 5 6 5 5 6 5 6 5 5 5 5 6 5 6 5 5 6 5 6 5 6 6 5 5 6 5 6 5 6 5 5 6 5 5 5 5 5 5 6 5 6 5 5 6 6 5 5 6 5 6 5 5 6 5 5 6 5 5 6 6 6 5 6 5 5 5 5 5 5 5 5 6 5 5 5 5 5 5 5 6 5 5 5 5 5 5 5 5 5 5 5 5 5 5 6 5 5 5 5 5 5 5 5 5 5 5 5 5 5 5 5 5 5 5 6 5 5 5 5 5 5 5 5 5 5 5 5 5 5 5 5 5 5 5 5 5 5 5 5 5 5 5 5 5 5 5 6 5 5 5 6 5 6 6 5 6 5 5 5 6 5 5 5 5 6 6 6 5 5 5 5 5 5 5 5 5 5 5 5 5 5 5 5 5 6 5 5 5 5 5 5 5 5 5 6 5 5 5 6 5 5 5 5 5 5 5 5 5 5 5 5 6 5 5 6 5 5 5 5 5 5 5 5 5 5 5 5 5 5 5 5 5 5 5 5 5 5 6 5 5 5 5 5 5 5 5 5 5 5 5 5 5 5 5 5 5 6 5 5 5 5 5 5 5 6 5 5 5 5 6 5 5 5 5 5 5 5 5 5 5 5 5 5 5 5 5 5 5 5 5 5 5 5 5 5 5 5 5 5 5 5 5 5 5 5 6 6 5 5 5 5 6 5 6 5 5 5 5 5 6 5 5 5 5 5 5 5 5 6 6 5 5 5 5 6 5 5 5 5 5 5 5 5 5 5 5 5 5 5 5 5 5 5 5 5 5 6 5 5 5 5 5 5 6 5 5 6 5 5 5 5 5 5 5 5 5 6 5 5 5 5 5 5 5 5 6 5 5 5 5 5 5 5 5 5 5 5 5 5 5 5 5 5 6 5 5 6 5 5 5 5 5 5 5 5 5 5 5 5 5 5 5 5 5 5 5 5 5 5 5 5 5 5 5 5 5 6 5 6 5 5 5 5 5 5 5 5 5 5 5 5 5 5 5 5 5 5 5 5 5 5 6 5 5 5 6 5 5 5 5 5 5 5 5 5 5 5 5 6 5 5 5 6 6 5 5 6 5 5 5 5 5 5 5 5 5 6 5 5 5 5 5 5 5 5 5 5 5 5 5 6 5 6 5 5 5 5 5 5 5 5 5 5 5 5 5 5 5 5 5 5 5 5 5 5 5 5 5 5 5 5 5 6 5 5 5 5 5 5 6 5 5 5 5 5 5 5 5 5 5 5 5 5 5 5 5 6 5 6 5 5 5 5 5 5 5 6 5 5 5 6 5 5 5 5 6 5 5 5 5 5 5 6 5 5 5 5 6 5 6 5 5 5 5 5 5 5 5 6 6 5 5 5 6 6 5 5 5 5 5 5 5 6 6 5 6 6 5 5 5 5 6 5 6 5 5 5 5 5 5 6 5 5 5 5 6 5 5 5 5 6 5 5 5 5 5 6 5 5 6 5 5 5 5 6 5 5 5 5 5 5 5 5 5 6 6 5 5 5 5 5 5 5 5 5 5 5 5 5 6 5 6 5 5 5 5 5 5 5 5 5 5 5 5 5 5 5 5 5 5 5 5 5 6 5 5 5 5 5 5 5 5 5 5 5 5 5 5 5 5 5 5 5 5 5 5 5 5 5 5 6 5 5 5 5 5 5 5 5 6 5 6 5 5 5 5 5 5 6 5 5 5 5 5 5 5 5 5 5 5 5 5 5 5 5 5 5 5 5 5 5 5 5 5 5 6 5 5 5 5 5 5 5 5 6 5 5 6 5 5 6 5 5 5 5 5 6 5 5 5 5 5 5 5 5 5 6 5 5 5 5 5 5 5 5 5 5 5 5 5 5 5 6 5 5 5 5 5 5 5 5 6 5 5 5 5 5 5 5 5 5 5 5 5 5 5 5 5 5 5 6 5 6 5 6 5 5 6 6 5 5 5 5 5 5 5 5 5 5 5 5 5 5 6 5 5 5 5 5 5 6 5 5 5 6 5 5 5 5 5 5 5 5 5 5 5 5 6 5 5 5 5 6 6 6 5 5 5 5 5 5 5 6 5 5 6 5 6 5 6 5 5 5 5 5 6 5 5 5 5 5 5 5 5 5 5 5 5 5 5 5 5 5 5 5 5 6 5 5 5 6 5 6 6 6 5 5 5 5 5 6 5 5 5 5 5 5 5 5 5 5 5 5 5 5 5 5 5 5 5 5 5 5 5 5 5 5 6 5 5 6 5 5 5 5 5 5 5 5 6 5 6 5 5 5 5 5 5 5 5 6 5 5 5 5 6 5 5 6 5 5 6 5 5 5 6 5 5 5 5 5 5 5 5 5 5 5 5 5 5 5 5 5 5 5 5 6 5 5 5 5 5 5 6 5 5 5 5 5 6 5 5 5 5 5 6 5 6 6 5 5 5 5 5 5 5 5 5 5 5 5 6 5 5 5 5 6 5 6 6 5 5 5 6 5 5 5 5 5 5 5 5 5 5 5 5 5 5 5 5 5 5 5 5 5 5 6 5 6 5 5 6 5 5 6 5 5 6 5 5 5 6 6 5 5 5 5 5 5 5 6 5 5 5 5 5 5 5 5 6 5 5 5 5 5 5 5 6 5 5 5 6 5 6 6 5 5 5 6 5 5 5 5 5 5 5 5 5 5 5 5 5 5 5 5 5 5 5 5 5 5 6 5 5 6 5 5 5 6 5 5 5 5 5 5 5 6 6 5 5 6 5 5 5 5 5 5 5 5 5 5 5 5 5 5 5 5 5 5 5 5 5 5 5 5 5 5 5 5 5 5 5 5 5 5 5 6 5 5 5 5 5 5 5 6 5 5 6 5 5 6 5 5 5 5 5 5 5 5 5 5 5 5 5 5 5 5 5 5 5 6 5 5 5 5 6 5 5 5 5 5 5 5 5 5 5 6 5 5 5 5 6 5 5 5 5 6 6 5 6 5 5 5 5 5 5 5 5 5 5 5 5 5 5 6 5 5 5 5 5 5 5 5 5 6 5 5 5 5 5 5 5 5 5 5 5 5 5 5 5 5 5 5 5 5 5 5 5 5 5 5 5 5 5 5 5 5 5 5 5 5 5 5 5 5 5 6 5 5 5 5 6 5 5 6 5 5 5 5 5 5 6 6 5 5 5 5 6 5 5 5 5 5 5 5 5 5 5 5 5 5 5 5 5 5 5 5 5 5 5 5 5 5 5 5 5 5 5 5 5 5 5 5 5 5 5 5 5 5 5 5 5 5 5 5 5 5 5 5 5 5 5 5 5 5 5 5 5 5 6 5 5 5 5 5 6 5 6 5 5 5 5 5 5 5 5 5 
</DataArray>
<DataArray type="Float64" Name="stress" NumberOfComponents="9" format="ascii">
-0.24956976763096916 -0.89422350064408818 0 -0.89422350064408818 2.3941107344877439 0 0 0 0 0.0043126696300721679 0.75988555579111861 0 0.75988555579111861 1496.6834081712841 0 0 0 0 -0.8627589813901152 -7.1547811644995818 0 -7.1547811644995818 1500.072074586571 0 0 0 0 -35.58061992037527 -118.27939769813383 0 -118.27939769813383 885.4682392109188 0 0 0 0 -0.02002008499937603 -60.812588754807734 0 -60.812588754807734 775.75761432240688 0 0 0 0 18.296750967258923 -172.58441673530524 0 -172.58441673530524 776.68688498690608 0 0 0 0 48.99764717599318 -141.87835292376985 0 -141.87835292376985 658.20457575317232 0 0 0 0 -24.210261985556087 -390.78323267952146 0 -390.78323267952146 1054.5341726948682 0 0 0 0 0.18018583239820432 -40.640070694331371 0 -40.640070694331371 612.31033333762389 0 0 0 0 -0.53167423337791864 -0.070067518728905043 0 -0.070067518728905043 2.2009954366927005 0 0 0 0 102.14433464379545 -334.69066989076964 0 -334.69066989076964 754.28602310102724 0 0 0 0 -135.98284243870637 -71.085947742112694 0 -71.085947742112694 756.18322769916995 0 0 0 0 -7.2761368113629601 -237.48414361914183 0 -237.48414361914183 882.5617109485047 0 0 0 0 0.4913295582884315 -0.93870481625091884 0 -0.93870481625091884 1.3420663871637473 0 0 0 0 0.86326479332766248 -215.64631790501389 0 -215.64631790501389 906.54504502974305 0 0 0 0 163.77241957094679 -293.8352737702844 0 -293.8352737702844 314.01534340532089 0 0 0 0 137.53839601676651 -296.87745490028465 0 -296.87745490028465 494.82667842673254 0 0 0 0 69.517739704533142 -247.29710144115234 0 -247.29710144115234 591.0373332771378 0 0 0 0 56.807034861597174 -304.45857482197971 0 -304.45857482197971 615.7782439285038 0 0 0 0 93.757287571661351 -198.63081979251729 0 -198.63081979251729 72.590166167079587 0 0 0 0 -53.246137240012501 -180.10478186009641 0 -180.10478186009641 711.26215295329894 0 0 0 0 -40.179125005577589 -180.59425598982125 0 -180.59425598982125 669.5815357820502 0 0 0 0 110.00541274132129 -243.2764416594714 0 -243.2764416594714 983.14930696276133 0 0 0 0 95.472080275857934 -308.80301573683028 0 -308.80301573683028 699.65734397519918 0 0 0 0 -13.102754325363037 -260.24535466628095 0 -260.24535466628095 900.2026110451261 0 0 0 0 4.6978482908233445 -4.9921034863655223 0 -4.9921034863655223 1500.6596037186464 0 0 0 0 67.96505376302693 -126.29810639004427 0 -126.29810639004427 1198.2945790021477 0 0 0 0 51.207391607494685 -176.96430594908088 0 -176.96430594908088 1143.3048861954521 0 0 0 0 -66.877888325634331 -22.222174306898523 0 -22.222174306898523 946.26211240029988 0 0 0 0 -0.69448709271712783 0.13585985231705422 0 0.13585985231705422 2.0377089047793362 0 0 0 0 5.7123266072832592 -214.82175970890148 0 -214.82175970890148 1264.5306286743835 0 0 0 0 -40.285818067557955 -41.049073805188527 0 -41.049073805188527 664.38908357684249 0 0 0 0 -1.0012003724487335 -2.2099488396610951 0 -2.2099488396610951 2.5985379698761832 0 0 0 0 9.4765842952929233 -77.439053740399686 0 -77.439053740399686 1116.1406161734994 0 0 0 0 30.4986140823396 -34.882026195860817 0 -34.882026195860817 1195.0218441016968 0 0 0 0 -79.287849076683131 -5.4594587252831843 0 -5.4594587252831843 1499.2265068133584 0 0 0 0 -1.6330494742093422 -2.6557975851966091 0 -2.6557975851966091 3.0595388523324765 0 0 0 0 50.896260503384383 -250.61696782261424 0 -250.61696782261424 1329.2212654504692 0 0 0 0 -13.258191360981904 -14.554658309596562 0 -14.554658309596562 1499.5519813028804 0 0 0 0 -19.642949009134441 -111.1014660459532 0 -111.1014660459532 1490.8752711927846 0 0 0 0 -0.88298282802971439 -1.1276172956796913 0 -1.1276172956796913 2.664037207371293 0 0 0 0 -48.538769782224797 -423.45908125901406 0 -423.45908125901406 2200.6182007254138 0 0 0 0 101.83185853638366 -174.66061529130639 0 -174.66061529130639 1706.3672164625059 0 0 0 0 336.9156978479574 -351.85714666984677 0 -351.85714666984677 1147.9327150225618 0 0 0 0 137.08751653632726 -163.03477010792994 0 -163.03477010792994 1053.6391665580686 0 0 0 0 111.2048799470578 -259.77051908532258 0 -259.77051908532258 1201.2576510980434 0 0 0 0 -8.5144602979205786 -732.35344355194138 0 -732.35344355194138 1788.0811259278998 0 0 0 0 64.640499330823104 -660.43014185974607 0 -660.43014185974607 1196.5878101273411 0 0 0 0 205.44780683734737 -640.15597802022239 0 -640.15597802022239 1675.3345737044365 0 0 0 0 3.3104379830778647 -1.56803645239291 0 -1.56803645239291 0.26561538843461818 0 0 0 0 187.44460975664822 -887.72411025833094 0 -887.72411025833094 1901.4203070451076 0 0 0 0 24.166904211821929 -42.015754981895952 0 -42.015754981895952 -25.265300584327633 0 0 0 0 -61.90251714843339 -75.98042651025753 0 -75.98042651025753 312.10658413358215 0 0 0 0 405.40853626984341 -321.27571146266564 0 -321.27571146266564 177.90291413058003 0 0 0 0 56.342196678886481 136.1499709844984 0 136.1499709844984 31.691993533087953 0 0 0 0 32.755584117403032 -18.964491302627721 0 -18.964491302627721 28.479956468974706 0 0 0 0 -4.7415608791696791 9.1733863095575643 0 9.1733863095575643 4.4026912011476824 0 0 0 0 329.61252157838976 -345.54414093188097 0 -345.54414093188097 1000.2662680665553 0 0 0 0 -82.056716887368381 -404.12298818078852 0 -404.12298818078852 1142.0325347450666 0 0 0 0 308.22383975289824 -431.33395035937974 0 -431.33395035937974 757.44948741076587 0 0 0 0 -124.30706448781649 -82.731750722523429 0 -82.731750722523429 778.42483785773425 0 0 0 0 117.61132629307939 -246.68825370947798 0 -246.68825370947798 111.67872055478074 0 0 0 0 168.92080036257187 109.94762651198835 0 109.94762651198835 -142.28049414003544 0 0 0 0 339.11124527693801 -527.8049875182478 0 -527.8049875182478 686.21243058496111 0 0 0 0 606.77540750040066 -349.0135826006117 0 -349.0135826006117 293.63039677193592 0 0 0 0 -51.844854798644192 76.081239038570857 0 76.081239038570857 198.31653902902326 0 0 0 0 -0.15857995723997714 -0.74230972201766643 0 -0.74230972201766643 4.6452152932114643 0 0 0 0 331.93441028641706 -369.27041581972117 0 -369.27041581972117 189.65702464237984 0 0 0 0 222.10717386320061 86.124943217955661 0 86.124943217955661 -114.8229398438998 0 0 0 0 -0.26469099501529203 -0.81053022862457169 0 -0.81053022862457169 3.1408810685568014 0 0 0 0 -11.05210211442494 -36.649468399758916 0 -36.649468399758916 -27.663579074884183 0 0 0 0 -32.347194172546551 -35.87549033472169 0 -35.87549033472169 -9.7074069114605663 0 0 0 0 -7.9323344117888155 0.17123153191278107 0 0.17123153191278107 25.549467229495349 0 0 0 0 -2.5525832177899574 -1.0624983213645045 0 -1.0624983213645045 15.744318844905649 0 0 0 0 -3.0601071201458581 0.94946725290355971 0 0.94946725290355971 3.4979095386806875 0 0 0 0 -1.0811019497947536 0.19394765380952461 0 0.19394765380952461 9.7688688461890933 0 0 0 0 -91.52934581042507 -80.514434659606195 0 -80.514434659606195 -114.44098128925543 0 0 0 0 -0.36250209461883598 -2.6417851336677671 0 -2.6417851336677671 14.789827725760389 0 0 0 0 -4.7446175070365619 6.9369053030921179 0 6.9369053030921179 7.7141936653124006 0 0 0 0 -13.251592021128545 8.5954978912195656 0 8.5954978912195656 26.858816162748553 0 0 0 0 -21.7216432348132 9.3842847895357409 0 9.3842847895357409 42.027643438370433 0 0 0 0 -12.140779486898282 -1.6236566240950197 0 -1.6236566240950197 29.645081727045181 0 0 0 0 -10.215846575327078 -6.9135226619255263 0 -6.9135226619255263 39.372753403076786 0 0 0 0 -11.377312709433227 0.47391761191101978 0 0.47391761191101978 32.610571353496198 0 0 0 0 0.020879963805327861 -9.4390416958085552 0 -9.4390416958085552 24.465338679245178 0 0 0 0 -0.58328530571952797 -11.445921272139458 0 -11.445921272139458 20.669709406327456 0 0 0 0 -12.072462530915345 -2.3559203462536971 0 -2.3559203462536971 30.568293504002213 0 0 0 0 -46.545795752897362 34.92933309233922 0 34.92933309233922 61.108836943574715 0 0 0 0 0.49565205373338 -1.5350593149488994 0 -1.5350593149488994 6.3684536440003967 0 0 0 0 -3.4545623906739138 -36.542417144222782 0 -36.542417144222782 27.311369686736725 0 0 0 0 -1.1434417428054009 -3.9677197465863498 0 -3.9677197465863498 19.858239729562726 0 0 0 0 -15.839343470966014 -1.4878381482776604 0 -1.4878381482776604 27.819799631644855 0 0 0 0 -12.397675698791318 -4.0825502066581976 0 -4.0825502066581976 28.4591282263209 0 0 0 0 -0.60714853623908849 0.65489872355193768 0 0.65489872355193768 4.9930944706292024 0 0 0 0 27.674208671659088 -33.830730434503494 0 -33.830730434503494 19.0338399459215 0 0 0 0 -8.1644135077550004 16.376356763281365 0 16.376356763281365 61.879351587697556 0 0 0 0 -4.1556965043671461 -3.7716097437399867 0 -3.7716097437399867 62.5314379769261 0 0 0 0 -8.8055730633861913 21.538795659123025 0 21.538795659123025 39.120897762244567 0 0 0 0 -4.2281331423209458 -2.10703480145105 0 -2.10703480145105 32.153961804950086 0 0 0 0 -7.9376113807251585 -10.931140231368317 0 -10.931140231368317 43.503862243218464 0 0 0 0 -23.212992153909909 0.5634971676117857 0 0.5634971676117857 78.366882505230024 0 0 0 0 -7.4230560655505542 -8.6665563894821389 0 -8.6665563894821389 38.931416622523102 0 0 0 0 -9.8790389224795945 -6.5274016056391702 0 -6.5274016056391702 39.474988956251764 0 0 0 0 25.704802574798265 -19.689121977975446 0 -19.689121977975446 10.974011308637273 0 0 0 0 -3.8353201283944145 -12.300752491653839 0 -12.300752491653839 30.369361267221393 0 0 0 0 4.1741722947297148 -19.456068660514575 0 -19.456068660514575 33.982972387671907 0 0 0 0 5.9575788837905748 -17.692040984424239 0 -17.692040984424239 15.218406230429537 0 0 0 0 14.583044410390698 -31.265427032296429 0 -31.265427032296429 36.5038059626022 0 0 0 0 -1.3197516341239179 -21.770070561773537 0 -21.770070561773537 50.697385500221571 0 0 0 0 -1.3192626020561695 0.25537542150321002 0 0.25537542150321002 0.7025766001418674 0 0 0 0 6.6123671058071523 19.780617010706919 0 19.780617010706919 10.499803417566 0 0 0 0 -45.705698431894234 19.838404066773364 0 19.838404066773364 27.935397822628147 0 0 0 0 -35.801324042707193 28.914391978323692 0 28.914391978323692 23.864294943530695 0 0 0 0 -24.234836835710098 19.782921167919994 0 19.782921167919994 30.368719272199087 0 0 0 0 -3.9933768196990664 -4.8282190176941739 0 -4.8282190176941739 12.908936884000525 0 0 0 0 -29.402570265460554 9.8345560571033275 0 9.8345560571033275 42.343815913365688 0 0 0 0 -6.2576104955260234 0.70911726369558892 0 0.70911726369558892 8.9725035359115282 0 0 0 0 -1.0949621473722191 2.3787116256603644 0 2.3787116256603644 -0.012275896784629481 0 0 0 0 -3.0459217573310897 -2.5378603535473268 0 -2.5378603535473268 17.554332630795543 0 0 0 0 -26.876605233223188 18.009678246919066 0 18.009678246919066 16.950022818695288 0 0 0 0 -34.650144334985583 -21.702159973166999 0 -21.702159973166999 0.35826570859353524 0 0 0 0 -3.8997827871125157 0.18624359778347355 0 0.18624359778347355 4.7129012244202073 0 0 0 0 -14.349587154438083 0.41853894305711492 0 0.41853894305711492 6.1288956000062171 0 0 0 0 -5.4190420801213577 0.56046313339811604 0 0.56046313339811604 8.3184176152644795 0 0 0 0 -6.5743289426211824 -2.0639592200036958 0 -2.0639592200036958 12.169645973510342 0 0 0 0 -2.4714577218878375 0.72047209974472715 0 0.72047209974472715 5.9404648331820056 0 0 0 0 -1.435111499527028 -3.3808831007893438 0 -3.3808831007893438 7.1121249110480136 0 0 0 0 -4.6947692433587047 1.9476712372028757 0 1.9476712372028757 5.9618549032503694 0 0 0 0 -8.072655328436781 4.6591103734062926 0 4.6591103734062926 15.592580422424362 0 0 0 0 -3.2598402572526703 -0.13225952326592605 0 -0.13225952326592605 7.0259719036236419 0 0 0 0 9.0037884514563302 -15.696130124783849 0 -15.696130124783849 16.11286650756665 0 0 0 0 12.014636843530411 -3.8872515405710146 0 -3.8872515405710146 -2.0741889692144468 0 0 0 0 8.8558949186558493 -16.371382536977762 0 -16.371382536977762 18.900475086804363 0 0 0 0 9.1372648375129302 -15.849678705584665 0 -15.849678705584665 16.503426449555263 0 0 0 0 2.3513094808226924 -16.243969304710845 0 -16.243969304710845 38.079849707442918 0 0 0 0 -2.5632160361117258 -4.6098253432719503 0 -4.6098253432719503 14.270598436160071 0 0 0 0 -10.923180232471168 -41.282914192888711 0 -41.282914192888711 28.189460498285371 0 0 0 0 -14.635542246611294 -32.762887221862911 0 -32.762887221862911 9.7278404585667886 0 0 0 0 -3.1162269283793194 1.3991256989793328 0 1.3991256989793328 26.243367151764687 0 0 0 0 -1.653949956651553 0.58085122077464035 0 0.58085122077464035 2.6389637236835881 0 0 0 0 -4.7228930258084425 -0.1837606738087274 0 -0.1837606738087274 8.0908638997761813 0 0 0 0 -22.968711097556479 6.2844607114529936 0 6.2844607114529936 12.477101854135981 0 0 0 0 -15.82479435469395 0.31292988550558221 0 0.31292988550558221 34.036165872395941 0 0 0 0 -6.8417665583619396 6.3287330844295866 0 6.3287330844295866 10.278045156854205 0 0 0 0 -12.239994656915769 4.3731050425849389 0 4.3731050425849389 12.062330443470273 0 0 0 0 -19.970264154812412 12.718228109748452 0 12.718228109748452 3.3438512866559904 0 0 0 0 -42.529158682283196 -0.67089902175939642 0 -0.67089902175939642 21.391476779710501 0 0 0 0 0.090028196628802792 -0.51547773491101623 0 -0.51547773491101623 1.2993125885617189 0 0 0 0 -35.905518234047122 17.211977462706272 0 17.211977462706272 -21.598614376271144 0 0 0 0 -16.294081424759554 -3.805249844554055 0 -3.805249844554055 0.77703709225170314 0 0 0 0 -5.4053783028111866 -0.92905902468191925 0 -0.92905902468191925 7.2269234087798395 0 0 0 0 -2.6197955910456585 -4.4276250642888044 0 -4.4276250642888044 16.47832250695501 0 0 0 0 -1.2044471436820459 -6.3707373346333043 0 -6.3707373346333043 16.605663154827198 0 0 0 0 -5.9664245928015607 0.6666024608609078 0 0.6666024608609078 11.206484797567498 0 0 0 0 -4.1075598398025353 -2.2284352749054506 0 -2.2284352749054506 10.597882828109746 0 0 0 0 -7.49073780472213 -5.534578393882839 0 -5.534578393882839 27.980576406815089 0 0 0 0 -2.4894813119994978 7.8627245641546324 0 7.8627245641546324 -15.878623968514148 0 0 0 0 -2.3240728228120382 -1.3461294712058276 0 -1.3461294712058276 7.3504964991872868 0 0 0 0 -4.0212945228558965 -3.2086126037174836 0 -3.2086126037174836 16.855622700823005 0 0 0 0 -0.62931006319195149 -5.1086229471839033 0 -5.1086229471839033 14.568096035334747 0 0 0 0 -2.3470934322808876 -2.8612466088486386 0 -2.8612466088486386 9.3140788841831608 0 0 0 0 -1.2222632564325142 -3.5355257857864615 0 -3.5355257857864615 11.991012078671233 0 0 0 0 -24.036096208774325 -13.130688088644092 0 -13.130688088644092 43.877416972376523 0 0 0 0 -8.7625157021810427 1.2253541590199841 0 1.2253541590199841 10.073158099891842 0 0 0 0 -8.5005892819259739 0.79906614644892215 0 0.79906614644892215 9.6893239660605275 0 0 0 0 42.698353520705879 38.971191590837407 0 38.971191590837407 -11.195730814390117 0 0 0 0 -5.7197902572099792 -0.88608313797158189 0 -0.88608313797158189 12.40714430870139 0 0 0 0 3.4598182462950717 -10.723687355504808 0 -10.723687355504808 13.713270472292606 0 0 0 0 4.5338293573393003 -9.0419047123523342 0 -9.0419047123523342 15.339152373708203 0 0 0 0 11.072424844507168 -16.001125706112362 0 -16.001125706112362 16.259540469116473 0 0 0 0 -10.213986369454233 -46.667288829175959 0 -46.667288829175959 65.439911649329588 0 0 0 0 41.738494040640035 -2.2049592074617976 0 -2.2049592074617976 16.595488995833875 0 0 0 0 -7.1783258914276757 8.2116384444148025 0 8.2116384444148025 44.881446123312344 0 0 0 0 5.2513427138023872 -13.037474886408745 0 -13.037474886408745 56.922803401357669 0 0 0 0 6.2315109046376165 -4.1463054728628777 0 -4.1463054728628777 8.6938181326404447 0 0 0 0 -12.363322444473056 -71.293304584780344 0 -71.293304584780344 43.546655472942803 0 0 0 0 -22.589979117562962 -1.7230793627895764 0 -1.7230793627895764 34.273679989433731 0 0 0 0 -0.095905650445393981 -5.6871092600763262 0 -5.6871092600763262 19.195606004970742 0 0 0 0 -66.615427960262707 -25.008018777112738 0 -25.008018777112738 53.657328314278857 0 0 0 0 19.41904825494214 25.610569966935145 0 25.610569966935145 -4.317471193986421 0 0 0 0 -0.27161792967947362 0.50670824597121111 0 0.50670824597121111 2.90745557767886 0 0 0 0 -48.631649659709751 47.359168250959556 0 47.359168250959556 11.12368537086877 0 0 0 0 -18.012045649879322 -31.956756155121184 0 -31.956756155121184 33.038291524571832 0 0 0 0 64.376578412438434 -64.213171725712527 0 -64.213171725712527 3.3660900959512219 0 0 0 0 36.356462572028718 -44.691775173846509 0 -44.691775173846509 65.853526462204172 0 0 0 0 50.128431873017242 -2.9488715894331108 0 -2.9488715894331108 -49.085139193492068 0 0 0 0 53.700709829626689 -71.91567921593014 0 -71.91567921593014 95.024389648402575 0 0 0 0 78.443103556367035 -30.088652646401897 0 -30.088652646401897 1.3947038322003209 0 0 0 0 41.638222629276285 -7.4734918069443665 0 -7.4734918069443665 -20.994896711468755 0 0 0 0 29.909023751731041 -25.441113247066824 0 -25.441113247066824 53.660707798899239 0 0 0 0 33.177427605936344 -14.289077200471183 0 -14.289077200471183 27.376143582841905 0 0 0 0 28.617957028773134 -52.044320454890112 0 -52.044320454890112 80.617192605545597 0 0 0 0 0.014117695585126627 -66.270335001783678 0 -66.270335001783678 155.74993222383273 0 0 0 0 56.0928925790666 -74.940558476395381 0 -74.940558476395381 78.830709181821476 0 0 0 0 79.523878565556913 -56.506465455920988 0 -56.506465455920988 32.459508113803167 0 0 0 0 45.014541993628349 -75.105878339209085 0 -75.105878339209085 114.61285279124422 0 0 0 0 106.1027448938213 -127.42406884154843 0 -127.42406884154843 117.29632046440406 0 0 0 0 18.802082458591084 -119.15712842778703 0 -119.15712842778703 229.50052975810468 0 0 0 0 -0.036558145266513499 -75.344040940019113 0 -75.344040940019113 226.90609304190002 0 0 0 0 2.1432893002357818 -70.136564993939373 0 -70.136564993939373 235.313618298027 0 0 0 0 -0.51552449301148329 -126.3147951312194 0 -126.3147951312194 623.37470361602027 0 0 0 0 0.64051078067386247 -0.69108280566692315 0 -0.69108280566692315 0.75910639022237092 0 0 0 0 231.98267807850684 -232.78541075767498 0 -232.78541075767498 165.32401987473713 0 0 0 0 161.17099051832534 -268.53686974827724 0 -268.53686974827724 327.34822446937687 0 0 0 0 215.45481830776902 -134.78217058216978 0 -134.78217058216978 -97.926211351325037 0 0 0 0 17.313562882296793 16.220787676775217 0 16.220787676775217 46.491533626409364 0 0 0 0 154.28231068382209 -83.271587950031972 0 -83.271587950031972 142.31651429618796 0 0 0 0 62.729260510980069 -23.16389371510013 0 -23.16389371510013 75.096527655485261 0 0 0 0 -47.045839206923006 -8.5016380438398755 0 -8.5016380438398755 85.804423334033345 0 0 0 0 120.32711712269086 -114.30196828705812 0 -114.30196828705812 114.08973559871083 0 0 0 0 107.69306588471561 -10.813259179398301 0 -10.813259179398301 17.423721579587436 0 0 0 0 19.974526663907476 -72.546207646089897 0 -72.546207646089897 25.52420959569281 0 0 0 0 132.64060974079104 -92.864234716284045 0 -92.864234716284045 35.485111543763196 0 0 0 0 73.714365106481893 -129.32319508292858 0 -129.32319508292858 192.59581361689834 0 0 0 0 95.004496663886187 -66.738646171353594 0 -66.738646171353594 93.377791616236209 0 0 0 0 -3.9113231733570046 7.7373035949431141 0 7.7373035949431141 -8.7905700036735652 0 0 0 0 -16.277874536976924 4.6292766423230205 0 4.6292766423230205 13.084717018595256 0 0 0 0 -9.2776090031804088 2.5177880751937209 0 2.5177880751937209 7.8700858136485721 0 0 0 0 -2.9754108425604215 -1.2371233888617894 0 -1.2371233888617894 24.630509139202331 0 0 0 0 -4.0922613932234526 -9.119206561910687 0 -9.119206561910687 17.087981689968728 0 0 0 0 -7.6902089151088031 2.2004392194890343 0 2.2004392194890343 4.9807893128650704 0 0 0 0 -8.9531511487239186 21.861779898905297 0 21.861779898905297 -8.3809341341475374 0 0 0 0 62.669870423813961 -123.99757755988503 0 -123.99757755988503 185.10719665708893 0 0 0 0 50.253858812661662 -13.794836392392426 0 -13.794836392392426 -1.2709521227370715 0 0 0 0 -2.5209318492043593 -5.3412053105423638 0 -5.3412053105423638 6.4448592169246695 0 0 0 0 -8.0440493053820106 5.2654282372679191 0 5.2654282372679191 5.5715094747380931 0 0 0 0 -5.443066515273344 1.6745674817313656 0 1.6745674817313656 8.093019595599074 0 0 0 0 39.263744679992101 7.6009571189050575 0 7.6009571189050575 59.959036883978115 0 0 0 0 61.834162407194519 -287.4084471521619 0 -287.4084471521619 430.33069622427138 0 0 0 0 -121.08156785531401 -47.036854264616522 0 -47.036854264616522 701.06143286172664 0 0 0 0 -330.20399827313838 -311.47243662911387 0 -311.47243662911387 1499.0572749120747 0 0 0 0 -92.874347456051709 -452.328635092068 0 -452.328635092068 1037.2726864992728 0 0 0 0 -222.14753371157272 85.516058549202171 0 85.516058549202171 691.66650412793751 0 0 0 0 -211.46206995276765 -104.85660494129206 0 -104.85660494129206 1262.099913779748 0 0 0 0 -82.689173208408349 20.406902394985991 0 20.406902394985991 719.37249948494173 0 0 0 0 -3.003184731826309 118.46731861331136 0 118.46731861331136 127.79557584091526 0 0 0 0 -66.03473837787476 106.9294200457698 0 106.9294200457698 546.05553542203415 0 0 0 0 181.60357703666719 619.91542904851667 0 619.91542904851667 1500.3146412737697 0 0 0 0 -242.04658161687055 245.29923797245556 0 245.29923797245556 1374.8147101234317 0 0 0 0 95.793587370482271 499.53296251493884 0 499.53296251493884 672.53198494131357 0 0 0 0 120.78590244709784 138.49093971838556 0 138.49093971838556 -216.21782550499483 0 0 0 0 178.80194713458087 336.04257577670614 0 336.04257577670614 370.52921462056838 0 0 0 0 2.2787380451707451 2.3770775145602343 0 2.3770775145602343 1.4669379995390486 0 0 0 0 -31.56701433833237 224.2675634045554 0 224.2675634045554 1959.0129119461217 0 0 0 0 -4.8058456042775788 -56.990888724036267 0 -56.990888724036267 195.20579833269039 0 0 0 0 55.958347695624511 -33.802874195971526 0 -33.802874195971526 127.74458975132438 0 0 0 0 -2.4656216374687325 -0.39865705285863129 0 -0.39865705285863129 0.11853936182797042 0 0 0 0 111.80828092109715 144.30120691014145 0 144.30120691014145 -109.64886418681635 0 0 0 0 -54.457808976107572 -68.462353488403096 0 -68.462353488403096 115.19996476223241 0 0 0 0 -6.1703134829509168 -111.69582103554058 0 -111.69582103554058 170.15764302838579 0 0 0 0 -89.143255940027132 -103.26420951691398 0 -103.26420951691398 233.24071638359419 0 0 0 0 -166.17039325952348 -13.867993018060588 0 -13.867993018060588 184.22002109153254 0 0 0 0 2.1426466953583372 24.137426491623046 0 24.137426491623046 34.292127989680012 0 0 0 0 -4.5881163902494677 -2.641444510132601 0 -2.641444510132601 18.421492372992361 0 0 0 0 -44.415554155393977 -64.003422163903451 0 -64.003422163903451 176.98359456301137 0 0 0 0 -9.6192098483472996 0.23890629526650997 0 0.23890629526650997 5.7584896601056244 0 0 0 0 -2.7796279432036766 0.27130839930472517 0 0.27130839930472517 2.105292277815181 0 0 0 0 88.434266070173251 -58.561094655588022 0 -58.561094655588022 36.35989578160661 0 0 0 0 -74.443406556268883 0.9044026093561115 0 0.9044026093561115 76.863724573982608 0 0 0 0 -36.802407249613907 -31.158282132008026 0 -31.158282132008026 71.897266249046879 0 0 0 0 -12.604511505322762 -10.305106643330873 0 -10.305106643330873 46.21154064154689 0 0 0 0 -10.434143611266791 -14.181116791347449 0 -14.181116791347449 43.185093608455645 0 0 0 0 -1.561064470626377 25.401776324340062 0 25.401776324340062 25.042916341939417 0 0 0 0 7.4901021151006262 -9.0681240961421281 0 -9.0681240961421281 49.130552692920901 0 0 0 0 -32.354721247214286 12.53284714097299 0 12.53284714097299 19.809658573005436 0 0 0 0 -41.479800543011834 -24.552379834873136 0 -24.552379834873136 170.85706297095203 0 0 0 0 -7.8521198554994207 -1.0137098830371869 0 -1.0137098830371869 -0.73308484020856213 0 0 0 0 -91.067066020554023 52.209642055369841 0 52.209642055369841 111.68134054723487 0 0 0 0 18.483164298314705 -52.30089246217176 0 -52.30089246217176 115.93725120297313 0 0 0 0 0.16693095479513431 1.3802881931478623 0 1.3802881931478623 86.055047318033758 0 0 0 0 -68.921475926639005 -3.1911390082204889 0 -3.1911390082204889 144.71006054816462 0 0 0 0 -200.1885684922525 -190.40770263405648 0 -190.40770263405648 1498.9593690450965 0 0 0 0 5.233844100223159 4.0224558623880711 0 4.0224558623880711 8.9608468564399857 0 0 0 0 248.0879727920144 378.43969390374696 0 378.43969390374696 633.28938774239032 0 0 0 0 4.0299669395003272 -1.4205473865043707 0 -1.4205473865043707 4.9920747669207231 0 0 0 0 -44.339875742333788 18.773569970126118 0 18.773569970126118 65.077103015464672 0 0 0 0 -31.325697360249933 80.919616771714573 0 80.919616771714573 -45.089151951790882 0 0 0 0 -52.819548667154891 49.623564919536875 0 49.623564919536875 49.018341878829233 0 0 0 0 457.09749054082528 -750.99673987209735 0 -750.99673987209735 1265.1987873012331 0 0 0 0 2.7408051857792088 -20.838078189495718 0 -20.838078189495718 51.853740979828217 0 0 0 0 -2.0571200430278402 5.0435214446443837 0 5.0435214446443837 37.142122851713808 0 0 0 0 10.6177325313694 -5.6392254323856505 0 -5.6392254323856505 3.1595834654521511 0 0 0 0 246.57435724311705 -617.21157708727333 0 -617.21157708727333 1499.2617399292249 0 0 0 0 1.4821161706972816 -33.753716983420418 0 -33.753716983420418 70.972346333270252 0 0 0 0 -34.230156882258143 12.11241175158284 0 12.11241175158284 89.080503039651376 0 0 0 0 -12.715576102251061 -4.0527105408135284 0 -4.0527105408135284 9.3497232616022785 0 0 0 0 -41.694615382305756 -0.38787868640156375 0 -0.38787868640156375 100.73974546133286 0 0 0 0 -5.9235986560889602 10.169628519612184 0 10.169628519612184 42.434260346910719 0 0 0 0 -8.1029795139509133 -5.4646496829445823 0 -5.4646496829445823 42.156209313961881 0 0 0 0 -8.8395399862611157 -5.1059289042568707 0 -5.1059289042568707 42.032909710516833 0 0 0 0 -10.923627002217017 -0.26796051329074544 0 -0.26796051329074544 37.938887593263644 0 0 0 0 -8.0963838134867494 3.7840626433305182 0 3.7840626433305182 28.093822139721738 0 0 0 0 -12.69456718387039 -6.3787182505657256 0 -6.3787182505657256 42.457809863850343 0 0 0 0 -6.1920449121898731 6.2534903350297384 0 6.2534903350297384 15.117657080749254 0 0 0 0 -1.1652185352002107 39.765283833625745 0 39.765283833625745 28.432395140574954 0 0 0 0 0.20540915105698332 -7.9502153983148673 0 -7.9502153983148673 36.07397555692296 0 0 0 0 -5.1337274730097366 0.84290530743932379 0 0.84290530743932379 30.336914791772159 0 0 0 0 -3.7688054183217901 -5.9106871277544997 0 -5.9106871277544997 35.329110935125755 0 0 0 0 2.0381066380921311 -8.7993775224713318 0 -8.7993775224713318 37.92391053726169 0 0 0 0 -2.2834902355384656 -10.949115994037129 0 -10.949115994037129 40.33733619301529 0 0 0 0 -2.6008748347667501 -0.19021673083526025 0 -0.19021673083526025 2.3864620371033922 0 0 0 0 -1.2049407188063981 -10.171111700968822 0 -10.171111700968822 38.817480061989045 0 0 0 0 -4.0355119964010555 6.0437489590040059 0 6.0437489590040059 4.6452515928758658 0 0 0 0 -4.9131305424079983 0.51334053164828219 0 0.51334053164828219 16.959398372076976 0 0 0 0 -3.1185452006709511 -0.27625532978163392 0 -0.27625532978163392 14.669461048029916 0 0 0 0 -1.3418651374322508 -10.974020710244076 0 -10.974020710244076 34.683463913948799 0 0 0 0 -1.4455863704490479 -6.6368513582030033 0 -6.6368513582030033 13.590207717612536 0 0 0 0 -5.0203886333188477 -1.9079527902004259 0 -1.9079527902004259 10.10577995006571 0 0 0 0 -4.5198649886553923 -3.0461448269977893 0 -3.0461448269977893 14.154182279784436 0 0 0 0 -4.2723261310502494 -3.6871531204851635 0 -3.6871531204851635 13.856106034567347 0 0 0 0 -3.8817894026016262 -0.58146566959228352 0 -0.58146566959228352 9.9713542648081699 0 0 0 0 -7.3276941450649247 -2.0317229066204163 0 -2.0317229066204163 13.595456345290586 0 0 0 0 -5.1499741069726888 -2.9308135835072093 0 -2.9308135835072093 9.9649286447195209 0 0 0 0 -4.0792080971320761 -1.2349203184141118 0 -1.2349203184141118 7.6975827323696961 0 0 0 0 -2.2581407732730021 -4.1127340797603011 0 -4.1127340797603011 12.959986239802674 0 0 0 0 -23.902145229329108 5.0415328465787752 0 5.0415328465787752 5.5579421523289056 0 0 0 0 -0.29521895815701527 0.2724128150692593 0 0.2724128150692593 0.49054066761098625 0 0 0 0 -10.625785111703408 10.981379839435249 0 10.981379839435249 -5.8366114939344698 0 0 0 0 -7.3848297852387361 0.44540277368106018 0 0.44540277368106018 7.9696683828886137 0 0 0 0 -17.089155235982616 -19.666188470459019 0 -19.666188470459019 53.610759827821312 0 0 0 0 4.5484467388436087 -3.3973783739954797 0 -3.3973783739954797 41.831497225401108 0 0 0 0 1.172498434930958 18.774978270144175 0 18.774978270144175 49.654867669501982 0 0 0 0 -8.9876170421339339 -5.7916145999115543 0 -5.7916145999115543 0.88271069208349218 0 0 0 0 0.0010648241576376449 -0.6047796855982952 0 -0.6047796855982952 0.76078827244997171 0 0 0 0 -5.9735096700223949 -6.1877245052019134 0 -6.1877245052019134 0.91727603378603817 0 0 0 0 -5.8290368006715312 -1.5058230937983694 0 -1.5058230937983694 3.7534323004082708 0 0 0 0 -7.547797535763948 -1.591550459357677 0 -1.591550459357677 10.676621997801703 0 0 0 0 -6.8616974342376125 -0.61772866598585097 0 -0.61772866598585097 10.326153424859513 0 0 0 0 -6.0987394923065974 0.96146977436375991 0 0.96146977436375991 3.8911106407875167 0 0 0 0 -5.9382649224823147 -1.225086752533457 0 -1.225086752533457 5.2989635790459673 0 0 0 0 -6.7720911204113037 1.6261513862747137 0 1.6261513862747137 6.2953261746774487 0 0 0 0 -6.5623192203761391 -0.47748572582986526 0 -0.47748572582986526 12.276176695711911 0 0 0 0 -5.0626976175132441 -3.0461479668707554 0 -3.0461479668707554 5.9172428828572237 0 0 0 0 -1.5046243679607869 -2.3108142744677025 0 -2.3108142744677025 11.939049399530631 0 0 0 0 -6.6910776136322099 0.64426553593563796 0 0.64426553593563796 4.3693414789097886 0 0 0 0 -2.5450655339859551 -3.8194300600430111 0 -3.8194300600430111 3.7477911019852641 0 0 0 0 -2.1135288896211932 -7.1593908518025273 0 -7.1593908518025273 12.913825117628448 0 0 0 0 -5.6523010137007077 -4.7542473237917875 0 -4.7542473237917875 13.044804891031163 0 0 0 0 -1.9532145111297723 -4.1146655565680703 0 -4.1146655565680703 13.152661147512845 0 0 0 0 -5.6553541239338756 -3.0257982597565842 0 -3.0257982597565842 0.85043833723466378 0 0 0 0 -7.273482247355787 -1.6723871937647345 0 -1.6723871937647345 0.82088393543381244 0 0 0 0 -10.777604745475401 -2.3680613608848944 0 -2.3680613608848944 0.80883140087098582 0 0 0 0 -4.022329675466608 -2.5030542028907803 0 -2.5030542028907803 0.57445480157912243 0 0 0 0 -8.2395930889169904 -1.1419115554690507 0 -1.1419115554690507 -3.5923403138949652 0 0 0 0 -7.2704383323834918 -3.9658594122884097 0 -3.9658594122884097 2.5148424208455253 0 0 0 0 0.039089026122990589 -0.52604459460342667 0 -0.52604459460342667 -1.5061422926035775 0 0 0 0 1.7168198066137847 -2.9708193210681202 0 -2.9708193210681202 11.598843078521895 0 0 0 0 -0.24363794544842676 -0.30777168189524673 0 -0.30777168189524673 8.4147602676530369 0 0 0 0 -0.34723388833663194 -5.1993621569563402 0 -5.1993621569563402 11.704356521651789 0 0 0 0 -0.36352941375298542 -4.6659261704335222 0 -4.6659261704335222 5.8453604280457512 0 0 0 0 -1.6294675735061901 -2.4837484824965941 0 -2.4837484824965941 2.1331669396131474 0 0 0 0 -6.0861949658446974 -1.4007140335215809 0 -1.4007140335215809 4.3258488789579133 0 0 0 0 -0.76108278163883369 1.2811636471451493 0 1.2811636471451493 4.0709724102289329 0 0 0 0 -0.79420799319268554 -0.31428304615837988 0 -0.31428304615837988 1.6754185697500361 0 0 0 0 -0.86111328460447112 -1.2081045328741311 0 -1.2081045328741311 6.4352110306717805 0 0 0 0 -2.758926331607654 -3.241265905329783 0 -3.241265905329783 4.5906286979770812 0 0 0 0 -6.3505170757707674 -5.0507544213032816 0 -5.0507544213032816 5.4449492112617008 0 0 0 0 -1.6133411811078986 -3.1360019539115456 0 -3.1360019539115456 1.812387928031967 0 0 0 0 -4.5273642936776923 -4.0329664549153676 0 -4.0329664549153676 4.7942453269206453 0 0 0 0 -3.9964635481960613 -4.7063642777484347 0 -4.7063642777484347 7.1311046184709994 0 0 0 0 -4.6785141973696227 -3.9973680080274789 0 -3.9973680080274789 6.9735982494457858 0 0 0 0 -4.3110672291763876 -3.7799773425158492 0 -3.7799773425158492 6.9822895239194622 0 0 0 0 -3.2046846829725837 -3.6505200312931265 0 -3.6505200312931265 8.5077250004032976 0 0 0 0 -2.5640001849569671 -2.299410759966122 0 -2.299410759966122 8.8806929159472929 0 0 0 0 -1.956007605404011 -4.6373523468064377 0 -4.6373523468064377 8.9619136467099452 0 0 0 0 -1.6504228210133078 -7.0289949635971425 0 -7.0289949635971425 9.3225694210332222 0 0 0 0 -2.6805875670770547 -4.8824285828486609 0 -4.8824285828486609 7.7752801608803566 0 0 0 0 -2.4668669887365695 -6.8268594561186546 0 -6.8268594561186546 12.656699689197922 0 0 0 0 -6.0131479283554654 -4.8655061165081861 0 -4.8655061165081861 13.250284889210889 0 0 0 0 -24.608872548093586 -9.1886603847669903 0 -9.1886603847669903 14.250379124707251 0 0 0 0 -8.9180093880646396 0.11074558041192972 0 0.11074558041192972 3.7216438737952728 0 0 0 0 6.27929764712826 47.901851400692976 0 47.901851400692976 -8.2277179596476344 0 0 0 0 -0.79589452272126593 0.063613761435341587 0 0.063613761435341587 0.37796648492023621 0 0 0 0 -6.2799745043329267 -39.308269673003451 0 -39.308269673003451 62.879421107209055 0 0 0 0 10.46812752582855 -23.219457145960405 0 -23.219457145960405 47.029210519511253 0 0 0 0 -33.130411703872028 -31.433920576031596 0 -31.433920576031596 61.487575753882993 0 0 0 0 -35.026486872692061 -37.7715793051525 0 -37.7715793051525 28.951259397035756 0 0 0 0 4.1158065595125883 -10.967896740684409 0 -10.967896740684409 27.540201152391091 0 0 0 0 -7.2791501029545937 -0.21369573962874 0 -0.21369573962874 3.888942657113418 0 0 0 0 -4.032235121566373 -5.4004261766312993 0 -5.4004261766312993 13.992792117900535 0 0 0 0 -17.053370507813884 2.6956408373960894 0 2.6956408373960894 6.7380367524276181 0 0 0 0 -17.056464813560524 8.8765832151493669 0 8.8765832151493669 4.0143844483318389 0 0 0 0 -5.0166069188344409 -5.8499834341855603 0 -5.8499834341855603 15.899746214949118 0 0 0 0 -9.7856334026737137 -0.48923719153862066 0 -0.48923719153862066 8.7875198364417244 0 0 0 0 -18.920452629024112 -28.966716557239124 0 -28.966716557239124 53.39473843142332 0 0 0 0 -27.947501698887208 -16.944070067673238 0 -16.944070067673238 47.725034188548307 0 0 0 0 -41.09916666837762 -13.749136055324925 0 -13.749136055324925 65.377225865158834 0 0 0 0 -35.191700843076433 -3.3508050520813413 0 -3.3508050520813413 71.259074304311071 0 0 0 0 -2.8236984724616914 -4.8899473564821472 0 -4.8899473564821472 10.689462488620876 0 0 0 0 -10.041764567129121 -6.3319758923380505 0 -6.3319758923380505 12.204916385206161 0 0 0 0 -7.3000981455127949 -1.6283837485689219 0 -1.6283837485689219 4.6098985799828256 0 0 0 0 -5.788117362223602 -3.3965266812738264 0 -3.3965266812738264 8.4058018125288072 0 0 0 0 -11.67565640094881 -4.4891936031035584 0 -4.4891936031035584 8.1489481991193315 0 0 0 0 -10.23643204705877 -2.9966732716820843 0 -2.9966732716820843 8.8475000011058 0 0 0 0 -6.9879764075703861 -4.077499958264525 0 -4.077499958264525 8.4354752931758412 0 0 0 0 -7.0223317600139126 -4.2524713634957152 0 -4.2524713634957152 7.6509661798481829 0 0 0 0 -7.8406612852486433 -3.5969788363872794 0 -3.5969788363872794 8.0004928485141136 0 0 0 0 -8.4725929285741586 -4.5445014190336224 0 -4.5445014190336224 7.6153105008706916 0 0 0 0 -9.0433559049197356 -3.4139916986096068 0 -3.4139916986096068 8.0044623773319472 0 0 0 0 -7.5185971258079007 -4.1700501485756831 0 -4.1700501485756831 6.6395761466119438 0 0 0 0 -7.0867225035453885 -4.809576396648481 0 -4.809576396648481 6.6131909208379511 0 0 0 0 -8.7521739642697867 -6.0439320186742407 0 -6.0439320186742407 4.7227080406370305 0 0 0 0 -6.0772993343880444 -5.6919936630451957 0 -5.6919936630451957 3.0555728153958626 0 0 0 0 -11.042522708482466 -5.3019756557750952 0 -5.3019756557750952 6.7265007703390438 0 0 0 0 1.0580722006558929 -6.7116519535582544 0 -6.7116519535582544 6.7067114087140283 0 0 0 0 -5.7040244064155559 -5.6815566071090871 0 -5.6815566071090871 2.9440279898371955 0 0 0 0 0.89502535708379583 -21.593897972801642 0 -21.593897972801642 -11.31044182540063 0 0 0 0 -3.0032897899246329 -2.9846250308310758 0 -2.9846250308310758 4.3357730714822864 0 0 0 0 -10.088560949960993 -5.7946913822470378 0 -5.7946913822470378 5.6176361957404879 0 0 0 0 10.424118318461751 -16.457301182989681 0 -16.457301182989681 -30.329736429237528 0 0 0 0 -6.253819078039669 2.9586112901924935 0 2.9586112901924935 41.245048811169909 0 0 0 0 -27.950447558021551 -30.098317363776005 0 -30.098317363776005 26.223862963403008 0 0 0 0 -16.228446416869701 -49.459298729289003 0 -49.459298729289003 -18.333858267396863 0 0 0 0 4.7606882289492205 -30.700978546308761 0 -30.700978546308761 -19.797933042325894 0 0 0 0 17.296660603500641 -44.522465244546765 0 -44.522465244546765 -59.717962902815088 0 0 0 0 -15.738350344227001 -68.418510770992725 0 -68.418510770992725 -63.786829064025369 0 0 0 0 -15.005792298898086 -60.624076597716339 0 -60.624076597716339 -40.85158347099059 0 0 0 0 -35.683903147346427 36.225664462890563 0 36.225664462890563 -56.274847676118952 0 0 0 0 -83.365286732241657 -47.119761216330517 0 -47.119761216330517 -39.352746060030768 0 0 0 0 -61.465796926202529 -16.256420536192309 0 -16.256420536192309 77.445523126581975 0 0 0 0 -67.946585852121643 -55.985547416446934 0 -55.985547416446934 54.293470850316226 0 0 0 0 -127.41939179822657 82.174186256423127 0 82.174186256423127 -53.618150227252045 0 0 0 0 -53.704550290529369 -11.294145931477033 0 -11.294145931477033 76.718219626505743 0 0 0 0 -4.8814920896456897 -13.306103230173903 0 -13.306103230173903 77.417761550081195 0 0 0 0 -28.984229570901334 -6.9179514692732482 0 -6.9179514692732482 75.956356372598748 0 0 0 0 -1.1063196218356879 0.87842020772911411 0 0.87842020772911411 -0.17166352498022341 0 0 0 0 24.858528641570956 -50.442991384868947 0 -50.442991384868947 -86.60034454826382 0 0 0 0 45.576489188742926 -25.642938477554708 0 -25.642938477554708 -69.820358758688599 0 0 0 0 17.501717107564218 -42.586405502091111 0 -42.586405502091111 -48.913357091369107 0 0 0 0 16.213513241738838 -24.817111898031726 0 -24.817111898031726 -44.459699134433322 0 0 0 0 27.655440490369983 -5.9788773595646489 0 -5.9788773595646489 -13.452141304846009 0 0 0 0 5.5684937050882581 -18.42371350475878 0 -18.42371350475878 -5.171271832844468 0 0 0 0 -0.67287174371813308 -27.783149201002743 0 -27.783149201002743 -2.0288742104821722 0 0 0 0 -156.0593855255961 0.71836018724025053 0 0.71836018724025053 24.744545174824452 0 0 0 0 -46.008322639013386 -31.957227013848751 0 -31.957227013848751 28.16637323156101 0 0 0 0 -16.945678305138699 38.371708842762018 0 38.371708842762018 -55.76045619276556 0 0 0 0 -1.1385854303463905 -0.88958060428074148 0 -0.88958060428074148 0.13336267931980217 0 0 0 0 -186.68351257329869 10.743800999585801 0 10.743800999585801 -26.228820855400045 0 0 0 0 25.799635150637187 -15.282098694591696 0 -15.282098694591696 -3.8052722790398548 0 0 0 0 -7.5983793420073198 2.4655630343186203 0 2.4655630343186203 9.5588650831123232 0 0 0 0 0.6634979343216294 0.9105423191053994 0 0.9105423191053994 -0.44169916795349806 0 0 0 0 -2.6105277736183581 1.0093605752965402 0 1.0093605752965402 0.68931190538753229 0 0 0 0 80.245692586360747 34.789716787287034 0 34.789716787287034 -72.973140289435833 0 0 0 0 -5.2284080815693414 9.5045751461548207 0 9.5045751461548207 118.12421439315222 0 0 0 0 7.2735686954918037 6.0999669562097552 0 6.0999669562097552 57.568354838494997 0 0 0 0 -0.82618432041488177 -15.254470279156976 0 -15.254470279156976 57.385527139093028 0 0 0 0 8.4331861763221241 4.5170817437119695 0 4.5170817437119695 41.040586717661427 0 0 0 0 5.5033196836575371 15.425723547705275 0 15.425723547705275 55.024832415681885 0 0 0 0 -20.136952638005823 6.5592028416867834 0 6.5592028416867834 84.101776671654079 0 0 0 0 -30.655967292444075 -8.7507606167091581 0 -8.7507606167091581 62.478293341308017 0 0 0 0 -2.3254914577682939 4.9521672509163182 0 4.9521672509163182 41.476059663118576 0 0 0 0 10.079032692176042 -19.578621789729368 0 -19.578621789729368 68.806718721272773 0 0 0 0 -0.49076648666959954 -1.3350367983657634 0 -1.3350367983657634 -0.26782563582673902 0 0 0 0 -20.086252595822316 1.4365324760990461 0 1.4365324760990461 41.475113578795572 0 0 0 0 1.1298133240597963 3.2968475724137534 0 3.2968475724137534 9.3767781587685022 0 0 0 0 -7.2930706768679556 -7.9583880901068369 0 -7.9583880901068369 33.802774909814616 0 0 0 0 -2.0773605940896687 7.1167355157749626 0 7.1167355157749626 -6.7022488891088869 0 0 0 0 10.113478428033886 -1.4370911025143869 0 -1.4370911025143869 59.855813222628058 0 0 0 0 -28.580997709042094 -26.300374658560031 0 -26.300374658560031 44.10614040339351 0 0 0 0 -4.8197018500420654 -22.16603978286048 0 -22.16603978286048 177.32795152192921 0 0 0 0 37.557080532227701 -52.326538555311345 0 -52.326538555311345 62.665822136052157 0 0 0 0 -14.157784150653242 -56.47992169477584 0 -56.47992169477584 97.14450021025732 0 0 0 0 -19.786495181995917 -34.600200374957694 0 -34.600200374957694 94.906220113130985 0 0 0 0 -2.6324929995248567 -13.103914777047976 0 -13.103914777047976 92.449901052212226 0 0 0 0 8.9617998812236692 -20.654729533158388 0 -20.654729533158388 56.29525307615404 0 0 0 0 4.1270297432702865 -1.4151816311620067 0 -1.4151816311620067 0.49736668234137937 0 0 0 0 -39.562491329817931 -20.928648198532755 0 -20.928648198532755 -3.9658517509487865 0 0 0 0 -32.920690094920246 -32.02704611630179 0 -32.02704611630179 -11.043567642260314 0 0 0 0 -0.81901356927167335 -3.1782214746140838 0 -3.1782214746140838 0.29353274939469998 0 0 0 0 -5.6198698126127056 -4.7114658455993776 0 -4.7114658455993776 7.7612606275979488 0 0 0 0 3.8833325624741519 -10.136507577120028 0 -10.136507577120028 8.7975351532440982 0 0 0 0 3.6059670822255754 -4.5081556800074623 0 -4.5081556800074623 2.9248139983533008 0 0 0 0 6.1398271647158253 -8.3987338395909319 0 -8.3987338395909319 -13.724141666871219 0 0 0 0 0.073998396394680199 -0.5333739715901018 0 -0.5333739715901018 3.7083546947315966 0 0 0 0 10.799846555880094 -22.800017107541862 0 -22.800017107541862 52.969992591206392 0 0 0 0 39.017844581399913 -10.543193289973715 0 -10.543193289973715 -8.8815544744575163 0 0 0 0 -2.6683075072805877 -14.4239835483977 0 -14.4239835483977 6.1603090784628876 0 0 0 0 0.063186942317068007 -0.056847726324130932 0 -0.056847726324130932 0.85410154845395425 0 0 0 0 10.875385826455386 -9.9327828032564867 0 -9.9327828032564867 -1.5785994386915263 0 0 0 0 3.8643746849818044 -5.7958201600131574 0 -5.7958201600131574 4.4232450776500514 0 0 0 0 -0.052296525162696894 -2.0285103311008417 0 -2.0285103311008417 2.2722855793857946 0 0 0 0 -13.619163360609491 -4.3169164185965201 0 -4.3169164185965201 16.161301067746535 0 0 0 0 1.0067577185691334 -5.5241106113608112 0 -5.5241106113608112 15.665726993436692 0 0 0 0 3.3683959606260032 -6.5885163974526222 0 -6.5885163974526222 13.029456327680236 0 0 0 0 8.0808555862640787 -0.36522460020933067 0 -0.36522460020933067 -5.2269436666701949 0 0 0 0 12.383925671761972 6.9528247595389985 0 6.9528247595389985 -2.8964807109987305 0 0 0 0 36.340093490915024 41.413822843034723 0 41.413822843034723 25.646709823733545 0 0 0 0 33.993523537666988 47.276355464100561 0 47.276355464100561 58.254615416000888 0 0 0 0 2.6059105392305355 16.339107796857206 0 16.339107796857206 66.997944654453022 0 0 0 0 6.7759116359266045 35.513466427830281 0 35.513466427830281 125.70521468871448 0 0 0 0 41.193785976207437 -37.397272567897744 0 -37.397272567897744 116.13407910550814 0 0 0 0 -0.44602632087254079 -0.0001763545269000133 0 -0.0001763545269000133 1.3413659832454243 0 0 0 0 -32.589019327468122 58.295156214186136 0 58.295156214186136 138.23567759153229 0 0 0 0 72.617339105633164 -114.75619677691884 0 -114.75619677691884 127.38446676771855 0 0 0 0 67.857477400501011 5.9376394321516273 0 5.9376394321516273 138.79605757756508 0 0 0 0 69.945539110113714 -65.673446979983055 0 -65.673446979983055 118.21906469695386 0 0 0 0 121.06894707149149 4.2694812418667425 0 4.2694812418667425 20.444866285892203 0 0 0 0 25.794231353665964 -36.998037725803442 0 -36.998037725803442 41.255884003052415 0 0 0 0 34.517825025150159 -42.683244907086191 0 -42.683244907086191 5.3223069559535361 0 0 0 0 -3.303946771315168 -41.954360578532942 0 -41.954360578532942 58.789602600434591 0 0 0 0 4.9642197667799337 -19.099267602408872 0 -19.099267602408872 48.74150928472227 0 0 0 0 4.7188248700690565 -27.290644619026352 0 -27.290644619026352 119.35973597656266 0 0 0 0 68.208897949092716 -42.025407369739696 0 -42.025407369739696 40.754284108246793 0 0 0 0 -12.026068033326283 -19.549112453987618 0 -19.549112453987618 11.140179208872723 0 0 0 0 -28.631088105394156 -34.429089184777695 0 -34.429089184777695 31.85705833693828 0 0 0 0 -20.189654360863642 -9.9790594618280011 0 -9.9790594618280011 37.703111089226695 0 0 0 0 -40.032228540379947 -20.284047022798404 0 -20.284047022798404 26.682923784821469 0 0 0 0 -32.623856542075373 -27.11578553164145 0 -27.11578553164145 32.240798555823858 0 0 0 0 -35.397916773496036 -23.491836510279427 0 -23.491836510279427 39.696130681651994 0 0 0 0 -29.909767433306115 -21.151790807928592 0 -21.151790807928592 34.323566546896473 0 0 0 0 -0.62971003453509411 -6.8622008633133191 0 -6.8622008633133191 19.644739810784813 0 0 0 0 -32.177389657981621 -17.238760818272567 0 -17.238760818272567 42.672861578512311 0 0 0 0 0.64391021005485527 21.600276059249154 0 21.600276059249154 54.913754579863962 0 0 0 0 -20.210288392923758 -17.638546783313359 0 -17.638546783313359 71.884109829279623 0 0 0 0 -2.3868458502565773 12.081035307965067 0 12.081035307965067 40.166433372334723 0 0 0 0 19.36753633166154 24.783226193849259 0 24.783226193849259 30.969910960702691 0 0 0 0 17.517780295418106 26.453811233309352 0 26.453811233309352 34.878977435088018 0 0 0 0 -3.3397358617512509 -0.79615353791814414 0 -0.79615353791814414 34.202586697096649 0 0 0 0 -9.0389354478375026 -15.604447205984798 0 -15.604447205984798 10.954113300700556 0 0 0 0 -7.3014051014952202 -10.713949399003468 0 -10.713949399003468 23.622438335609331 0 0 0 0 3.8397480917374196 -4.8972990993352141 0 -4.8972990993352141 11.396068260903121 0 0 0 0 13.835465768028371 58.015907126931779 0 58.015907126931779 72.202331216336461 0 0 0 0 17.653196719264315 18.028827080727297 0 18.028827080727297 20.797605266903702 0 0 0 0 -7.1809115751011632 -17.26356333386866 0 -17.26356333386866 -7.0915772203588858 0 0 0 0 0.36739825331862264 -0.10289575742525159 0 -0.10289575742525159 -0.02174596003756335 0 0 0 0 16.195482298105787 -3.6267595192165345 0 -3.6267595192165345 37.259929271989677 0 0 0 0 -6.9278483664184023 8.2562097751524561 0 8.2562097751524561 32.592842938858666 0 0 0 0 -65.43579537826372 -20.104141316667665 0 -20.104141316667665 19.708389535169886 0 0 0 0 -70.311540852463395 0.3698757142933573 0 0.3698757142933573 -1.4387535536370706 0 0 0 0 -0.38122209101300086 -0.76542477265252984 0 -0.76542477265252984 1.4767672120866706 0 0 0 0 -32.304931449417381 -44.820373618002122 0 -44.820373618002122 -15.965944008741644 0 0 0 0 -10.016476703129683 -21.313535889657942 0 -21.313535889657942 -13.804350215868908 0 0 0 0 -31.730915162408564 35.98768781007675 0 35.98768781007675 22.099097787553546 0 0 0 0 -75.349779347182448 -13.682408386126554 0 -13.682408386126554 31.164820995873015 0 0 0 0 -12.276418188650496 5.5862345321620523 0 5.5862345321620523 36.026604499355017 0 0 0 0 -32.009489330398537 -13.310751236203942 0 -13.310751236203942 39.181636426212208 0 0 0 0 -18.576958695339272 8.7427051545018912 0 8.7427051545018912 47.883627956898636 0 0 0 0 1.8640376185566039 -4.6644789224954817 0 -4.6644789224954817 7.861968745406628 0 0 0 0 -8.0703224629673969 -17.586423752026349 0 -17.586423752026349 2.4880240951897576 0 0 0 0 -14.714419409329366 -19.408547231319972 0 -19.408547231319972 8.2753444347690674 0 0 0 0 -16.648085299653758 13.172645788963564 0 13.172645788963564 33.46010469191242 0 0 0 0 -16.767611070568819 -23.46440282639378 0 -23.46440282639378 8.3283671029166726 0 0 0 0 -13.811520365213255 -17.292843329239986 0 -17.292843329239986 12.02198508958827 0 0 0 0 -4.0808324321478722 -17.381209344661329 0 -17.381209344661329 -22.02415120151727 0 0 0 0 -9.528457649070333 -22.190948168798059 0 -22.190948168798059 -11.825005720820627 0 0 0 0 2.5836801453624503 0.64243563239142532 0 0.64243563239142532 9.2299496041559905 0 0 0 0 15.598845119871839 -4.3497866287216311 0 -4.3497866287216311 8.1063288089935668 0 0 0 0 -0.307305423732398 -3.1132131802248466 0 -3.1132131802248466 9.1921811730599359 0 0 0 0 -1.5590109986478637 -3.1359952158527449 0 -3.1359952158527449 12.007299590462935 0 0 0 0 -0.97245601347441291 -2.6420577947940647 0 -2.6420577947940647 8.1380385708938547 0 0 0 0 -0.95476991690119206 -1.9097328147686952 0 -1.9097328147686952 7.0270805330702473 0 0 0 0 -3.5761168315148097 -1.3556211834511487 0 -1.3556211834511487 3.7303214959974866 0 0 0 0 -3.0107697282312529 1.8665810051704739 0 1.8665810051704739 11.471042793054949 0 0 0 0 -3.5169657353172141 0.1237871125035781 0 0.1237871125035781 10.458991844907658 0 0 0 0 -4.1095397606768529 -4.2771468503015058 0 -4.2771468503015058 13.465138793748338 0 0 0 0 0.930412852381167 -7.2689309505812503 0 -7.2689309505812503 12.058495523546895 0 0 0 0 -2.249793426778524 -6.9670402840729366 0 -6.9670402840729366 6.2592862702222192 0 0 0 0 -20.94718290982928 -27.455506579131907 0 -27.455506579131907 19.930159507544886 0 0 0 0 -34.553252882238667 -18.591145388258155 0 -18.591145388258155 46.878170340820361 0 0 0 0 -6.1857413134275703 0.21800208200147608 0 0.21800208200147608 28.30116884232848 0 0 0 0 19.890387528565043 6.3606922822909837 0 6.3606922822909837 9.7938874178507831 0 0 0 0 10.613851328191231 9.5168766759306891 0 9.5168766759306891 18.665188343715272 0 0 0 0 -9.1095866481609846 0.016885719767742557 0 0.016885719767742557 30.755584032056504 0 0 0 0 -2.9645094238039746 2.4510693417651055 0 2.4510693417651055 17.108236525702523 0 0 0 0 -0.23223278365865951 0.084115340229729441 0 0.084115340229729441 0.92289994776679407 0 0 0 0 -52.862020453761943 -19.551274625438964 0 -19.551274625438964 4.9850818608510963 0 0 0 0 5.759101445298711 29.351188682682732 0 29.351188682682732 43.029707861562201 0 0 0 0 -46.855152686404836 -38.27233739328949 0 -38.27233739328949 19.279164998347255 0 0 0 0 -18.899505207028142 16.560505304727485 0 16.560505304727485 62.291571516638214 0 0 0 0 -26.806170316469888 -43.393469198274033 0 -43.393469198274033 -13.61032882811196 0 0 0 0 0.96662084823077876 -5.646540363805677 0 -5.646540363805677 9.6395143129248595 0 0 0 0 -35.726331929763546 -2.2762626790245122 0 -2.2762626790245122 65.465850246168884 0 0 0 0 -2.0978936892333877 -8.8987885747555993 0 -8.8987885747555993 8.0424713260035787 0 0 0 0 -2.3966331645915488 -10.282248033341602 0 -10.282248033341602 8.8712009707014658 0 0 0 0 -1.9702622862710086 -9.6104608840623769 0 -9.6104608840623769 11.056804555053532 0 0 0 0 -1.5284522851807196 -5.2239441452438768 0 -5.2239441452438768 4.4330435491283424 0 0 0 0 -1.9667371912291856 -8.4858399415697932 0 -8.4858399415697932 8.8788853609949001 0 0 0 0 1.4610262768016415 -3.7270953804362925 0 -3.7270953804362925 7.345379311644848 0 0 0 0 -1.5209425612611085 -5.4440047401296852 0 -5.4440047401296852 9.79725475012674 0 0 0 0 -1.5818817943759313 -5.681609302169818 0 -5.681609302169818 3.48872830876644 0 0 0 0 -2.0717048659470265 -7.7383750601875363 0 -7.7383750601875363 3.6901532409829088 0 0 0 0 -2.1508433071876425 -5.137917299342007 0 -5.137917299342007 3.7498567916336469 0 0 0 0 -3.6469426867398056 -2.5285538909022307 0 -2.5285538909022307 1.9123554152902216 0 0 0 0 -3.8432748126651859 -5.430238765606191 0 -5.430238765606191 3.4629616196989446 0 0 0 0 -0.28495897900484124 -4.2729440855582652 0 -4.2729440855582652 2.6730277760580066 0 0 0 0 2.5675925755560343 12.889569527429785 0 12.889569527429785 32.598037074239983 0 0 0 0 1.344703031991628 -2.3115839489162369 0 -2.3115839489162369 3.7971066073675388 0 0 0 0 3.9901010335586875 1.1868951999529145 0 1.1868951999529145 16.743040489600389 0 0 0 0 1.4756647162277901 -5.3105985227363703 0 -5.3105985227363703 9.6687223253129133 0 0 0 0 -8.9429815769448169 -15.149658825996539 0 -15.149658825996539 18.872558033581299 0 0 0 0 -13.455340761556727 -3.0549744876257137 0 -3.0549744876257137 42.947518086519267 0 0 0 0 5.9764497397300147 -4.9091824950719456 0 -4.9091824950719456 7.477167455765084 0 0 0 0 -69.597310395182831 91.826232766151406 0 91.826232766151406 113.71068811062287 0 0 0 0 0.9940570026756177 -26.703080561741444 0 -26.703080561741444 -4.2823245069885161 0 0 0 0 6.1423302078781461 -8.396531019662909 0 -8.396531019662909 8.2992516047110598 0 0 0 0 5.8940105897995636 -11.366105247971063 0 -11.366105247971063 12.498878838556266 0 0 0 0 0.0037837337383699321 -0.57974758422431805 0 -0.57974758422431805 1.7398966464733405 0 0 0 0 98.161814644310653 -0.80173629245473421 0 -0.80173629245473421 -3.2560898800657014 0 0 0 0 23.852916549265501 8.7361747383256443 0 8.7361747383256443 3.8595068375725532 0 0 0 0 25.896442755054522 -29.269753922410018 0 -29.269753922410018 8.6277128169385833 0 0 0 0 -37.66146864356233 -43.370787384643336 0 -43.370787384643336 75.155959212701418 0 0 0 0 -2.5687059340070846 -24.593339128117805 0 -24.593339128117805 21.681318253904465 0 0 0 0 1.312460120585456 -58.607239058503183 0 -58.607239058503183 40.065514349487785 0 0 0 0 -0.08403398331673273 -4.2847960918827397 0 -4.2847960918827397 4.1326551755369465 0 0 0 0 326.06359890451131 77.500406199804274 0 77.500406199804274 -30.140627834043698 0 0 0 0 136.51800593480584 -100.08389601244198 0 -100.08389601244198 -27.068872565418133 0 0 0 0 78.176928901812062 -188.36473867520544 0 -188.36473867520544 -160.6530135280409 0 0 0 0 -4.400916615217966 -102.43897371811181 0 -102.43897371811181 153.98661399143748 0 0 0 0 -121.11249342332667 -332.50658507665503 0 -332.50658507665503 92.092258505937934 0 0 0 0 -22.768653358112715 -15.352852800624532 0 -15.352852800624532 85.488251665479766 0 0 0 0 -16.549342145888659 -32.654020874721027 0 -32.654020874721027 3.222535769687056 0 0 0 0 -188.29467251082599 189.3016001755293 0 189.3016001755293 -4.675690588519501 0 0 0 0 -41.411288764716119 -9.3221443444563192 0 -9.3221443444563192 132.49137005405282 0 0 0 0 -11.344130470781465 -7.6638031814054557 0 -7.6638031814054557 12.065591526727076 0 0 0 0 1.092807538128703 0.98306283298914821 0 0.98306283298914821 1.5592066182495827 0 0 0 0 -2.4265577603342017 -2.2397537266973444 0 -2.2397537266973444 5.873994487907936 0 0 0 0 -45.950458540548368 17.767158141424488 0 17.767158141424488 5.4615589713102963 0 0 0 0 0.05116580201411125 -38.013920742210757 0 -38.013920742210757 -42.073911051276809 0 0 0 0 1.6495746122982382 -14.754048372071338 0 -14.754048372071338 -1.6987108565817834 0 0 0 0 -12.341005157368727 -10.822471543200663 0 -10.822471543200663 2.0765525644819718 0 0 0 0 -0.87561487938106097 -4.0671881670888226 0 -4.0671881670888226 8.2068060959536808 0 0 0 0 -24.83122594613269 -24.454779523113757 0 -24.454779523113757 -25.184348610797315 0 0 0 0 -28.624544571362094 -65.608006863500123 0 -65.608006863500123 -31.721988119032176 0 0 0 0 11.370466943397332 -49.833671614698687 0 -49.833671614698687 -15.099695603486907 0 0 0 0 -28.705627691927781 -26.45420132607326 0 -26.45420132607326 -28.727106319616723 0 0 0 0 38.73498409210606 -16.107793925493752 0 -16.107793925493752 -42.878219727932446 0 0 0 0 3.6949740244917848 -36.982887052017759 0 -36.982887052017759 4.4911058556881471 0 0 0 0 43.299604489961894 10.132495993999328 0 10.132495993999328 20.009686171831163 0 0 0 0 64.768257721933878 -49.216159284389505 0 -49.216159284389505 -12.795424859032209 0 0 0 0 31.101964551985475 -30.145528812023258 0 -30.145528812023258 -44.661634656506067 0 0 0 0 11.758101246859184 -23.426772936437771 0 -23.426772936437771 -44.556370000766037 0 0 0 0 8.6516672094837475 31.132260135683737 0 31.132260135683737 -51.122572907632275 0 0 0 0 2.8188750350609553 -8.2796174156173947 0 -8.2796174156173947 -63.256628123901464 0 0 0 0 -2.6576611485145989 -1.581566519192684 0 -1.581566519192684 0.52472483960469418 0 0 0 0 42.616852019679754 -6.9775428316606849 0 -6.9775428316606849 1.9293827582841914 0 0 0 0 10.820402388295065 32.767071300046609 0 32.767071300046609 144.04900482008816 0 0 0 0 1.1225193024083886 -0.52942623271826506 0 -0.52942623271826506 0.00028789871026901892 0 0 0 0 7.1925382931895001 -62.329185245489498 0 -62.329185245489498 106.94481980718774 0 0 0 0 18.387667413388044 6.0823820582772896 0 6.0823820582772896 57.961785333311127 0 0 0 0 32.546166920987901 -63.694190545968013 0 -63.694190545968013 62.935169935608428 0 0 0 0 22.573084452425064 -44.270239424757165 0 -44.270239424757165 38.938511547599774 0 0 0 0 6.453310922665878 -15.497504135779309 0 -15.497504135779309 103.76508526629004 0 0 0 0 10.259395209549439 -24.822654110453186 0 -24.822654110453186 42.161635466418375 0 0 0 0 10.32599098806736 -22.144525735713614 0 -22.144525735713614 31.809039952593594 0 0 0 0 -6.5773647080391129 -47.194285468724047 0 -47.194285468724047 48.208626637739144 0 0 0 0 21.515101919902463 -35.703721348347244 0 -35.703721348347244 49.03676388749227 0 0 0 0 1.6203389957800027 -59.930181684800118 0 -59.930181684800118 75.90121823019399 0 0 0 0 -0.73063364375365047 0.13946623489799492 0 0.13946623489799492 0.21561860147864564 0 0 0 0 -1.2489301846463547 -0.66431053218581582 0 -0.66431053218581582 -0.48567396377821836 0 0 0 0 18.724595600509929 13.516878476424608 0 13.516878476424608 -132.95522778169288 0 0 0 0 -28.367485185568967 32.702146455731963 0 32.702146455731963 -34.471735720784636 0 0 0 0 32.640115991363629 37.479240463072927 0 37.479240463072927 -42.959836675661791 0 0 0 0 10.162457028779954 51.711571559878394 0 51.711571559878394 -178.79118229592495 0 0 0 0 -33.411416169074528 -24.40827331233595 0 -24.40827331233595 -27.615664250624832 0 0 0 0 6.4338316217595661 -8.6477725116274087 0 -8.6477725116274087 -9.2880111627127917 0 0 0 0 -0.26275880317678002 -26.504403540962812 0 -26.504403540962812 5.3178532942147285 0 0 0 0 5.3457722393413007 -12.077517569999145 0 -12.077517569999145 16.341201845600153 0 0 0 0 11.926583843104282 -21.183928796104738 0 -21.183928796104738 7.7937880972131097 0 0 0 0 39.148287295988354 45.107787977074622 0 45.107787977074622 8.2264076724095503 0 0 0 0 0.24468765647862589 -0.071502476876375454 0 -0.071502476876375454 -0.28993424094767306 0 0 0 0 24.888010627950266 -8.2516121469993777 0 -8.2516121469993777 1.5228545573554584 0 0 0 0 -1.4864317483638678 0.7832444747992966 0 0.7832444747992966 1.3971133253174628 0 0 0 0 -16.220570911531333 0.28034208891222079 0 0.28034208891222079 12.792427167987626 0 0 0 0 -16.069191103830519 -5.7640969408930687 0 -5.7640969408930687 6.8960930628090864 0 0 0 0 -0.96621973870067279 -5.0711680139829696 0 -5.0711680139829696 18.993319622932177 0 0 0 0 9.361365121162919 -6.7817894077961682 0 -6.7817894077961682 7.7245951831355342 0 0 0 0 -6.7694872494281029 5.9737753831905138 0 5.9737753831905138 3.3938361459804582 0 0 0 0 8.7503712103812177 -10.10211732254902 0 -10.10211732254902 24.563552789622918 0 0 0 0 8.0875765707937965 -12.932025188169064 0 -12.932025188169064 30.188355240090459 0 0 0 0 6.8996388089765546 -14.967181339026865 0 -14.967181339026865 26.738285935971362 0 0 0 0 0.012017204823365235 -7.1944474543488468 0 -7.1944474543488468 20.515601553532179 0 0 0 0 -0.00058541985773591029 -17.424239672538533 0 -17.424239672538533 33.14051023059983 0 0 0 0 12.105601840008028 -18.173779074986669 0 -18.173779074986669 28.065384484452807 0 0 0 0 16.14485482335121 -22.897380093880201 0 -22.897380093880201 22.473764150188799 0 0 0 0 11.495207716014193 -17.636939110250751 0 -17.636939110250751 27.397397748849471 0 0 0 0 11.278984826438958 -15.052582772643291 0 -15.052582772643291 17.556643486626854 0 0 0 0 14.59453263953209 -17.134459824923198 0 -17.134459824923198 55.293016427007387 0 0 0 0 13.9682628025394 -28.881671327315416 0 -28.881671327315416 34.501550101820612 0 0 0 0 4.8243878958877744 -24.164366181903461 0 -24.164366181903461 42.554061370130512 0 0 0 0 14.435204410969973 -33.127023207860475 0 -33.127023207860475 47.717175126843358 0 0 0 0 0.055907620033610279 -25.202657382943404 0 -25.202657382943404 55.458030798952677 0 0 0 0 10.894789969554338 -6.8052108848314674 0 -6.8052108848314674 45.547775457365788 0 0 0 0 -26.880062138541852 35.515772156872117 0 35.515772156872117 26.017845277277956 0 0 0 0 9.6856517279515799 -8.4718988482309214 0 -8.4718988482309214 77.991214087640401 0 0 0 0 12.817083764601335 -14.850857459328836 0 -14.850857459328836 34.441971966763958 0 0 0 0 106.65209309398416 8.5801335444775759 0 8.5801335444775759 40.206884221290238 0 0 0 0 48.750445069555411 -52.302405467722565 0 -52.302405467722565 72.422590987540389 0 0 0 0 0.44241002927955009 -21.954423848524129 0 -21.954423848524129 31.311520927934907 0 0 0 0 -0.84172785482743961 16.902428382491053 0 16.902428382491053 13.871560475105071 0 0 0 0 21.935678274998736 39.047779600732611 0 39.047779600732611 30.897653656546026 0 0 0 0 21.860371542987963 30.932861738154315 0 30.932861738154315 9.1452651265426539 0 0 0 0 -11.695036316338189 32.178764206633787 0 32.178764206633787 22.881222336931387 0 0 0 0 45.722667502409806 15.510309131626855 0 15.510309131626855 42.412931812024908 0 0 0 0 49.488636060750359 32.587576373734919 0 32.587576373734919 85.394784849515418 0 0 0 0 22.788379319878771 -0.27311918479972519 0 -0.27311918479972519 45.383793575936579 0 0 0 0 1.5055672054829472 10.717631344057736 0 10.717631344057736 49.966026934067486 0 0 0 0 7.7854282122136738 14.224649455383769 0 14.224649455383769 54.712417701266531 0 0 0 0 8.6935702128915437 14.150848795812635 0 14.150848795812635 11.375583298271522 0 0 0 0 -14.983778321019543 -2.6816925514431205 0 -2.6816925514431205 39.936540349299321 0 0 0 0 -21.201713205020042 -37.441893121525936 0 -37.441893121525936 68.576042709279136 0 0 0 0 98.387847503723492 -98.35919124308748 0 -98.35919124308748 61.781827584090934 0 0 0 0 -0.13415343385698739 -0.066348493553768151 0 -0.066348493553768151 1.1457224357454265 0 0 0 0 -1.0754543023374765 -7.2069312269741204 0 -7.2069312269741204 106.57416169845601 0 0 0 0 -6.3775845473871868 -17.276859701081776 0 -17.276859701081776 21.459978664865048 0 0 0 0 -113.52605887237857 -31.020994827284085 0 -31.020994827284085 77.982151191077719 0 0 0 0 -0.61344341984073891 -4.4961463076814878 0 -4.4961463076814878 17.123311989926123 0 0 0 0 -21.175080946653452 -36.249639679621396 0 -36.249639679621396 24.408034917811165 0 0 0 0 -2.7759360210069173 -1.4445637106912876 0 -1.4445637106912876 7.5964635414534882 0 0 0 0 8.7133192228350254 -7.1910741645151575 0 -7.1910741645151575 8.4805284943649895 0 0 0 0 -0.3385828714142326 -0.47155919225745624 0 -0.47155919225745624 0.49341068029715984 0 0 0 0 10.276304218574069 12.703805382225255 0 12.703805382225255 7.8049227825831622 0 0 0 0 28.762991546951525 -21.796609960860224 0 -21.796609960860224 11.015008772992587 0 0 0 0 1.3429809697428086 -1.5650879292337478 0 -1.5650879292337478 3.2412402981060495 0 0 0 0 -2.5468386337915376 -0.94884060163531103 0 -0.94884060163531103 5.5436423347273376 0 0 0 0 -2.1650400782261232 -1.6680318296805083 0 -1.6680318296805083 7.551282756611414 0 0 0 0 0.44703173415427955 -2.8883298108075905 0 -2.8883298108075905 11.844986790660187 0 0 0 0 -2.6681370456657207 -1.2436904966335334 0 -1.2436904966335334 7.0225849116833814 0 0 0 0 0.76436673318698922 -3.8999053145889775 0 -3.8999053145889775 12.666598931489716 0 0 0 0 -107.24741392734418 39.321712684879458 0 39.321712684879458 33.324758385904715 0 0 0 0 0.73310249039456443 -4.631496528900013 0 -4.631496528900013 13.559816797100211 0 0 0 0 -33.54673388433369 8.5676378017960815 0 8.5676378017960815 20.188109135546256 0 0 0 0 -69.628548463092841 38.714785621319606 0 38.714785621319606 12.316480560170021 0 0 0 0 -66.974018156543963 53.228020449719224 0 53.228020449719224 -9.8853997972328216 0 0 0 0 -30.225315264507799 -15.415820970025379 0 -15.415820970025379 -18.432708749169251 0 0 0 0 -46.55444178437574 32.80426338722873 0 32.80426338722873 -34.398344639514107 0 0 0 0 -46.653474042143557 12.33558359197923 0 12.33558359197923 12.888415506133697 0 0 0 0 -17.73865170863165 9.1033728818911186 0 9.1033728818911186 -10.438304347509984 0 0 0 0 -10.768174874958021 -9.0005740783474266 0 -9.0005740783474266 6.2972850540099898 0 0 0 0 0.22262749371146351 -3.5344174227940011 0 -3.5344174227940011 6.2824897994963322 0 0 0 0 -12.990329543768894 -6.2103526087848877 0 -6.2103526087848877 11.204375388580956 0 0 0 0 -1.6006164476884805 -5.247938369617259 0 -5.247938369617259 8.9533731592819095 0 0 0 0 -0.11404241269898918 -3.1471925160826544 0 -3.1471925160826544 7.1681357483057724 0 0 0 0 -2.3259871045675027 -3.1088428081784514 0 -3.1088428081784514 10.159206308569992 0 0 0 0 -3.1467458832821649 -4.837333269577357 0 -4.837333269577357 10.882555375759694 0 0 0 0 -2.6714510972915377 -4.9446263729187194 0 -4.9446263729187194 9.2498612667914131 0 0 0 0 -2.4482469270963065 -2.3203756248412901 0 -2.3203756248412901 5.0764484468236333 0 0 0 0 -2.7185854095783402 -3.3378059021632467 0 -3.3378059021632467 7.5873123129540687 0 0 0 0 2.8194137023099302 4.6642180085873406 0 4.6642180085873406 1.7815298155328492 0 0 0 0 -23.694906133060158 8.846105733900913 0 8.846105733900913 12.678710011252406 0 0 0 0 -5.3841792969392372 1.0363942456788209 0 1.0363942456788209 13.053519402543316 0 0 0 0 -0.73758224148514273 -4.6914329127394012 0 -4.6914329127394012 12.235999959085348 0 0 0 0 -1.7135720828910053 0.78018993748992216 0 0.78018993748992216 11.596625825918636 0 0 0 0 -1.7768832698570023 -2.8573180003123184 0 -2.8573180003123184 20.051824618669343 0 0 0 0 2.9205719558358396 -9.8645164341942291 0 -9.8645164341942291 21.713622422830667 0 0 0 0 3.5045543740711764 -1.9191028670647938 0 -1.9191028670647938 12.154739514686298 0 0 0 0 -6.5440650059299514 -3.9863691772461607 0 -3.9863691772461607 12.766620092123048 0 0 0 0 -5.4516989888488752 -5.161283245888626 0 -5.161283245888626 11.186208740480652 0 0 0 0 0.17882446884192599 -3.7927175613252642 0 -3.7927175613252642 11.055701338173435 0 0 0 0 -1.8662827236703379 -8.4765485199095565 0 -8.4765485199095565 21.286039171536686 0 0 0 0 -2.4856766664821617 -1.468381195634521 0 -1.468381195634521 9.0898443056610319 0 0 0 0 -5.1869730844773585 -6.3437211631899117 0 -6.3437211631899117 7.8003607255086536 0 0 0 0 -0.64956054643752381 -8.4189853315014673 0 -8.4189853315014673 9.7977034691065512 0 0 0 0 -6.9590964966409956 -2.2669346510447212 0 -2.2669346510447212 9.7587701993325027 0 0 0 0 -2.8961163157656338 -2.5247522390590893 0 -2.5247522390590893 9.5216812706554492 0 0 0 0 -3.8808041250736096 -3.6854728368289216 0 -3.6854728368289216 10.573690159450052 0 0 0 0 -4.7593164702100559 -0.973079595877401 0 -0.973079595877401 12.476843007490487 0 0 0 0 13.51741047167161 -7.4043107884681376 0 -7.4043107884681376 9.8526105523342267 0 0 0 0 10.439464774738099 -12.822142660928876 0 -12.822142660928876 14.882849410496419 0 0 0 0 -0.7145671705500547 -5.6691139852735262 0 -5.6691139852735262 12.708137268215069 0 0 0 0 -3.1594684245502371 0.25248471907923431 0 0.25248471907923431 4.2340915812131215 0 0 0 0 7.2609413789650716 -9.3206333270427422 0 -9.3206333270427422 13.935801308558439 0 0 0 0 -0.45131412251860148 -3.4125588172905097 0 -3.4125588172905097 6.8747764331048273 0 0 0 0 2.1572928116365802 -5.036502523253148 0 -5.036502523253148 14.344039648042326 0 0 0 0 6.3994615760266242 -2.652915868025957 0 -2.652915868025957 14.24476518832671 0 0 0 0 1.4477883137060417 -12.83368104697729 0 -12.83368104697729 26.911762030023965 0 0 0 0 13.759198020004987 -11.058276227158785 0 -11.058276227158785 12.479195972759044 0 0 0 0 7.9272054222547013 -8.8358175281537115 0 -8.8358175281537115 11.723604739723669 0 0 0 0 5.8691760583024006 -8.9686453064423404 0 -8.9686453064423404 11.898983523184143 0 0 0 0 -0.92709407755046414 -4.2437292806098412 0 -4.2437292806098412 14.451688591245329 0 0 0 0 6.4470355455869139 -8.1029700236249482 0 -8.1029700236249482 12.684291174606187 0 0 0 0 0.76163149260082719 -6.4709899164627132 0 -6.4709899164627132 15.125066809778218 0 0 0 0 1.2699863684731554 -1.9292075013479462 0 -1.9292075013479462 7.8360719017437077 0 0 0 0 4.7325961480373735 -7.9150190359814587 0 -7.9150190359814587 8.02454627062707 0 0 0 0 31.355968842858601 3.2235449560830602 0 3.2235449560830602 -16.509753859063494 0 0 0 0 2.6220548213805923 -1.8101704328523525 0 -1.8101704328523525 -1.9226774103493938 0 0 0 0 -9.0446392685003048 -11.290695722085729 0 -11.290695722085729 18.911682695295895 0 0 0 0 16.607268319210561 -14.668856425429112 0 -14.668856425429112 10.24230475215154 0 0 0 0 0.40567807250121657 -0.1700118994676032 0 -0.1700118994676032 -0.47539287974954902 0 0 0 0 0.65935609814651963 -4.2385748249540178 0 -4.2385748249540178 6.4031895170829216 0 0 0 0 0.30000547124200239 -9.3169482609155239 0 -9.3169482609155239 8.5018970324199472 0 0 0 0 -0.47801663679047124 -4.184394282694484 0 -4.184394282694484 5.5212962922814768 0 0 0 0 -12.212906545631995 -21.223777799896197 0 -21.223777799896197 10.471240137892892 0 0 0 0 1.2188090449829279 -4.6906875879461296 0 -4.6906875879461296 8.1952451006142297 0 0 0 0 -78.755626775624435 7.9727991177787771 0 7.9727991177787771 19.634386633653776 0 0 0 0 -9.1810049974433241 -3.3560472455210402 0 -3.3560472455210402 14.804400017783337 0 0 0 0 -1.4954857110471531 -2.222404035533863 0 -2.222404035533863 8.172585785633018 0 0 0 0 0.0012236697530170204 -4.381550741592946 0 -4.381550741592946 12.378936794695619 0 0 0 0 -9.0232576746555537 -3.8542579367358485 0 -3.8542579367358485 11.043605269573163 0 0 0 0 -1.5950537108380978 -0.99410502070562856 0 -0.99410502070562856 7.9392085536516532 0 0 0 0 1.4675601021799594 0.94147961331327679 0 0.94147961331327679 2.4068713610686245 0 0 0 0 2.9098307685253531 -9.1900482444852969 0 -9.1900482444852969 8.3801356747314912 0 0 0 0 -5.6489763591507653 1.7053984369522368 0 1.7053984369522368 4.7565610662422841 0 0 0 0 0.11610824572209877 -2.550555673744789 0 -2.550555673744789 6.4645813138841675 0 0 0 0 -5.5249687883642764 3.1794086716981838 0 3.1794086716981838 9.8367133084611851 0 0 0 0 7.6380894929662588 16.080472769288463 0 16.080472769288463 4.7731086217972916 0 0 0 0 -26.717420085554735 27.247570763054682 0 27.247570763054682 19.599540310133307 0 0 0 0 -18.449904829102707 17.43873027311929 0 17.43873027311929 9.1254058657941641 0 0 0 0 -5.6594349116762999 -1.3974776094054278 0 -1.3974776094054278 17.315161717109731 0 0 0 0 -1.0220507350120802 -1.9931937075838544 0 -1.9931937075838544 10.890612432502706 0 0 0 0 1.173065169676363 -3.3933795404452667 0 -3.3933795404452667 9.2877160734933568 0 0 0 0 1.5558544150028411 -0.88891165538007044 0 -0.88891165538007044 9.0385790188265673 0 0 0 0 -0.49191383544687994 -1.6346031180091884 0 -1.6346031180091884 10.363226153812306 0 0 0 0 0.74617520929988945 -5.6332076400328361 0 -5.6332076400328361 11.623422019231768 0 0 0 0 -8.4971340682227492 1.4985181697466032 0 1.4985181697466032 7.7608765449331258 0 0 0 0 -13.461610209831179 0.47735269954137038 0 0.47735269954137038 6.853229804255534 0 0 0 0 6.9959222960214902 -9.4213761450737366 0 -9.4213761450737366 2.0096743393951328 0 0 0 0 -6.8290052888964992 5.1780972645066896 0 5.1780972645066896 8.5686993040138759 0 0 0 0 -2.3131275026309654 -0.38471774644711587 0 -0.38471774644711587 7.7305463858501611 0 0 0 0 -1.9552534451946746 -0.98764853304925371 0 -0.98764853304925371 12.207592175167747 0 0 0 0 7.2609235168087878 9.672915639864641 0 9.672915639864641 -20.740703597621177 0 0 0 0 6.5811325429596366 -3.3761942935050229 0 -3.3761942935050229 3.2816445100033889 0 0 0 0 0.85841850196018443 -0.60003262566730875 0 -0.60003262566730875 0.61828706633977504 0 0 0 0 0.60454123261615678 -2.8718284859569394 0 -2.8718284859569394 2.5359106842806796 0 0 0 0 -5.2869288606061673 -102.39090700244924 0 -102.39090700244924 147.45407260510547 0 0 0 0 0.56778115062391343 -0.62024608897676359 0 -0.62024608897676359 0.7404537595361802 0 0 0 0 173.78498215700392 -113.49792689959577 0 -113.49792689959577 -67.810190937292646 0 0 0 0 26.82708930116155 -54.990180207896628 0 -54.990180207896628 59.556186075875303 0 0 0 0 1.2211124697078048 -47.235589606803842 0 -47.235589606803842 103.60380141917267 0 0 0 0 12.0315446666973 23.664475461995607 0 23.664475461995607 -45.62884813891651 0 0 0 0 -4.7344272947957506 -19.543455165039632 0 -19.543455165039632 93.431147786304791 0 0 0 0 -47.079817279341114 78.645504441214143 0 78.645504441214143 55.431045661949611 0 0 0 0 0.5346363780604918 -1.061107183665265 0 -1.061107183665265 0.30366990474672662 0 0 0 0 4.4342772539491762 -18.370048876531655 0 -18.370048876531655 10.12007340281707 0 0 0 0 1.1614596645357338 4.4542493601186948 0 4.4542493601186948 1.8296717447374249 0 0 0 0 2.2215285802676328 -4.9032521959314295 0 -4.9032521959314295 10.650481222421845 0 0 0 0 0.31819880949024082 -3.0135485144273844 0 -3.0135485144273844 10.405774609593209 0 0 0 0 -22.01293895580821 -8.5159503209294201 0 -8.5159503209294201 25.651248864407535 0 0 0 0 1.7328929728844971 -3.0448624375885105 0 -3.0448624375885105 9.0639791825952472 0 0 0 0 -10.321473045377388 -5.3256909095034644 0 -5.3256909095034644 17.563318671753223 0 0 0 0 0.47680688415130135 0.49963795348958229 0 0.49963795348958229 9.5280207594660169 0 0 0 0 11.977864802952354 15.878025429039553 0 15.878025429039553 29.40953708896086 0 0 0 0 -9.2862673335225736 -10.88379778457238 0 -10.88379778457238 41.095115372620057 0 0 0 0 9.0544370856987371 -10.777086424568552 0 -10.777086424568552 18.847334741673421 0 0 0 0 12.361559296911764 -27.420133313615224 0 -27.420133313615224 83.569167374196695 0 0 0 0 10.599407908680632 -28.656819507497858 0 -28.656819507497858 25.509506265727396 0 0 0 0 7.5950511759574511 18.044792281201808 0 18.044792281201808 74.416349156615979 0 0 0 0 0.94842277775199513 -0.41752452621305025 0 -0.41752452621305025 0.053403932881181504 0 0 0 0 -0.47675799231546989 11.438849734800897 0 11.438849734800897 10.703176134760724 0 0 0 0 -22.010118695829306 21.551585595996585 0 21.551585595996585 9.4289581351258676 0 0 0 0 0.3133906995194593 14.756782472039049 0 14.756782472039049 1.4915558871034591 0 0 0 0 2.0237988977123678 -3.1263139515867806 0 -3.1263139515867806 10.396037713370788 0 0 0 0 -7.3670764306889396 7.1548707798865507 0 7.1548707798865507 13.574445780915994 0 0 0 0 0.4304371570321267 -2.3504082843516407 0 -2.3504082843516407 12.026506676490257 0 0 0 0 0.55744776757034042 -1.295040513917094 0 -1.295040513917094 3.5573707071818319 0 0 0 0 0.66852896063678791 -3.7946696248659446 0 -3.7946696248659446 7.0492177746583877 0 0 0 0 15.439311642890289 -7.5990367542035528 0 -7.5990367542035528 2.4385636789520504 0 0 0 0 -0.25818870488910761 -5.9558392944963998 0 -5.9558392944963998 7.6853630714358587 0 0 0 0 6.9088984343775337 -11.992738709577679 0 -11.992738709577679 5.0051122892764397 0 0 0 0 -4.2983941944025901 -7.7610062457715685 0 -7.7610062457715685 9.6438908991622156 0 0 0 0 -5.348190103131401 -16.799114108147478 0 -16.799114108147478 -17.026325471606469 0 0 0 0 5.6634500947188826 -3.6478280075534713 0 -3.6478280075534713 7.5428548041745671 0 0 0 0 -12.167499120346747 14.053817487001652 0 14.053817487001652 32.983915656206591 0 0 0 0 1.6469281935965228 -8.5254660199334467 0 -8.5254660199334467 8.1288418869644374 0 0 0 0 5.9439111559937032 -17.017265866190655 0 -17.017265866190655 6.1567704230910749 0 0 0 0 8.823497518505576 6.647421912005484 0 6.647421912005484 -3.9734547778352862 0 0 0 0 -1.6933576714809533 8.368585705611622 0 8.368585705611622 6.1399782441908428 0 0 0 0 3.0365645679666615 -5.5150158494074653 0 -5.5150158494074653 9.635541790847526 0 0 0 0 -10.413882048716232 -24.206771549805126 0 -24.206771549805126 2.2735888287861599 0 0 0 0 16.977656103358413 4.7263113557091856 0 4.7263113557091856 -4.4473170128712809 0 0 0 0 19.057617194231625 -21.603992510968965 0 -21.603992510968965 27.573782180814305 0 0 0 0 30.271022414687877 -34.139659121756267 0 -34.139659121756267 0.057453764769888949 0 0 0 0 0.6048434833844567 -0.12977722138050751 0 -0.12977722138050751 -0.18925349860002427 0 0 0 0 3.4711381278814315 4.1694839824122027 0 4.1694839824122027 36.127205063443398 0 0 0 0 3.5630559173226573 3.1244387023923537 0 3.1244387023923537 8.1564302472543204 0 0 0 0 -3.4548197804822394 2.7588133892058977 0 2.7588133892058977 15.746299553538705 0 0 0 0 3.4863812444573341 -9.1934845446230611 0 -9.1934845446230611 15.657198492801058 0 0 0 0 -4.7521503537495846 -0.73848404841555748 0 -0.73848404841555748 6.9817023055293248 0 0 0 0 -7.6141948855995452 1.1430049050250091 0 1.1430049050250091 8.1749853684104892 0 0 0 0 -2.3885983918424358 6.9401730525023595 0 6.9401730525023595 7.8459394470446568 0 0 0 0 -1.5745828946409985 -0.50708075756481463 0 -0.50708075756481463 5.8376462529822248 0 0 0 0 -6.4731301482480035 -1.0110146706811065 0 -1.0110146706811065 11.262094158541004 0 0 0 0 -6.40450579673535 0.93364629262578092 0 0.93364629262578092 5.87022025022452 0 0 0 0 -3.0096934705929925 3.1672153476829408 0 3.1672153476829408 8.605815493976479 0 0 0 0 -0.15838006696518958 -0.55815952996746887 0 -0.55815952996746887 2.1305657321682077 0 0 0 0 -4.2819480794005358 5.6977768403412483 0 5.6977768403412483 5.6175786919893653 0 0 0 0 -1.7324287008414818 -0.12360514671831169 0 -0.12360514671831169 6.009323061315456 0 0 0 0 -11.357448313986424 4.7980433019292832 0 4.7980433019292832 17.224618727228517 0 0 0 0 -2.2327621624263028 -0.69583205166942719 0 -0.69583205166942719 7.3474630194159545 0 0 0 0 -3.8489316125691033 5.4908749556179828 0 5.4908749556179828 6.1669519628703711 0 0 0 0 -0.96225246674907816 0.095396379335767278 0 0.095396379335767278 1.4762990060615664 0 0 0 0 -4.315017734381005 6.0933070749115359 0 6.0933070749115359 10.476224255588022 0 0 0 0 -13.23549689956819 -11.725850581307895 0 -11.725850581307895 4.8995067864002522 0 0 0 0 -2.5299782240789792 2.0344613048328029 0 2.0344613048328029 9.6666207500675227 0 0 0 0 4.7731358063883746 7.8561265928437933 0 7.8561265928437933 13.483456801770444 0 0 0 0 -4.7697380127575713 5.2483339855898521 0 5.2483339855898521 9.2327913710505527 0 0 0 0 -9.2505921876522237 1.044558673787833 0 1.044558673787833 8.9256422573016607 0 0 0 0 -9.5756463682159918 1.5239014857743314 0 1.5239014857743314 8.6753773251548409 0 0 0 0 -7.4074159694097119 -16.103636344185361 0 -16.103636344185361 9.995141006380436 0 0 0 0 7.032986016863731 -33.293129072251759 0 -33.293129072251759 -11.82977563944587 0 0 0 0 4.2672430334159728 7.2693910058696929 0 7.2693910058696929 33.976697202728701 0 0 0 0 0.081244805709661042 -0.036772607417489667 0 -0.036772607417489667 -0.15128456121595946 0 0 0 0 -20.690378692003517 0.90379333795317507 0 0.90379333795317507 18.297961891948944 0 0 0 0 -0.050411832871120055 9.4001377252025122 0 9.4001377252025122 -12.453417735517405 0 0 0 0 9.949593914271432 27.821362794482411 0 27.821362794482411 19.805476918856584 0 0 0 0 -0.52932384958639034 -11.509530096140224 0 -11.509530096140224 46.461065444207634 0 0 0 0 -0.0010022842208233735 -4.6032949863256363 0 -4.6032949863256363 23.816579845024535 0 0 0 0 19.042846910970027 -7.0453436615134706 0 -7.0453436615134706 3.0602680932861404 0 0 0 0 -4.6768325780924398 -16.214759770429737 0 -16.214759770429737 -1.2930698030068015 0 0 0 0 -0.77688004240711095 0.36336351188219851 0 0.36336351188219851 -4.612202180004715 0 0 0 0 0.1948981950410531 -0.15505199421112792 0 -0.15505199421112792 0.063535328524309875 0 0 0 0 11.411316086496626 5.0031274584471248 0 5.0031274584471248 9.0243836351546634 0 0 0 0 -8.0938935744913607 -2.0380943888121692 0 -2.0380943888121692 3.9061647601811273 0 0 0 0 -0.7555014621724393 0.028673803423508559 0 0.028673803423508559 1.6332058550880078 0 0 0 0 -17.726751277578536 -11.631159801985632 0 -11.631159801985632 10.666556669195415 0 0 0 0 9.4699249307510502 -10.046447089920548 0 -10.046447089920548 5.6280707233891007 0 0 0 0 0.0084000237574681433 4.3802993590379629 0 4.3802993590379629 25.464121186203556 0 0 0 0 -10.4287483199973 3.0368485726357903 0 3.0368485726357903 29.099972342461115 0 0 0 0 0.075081720236421123 -0.12349272493329977 0 -0.12349272493329977 0.13276590422893264 0 0 0 0 15.809932641950498 15.60296802904486 0 15.60296802904486 11.235911529980513 0 0 0 0 -3.2102221958724257 -2.9646883638943109 0 -2.9646883638943109 13.496183734128863 0 0 0 0 -1.147375024559917 -1.4110008033767372 0 -1.4110008033767372 1.2307247905919212 0 0 0 0 -13.526049208535227 7.6047561060222506 0 7.6047561060222506 12.662988954063621 0 0 0 0 -2.893729794035897 8.0744512811688764 0 8.0744512811688764 1.7343817175825507 0 0 0 0 -7.3746581014446519 -2.2820729957866206 0 -2.2820729957866206 12.811066519643646 0 0 0 0 -1.1415027093907955 -0.39420548539258249 0 -0.39420548539258249 5.817362894358439 0 0 0 0 -0.0026206948415303751 0.5288699419106706 0 0.5288699419106706 -1.365151328034699 0 0 0 0 -0.4478346867379796 0.51416691570506146 0 0.51416691570506146 0.87511973331157833 0 0 0 0 -1.3079753521741331 1.1889000076516822 0 1.1889000076516822 2.1962221185167436 0 0 0 0 -11.270146627913618 -6.0032705096273276 0 -6.0032705096273276 7.4186762728909343 0 0 0 0 -7.4356443564945494 1.4907613439663692 0 1.4907613439663692 6.9034516370375059 0 0 0 0 11.803273207552138 -3.8922189507065923 0 -3.8922189507065923 -6.2010422614112031 0 0 0 0 -3.1760182741496692 1.4060941766183532 0 1.4060941766183532 1.8279031774654868 0 0 0 0 -4.0902382853558947 9.6375279402855085 0 9.6375279402855085 6.7998076553485589 0 0 0 0 -1.5146862310963634 -0.15672133289199053 0 -0.15672133289199053 5.4684119287957884 0 0 0 0 -0.73242047447137582 -0.096708261094612169 0 -0.096708261094612169 2.0002902955094299 0 0 0 0 -6.396594668979219 0.48033717976431944 0 0.48033717976431944 32.242174513179634 0 0 0 0 -5.4756741533619788 -6.0638374669288169 0 -6.0638374669288169 7.4167565866518999 0 0 0 0 5.5919430948663376 9.710228871081199 0 9.710228871081199 8.620242886190681 0 0 0 0 57.828342760555643 -40.370406214948162 0 -40.370406214948162 51.913739293999242 0 0 0 0 0.23176228602014692 0.093315119275715119 0 0.093315119275715119 -0.22956887937084502 0 0 0 0 4.512994694324675 4.0697481271563447 0 4.0697481271563447 42.361441647233733 0 0 0 0 0.34186303566014953 -0.25710532650570173 0 -0.25710532650570173 0.089749297671275485 0 0 0 0 27.752911763003794 -18.856171424406057 0 -18.856171424406057 -1.1473009513429133 0 0 0 0 16.537447280000492 -2.382529729822636 0 -2.382529729822636 -2.0579748610471142 0 0 0 0 17.016470354750538 26.020730647596793 0 26.020730647596793 -37.940945631602517 0 0 0 0 3.1905908593490753 -2.9723114597316282 0 -2.9723114597316282 -1.5986600835863953 0 0 0 0 4.6479706769605968 -16.867868482607264 0 -16.867868482607264 16.737846640397038 0 0 0 0 8.0761626078053581 29.842501895938767 0 29.842501895938767 -42.184114375970239 0 0 0 0 -18.569454190077877 18.503033040418813 0 18.503033040418813 91.355212105823739 0 0 0 0 19.678641610681751 -23.812173871324376 0 -23.812173871324376 14.406867739562585 0 0 0 0 -0.050156048630378314 -0.65981189332524082 0 -0.65981189332524082 3.6435305526847515 0 0 0 0 -0.25866843126050298 -9.3739443280355772 0 -9.3739443280355772 8.6172870740156213 0 0 0 0 4.1944639766454657 -5.9875742953045119 0 -5.9875742953045119 7.3620621760637732 0 0 0 0 0.30332297696632698 -2.0901255388511046 0 -2.0901255388511046 5.0460903589100212 0 0 0 0 3.3701159004036905 -2.4785983789301156 0 -2.4785983789301156 -1.99646566916946 0 0 0 0 -0.0012258487493271761 -0.62941369376130751 0 -0.62941369376130751 2.8042055132100359 0 0 0 0 0.35174347803517492 -1.1827346219852188 0 -1.1827346219852188 1.7943888714944478 0 0 0 0 -0.17256030011485043 -0.50875920639563077 0 -0.50875920639563077 2.1535901075568518 0 0 0 0 25.319936686473905 7.1452078408474335 0 7.1452078408474335 -34.38509174061619 0 0 0 0 0.9369084685815251 -1.2236499836110966 0 -1.2236499836110966 0.93612441199783802 0 0 0 0 0.18331040727795125 -0.32415363959393062 0 -0.32415363959393062 0.49563525323672053 0 0 0 0 0.2202729839725879 -0.14269414036705541 0 -0.14269414036705541 0.19237689071925956 0 0 0 0 0.0026915375857279418 -0.62142302416759776 0 -0.62142302416759776 0.8397374415435479 0 0 0 0 -22.567193583964166 6.9785101259167277 0 6.9785101259167277 163.66954001507838 0 0 0 0 -11.016513339193892 20.691425933026039 0 20.691425933026039 168.67083569770693 0 0 0 0 -0.088576174031950172 -10.378948333276639 0 -10.378948333276639 218.90478114820871 0 0 0 0 -9.804749228279487 -32.349263878339116 0 -32.349263878339116 276.97495465983593 0 0 0 0 41.537278227280872 7.83059333012352 0 7.83059333012352 224.59337934997529 0 0 0 0 45.348068123051306 -11.706774908753687 0 -11.706774908753687 209.98535939860449 0 0 0 0 0.55980651787779379 -0.4329647343062355 0 -0.4329647343062355 0.35703112974377404 0 0 0 0 -13.084426839379841 -40.881463995427112 0 -40.881463995427112 77.153812713841035 0 0 0 0 28.357226897390088 42.36874713531688 0 42.36874713531688 123.00091106627224 0 0 0 0 -8.8018554921521499 -13.344020272682542 0 -13.344020272682542 216.71311737970245 0 0 0 0 -35.164894923618633 -4.6892672782742011 0 -4.6892672782742011 211.17485074821889 0 0 0 0 -22.702852265391073 -22.313244226752431 0 -22.313244226752431 102.8920607925993 0 0 0 0 -36.648163428531547 24.561857289649708 0 24.561857289649708 217.6730823517355 0 0 0 0 -36.39958123808227 36.595135481310564 0 36.595135481310564 293.80088106638141 0 0 0 0 -69.97892972510607 -3.4279201282188296 0 -3.4279201282188296 261.98299157988367 0 0 0 0 -59.722071878169118 -30.243803720586584 0 -30.243803720586584 254.6507663789962 0 0 0 0 -48.419354366188571 16.216990759534383 0 16.216990759534383 221.59660011126107 0 0 0 0 -9.1418211745768332 26.037292440087185 0 26.037292440087185 24.897660517613986 0 0 0 0 -14.143708536476311 -49.337880693452462 0 -49.337880693452462 156.11170970022431 0 0 0 0 -4.3356602701353353 -84.81948729625492 0 -84.81948729625492 283.48784972301655 0 0 0 0 0.039026578995868866 1.1208755241894011 0 1.1208755241894011 3.0403693777824117 0 0 0 0 -130.70133056685611 43.676392647736066 0 43.676392647736066 142.16991878199769 0 0 0 0 -7.4016327758630212 19.023370253929897 0 19.023370253929897 25.018969908497297 0 0 0 0 -0.24885740139161783 9.9661194981817971 0 9.9661194981817971 -21.711080710236274 0 0 0 0 -52.464093611239889 -16.488620016087225 0 -16.488620016087225 -10.348507019774843 0 0 0 0 -16.519671671353365 -8.1870551021347637 0 -8.1870551021347637 -25.230648540855327 0 0 0 0 45.653476320029412 -39.66268264685641 0 -39.66268264685641 -12.353530908785615 0 0 0 0 0.027888038220005892 -17.103280956104335 0 -17.103280956104335 157.10935806888301 0 0 0 0 -10.111320156363922 -37.94284428667379 0 -37.94284428667379 178.66277366266149 0 0 0 0 -57.404379336545915 71.142448809034249 0 71.142448809034249 51.607605772489478 0 0 0 0 49.802653713683625 -77.903335517343294 0 -77.903335517343294 174.87492905484396 0 0 0 0 -0.019000675942444652 0.19208597479616074 0 0.19208597479616074 1.2748836080107253 0 0 0 0 71.704107533615257 257.63647419496141 0 257.63647419496141 294.03653997648871 0 0 0 0 47.912821621341664 2.6304541105782846 0 2.6304541105782846 59.618818530449062 0 0 0 0 0.26206353120814957 -0.21689348572508038 0 -0.21689348572508038 5.0317845610734651 0 0 0 0 359.77137144785439 -416.35457623342728 0 -416.35457623342728 475.72225989169965 0 0 0 0 93.072688180735895 -79.121680060674407 0 -79.121680060674407 656.59152334262035 0 0 0 0 18.156239307812143 126.05484048360449 0 126.05484048360449 246.66040528605663 0 0 0 0 -81.977840300921685 -106.28353428000264 0 -106.28353428000264 190.27290233436543 0 0 0 0 -5.2002980792027245 188.05022529800226 0 188.05022529800226 -42.863646501162293 0 0 0 0 0.30788835478762011 0.77102262108731168 0 0.77102262108731168 1.4683240969033164 0 0 0 0 96.191321559013318 125.42383745492407 0 125.42383745492407 148.88701277877044 0 0 0 0 8.3343009578561578 116.01266057571593 0 116.01266057571593 239.5791051648248 0 0 0 0 5.388502939282489 2.2503134465241601 0 2.2503134465241601 146.76148142768943 0 0 0 0 59.078401070650244 75.17059709397472 0 75.17059709397472 115.66088651671816 0 0 0 0 73.105392868223191 -20.362788764292418 0 -20.362788764292418 40.438749763154192 0 0 0 0 26.897046051357506 0.94086812856130564 0 0.94086812856130564 16.742032485006348 0 0 0 0 -37.54732221715858 -40.964699014144571 0 -40.964699014144571 31.43343186032871 0 0 0 0 -102.82145510039823 5.4641477928817039 0 5.4641477928817039 94.595278355942355 0 0 0 0 0.027545892121142113 -0.51985774327564949 0 -0.51985774327564949 12.420010345571939 0 0 0 0 -54.969310919030043 -26.806229557521846 0 -26.806229557521846 21.375981410550594 0 0 0 0 -0.36516603356965449 -1.4396856444206803 0 -1.4396856444206803 16.255398902104019 0 0 0 0 -13.417156744832255 -31.697113011925467 0 -31.697113011925467 -14.811646397803997 0 0 0 0 4.2020692616604265 -50.05977966379578 0 -50.05977966379578 1.1921508110426657 0 0 0 0 0.22365329613943885 -4.9328388556746035 0 -4.9328388556746035 5.9416751279376783 0 0 0 0 -0.64824204463474366 -2.4033995888539721 0 -2.4033995888539721 9.378291586512205 0 0 0 0 2.433765545337792 -3.5316477230117016 0 -3.5316477230117016 8.4129266626441677 0 0 0 0 0.18136891732943483 -2.0349444934674978 0 -2.0349444934674978 8.0713332929654769 0 0 0 0 -4.4568814717024061 -5.2945423905817677 0 -5.2945423905817677 10.649171432931325 0 0 0 0 6.0025325990627607 6.4418551291528274 0 6.4418551291528274 6.3595053588360315 0 0 0 0 10.176780654414529 9.6334331299585756 0 9.6334331299585756 26.781936462386511 0 0 0 0 2.2116083184059789 -3.9192815190363035 0 -3.9192815190363035 11.972939969828076 0 0 0 0 1.998481446272645 -5.3802934340900777 0 -5.3802934340900777 2.5449539345556431 0 0 0 0 28.855403071923604 -36.641621292983473 0 -36.641621292983473 -45.050163676369266 0 0 0 0 -6.7587902128881865 7.2055496192160717 0 7.2055496192160717 4.8718158018964459 0 0 0 0 22.850683685858712 -36.61927577068127 0 -36.61927577068127 21.57342982852424 0 0 0 0 -40.053304001453398 -19.155760345984163 0 -19.155760345984163 82.87496505548188 0 0 0 0 12.812290576330952 -10.897401627673389 0 -10.897401627673389 10.331846395742105 0 0 0 0 0.11093792832791127 1.1393151721713366 0 1.1393151721713366 1.8474998976242816 0 0 0 0 -1.1529960126107426 1.6166325458361825 0 1.6166325458361825 11.682665662432555 0 0 0 0 29.884067142206618 0.25443729344897292 0 0.25443729344897292 11.441921735255164 0 0 0 0 3.5090304468667455 -14.872836038601235 0 -14.872836038601235 14.385813822125783 0 0 0 0 8.5122769479833096 -10.076502361360326 0 -10.076502361360326 15.461745369037089 0 0 0 0 8.6778876741891509 -10.606957028892793 0 -10.606957028892793 5.9544957802427234 0 0 0 0 5.3838949479087432 -21.149966943079562 0 -21.149966943079562 10.255864544858923 0 0 0 0 17.0641001308677 -17.17933459066262 0 -17.17933459066262 9.1508587246571551 0 0 0 0 -5.5934431693833133 0.4618752418382428 0 0.4618752418382428 16.910618952213554 0 0 0 0 0.13539927993874201 -4.6181995541461731 0 -4.6181995541461731 11.23280922628328 0 0 0 0 0.76778369445387451 -1.3495349540010313 0 -1.3495349540010313 8.5630939270476176 0 0 0 0 4.6914730635389787 -4.2787487718742341 0 -4.2787487718742341 9.240965636287001 0 0 0 0 6.8484536623830081 -3.7440747684067901 0 -3.7440747684067901 4.969968068995513 0 0 0 0 -0.52576780311047067 1.1353197505836192 0 1.1353197505836192 1.647265740534408 0 0 0 0 -0.22003144715987411 0.29357873888301356 0 0.29357873888301356 3.0387250708390781 0 0 0 0 1.2051185611471738 -5.7776071164043969 0 -5.7776071164043969 12.994996610099406 0 0 0 0 1.9753500440965155 -2.2544478408037776 0 -2.2544478408037776 11.729525650167488 0 0 0 0 -1.8089576066618065 0.29738777609236422 0 0.29738777609236422 9.1963042755014612 0 0 0 0 -18.599733674280031 -9.026506518624501 0 -9.026506518624501 18.408854595516459 0 0 0 0 2.0641441419905702 -4.6129981936759563 0 -4.6129981936759563 9.3579889023219209 0 0 0 0 3.118305254667348 -3.2040110161469784 0 -3.2040110161469784 4.0855715181096457 0 0 0 0 0.72015248917366304 -3.8496196836738035 0 -3.8496196836738035 7.9910398075033271 0 0 0 0 4.8133129277985383 -8.9624419864672973 0 -8.9624419864672973 14.688534428481944 0 0 0 0 -1.1187912080113165 -2.653945670776011 0 -2.653945670776011 3.9204517722537275 0 0 0 0 1.0317137648101955 -1.9379488336214834 0 -1.9379488336214834 6.6355355113963981 0 0 0 0 1.578300940045601 -7.1141209994798089 0 -7.1141209994798089 14.005787988050393 0 0 0 0 0.72935953880805116 -2.1650129205415851 0 -2.1650129205415851 5.3325909439663519 0 0 0 0 2.6131594172031791 -1.9107859845734811 0 -1.9107859845734811 3.24030715383347 0 0 0 0 8.336075313532092 -6.7631029369586031 0 -6.7631029369586031 1.9681493893949664 0 0 0 0 5.6996765521138926 -2.6485925155198373 0 -2.6485925155198373 -0.80367317241114478 0 0 0 0 12.26336957812191 -2.338216515025124 0 -2.338216515025124 3.7693706054305949 0 0 0 0 9.0611184355452679 -0.14013354971757508 0 -0.14013354971757508 10.605868620565161 0 0 0 0 18.836807611337917 -4.3278657910250331 0 -4.3278657910250331 2.4984887149767019 0 0 0 0 8.713441149245682 2.3711562843091087 0 2.3711562843091087 10.288248435457717 0 0 0 0 20.197327628003222 -2.5672454434716201 0 -2.5672454434716201 4.7394701319453816 0 0 0 0 6.8000591941245769 -4.8565206978769027 0 -4.8565206978769027 1.7607273907099454 0 0 0 0 19.54405430333054 -12.185549236215593 0 -12.185549236215593 4.1686907343719213 0 0 0 0 -41.77622293082004 -36.550568851653225 0 -36.550568851653225 15.697134059595555 0 0 0 0 15.222615837409705 -20.988495637210235 0 -20.988495637210235 -7.5447893289892818 0 0 0 0 15.086568894587542 -14.216120949081287 0 -14.216120949081287 11.592453920679191 0 0 0 0 -40.961480435832527 -41.075368669613908 0 -41.075368669613908 38.984261274439632 0 0 0 0 -6.8847926260318673 -24.930951801352421 0 -24.930951801352421 -1.6900346553920826 0 0 0 0 12.665055769996201 -42.380236008760448 0 -42.380236008760448 -9.8845383915941056 0 0 0 0 13.346229539553553 -12.277175061048432 0 -12.277175061048432 11.038289572316799 0 0 0 0 27.3953466013038 -13.436575652952797 0 -13.436575652952797 -8.0800612205712241 0 0 0 0 19.29206903072668 -8.0900595653656637 0 -8.0900595653656637 2.9105614850450365 0 0 0 0 42.013161468319822 -19.998307534719061 0 -19.998307534719061 9.0641588239050179 0 0 0 0 31.65742984630748 -12.294276021088081 0 -12.294276021088081 5.8557753813875024 0 0 0 0 21.795617189347126 -1.1198333547763468 0 -1.1198333547763468 51.977272629184881 0 0 0 0 47.246027095955924 -62.076123566417664 0 -62.076123566417664 104.2916519061182 0 0 0 0 35.557142016891476 -21.532382276051067 0 -21.532382276051067 35.269642875104182 0 0 0 0 40.929583115027299 -21.436676255785642 0 -21.436676255785642 32.522889007817867 0 0 0 0 22.781693794693638 1.7515400173215312 0 1.7515400173215312 11.854373153553752 0 0 0 0 1.6010372902102041 -12.086493745956247 0 -12.086493745956247 53.521377785684308 0 0 0 0 -0.36786505485153231 0.16386044073055217 0 0.16386044073055217 2.8149148675994553 0 0 0 0 2.6203579611892565 1.876029224593367 0 1.876029224593367 15.613486986818316 0 0 0 0 21.495223039384882 6.5810586680872802 0 6.5810586680872802 7.8485732930057566 0 0 0 0 25.500751095529267 -5.4857693041994935 0 -5.4857693041994935 5.5001070778498615 0 0 0 0 31.037720940787153 1.9899361058387512 0 1.9899361058387512 14.137602773160324 0 0 0 0 28.877077872992459 -5.1802798506910221 0 -5.1802798506910221 -7.5416973681749369 0 0 0 0 19.732349226282167 -14.272989223662989 0 -14.272989223662989 -4.7195193539228057 0 0 0 0 20.958042337067127 -4.0254156857154157 0 -4.0254156857154157 44.837466886678612 0 0 0 0 38.315212492194405 7.4324681245907414 0 7.4324681245907414 -5.4783555745743797 0 0 0 0 32.519107965851617 -12.6718068014452 0 -12.6718068014452 -18.651108974518138 0 0 0 0 13.130493868919984 -30.658698925629778 0 -30.658698925629778 16.541171537432092 0 0 0 0 99.901143382792725 1.0125450772429758 0 1.0125450772429758 27.472211337546469 0 0 0 0 16.51913384256568 -59.551708841354412 0 -59.551708841354412 29.618627055500838 0 0 0 0 6.406435363665878 -7.2531819447667658 0 -7.2531819447667658 -19.006913617969985 0 0 0 0 -12.784971542329913 -89.817223759970148 0 -89.817223759970148 -28.714352473982217 0 0 0 0 9.5585271458126044 -37.201932355710596 0 -37.201932355710596 22.134366652913741 0 0 0 0 -4.2004982387455811 -4.0514174997151713 0 -4.0514174997151713 122.40350601196042 0 0 0 0 -12.087431920489649 25.721168193917492 0 25.721168193917492 174.80353900975024 0 0 0 0 0.3468122995595877 -58.943299511169243 0 -58.943299511169243 -58.290358096608543 0 0 0 0 10.803833636286733 -10.054808356612909 0 -10.054808356612909 8.9701501908630661 0 0 0 0 -8.0522304585082338 -9.4032083844474528 0 -9.4032083844474528 -6.2793818692480272 0 0 0 0 6.4466933604712722 -43.800829084180805 0 -43.800829084180805 -40.325131744912142 0 0 0 0 7.3501620848866285 -6.8407514668265819 0 -6.8407514668265819 6.3937319176283438 0 0 0 0 -6.7945926927416167 -15.737803989282838 0 -15.737803989282838 225.68768712252859 0 0 0 0 6.4650986309126264 -14.353808325226094 0 -14.353808325226094 33.150695272455778 0 0 0 0 36.064027249462583 -67.151353140181527 0 -67.151353140181527 801.28689210754237 0 0 0 0 16.121049498492766 25.032848579439815 0 25.032848579439815 379.72428512782426 0 0 0 0 2.9243701109098819 -2.3590055853216469 0 -2.3590055853216469 2.4654580381943276 0 0 0 0 12.398689065985309 -17.305273789126659 0 -17.305273789126659 222.90855391559307 0 0 0 0 -19.898046920192655 5.3624854709669307 0 5.3624854709669307 330.89009929111126 0 0 0 0 -27.056079608412119 -50.329536673687471 0 -50.329536673687471 236.9892389744673 0 0 0 0 -25.95631257899991 -18.365574819078319 0 -18.365574819078319 273.39426063879728 0 0 0 0 -27.753247373844772 -81.748947657412828 0 -81.748947657412828 278.69133801800854 0 0 0 0 -20.031642936030948 -93.901008030110461 0 -93.901008030110461 367.23330193817492 0 0 0 0 -35.046907547009937 -90.283444718479132 0 -90.283444718479132 373.01532188110286 0 0 0 0 -20.925074228090125 -95.944896903023619 0 -95.944896903023619 359.25521438276519 0 0 0 0 -17.099880705836654 -88.428297066127016 0 -88.428297066127016 373.8638550797441 0 0 0 0 -16.880566408573486 -105.64138342428305 0 -105.64138342428305 386.96751935557404 0 0 0 0 73.940460648893804 -97.886974324115727 0 -97.886974324115727 326.14310834399657 0 0 0 0 116.05657784593086 -97.640554308050923 0 -97.640554308050923 325.89952659419214 0 0 0 0 20.932936618451322 -161.28547478528981 0 -161.28547478528981 508.25136021864455 0 0 0 0 41.392167570162613 -79.472936229427688 0 -79.472936229427688 116.04403143636227 0 0 0 0 71.157115562557465 -11.633250054408563 0 -11.633250054408563 35.090681035453599 0 0 0 0 71.035285288721752 -92.798235095155917 0 -92.798235095155917 131.20130818633334 0 0 0 0 18.626290251519322 -41.846460532746278 0 -41.846460532746278 142.4947552577396 0 0 0 0 12.52122072398447 -73.98956367707251 0 -73.98956367707251 152.79076182573772 0 0 0 0 14.276367243137884 -84.314276326238542 0 -84.314276326238542 223.80841256846907 0 0 0 0 -36.727045679747221 -111.98356124910697 0 -111.98356124910697 402.14259422191753 0 0 0 0 -71.661424553773941 -68.364297026426357 0 -68.364297026426357 387.90495085870498 0 0 0 0 9.9234862931589305 -118.04423838258845 0 -118.04423838258845 219.43616862660565 0 0 0 0 -21.7011518005977 -100.25681292721856 0 -100.25681292721856 455.72161914666913 0 0 0 0 53.550412435782846 -227.06418699362985 0 -227.06418699362985 438.69669125073051 0 0 0 0 192.47951819150148 -123.05533794261828 0 -123.05533794261828 72.602733224313852 0 0 0 0 178.47955500433295 -37.068034294956306 0 -37.068034294956306 802.48123992501496 0 0 0 0 63.274597809971397 -211.38930576534131 0 -211.38930576534131 597.77630619053525 0 0 0 0 -6.9737942915706981 -0.065885074587640702 0 -0.065885074587640702 638.27899098394846 0 0 0 0 259.13505044405429 -256.02739640465006 0 -256.02739640465006 648.29067539047537 0 0 0 0 -122.54196397433782 13.372689722824362 0 13.372689722824362 667.65627582759043 0 0 0 0 43.676433910485457 57.900738245869434 0 57.900738245869434 234.70030798295193 0 0 0 0 -33.542878319842202 -75.5107920914852 0 -75.5107920914852 490.39209630187179 0 0 0 0 -13.51607262228481 21.170306611224078 0 21.170306611224078 238.97488058291492 0 0 0 0 -41.688078166645937 84.762545984056487 0 84.762545984056487 468.55972973136613 0 0 0 0 -60.557534045535078 -8.5406690372137746 0 -8.5406690372137746 431.99911366929518 0 0 0 0 -61.427399885783984 -102.95884363283039 0 -102.95884363283039 504.2819383927017 0 0 0 0 -73.148526777411348 -47.793148736191142 0 -47.793148736191142 406.33314167520803 0 0 0 0 -53.559855538843294 -48.868415623640431 0 -48.868415623640431 269.57894678560115 0 0 0 0 -80.062816512946029 -23.793995244250254 0 -23.793995244250254 423.83604509647921 0 0 0 0 -22.407306151415924 28.517318798265478 0 28.517318798265478 215.75572815590385 0 0 0 0 40.493933222039914 -3.2259394006359798 0 -3.2259394006359798 4.5799387286315323 0 0 0 0 5.3560260022131843 -1.3403637432820688 0 -1.3403637432820688 3.623374382234033 0 0 0 0 -3.0259784847675064 -42.914184291783386 0 -42.914184291783386 134.24051869398681 0 0 0 0 -19.479049700865971 -27.016048844823672 0 -27.016048844823672 79.725360362022911 0 0 0 0 -77.898740080962853 -2.3892164844728541 0 -2.3892164844728541 44.550230111379278 0 0 0 0 15.394893613408158 -2.8509253452211851 0 -2.8509253452211851 32.1753417465643 0 0 0 0 -26.994396134085491 35.511327486660775 0 35.511327486660775 242.39872148381983 0 0 0 0 -29.660619647696194 29.734311774600428 0 29.734311774600428 240.50810445817478 0 0 0 0 -7.6993275415678113 3.4159687925607614 0 3.4159687925607614 97.119679060902854 0 0 0 0 22.610053361678638 -13.606799807127572 0 -13.606799807127572 237.83299765946867 0 0 0 0 35.894262596696876 -21.441130264484855 0 -21.441130264484855 200.08066577176942 0 0 0 0 23.793445221076809 -49.454427930664679 0 -49.454427930664679 281.45020924048004 0 0 0 0 41.333754664549247 -110.88383046285981 0 -110.88383046285981 344.46200400409361 0 0 0 0 -43.521781296808285 -30.993629591690478 0 -30.993629591690478 291.12313405007262 0 0 0 0 -23.08599214674382 -39.775477256571321 0 -39.775477256571321 399.29097564888616 0 0 0 0 -18.472385951858314 -90.092703888334654 0 -90.092703888334654 372.75159030593204 0 0 0 0 4.2806840614814519 -88.572842963494622 0 -88.572842963494622 353.67051902808271 0 0 0 0 29.237438785006816 -157.42778897307653 0 -157.42778897307653 179.14671396342965 0 0 0 0 -0.081576512368939577 -0.17850944835180904 0 -0.17850944835180904 2.0053047858303614 0 0 0 0 -14.220067026312336 -70.256612846274948 0 -70.256612846274948 30.940833848667353 0 0 0 0 -108.38215422275515 93.635257915846779 0 93.635257915846779 222.78338197033736 0 0 0 0 17.950935913376952 13.87152397857335 0 13.87152397857335 142.17390500749752 0 0 0 0 26.003010509091609 4.4595870111043041 0 4.4595870111043041 7.7110752872758894 0 0 0 0 50.582669537372567 -18.079363906890649 0 -18.079363906890649 53.080063349480042 0 0 0 0 15.104104562797602 -22.889807730371103 0 -22.889807730371103 200.01545116743364 0 0 0 0 40.778773029061199 -5.1399306809189511 0 -5.1399306809189511 134.69043971685096 0 0 0 0 36.318838811886508 -49.101586340108042 0 -49.101586340108042 49.951204246775887 0 0 0 0 6.6304791849961475 -61.599168360706244 0 -61.599168360706244 54.788529261171561 0 0 0 0 33.408691477927903 -61.277914118085164 0 -61.277914118085164 54.763497368738172 0 0 0 0 32.55575273833594 -53.156740294704377 0 -53.156740294704377 47.220469042746117 0 0 0 0 39.506102868515882 -54.920191228022304 0 -54.920191228022304 43.439667268335143 0 0 0 0 34.515624601537183 -47.961973302768456 0 -47.961973302768456 64.439200813644675 0 0 0 0 50.253187397636793 -39.686028926525978 0 -39.686028926525978 45.575793000105477 0 0 0 0 29.240550810102377 -31.825471360272786 0 -31.825471360272786 24.492648820421891 0 0 0 0 21.352678808083283 -84.215084684035901 0 -84.215084684035901 62.302358391010785 0 0 0 0 27.060934762634133 -76.428056152260979 0 -76.428056152260979 24.821192570383886 0 0 0 0 39.719880721256686 -51.347676271736418 0 -51.347676271736418 -14.099348895158982 0 0 0 0 -110.91680424345441 -18.227598715815475 0 -18.227598715815475 38.084273812724859 0 0 0 0 -0.17791479296737725 -0.44778119282823869 0 -0.44778119282823869 3.6736432344744685 0 0 0 0 -82.56290899275993 -24.489675144267068 0 -24.489675144267068 7.8130707125746994 0 0 0 0 -2.8746273238446065 -6.3930842628888058 0 -6.3930842628888058 -31.517900214959809 0 0 0 0 -62.616986061431362 -54.115513729599115 0 -54.115513729599115 228.43661935907949 0 0 0 0 -95.613001048627453 28.22094474694731 0 28.22094474694731 90.063650230775238 0 0 0 0 -0.0412491882268059 -0.26278044342763263 0 -0.26278044342763263 1.6682159120542224 0 0 0 0 14.943272775307378 -69.780726111021067 0 -69.780726111021067 213.02746653742179 0 0 0 0 41.725098568330509 -5.9979212449825354 0 -5.9979212449825354 161.67273326087161 0 0 0 0 -8.4023045170506521 13.277227171729464 0 13.277227171729464 210.19705283828876 0 0 0 0 -12.667944450535515 -1.8119266611920466 0 -1.8119266611920466 157.18363956437679 0 0 0 0 -0.67450804645886819 -93.525691902905237 0 -93.525691902905237 218.37785919110593 0 0 0 0 72.393259137806822 -116.98808584832821 0 -116.98808584832821 77.456132600520505 0 0 0 0 -2.3531600904096308 -77.184776604156923 0 -77.184776604156923 96.750789247947978 0 0 0 0 4.2841639277789909 -68.916623377706856 0 -68.916623377706856 80.549543301331141 0 0 0 0 6.8886953736264331 -66.404142883178793 0 -66.404142883178793 70.269839861532091 0 0 0 0 -14.233396768862349 -48.453622461678606 0 -48.453622461678606 90.894382479949854 0 0 0 0 -21.834681803623425 -44.783484399312783 0 -44.783484399312783 93.006567654811079 0 0 0 0 -20.737964206278775 -58.456634462967486 0 -58.456634462967486 164.75053573449259 0 0 0 0 -26.066879663695545 9.1582009534686222 0 9.1582009534686222 150.9878373783522 0 0 0 0 -16.894086213344963 -14.2097611071149 0 -14.2097611071149 179.22375577447656 0 0 0 0 -29.16545727136554 17.370593592444493 0 17.370593592444493 183.67007279753307 0 0 0 0 -25.915807343218951 -2.9317518035012426 0 -2.9317518035012426 128.74904189973313 0 0 0 0 -65.291118099208688 14.736904165089072 0 14.736904165089072 129.2120984880894 0 0 0 0 -29.187405507216909 55.930536244874929 0 55.930536244874929 -7.3068545256828656 0 0 0 0 -0.29953799787122826 0.11021997139695827 0 0.11021997139695827 0.91439869269926533 0 0 0 0 -2.1445643366660079 -63.415076983364997 0 -63.415076983364997 238.24102967239378 0 0 0 0 -23.50518176058722 -1.3213593221007613 0 -1.3213593221007613 211.65231971442699 0 0 0 0 -17.814281170781214 -13.472285369338351 0 -13.472285369338351 204.41534689001128 0 0 0 0 11.114519935156295 -30.263878287279113 0 -30.263878287279113 194.41942195454612 0 0 0 0 -0.011706211819367596 0.032070857948937714 0 0.032070857948937714 0.16849055248235345 0 0 0 0 -6.1882120632610622 -30.861113491341712 0 -30.861113491341712 56.816689067236439 0 0 0 0 -6.1788410819717683 -18.863080169983732 0 -18.863080169983732 16.370620876466091 0 0 0 0 25.019040475325482 -45.365154155191703 0 -45.365154155191703 57.753560209537682 0 0 0 0 -43.60686575482714 -63.412890636700467 0 -63.412890636700467 -82.166304503894935 0 0 0 0 -97.254579641175951 10.674318121982651 0 10.674318121982651 19.134040265664225 0 0 0 0 -0.2746445763927019 -1.0797756745408549 0 -1.0797756745408549 2.1880893705761082 0 0 0 0 0.50644037691833277 -2.4757538596264155 0 -2.4757538596264155 6.240013824095513 0 0 0 0 -0.60851776909862565 -2.0817835228881449 0 -2.0817835228881449 5.2589405207254458 0 0 0 0 -28.130668882868349 -57.827326122082013 0 -57.827326122082013 -40.297849647631665 0 0 0 0 -48.227359349505832 -60.596167991867333 0 -60.596167991867333 -34.568624253843154 0 0 0 0 -74.666902996354906 -56.623216343272361 0 -56.623216343272361 -22.915252054124721 0 0 0 0 -12.481944029786746 -8.6532258332099445 0 -8.6532258332099445 1.7836100648637512 0 0 0 0 19.352000356069311 -15.662629106624081 0 -15.662629106624081 -11.3822414656006 0 0 0 0 -42.67624015657475 7.7701682143379003 0 7.7701682143379003 21.080420549893461 0 0 0 0 25.717287669627012 6.9827266404827242 0 6.9827266404827242 -22.918574877487117 0 0 0 0 12.69678920931301 -48.91598596102267 0 -48.91598596102267 46.83474039434077 0 0 0 0 -2.6141663219987095 5.2682049778541113 0 5.2682049778541113 -14.957683126187476 0 0 0 0 -21.76420942632376 -69.463654799779761 0 -69.463654799779761 -60.478085529663076 0 0 0 0 -26.18208580330986 23.654941643012535 0 23.654941643012535 -41.70341028956318 0 0 0 0 0.15959357608107894 -18.098772542105507 0 -18.098772542105507 30.266252234658168 0 0 0 0 25.130006964980566 -98.866497335602617 0 -98.866497335602617 64.161545210110489 0 0 0 0 -57.12896817841829 -16.528975050756344 0 -16.528975050756344 113.47307683949839 0 0 0 0 -46.417299688708454 -87.419655683526798 0 -87.419655683526798 261.85018483876775 0 0 0 0 -54.592826239730584 -16.356605820838013 0 -16.356605820838013 266.97637524699394 0 0 0 0 67.615299879849772 254.85441109582371 0 254.85441109582371 450.74209845195583 0 0 0 0 0.00034519146357592234 -0.48639885259712656 0 -0.48639885259712656 3.1161174502613278 0 0 0 0 67.891327900218357 -217.18250857953899 0 -217.18250857953899 205.26601129662231 0 0 0 0 -37.510539351082116 -21.363862657352001 0 -21.363862657352001 47.46031387115363 0 0 0 0 -38.177454115103046 -27.413148804844241 0 -27.413148804844241 40.161235927647795 0 0 0 0 -0.055146181288109553 -2.3293908809104309 0 -2.3293908809104309 7.2413865417571799 0 0 0 0 41.728677115336666 19.453839328974937 0 19.453839328974937 43.244228028204816 0 0 0 0 0.82995707899085325 -1.9768811780787843 0 -1.9768811780787843 1.2853538979251766 0 0 0 0 -27.030732813562963 -7.9554490114660439 0 -7.9554490114660439 149.11630406852782 0 0 0 0 -14.336632606676858 69.831736281194026 0 69.831736281194026 142.71917981048955 0 0 0 0 -38.37099018452875 118.42792232229112 0 118.42792232229112 388.61183893168345 0 0 0 0 -38.568061949426053 96.737634792875724 0 96.737634792875724 409.99541977787885 0 0 0 0 38.498636317607577 153.47811489188098 0 153.47811489188098 350.36396640680323 0 0 0 0 -10.656226286317732 54.532117607168402 0 54.532117607168402 528.25181519913895 0 0 0 0 -34.341722397698305 243.74267660057194 0 243.74267660057194 783.52723248003485 0 0 0 0 -83.152679693581717 -305.08530193335537 0 -305.08530193335537 650.84090051073872 0 0 0 0 -36.76235078954079 75.615971284862098 0 75.615971284862098 -49.494272164163704 0 0 0 0 1.7332936339569813 1.216966355454133 0 1.216966355454133 1.9042211035861669 0 0 0 0 32.31897649290363 -26.932604004112363 0 -26.932604004112363 109.67683815673809 0 0 0 0 -74.859553718874224 48.078986419539433 0 48.078986419539433 5.816581331047928 0 0 0 0 12.654155973973502 -142.96866362719084 0 -142.96866362719084 212.2817964768692 0 0 0 0 -62.64665949913126 3.4860320566622249 0 3.4860320566622249 503.43984840681333 0 0 0 0 0.5496030125584499 0.7236151083030955 0 0.7236151083030955 0.43559142158420627 0 0 0 0 -0.080464082331517958 -0.88792095452013431 0 -0.88792095452013431 6.0491677626643536 0 0 0 0 -0.69886165054390403 -2.7185650317369436 0 -2.7185650317369436 6.5485203502048535 0 0 0 0 -65.163891652656503 8.2789079700578441 0 8.2789079700578441 48.425113514331315 0 0 0 0 -23.42920701054652 33.43623440436204 0 33.43623440436204 -33.840654319006717 0 0 0 0 -8.9411708641589485 -20.369046332176367 0 -20.369046332176367 38.649629759209347 0 0 0 0 80.316104460572888 -121.4814511715922 0 -121.4814511715922 58.234861390385049 0 0 0 0 16.580166224179493 13.682600975695095 0 13.682600975695095 -0.22547014939118526 0 0 0 0 68.909044278050203 -112.98003651776344 0 -112.98003651776344 260.90889903980133 0 0 0 0 64.220438237082703 -95.944607192174772 0 -95.944607192174772 115.29919453102048 0 0 0 0 62.003106294243253 -84.413054086233387 0 -84.413054086233387 142.88105108238233 0 0 0 0 6.3534627496229632 12.648789081897121 0 12.648789081897121 96.704359204216416 0 0 0 0 102.19201259674747 18.886730046091543 0 18.886730046091543 19.322970884939423 0 0 0 0 125.84041012248025 50.232783542109246 0 50.232783542109246 178.0620262122975 0 0 0 0 108.97575670380485 18.549993596388958 0 18.549993596388958 155.24771874291037 0 0 0 0 104.18178844369797 5.7971443427741178 0 5.7971443427741178 87.233165226083656 0 0 0 0 106.61169875328149 187.91229932779788 0 187.91229932779788 341.17256618319516 0 0 0 0 201.3837970072741 208.60206394378474 0 208.60206394378474 98.123351423417716 0 0 0 0 146.4376566154333 91.665721505094552 0 91.665721505094552 -137.56973143674986 0 0 0 0 -10.193067359421093 -30.185267625995039 0 -30.185267625995039 4.9955138258010265 0 0 0 0 57.700240303874992 69.685063582459406 0 69.685063582459406 673.02075224267355 0 0 0 0 1.2847039142828867 1.0387332773481432 0 1.0387332773481432 0.71755796429609831 0 0 0 0 135.5466683047373 194.03904869468352 0 194.03904869468352 626.48225699686009 0 0 0 0 -39.745703454248691 -196.85826176970932 0 -196.85826176970932 173.29323445600312 0 0 0 0 129.30250492231693 -27.435519237242261 0 -27.435519237242261 322.94198093773593 0 0 0 0 184.0708224041114 -13.555238409533558 0 -13.555238409533558 149.94955551532621 0 0 0 0 114.35777526600307 138.55927277580849 0 138.55927277580849 206.43219853908886 0 0 0 0 107.76916234189359 14.952001436999126 0 14.952001436999126 109.21975714529617 0 0 0 0 117.42744304834071 51.617825411696685 0 51.617825411696685 161.89448447452014 0 0 0 0 -15.107433184515031 19.071763202091461 0 19.071763202091461 120.93523724700935 0 0 0 0 89.268892349826217 66.138823705945924 0 66.138823705945924 88.35497130794829 0 0 0 0 133.50451283778085 242.10657596342025 0 242.10657596342025 321.64268341313436 0 0 0 0 91.360038179902745 71.289887716066005 0 71.289887716066005 251.03495679814387 0 0 0 0 95.25667165153871 145.36907760369832 0 145.36907760369832 233.1680075860786 0 0 0 0 0.16740194278020767 40.238622161414241 0 40.238622161414241 40.340819991837634 0 0 0 0 -0.026244636204231508 -0.073249003515659439 0 -0.073249003515659439 2.6784475830276619 0 0 0 0 -32.632707257806842 -173.45736395241693 0 -173.45736395241693 218.75297846565263 0 0 0 0 -0.28532488896705482 56.73026342414596 0 56.73026342414596 482.00614033355123 0 0 0 0 84.72314977407413 -46.359965747113165 0 -46.359965747113165 409.56020434914535 0 0 0 0 125.15596094185324 -41.572369303903542 0 -41.572369303903542 379.34677294956782 0 0 0 0 115.4972559888669 21.923706719001302 0 21.923706719001302 463.44501218866935 0 0 0 0 73.317347277057053 38.25630880103563 0 38.25630880103563 211.2022358959257 0 0 0 0 62.411495626863911 -19.119085655795061 0 -19.119085655795061 463.58137572857231 0 0 0 0 56.294728756344057 17.013326479449461 0 17.013326479449461 368.58957918514352 0 0 0 0 81.933326033256449 -82.944710138624941 0 -82.944710138624941 329.02176763212356 0 0 0 0 49.389326883327961 -90.947524163342223 0 -90.947524163342223 362.89755266826978 0 0 0 0 53.04976347284726 -103.52883657270877 0 -103.52883657270877 321.50506845944619 0 0 0 0 55.38090092587521 -137.2562699548489 0 -137.2562699548489 302.05812663882534 0 0 0 0 40.861608446631578 -135.42577712910861 0 -135.42577712910861 349.91871347675078 0 0 0 0 52.017279357235445 -107.62765493754523 0 -107.62765493754523 418.76923654488928 0 0 0 0 1.3937705057238077 -194.1035895813493 0 -194.1035895813493 361.43784775501263 0 0 0 0 46.881634627830017 -70.534883113502474 0 -70.534883113502474 520.42658681804096 0 0 0 0 0.67970068176646858 -14.573784720565527 0 -14.573784720565527 453.16514995070065 0 0 0 0 44.624635707779191 -88.009568678884534 0 -88.009568678884534 387.78868388946648 0 0 0 0 46.470596019792069 -159.7016663672548 0 -159.7016663672548 400.52494358172135 0 0 0 0 45.835676956957499 -160.07772293718517 0 -160.07772293718517 409.99460387560976 0 0 0 0 83.338192302105227 -252.98104221208268 0 -252.98104221208268 426.69741068038638 0 0 0 0 27.834794170069941 -189.28880924766418 0 -189.28880924766418 543.22795815227892 0 0 0 0 -0.027847634490742443 -0.14457726997543929 0 -0.14457726997543929 1.6960940955668491 0 0 0 0 -0.012624528950861764 2.262650180669997 0 2.262650180669997 -1.5892894672724651 0 0 0 0 97.123393733690634 -249.65279402118176 0 -249.65279402118176 297.93486423385184 0 0 0 0 -31.83303347476479 44.422822823340539 0 44.422822823340539 25.775972897597967 0 0 0 0 -21.055948411939962 6.3665557151343819 0 6.3665557151343819 -1.3205764671001816 0 0 0 0 -86.193666288087854 22.068359666021934 0 22.068359666021934 18.754302391826059 0 0 0 0 -7.7390233975265694 10.4204990188191 0 10.4204990188191 7.7014501963876683 0 0 0 0 0.022451817423910822 2.2633006053365534 0 2.2633006053365534 -1.5902199697156902 0 0 0 0 -0.14800578119402041 0.34328577102421676 0 0.34328577102421676 2.7774071253159605 0 0 0 0 -53.194230596412922 -147.85219346304439 0 -147.85219346304439 354.46433754682948 0 0 0 0 12.172116989675857 -183.96572714278955 0 -183.96572714278955 370.94258268136036 0 0 0 0 17.284099548133923 -159.23680825911651 0 -159.23680825911651 419.26430877457096 0 0 0 0 -0.056367272773377053 0.2506909547646643 0 0.2506909547646643 1.6069391679247929 0 0 0 0 86.590067429928325 -248.07706835830322 0 -248.07706835830322 365.19779212673166 0 0 0 0 -31.370667751398344 5.8892831930497778 0 5.8892831930497778 -1.1797072267290787 0 0 0 0 57.358650158649922 -170.23277965002308 0 -170.23277965002308 159.34853442654276 0 0 0 0 -62.470231678996754 -28.951449231786683 0 -28.951449231786683 328.79599944917209 0 0 0 0 -39.657508448921909 -218.29174606969809 0 -218.29174606969809 363.27824896370657 0 0 0 0 4.6262145175134037 -193.21966118652563 0 -193.21966118652563 373.9348905801794 0 0 0 0 3.3684799676700763 -220.50224675332856 0 -220.50224675332856 547.28223068959778 0 0 0 0 105.98016559249675 -272.86882729675926 0 -272.86882729675926 397.54510833933455 0 0 0 0 111.32368357068674 -144.31149687690049 0 -144.31149687690049 410.09274256720164 0 0 0 0 7.7171439350434525 -133.59537644384181 0 -133.59537644384181 456.22488896329014 0 0 0 0 406.4576348932726 -239.02722822154828 0 -239.02722822154828 554.79552464729386 0 0 0 0 107.69717142801028 -160.59366037221116 0 -160.59366037221116 628.93241378339735 0 0 0 0 508.71564424911526 -127.04775138799414 0 -127.04775138799414 521.26096223213244 0 0 0 0 493.2567368100008 -116.15705829063518 0 -116.15705829063518 526.67507563358595 0 0 0 0 698.15830365179158 -399.05295277118421 0 -399.05295277118421 239.90304912746069 0 0 0 0 334.44006674285288 -86.948812213126075 0 -86.948812213126075 861.70185222283908 0 0 0 0 381.74766862154343 -523.0310438552151 0 -523.0310438552151 802.42831078577728 0 0 0 0 282.91287583331882 -221.21538199987117 0 -221.21538199987117 534.88795496054445 0 0 0 0 307.39848726628497 -334.30985785066332 0 -334.30985785066332 375.44002208281017 0 0 0 0 109.28165110207351 -302.57117201207802 0 -302.57117201207802 663.94073380381451 0 0 0 0 189.73410496851574 -247.05386475855084 0 -247.05386475855084 174.61718362141255 0 0 0 0 206.991952985647 -328.91736283138016 0 -328.91736283138016 375.966906322873 0 0 0 0 176.76046457088989 -29.842461986270791 0 -29.842461986270791 -22.036251762209758 0 0 0 0 167.93728117316982 -225.5675541935143 0 -225.5675541935143 196.05423171469738 0 0 0 0 -0.0020459690425375099 -0.90188542423384632 0 -0.90188542423384632 4.6263438397315895 0 0 0 0 -122.56900058459951 179.30792701189421 0 179.30792701189421 300.20368157406483 0 0 0 0 -0.91412980027867774 1.0099165087624868 0 1.0099165087624868 0.65019022411536298 0 0 0 0 505.1521387195412 -275.94758128246394 0 -275.94758128246394 18.313397588462976 0 0 0 0 31.709382674743438 -24.795760091506963 0 -24.795760091506963 -87.396569582953816 0 0 0 0 -142.48206091694692 -118.68813520926142 0 -118.68813520926142 35.396647679102898 0 0 0 0 -5.0232367441665247 -1.6806574222500785 0 -1.6806574222500785 6.1427660044391814 0 0 0 0 -0.007547144289588012 -1.6988011620117813 0 -1.6988011620117813 4.812435421767816 0 0 0 0 -12.901572678385065 -54.577215960912099 0 -54.577215960912099 98.459786036044534 0 0 0 0 -0.40814131793795938 -0.85644685370784046 0 -0.85644685370784046 6.0690096850534587 0 0 0 0 74.063480449024269 -109.37659669557615 0 -109.37659669557615 93.878155499012792 0 0 0 0 81.847620544256188 -203.7471312238049 0 -203.7471312238049 262.88617676001741 0 0 0 0 21.68197862075283 -233.05586518040218 0 -233.05586518040218 379.18548976736042 0 0 0 0 67.612802606734306 -224.42173467426437 0 -224.42173467426437 250.2683079031267 0 0 0 0 98.7157908873927 -295.14233292515928 0 -295.14233292515928 407.04776728815523 0 0 0 0 47.227350206025676 109.56860480393789 0 109.56860480393789 -105.06737296698202 0 0 0 0 4.3623929991294972 100.31833171759854 0 100.31833171759854 -18.084434867105529 0 0 0 0 -0.10365230668923686 2.5006236095112708 0 2.5006236095112708 -0.23339320485390225 0 0 0 0 -1.9917375808799989 21.225315298941496 0 21.225315298941496 -34.49697762031883 0 0 0 0 10.886450492599579 78.580996755246815 0 78.580996755246815 54.033391671342542 0 0 0 0 19.150221480644632 3.6701938903624978 0 3.6701938903624978 375.36764666290583 0 0 0 0 57.55328277157389 66.335754156828671 0 66.335754156828671 -102.90386402056811 0 0 0 0 0.40912078876619162 1.966140447037322 0 1.966140447037322 0.92123005210850373 0 0 0 0 83.024128998416927 121.44932283149865 0 121.44932283149865 -12.541949552492042 0 0 0 0 -25.166307430956607 79.826356374427633 0 79.826356374427633 166.03714805328855 0 0 0 0 29.068864496927972 -14.88786503830579 0 -14.88786503830579 114.79822207838424 0 0 0 0 -74.997465702692125 31.326272466760201 0 31.326272466760201 100.80039027381827 0 0 0 0 -53.600640806215665 63.782965884835448 0 63.782965884835448 81.519918355403206 0 0 0 0 -64.708425060953346 32.659933669012389 0 32.659933669012389 51.156777924336893 0 0 0 0 -27.031980548642622 47.313511844813547 0 47.313511844813547 25.099174348382803 0 0 0 0 -64.017075005852348 36.335880120342608 0 36.335880120342608 66.111109720985496 0 0 0 0 -65.206211985071604 32.931551232042693 0 32.931551232042693 68.050049487279466 0 0 0 0 -74.470077829094407 24.516770802180872 0 24.516770802180872 61.391118639654451 0 0 0 0 -11.500838186794681 -22.970187411207917 0 -22.970187411207917 151.21515771637951 0 0 0 0 2.3217124364284576 0.7733362471865739 0 0.7733362471865739 15.503226563472889 0 0 0 0 -57.317188067954703 33.631385750626578 0 33.631385750626578 56.809987263839503 0 0 0 0 -23.97168089013212 -43.579699488514962 0 -43.579699488514962 121.75458939423879 0 0 0 0 -41.447486854414137 13.633155376022842 0 13.633155376022842 -0.33808653502046582 0 0 0 0 76.361876359878622 -67.94376877150637 0 -67.94376877150637 216.57496275357335 0 0 0 0 8.6427946735860672 27.110862276438183 0 27.110862276438183 219.22820233606217 0 0 0 0 -35.440598716889667 -29.389650616417384 0 -29.389650616417384 18.402215338808219 0 0 0 0 0.90742414268038418 2.9487894921110804 0 2.9487894921110804 5.141460206018527 0 0 0 0 -57.118511599339854 68.651239730326324 0 68.651239730326324 140.061909574124 0 0 0 0 -6.7348673246714199 10.88131176123723 0 10.88131176123723 94.220997387462262 0 0 0 0 -13.336255135962006 54.24950974187675 0 54.24950974187675 72.629161023478446 0 0 0 0 48.831453415140459 -4.4767851288470411 0 -4.4767851288470411 112.23416878733588 0 0 0 0 -8.4343778290467526 15.013367593001931 0 15.013367593001931 195.19029999431586 0 0 0 0 -15.881683703434192 71.524657252907673 0 71.524657252907673 140.0763991561098 0 0 0 0 -31.233048184065865 -11.956323164641617 0 -11.956323164641617 16.789432822362869 0 0 0 0 -17.153071239489684 9.9236585461746465 0 9.9236585461746465 78.116716186700387 0 0 0 0 -4.5640385363549285 -9.4016967427464806 0 -9.4016967427464806 89.519171650244061 0 0 0 0 -4.3923098966261023 -8.0463157702315584 0 -8.0463157702315584 73.372198071669118 0 0 0 0 -8.0031529139560273 -9.5208486565271251 0 -9.5208486565271251 42.775528080850648 0 0 0 0 -7.8158919379402505 -10.460449932637857 0 -10.460449932637857 19.718517809145851 0 0 0 0 -31.750073792878766 -17.37039750396616 0 -17.37039750396616 71.992650620655695 0 0 0 0 0.70472150517791565 2.8687695952258885 0 2.8687695952258885 8.8777795243705278 0 0 0 0 -45.784246901848562 3.5083843755880935 0 3.5083843755880935 82.743910182567561 0 0 0 0 1.5901398166831768 27.20580381831769 0 27.20580381831769 84.318972160160229 0 0 0 0 40.48942984420637 5.6502658528843313 0 5.6502658528843313 62.496310184955746 0 0 0 0 35.951696247100926 -0.34843813521774791 0 -0.34843813521774791 81.15802954256651 0 0 0 0 39.667709184123396 -0.031805491214981885 0 -0.031805491214981885 65.513878126849704 0 0 0 0 -78.411349880453599 -72.625299837312923 0 -72.625299837312923 349.09202937201644 0 0 0 0 -68.416547026030457 -47.521315562440577 0 -47.521315562440577 105.07420868956365 0 0 0 0 119.95997903074044 57.682954679791237 0 57.682954679791237 104.49191937150317 0 0 0 0 4.5605818558599367 73.898040043710353 0 73.898040043710353 304.19202263470743 0 0 0 0 -0.30608604497410852 -7.7329607761898842 0 -7.7329607761898842 117.74866013293695 0 0 0 0 92.644456759371224 -14.193895133121259 0 -14.193895133121259 58.919443362200582 0 0 0 0 25.541613135514126 -27.435754909133266 0 -27.435754909133266 80.041386629377939 0 0 0 0 56.105006494029567 2.4825399711671707 0 2.4825399711671707 59.361090282544865 0 0 0 0 36.856583746318847 -12.547953400851839 0 -12.547953400851839 49.514250650528993 0 0 0 0 12.397183267150695 -2.8638275835260174 0 -2.8638275835260174 46.733282768580466 0 0 0 0 -27.76718535261989 2.9932196847817067 0 2.9932196847817067 41.71402985081204 0 0 0 0 -12.683213154388795 -24.743485006632 0 -24.743485006632 74.129685194846388 0 0 0 0 -38.199781579057344 -30.172553882769535 0 -30.172553882769535 48.994505702016568 0 0 0 0 -55.445299540200267 3.1673854474416885 0 3.1673854474416885 24.681300406845367 0 0 0 0 -21.673621640119563 1.3957458721779403 0 1.3957458721779403 24.75406369297167 0 0 0 0 -46.305234603789245 -19.060981991409562 0 -19.060981991409562 18.528506193240901 0 0 0 0 -41.551865332632588 1.0279150674423363 0 1.0279150674423363 14.31032834637881 0 0 0 0 -54.684636035019139 20.0209519909954 0 20.0209519909954 18.852120043493414 0 0 0 0 -28.729071800613383 21.49482124186261 0 21.49482124186261 29.64248633427087 0 0 0 0 -43.922469187205934 38.467378414797167 0 38.467378414797167 35.904033567022907 0 0 0 0 -12.800712932209876 36.508119346992203 0 36.508119346992203 41.301381060982749 0 0 0 0 -1.2458008867288299 -1.7985108768032205 0 -1.7985108768032205 15.272934100508337 0 0 0 0 -1.5543885772548585 -0.80732270190953148 0 -0.80732270190953148 11.953043579160752 0 0 0 0 -23.982284537027226 10.32865082644912 0 10.32865082644912 13.190406195558353 0 0 0 0 8.2411137564231467 -4.1914120824958445 0 -4.1914120824958445 15.391596961620962 0 0 0 0 -0.70862741449309397 -1.7359083806531999 0 -1.7359083806531999 8.1285934414863732 0 0 0 0 -0.601486808819093 1.0714639763512412 0 1.0714639763512412 1.825758865322086 0 0 0 0 -10.131644446860264 -8.0805968848967495 0 -8.0805968848967495 9.3799244496431129 0 0 0 0 -0.5128639031222253 1.4208271183495134 0 1.4208271183495134 7.2587519081874028 0 0 0 0 -6.178091162999408 7.12965389559713 0 7.12965389559713 11.589088099595756 0 0 0 0 -0.87144625292421551 2.5513080968939903 0 2.5513080968939903 10.86854294736986 0 0 0 0 -1.4535060532174953 -0.63055562799038034 0 -0.63055562799038034 2.5597863691687444 0 0 0 0 0.90367025436225745 -0.62231946099827429 0 -0.62231946099827429 2.8318523476267625 0 0 0 0 4.2734855736889585 8.9382875247706579 0 8.9382875247706579 -3.4087492921071316 0 0 0 0 -5.6100799806467876 3.9166768527894646 0 3.9166768527894646 18.14237186810351 0 0 0 0 7.0550391115239108 -1.053827495221185 0 -1.053827495221185 8.3407715575995098 0 0 0 0 0.38697796117712357 0.48723910947999105 0 0.48723910947999105 0.48462756068934887 0 0 0 0 24.860040121308884 -55.826327942896683 0 -55.826327942896683 439.65098185381703 0 0 0 0 0.57776797567748872 -5.0343696075838125 0 -5.0343696075838125 15.016062448177536 0 0 0 0 84.161019652021423 -121.12277589980567 0 -121.12277589980567 413.85712782790142 0 0 0 0 -1.6967710593612537 -2.1243875153581939 0 -2.1243875153581939 10.111953650275609 0 0 0 0 1.2547792334836245 0.17901064129758648 0 0.17901064129758648 1.3519446367658325 0 0 0 0 -0.21720400612684898 -1.5886297782162728 0 -1.5886297782162728 7.9047002237780362 0 0 0 0 -0.12525049245293118 1.6016296220976209 0 1.6016296220976209 7.3812476624958059 0 0 0 0 -58.692113488654286 -154.34656220288616 0 -154.34656220288616 737.31431302380497 0 0 0 0 129.87625889670562 -130.11971803213055 0 -130.11971803213055 -394.68192989838462 0 0 0 0 1.9922805341221377 -0.58962947839464519 0 -0.58962947839464519 0.25406402990799837 0 0 0 0 -32.502226945036455 -30.301693388395506 0 -30.301693388395506 622.96757878959306 0 0 0 0 -26.956096721631639 45.878077677336478 0 45.878077677336478 21.00874340937753 0 0 0 0 -21.812222620722878 40.635371861308158 0 40.635371861308158 -19.751921782029967 0 0 0 0 -23.912334505027502 19.359530817930136 0 19.359530817930136 17.413433377710589 0 0 0 0 -13.611996093545713 -1.4039041978667228 0 -1.4039041978667228 13.452635958394922 0 0 0 0 2.1128656029680091 3.2524330465937084 0 3.2524330465937084 2.5344507355215651 0 0 0 0 72.880639652168611 13.333492264076995 0 13.333492264076995 328.77359573560716 0 0 0 0 6.3548101945470989 -33.537104761133378 0 -33.537104761133378 274.58187756516418 0 0 0 0 -13.248441527561226 3.9938609986638767 0 3.9938609986638767 336.86818525355193 0 0 0 0 171.51568061873331 -327.93317118271261 0 -327.93317118271261 509.67988791109872 0 0 0 0 11.170115960565454 -190.72676859082094 0 -190.72676859082094 505.55969684587944 0 0 0 0 0.46711259698830254 -0.39742366098536852 0 -0.39742366098536852 0.1274563760560703 0 0 0 0 -45.313984299199547 -248.59168671468751 0 -248.59168671468751 34.089650667745445 0 0 0 0 -24.345121206697513 -130.60142846015151 0 -130.60142846015151 361.86395483591741 0 0 0 0 24.395824925276429 -62.243643249001252 0 -62.243643249001252 173.75080296324813 0 0 0 0 26.367427836677052 -43.881702484114612 0 -43.881702484114612 279.62829216229056 0 0 0 0 34.710100018219919 -30.89472177578682 0 -30.89472177578682 188.93435955996938 0 0 0 0 58.443684940190451 5.1057617182245849 0 5.1057617182245849 201.444003757053 0 0 0 0 60.181597132869229 -9.6861873273828678 0 -9.6861873273828678 112.6998082518403 0 0 0 0 54.239085815446742 -0.79038374425363145 0 -0.79038374425363145 99.410859790316863 0 0 0 0 49.690290439724777 -92.978153937205207 0 -92.978153937205207 148.61267847127601 0 0 0 0 52.699014065613937 -84.098520922223088 0 -84.098520922223088 -49.886212637593417 0 0 0 0 38.431935265750326 -12.420001411092926 0 -12.420001411092926 102.9248990492124 0 0 0 0 46.698471894883369 2.8737106168628088 0 2.8737106168628088 4.484236550051719 0 0 0 0 45.478093818610887 20.975151853170701 0 20.975151853170701 139.1489818404043 0 0 0 0 20.278420857504898 4.4341659836677536 0 4.4341659836677536 125.26368860328876 0 0 0 0 51.589955642257337 26.867251061890784 0 26.867251061890784 80.306776885086947 0 0 0 0 42.629087867853741 1.661886926047373 0 1.661886926047373 185.43511079753262 0 0 0 0 59.164372340243062 10.417872756116594 0 10.417872756116594 145.24330529673352 0 0 0 0 64.242265806351725 -6.5000960966303865 0 -6.5000960966303865 121.164770230258 0 0 0 0 55.522735716785064 117.48397072467696 0 117.48397072467696 -261.30426254111262 0 0 0 0 -75.334135868120484 94.344390525045583 0 94.344390525045583 41.085544467980071 0 0 0 0 34.13012608391 18.102586499691824 0 18.102586499691824 -31.390236454931625 0 0 0 0 -2.5756889038584632 -65.33346097282265 0 -65.33346097282265 -33.753423919284614 0 0 0 0 14.368405859228005 2.7545979065580468 0 2.7545979065580468 10.752415537107481 0 0 0 0 5.4482858709097854 27.442961188495246 0 27.442961188495246 102.77531184276631 0 0 0 0 22.444664886857936 32.053508912998041 0 32.053508912998041 201.12692506435451 0 0 0 0 66.594449324873494 -60.250326012457663 0 -60.250326012457663 195.83119182464361 0 0 0 0 -52.840614500019001 37.305296254589848 0 37.305296254589848 130.13590058649788 0 0 0 0 46.190582821758653 33.322348016501564 0 33.322348016501564 136.66660873596265 0 0 0 0 -32.948288897390739 -61.232979658337513 0 -61.232979658337513 236.77146066021305 0 0 0 0 4.712272836696684 -71.843312421632163 0 -71.843312421632163 223.63016356557091 0 0 0 0 -3.5720434196500719 -72.761383937751361 0 -72.761383937751361 286.11589628901856 0 0 0 0 95.185983975634372 -134.39475983100419 0 -134.39475983100419 322.7685545331733 0 0 0 0 124.61432591007019 -199.11600682155961 0 -199.11600682155961 459.6023424669329 0 0 0 0 15.182970351276708 4.7121452799365215 0 4.7121452799365215 245.53156508678876 0 0 0 0 150.07015507910916 -6.0653201449177345 0 -6.0653201449177345 241.30084699565123 0 0 0 0 -1.9859637988929535 -44.806380934439403 0 -44.806380934439403 412.37891451691394 0 0 0 0 134.96194816229945 -230.34890026290122 0 -230.34890026290122 194.23949653887939 0 0 0 0 157.89631183037636 -70.734265374821916 0 -70.734265374821916 8.5124786841297464 0 0 0 0 101.44691142261945 -127.00409395922543 0 -127.00409395922543 191.84697298143874 0 0 0 0 -19.486824790690207 -72.341846996295772 0 -72.341846996295772 342.9259434269261 0 0 0 0 -14.258480311606036 -44.877172700025767 0 -44.877172700025767 485.37554167472445 0 0 0 0 -9.6501894255343359 -59.92058642707525 0 -59.92058642707525 533.3610112945762 0 0 0 0 105.48524206207367 126.64739141566679 0 126.64739141566679 154.05987769154308 0 0 0 0 2.1062723394853293 -0.43311510194724079 0 -0.43311510194724079 1.5362478568210705 0 0 0 0 0.27616336827630494 0.42232160301128197 0 0.42232160301128197 -0.20989732840754982 0 0 0 0 46.4515772534196 -57.619851716200174 0 -57.619851716200174 119.32758999733778 0 0 0 0 31.380665753582207 -56.809609176230879 0 -56.809609176230879 145.34423774032075 0 0 0 0 18.439125301921194 -43.551840921589246 0 -43.551840921589246 228.31289309213025 0 0 0 0 35.063171437952406 28.830961792958078 0 28.830961792958078 174.26423388462354 0 0 0 0 16.634432478955205 -94.242389711549549 0 -94.242389711549549 194.34845980361251 0 0 0 0 -4.8360875889027852 -81.030901068178423 0 -81.030901068178423 187.85103067692035 0 0 0 0 11.427081175213516 -109.50276410024026 0 -109.50276410024026 151.17815650383636 0 0 0 0 39.915825483483331 -121.35392731546381 0 -121.35392731546381 117.45088996617233 0 0 0 0 62.533327272237784 -109.61232295593436 0 -109.61232295593436 89.599841026732065 0 0 0 0 46.195326170214571 -75.955653028667257 0 -75.955653028667257 29.951767470460254 0 0 0 0 36.13256714831688 -34.123615167133948 0 -34.123615167133948 4.4760079173538543 0 0 0 0 37.723336292586737 -45.842319534048329 0 -45.842319534048329 85.681262247450832 0 0 0 0 22.793355329576059 -88.744459172347888 0 -88.744459172347888 56.714613411235405 0 0 0 0 55.147443116440627 -57.153881150430607 0 -57.153881150430607 63.285909399584853 0 0 0 0 55.988669137983607 -14.909531592067651 0 -14.909531592067651 112.60039374742155 0 0 0 0 66.062284243068746 -27.192785760930292 0 -27.192785760930292 62.340910652374077 0 0 0 0 28.007588736663592 5.7272642173911663 0 5.7272642173911663 105.8012456413926 0 0 0 0 25.311330653037317 -22.289752249137052 0 -22.289752249137052 61.302260438475059 0 0 0 0 -39.053344794601486 22.768457828359715 0 22.768457828359715 118.22174744442782 0 0 0 0 105.09009258452238 72.608911567743235 0 72.608911567743235 157.42793872910806 0 0 0 0 50.249971723429098 -17.773563147121422 0 -17.773563147121422 129.07142364775154 0 0 0 0 100.93350124359085 16.853490259513819 0 16.853490259513819 116.24891481441011 0 0 0 0 -83.467767576807773 -24.831772475321912 0 -24.831772475321912 16.406132167272517 0 0 0 0 -60.309729362724283 27.332463148061834 0 27.332463148061834 47.448926139928517 0 0 0 0 -41.864835639108605 10.671904390363125 0 10.671904390363125 66.498059528578779 0 0 0 0 -85.232426439928076 17.445815406819747 0 17.445815406819747 81.386364417587174 0 0 0 0 -37.317057144280909 -26.426680770606254 0 -26.426680770606254 35.589856634643183 0 0 0 0 -36.223491669408219 -7.9082350499393215 0 -7.9082350499393215 73.980840570156943 0 0 0 0 0.93629293038213257 -4.7268435144258056 0 -4.7268435144258056 16.948760715748989 0 0 0 0 -153.53390549778896 -36.765911541417609 0 -36.765911541417609 62.884870753743598 0 0 0 0 -91.453792670387941 16.362899713841671 0 16.362899713841671 14.909668843931286 0 0 0 0 312.59892163849554 156.84921407581896 0 156.84921407581896 -18.405976288551756 0 0 0 0 -119.45605827284942 -87.543111231070725 0 -87.543111231070725 16.594400873442083 0 0 0 0 0.47001751406529824 -1.6388199128284544 0 -1.6388199128284544 9.4369069952974911 0 0 0 0 -33.473657372081163 8.2713222761167344 0 8.2713222761167344 1.6841545920833596 0 0 0 0 338.88698405093294 250.60111753198771 0 250.60111753198771 -38.740974357746381 0 0 0 0 -112.19338335282464 -17.533209235148206 0 -17.533209235148206 21.132195793576102 0 0 0 0 -132.57835153934479 -8.9468236714046725 0 -8.9468236714046725 55.535104857401166 0 0 0 0 -0.20311060814669449 0.65122595631359692 0 0.65122595631359692 6.7566891716489792 0 0 0 0 -72.107949196197978 39.428670322638027 0 39.428670322638027 211.61204217265913 0 0 0 0 -132.7176625463685 -4.5983382811509728 0 -4.5983382811509728 47.169213336346274 0 0 0 0 -77.275855527111162 33.587047661598262 0 33.587047661598262 58.554769167973063 0 0 0 0 -32.974277387249003 23.383634644177619 0 23.383634644177619 100.96636484131159 0 0 0 0 -53.633734702816582 7.1441880648835649 0 7.1441880648835649 12.930238306469619 0 0 0 0 -32.606957954864356 26.132801300082065 0 26.132801300082065 8.5198749449446041 0 0 0 0 -69.962013907770597 5.3586916544954875 0 5.3586916544954875 47.162163879729633 0 0 0 0 -1.7670874029845112 5.9552332129934875 0 5.9552332129934875 7.5652005789277155 0 0 0 0 -58.021288887423452 73.056692428479437 0 73.056692428479437 48.248153222022665 0 0 0 0 -1.7246706774040028 4.333145232642913 0 4.333145232642913 53.954843727841535 0 0 0 0 -41.119881534742035 23.009364335339342 0 23.009364335339342 31.580141602710228 0 0 0 0 -11.010417725969546 4.5902892744834389 0 4.5902892744834389 37.135143918072572 0 0 0 0 -33.943245500656531 -22.760704905578677 0 -22.760704905578677 134.5634122041447 0 0 0 0 -38.041617459592317 -60.686024740556604 0 -60.686024740556604 33.709914487521132 0 0 0 0 40.094099476576048 12.164268373553341 0 12.164268373553341 133.8320154847388 0 0 0 0 0.81407965384496461 -1.2612843798494993 0 -1.2612843798494993 0.40116989050174823 0 0 0 0 132.30756960205451 150.63882255555291 0 150.63882255555291 70.07213917561603 0 0 0 0 101.14263867550608 93.959639612403407 0 93.959639612403407 -0.068317445678985678 0 0 0 0 -6.0848342323647557 49.190115525096189 0 49.190115525096189 260.27709504205268 0 0 0 0 23.217526378057755 -16.888079154734442 0 -16.888079154734442 14.398952448715136 0 0 0 0 -85.837916820937608 -34.142136712944193 0 -34.142136712944193 118.76507729244622 0 0 0 0 25.248801244463948 1.5956461755813507 0 1.5956461755813507 35.979435484026908 0 0 0 0 25.074736965470493 -1.5010717001969169 0 -1.5010717001969169 50.59701715297706 0 0 0 0 69.687971279709018 -83.013745681506407 0 -83.013745681506407 107.09067409528507 0 0 0 0 -3.6514646500199888 -2.6640727088451968 0 -2.6640727088451968 39.301498281954991 0 0 0 0 38.906477200785275 9.969598991508974 0 9.969598991508974 18.295734136656392 0 0 0 0 -0.38811841856277418 -0.085872495164018403 0 -0.085872495164018403 0.10305589120397229 0 0 0 0 16.69504965776332 11.029380163123278 0 11.029380163123278 25.089799522967951 0 0 0 0 37.110566059423491 9.15962352884344 0 9.15962352884344 27.776876286428887 0 0 0 0 35.180906505975145 14.617024321545614 0 14.617024321545614 25.561198314266221 0 0 0 0 34.327212572995904 19.478427381836809 0 19.478427381836809 23.562323920144991 0 0 0 0 40.62941201154149 17.94737526020981 0 17.94737526020981 17.912928388788714 0 0 0 0 44.191409352380106 23.283497557116789 0 23.283497557116789 18.523629629504285 0 0 0 0 32.551688817547529 25.614092161755252 0 25.614092161755252 44.40965860770666 0 0 0 0 38.423946598994007 21.992119525457383 0 21.992119525457383 28.73561432074348 0 0 0 0 36.923241180115838 17.536503913961496 0 17.536503913961496 30.376787595596397 0 0 0 0 31.691528925844977 43.32234027906452 0 43.32234027906452 79.107271977205528 0 0 0 0 20.27551622575902 22.616158872511733 0 22.616158872511733 47.309768103972601 0 0 0 0 48.476960886029701 39.796073479868937 0 39.796073479868937 38.589227713124274 0 0 0 0 39.676775088300019 28.305101841993746 0 28.305101841993746 41.732066086944542 0 0 0 0 45.924230626672397 33.223908048632438 0 33.223908048632438 35.214487708013621 0 0 0 0 46.9176040065704 33.861972479855467 0 33.861972479855467 34.15572732873261 0 0 0 0 -8.2281977953171008 15.403779285781638 0 15.403779285781638 57.031136423713178 0 0 0 0 -27.187313616619576 7.1075235186872305 0 7.1075235186872305 57.586523995480093 0 0 0 0 23.405631707430075 7.0051703343488043 0 7.0051703343488043 40.63966434757458 0 0 0 0 25.844279685099082 16.691661119148193 0 16.691661119148193 36.486319028233993 0 0 0 0 5.3797837431141033 27.861817675888233 0 27.861817675888233 79.860488640857511 0 0 0 0 -5.1041243169806876 11.226726934470207 0 11.226726934470207 56.647783712242926 0 0 0 0 -54.532152059798136 -1.4923620487570588 0 -1.4923620487570588 87.813696745666675 0 0 0 0 -23.553220773217959 17.267002388668971 0 17.267002388668971 27.35652126147761 0 0 0 0 -49.870490836710815 -15.067459834805049 0 -15.067459834805049 64.765079370681633 0 0 0 0 -52.334166330603807 -10.715985814903433 0 -10.715985814903433 96.43205693600612 0 0 0 0 -0.9267731866368103 5.8263279474355762 0 5.8263279474355762 59.604424953943976 0 0 0 0 -98.348805204823748 6.946373354437128 0 6.946373354437128 -89.187743812455665 0 0 0 0 289.49926184849392 89.126359274578135 0 89.126359274578135 -216.78663584511378 0 0 0 0 -102.40706187510295 58.8511151180046 0 58.8511151180046 612.96425505818115 0 0 0 0 -122.38389014956829 196.84567082155627 0 196.84567082155627 387.68316952074383 0 0 0 0 0.083477747670939517 0.39347439649912719 0 0.39347439649912719 2.5096391817539327 0 0 0 0 -127.42343906112308 -18.63211925138512 0 -18.63211925138512 13.24499047484278 0 0 0 0 -2.0959698614130184 7.9502561521565394 0 7.9502561521565394 56.217306647876669 0 0 0 0 -126.48021380101108 44.234938539236282 0 44.234938539236282 84.861622691409138 0 0 0 0 -0.54626362158114716 2.0110207927100419 0 2.0110207927100419 4.2698898799735616 0 0 0 0 -0.29617934322718575 0.99496412497750697 0 0.99496412497750697 2.7264735787273082 0 0 0 0 1.5763355600410591 3.8942309821395611 0 3.8942309821395611 11.122383546280616 0 0 0 0 -0.72088373792344296 -1.2157414864375937 0 -1.2157414864375937 0.081098384866471918 0 0 0 0 14.492110022142242 -42.557997012372653 0 -42.557997012372653 167.75243724753818 0 0 0 0 6.2704439065577162 -21.901578636679005 0 -21.901578636679005 148.51875150405249 0 0 0 0 -3.4406898434176583 -35.607286728798499 0 -35.607286728798499 162.80757019399425 0 0 0 0 3.3567400749573153 -39.266313978050675 0 -39.266313978050675 150.47692592757085 0 0 0 0 9.2250520676016095 -32.352907454380329 0 -32.352907454380329 123.36629922229622 0 0 0 0 -0.11284612158058849 4.5298118295631866 0 4.5298118295631866 0.24548279002920026 0 0 0 0 -0.86532413938294628 -0.94787567692112162 0 -0.94787567692112162 -0.21460851900673106 0 0 0 0 -5.3345650013579871 -1.7616725051011599 0 -1.7616725051011599 11.743502093084317 0 0 0 0 -3.0007335635609707 -31.928312826319598 0 -31.928312826319598 137.61402824816469 0 0 0 0 -5.7943453221364507 -7.0881766135025828 0 -7.0881766135025828 15.030351766517924 0 0 0 0 -0.81825685152285743 -0.53609905038903349 0 -0.53609905038903349 -0.064661109314918974 0 0 0 0 15.953626451097875 -27.680897267697219 0 -27.680897267697219 100.76589944644365 0 0 0 0 15.094838315804054 -25.213760998831276 0 -25.213760998831276 68.852342813182986 0 0 0 0 -18.451031113879253 -5.7813881563815812 0 -5.7813881563815812 82.825077423769471 0 0 0 0 0.39434192023418291 -9.9001874537843833 0 -9.9001874537843833 19.883828487458231 0 0 0 0 24.903040505145327 5.3021541604284721 0 5.3021541604284721 9.5054625326883979 0 0 0 0 25.681000152716024 3.1712565562702366 0 3.1712565562702366 15.100459791268804 0 0 0 0 50.978704971336811 19.78369537882827 0 19.78369537882827 10.886045118862967 0 0 0 0 37.699849307709684 21.605729475305452 0 21.605729475305452 26.041439842651016 0 0 0 0 5.4540474104296663 -18.338728740738588 0 -18.338728740738588 -35.44323223621177 0 0 0 0 16.203561168648775 5.6185890188789926 0 5.6185890188789926 -1.3521115650364663 0 0 0 0 38.674282011299994 10.934162802447645 0 10.934162802447645 -6.4289310919994023 0 0 0 0 -4.417527162042461 -4.2889501280806144 0 -4.2889501280806144 12.341342344247096 0 0 0 0 -3.3180686306740199 0.73332911778925336 0 0.73332911778925336 0.97328208378166892 0 0 0 0 44.442600339866885 -24.351105087470387 0 -24.351105087470387 23.080836796099902 0 0 0 0 -19.240049833984813 -6.0607908049241814 0 -6.0607908049241814 18.449500663897197 0 0 0 0 -45.128954229233386 -5.4175429442875611 0 -5.4175429442875611 6.7780082985773333 0 0 0 0 -34.303517259366345 25.293976125383779 0 25.293976125383779 -4.5447246778742283 0 0 0 0 0.12630297371629506 0.28585823905098806 0 0.28585823905098806 0.92050782970066791 0 0 0 0 4.3222232412499579 1.1292728575353976 0 1.1292728575353976 0.6664773313968908 0 0 0 0 0.44543976782229056 0.58276730133535182 0 0.58276730133535182 1.4222229471056096 0 0 0 0 -11.072915231395996 5.6000424500389272 0 5.6000424500389272 -5.7133079893173999 0 0 0 0 -1.3838039956146986 -4.7905530218376953 0 -4.7905530218376953 8.3582957436592551 0 0 0 0 1.2203443542973673 -2.5933612597928004 0 -2.5933612597928004 4.3510164501640247 0 0 0 0 -10.866479067813998 1.2502333047195862 0 1.2502333047195862 6.9921006436961761 0 0 0 0 -8.4720794052058181 7.997524420632999 0 7.997524420632999 3.4156671224845923 0 0 0 0 -0.13738566391955676 0.8491851713471803 0 0.8491851713471803 2.2535390013897256 0 0 0 0 4.2325815253916517 -1.5672768214135431 0 -1.5672768214135431 7.6829485777125228 0 0 0 0 0.57337719814529109 0.12534010784958838 0 0.12534010784958838 0.63847675452377928 0 0 0 0 48.235195194192329 -50.682491452404065 0 -50.682491452404065 43.375257740175584 0 0 0 0 41.623255451552268 -23.918492725573742 0 -23.918492725573742 36.393912349306447 0 0 0 0 41.755571522114678 -52.650844187870462 0 -52.650844187870462 87.256554444196809 0 0 0 0 33.861224874058735 -41.23563733343326 0 -41.23563733343326 49.406493792668698 0 0 0 0 51.653385309566147 -45.920124920572562 0 -45.920124920572562 47.13336749834707 0 0 0 0 40.505173029690013 -41.295332724403124 0 -41.295332724403124 84.450163757508562 0 0 0 0 37.165463876974343 -46.001065852603915 0 -46.001065852603915 43.375164752542332 0 0 0 0 1.8300194915254906 -8.5435873995447764 0 -8.5435873995447764 1.3314557153644273 0 0 0 0 0.29466626849958377 0.14095975101729152 0 0.14095975101729152 0.15316362923664428 0 0 0 0 46.099333644262742 -47.247061205778664 0 -47.247061205778664 43.472711751899624 0 0 0 0 36.995016608944297 0.73437738440406974 0 0.73437738440406974 189.77986317990872 0 0 0 0 32.151744683763354 -22.852323768613132 0 -22.852323768613132 188.80035714846599 0 0 0 0 42.538342154584257 -25.859124730436179 0 -25.859124730436179 121.94719571503811 0 0 0 0 46.04047152023395 -39.947062323262799 0 -39.947062323262799 83.580209433195705 0 0 0 0 33.998602170332788 -21.194373283360619 0 -21.194373283360619 136.72820284414775 0 0 0 0 31.262240192671925 -51.490137066417446 0 -51.490137066417446 119.5023449575674 0 0 0 0 32.195693826930437 -32.745978801751335 0 -32.745978801751335 138.50646829282414 0 0 0 0 37.214975804586174 -40.529524269968533 0 -40.529524269968533 120.55563254344452 0 0 0 0 40.626756737302912 6.0098217552258575 0 6.0098217552258575 187.17211818790383 0 0 0 0 32.909084585465052 8.9041954811236792 0 8.9041954811236792 243.78621294296318 0 0 0 0 27.92671597797289 -21.81207262560747 0 -21.81207262560747 204.92793768045522 0 0 0 0 32.238173163569627 -0.85920265117783856 0 -0.85920265117783856 197.77871405115002 0 0 0 0 47.174245945760504 19.475767969412118 0 19.475767969412118 236.18687572234921 0 0 0 0 91.808767317103047 -3.2334184788633138 0 -3.2334184788633138 235.82415278393455 0 0 0 0 75.761253044060823 22.252619999157105 0 22.252619999157105 292.38290180137119 0 0 0 0 47.955590209454385 -23.782174263571505 0 -23.782174263571505 221.33748840829139 0 0 0 0 29.641359410691393 -28.754049744237818 0 -28.754049744237818 237.6419260896364 0 0 0 0 46.340167250928971 -42.238174879203143 0 -42.238174879203143 185.11604933445051 0 0 0 0 53.802556526596163 -112.65298695203091 0 -112.65298695203091 142.69590117026382 0 0 0 0 7.2764895996892847 -9.3200537310731306 0 -9.3200537310731306 5.0495957736911805 0 0 0 0 56.481192607590344 -91.782982679685119 0 -91.782982679685119 247.06078688074194 0 0 0 0 39.014689093974312 -43.671113427310956 0 -43.671113427310956 296.9988409461148 0 0 0 0 -0.20917182173651483 0.063542034419086235 0 0.063542034419086235 0.72361732794554712 0 0 0 0 12.749071359710342 59.096062185231858 0 59.096062185231858 243.80889893512358 0 0 0 0 0.23176368231350786 0.33468026559505404 0 0.33468026559505404 0.41228870792757277 0 0 0 0 53.924131120023048 67.649188924187911 0 67.649188924187911 -12.286369208573888 0 0 0 0 33.676165813441912 14.99541627628787 0 14.99541627628787 -43.390920460420602 0 0 0 0 59.936403538889408 42.281161247821728 0 42.281161247821728 -16.484954941581236 0 0 0 0 67.16461005736528 38.771275771607179 0 38.771275771607179 10.628041408628633 0 0 0 0 52.602494610536269 44.57635401571315 0 44.57635401571315 38.953824473297573 0 0 0 0 75.728393370486629 107.49353118735598 0 107.49353118735598 53.328217691689133 0 0 0 0 25.582030920598982 103.50997472546078 0 103.50997472546078 227.1181733730773 0 0 0 0 91.961789243415296 18.084462484202959 0 18.084462484202959 257.84682479301773 0 0 0 0 92.259313046110663 18.419426284429392 0 18.419426284429392 213.04996767440753 0 0 0 0 104.78003796591292 24.621827692204533 0 24.621827692204533 240.95647140222718 0 0 0 0 120.22362499616247 33.090522679623973 0 33.090522679623973 242.99767174880617 0 0 0 0 60.157630244180154 20.629015765756776 0 20.629015765756776 318.11590145496302 0 0 0 0 0.29162448506308802 0.58500901860262644 0 0.58500901860262644 0.45834534188924181 0 0 0 0 15.57602558381177 97.958203344860522 0 97.958203344860522 22.160950906916696 0 0 0 0 49.816295632098445 -115.97426115275448 0 -115.97426115275448 303.32318459024236 0 0 0 0 -41.738102038494389 -32.350515954567527 0 -32.350515954567527 62.078714758506976 0 0 0 0 -59.162947771953441 -86.674050134650315 0 -86.674050134650315 48.415268753889904 0 0 0 0 7.9358567859708273 -30.630693187860743 0 -30.630693187860743 27.163762170916016 0 0 0 0 22.446376559834789 7.901160724231886 0 7.901160724231886 114.29855951241916 0 0 0 0 72.580163345809979 -15.561419369674695 0 -15.561419369674695 99.155247635695559 0 0 0 0 74.26650690373117 -37.849221230841067 0 -37.849221230841067 69.353712892458134 0 0 0 0 71.186078563821866 -63.069089493001229 0 -63.069089493001229 187.72570039990387 0 0 0 0 83.260883437975281 -0.17298790834320243 0 -0.17298790834320243 120.93481454784342 0 0 0 0 45.153241271876141 24.755767379039753 0 24.755767379039753 250.68381653713004 0 0 0 0 43.837543782404765 38.066578032546659 0 38.066578032546659 203.52503404553136 0 0 0 0 16.907181195091141 83.389146321391763 0 83.389146321391763 154.3386912277274 0 0 0 0 75.625855207242921 -8.9587430665751526 0 -8.9587430665751526 214.8394393349372 0 0 0 0 52.140240388949223 9.5963499218196375 0 9.5963499218196375 202.57650982017731 0 0 0 0 62.31221722320106 26.439771283874506 0 26.439771283874506 161.42702173138969 0 0 0 0 87.11007146414704 -54.499943676481053 0 -54.499943676481053 247.89341024464557 0 0 0 0 89.431288686232051 -24.491152501586839 0 -24.491152501586839 202.65725673384441 0 0 0 0 86.455417300962381 -20.229052569342457 0 -20.229052569342457 209.80387112256722 0 0 0 0 83.231398847776745 -52.72904294048567 0 -52.72904294048567 248.22393518337049 0 0 0 0 53.195349106527374 -8.3298182577709667 0 -8.3298182577709667 225.71047781608468 0 0 0 0 62.153079561888717 -18.047925788268913 0 -18.047925788268913 189.07509254121396 0 0 0 0 -41.830566143256192 4.4515259243744367 0 4.4515259243744367 150.24150794070374 0 0 0 0 -23.041771152044248 28.58026746658652 0 28.58026746658652 158.02568848202827 0 0 0 0 -77.071444157595351 17.544752437745046 0 17.544752437745046 167.21615080195625 0 0 0 0 -42.904964854485115 -3.0291773489498155 0 -3.0291773489498155 139.32356883742614 0 0 0 0 -10.939490368475617 33.817646668492671 0 33.817646668492671 81.115256472585315 0 0 0 0 -1.9301348930369744 13.261279247939914 0 13.261279247939914 83.956788119715 0 0 0 0 -68.917945017641841 43.457478289297796 0 43.457478289297796 192.14948514541175 0 0 0 0 -4.7338130070825173 -20.063295514682977 0 -20.063295514682977 103.53564335570263 0 0 0 0 -9.5697589942465129 44.139692494965857 0 44.139692494965857 -61.464409225620329 0 0 0 0 -8.9016414148719285 19.392154888753261 0 19.392154888753261 13.852246483768397 0 0 0 0 -60.236696084995629 29.443475999299608 0 29.443475999299608 59.270384418827234 0 0 0 0 -0.012162717992129313 3.3243031439052202 0 3.3243031439052202 31.615565315257321 0 0 0 0 -12.031703377854731 -28.615938513959215 0 -28.615938513959215 117.25900498120345 0 0 0 0 53.067912503309344 -22.840980251254223 0 -22.840980251254223 85.27248461182171 0 0 0 0 -61.598622709929714 25.180294780345548 0 25.180294780345548 68.366815895991749 0 0 0 0 -42.958398087365367 15.856858978666423 0 15.856858978666423 101.31193592819182 0 0 0 0 -59.238860255196869 -4.0880324433092028 0 -4.0880324433092028 119.93435001655598 0 0 0 0 -36.772291894070804 42.768817302858224 0 42.768817302858224 62.885651943426637 0 0 0 0 -0.083980301169916949 -3.9352772805621896 0 -3.9352772805621896 23.431466866341893 0 0 0 0 -90.401017063743325 6.4092785045104392 0 6.4092785045104392 139.78692083359056 0 0 0 0 15.838561853485771 36.215482910323772 0 36.215482910323772 83.49056332152395 0 0 0 0 -27.843919747893096 16.796809796687739 0 16.796809796687739 131.43774438886976 0 0 0 0 -15.048387362243588 33.542099031261728 0 33.542099031261728 148.59465661520517 0 0 0 0 -28.741023555922311 10.203097723700921 0 10.203097723700921 94.055237502219825 0 0 0 0 61.76361252887358 68.681158823515943 0 68.681158823515943 76.252010455835261 0 0 0 0 29.742297486023745 47.624375500661699 0 47.624375500661699 105.18136785974275 0 0 0 0 14.791926530372848 29.852405556354825 0 29.852405556354825 88.308527967608825 0 0 0 0 29.918035287018483 62.110628034177353 0 62.110628034177353 119.69894606272283 0 0 0 0 -14.403744561409439 23.336197460121184 0 23.336197460121184 175.71466043755936 0 0 0 0 50.700288757415365 -2.9967569973887294 0 -2.9967569973887294 215.80320844465041 0 0 0 0 -4.3436255465007889 -34.031696810670837 0 -34.031696810670837 164.67118607801604 0 0 0 0 0.30185076745237893 11.594467836905096 0 11.594467836905096 243.24514058365457 0 0 0 0 39.442282038926805 25.316233793604624 0 25.316233793604624 237.34827473172481 0 0 0 0 1.6438602927687498 8.7156241677439539 0 8.7156241677439539 162.01040708018991 0 0 0 0 32.436486247989251 -29.222270623336954 0 -29.222270623336954 231.31646930089482 0 0 0 0 -25.375239861396494 7.4817520137985412 0 7.4817520137985412 197.86021014228754 0 0 0 0 -35.417166173959686 -14.716923775409668 0 -14.716923775409668 153.02485139725491 0 0 0 0 -43.372166495561032 3.9047148483732599 0 3.9047148483732599 151.18601845456578 0 0 0 0 -6.944338523756187 -54.183431656296307 0 -54.183431656296307 179.67132887381013 0 0 0 0 -18.305214981148083 -24.939129465356018 0 -24.939129465356018 112.21497743239161 0 0 0 0 35.344249006020164 -61.644570129399654 0 -61.644570129399654 89.461330593614548 0 0 0 0 -1.2043718153463487 -17.497374797840166 0 -17.497374797840166 241.81502733700472 0 0 0 0 49.063489390984387 -105.82318480539857 0 -105.82318480539857 170.39843664698856 0 0 0 0 0.056512487919231802 -2.0738608741919933 0 -2.0738608741919933 7.0104614521641082 0 0 0 0 -51.520129510203333 -12.60110259080011 0 -12.60110259080011 29.452482875432906 0 0 0 0 4.1792212047519115 -22.038666905214995 0 -22.038666905214995 77.2467028310366 0 0 0 0 1.2738197101115123 -16.361340036841256 0 -16.361340036841256 7.1455545263356335 0 0 0 0 5.9862051566833543 -24.236965860506643 0 -24.236965860506643 74.959213001020544 0 0 0 0 12.354770378832427 -46.004523868830802 0 -46.004523868830802 113.10786261158444 0 0 0 0 -7.9804911052786451 -3.6456157522497961 0 -3.6456157522497961 115.97416439664812 0 0 0 0 -4.1138558242182626 -17.028888696779177 0 -17.028888696779177 119.98219558140408 0 0 0 0 -18.37945067680721 -20.650771554915991 0 -20.650771554915991 130.64484933528001 0 0 0 0 -13.869759855493839 -14.077208792021338 0 -14.077208792021338 102.68313912305166 0 0 0 0 -24.365964687016685 -12.399066309862974 0 -12.399066309862974 121.72357775022101 0 0 0 0 -6.4662135266398764 -5.5462423240041971 0 -5.5462423240041971 32.347001795940741 0 0 0 0 -3.1866112699899052 -10.807780961855389 0 -10.807780961855389 17.20337374804275 0 0 0 0 1.1483029163248739 -14.091836675248956 0 -14.091836675248956 20.96200349184047 0 0 0 0 -20.772938437045923 -3.9849560940601805 0 -3.9849560940601805 129.77904922886955 0 0 0 0 0.53842612299331449 9.8206352570850868 0 9.8206352570850868 94.705435630530701 0 0 0 0 6.3886695327228153 -12.548971836064084 0 -12.548971836064084 34.351699831462611 0 0 0 0 3.8092291625919188 1.2153568667508807 0 1.2153568667508807 47.1971635462005 0 0 0 0 -3.9851975708668306 -5.9519479944892737 0 -5.9519479944892737 73.61833811244469 0 0 0 0 -2.7037021119864235 -21.255547614970965 0 -21.255547614970965 95.694384969694966 0 0 0 0 3.717190614567528 -13.179616767630932 0 -13.179616767630932 74.676809464284815 0 0 0 0 -0.79610478581616917 -0.012830306305886552 0 -0.012830306305886552 84.695847543624041 0 0 0 0 13.581583351656263 -5.0896696717290979 0 -5.0896696717290979 68.379534149062238 0 0 0 0 14.533229487714038 -5.4349244845079738 0 -5.4349244845079738 36.602967039509167 0 0 0 0 2.3662055569599207 -14.422918372247494 0 -14.422918372247494 22.391409893858693 0 0 0 0 1.3765587805032737 -2.4208653294135729 0 -2.4208653294135729 51.844521481918491 0 0 0 0 3.6539925137471982 -6.5496576178738906 0 -6.5496576178738906 36.717136880062753 0 0 0 0 -1.4071900046454431 -0.79463989504314014 0 -0.79463989504314014 22.902995625893411 0 0 0 0 -1.5306613410727934 7.1753114374317306 0 7.1753114374317306 12.161758566353328 0 0 0 0 1.6451606225509749 -9.2151673404241592 0 -9.2151673404241592 34.768052650284517 0 0 0 0 3.2138439322927512 -8.3022015572572059 0 -8.3022015572572059 8.0663876974902635 0 0 0 0 -12.740530682580356 -17.652296285883494 0 -17.652296285883494 22.931290385018656 0 0 0 0 149.27024742996628 -266.15564441016249 0 -266.15564441016249 156.40136026515211 0 0 0 0 129.14463276491119 -175.71889049873971 0 -175.71889049873971 291.36801019231461 0 0 0 0 616.76090190820378 -886.87097402152358 0 -886.87097402152358 514.5964114778144 0 0 0 0 -303.73318552493811 -204.77878606958075 0 -204.77878606958075 616.10956100602925 0 0 0 0 -12.023246674196422 16.844321988163145 0 16.844321988163145 31.563785426387675 0 0 0 0 -6.6947495666472605 5.8128521077160258 0 5.8128521077160258 17.815850823826622 0 0 0 0 -3.6131177077021777 11.460875092774593 0 11.460875092774593 21.895313662368672 0 0 0 0 -0.39673870868122396 5.6125299940659659 0 5.6125299940659659 39.269626357635175 0 0 0 0 -2.7698059547723179 1.257064605261526 0 1.257064605261526 7.7912445172457865 0 0 0 0 -103.03613759234304 -217.789554881394 0 -217.789554881394 -410.60154642889393 0 0 0 0 513.11637347870055 553.81916094876942 0 553.81916094876942 426.71248610025214 0 0 0 0 282.1854613758228 448.46058421096677 0 448.46058421096677 83.034316236517043 0 0 0 0 38.605717778264037 -330.09196744605288 0 -330.09196744605288 379.01526440967791 0 0 0 0 215.88769188955189 -728.00100517902138 0 -728.00100517902138 867.38345420114638 0 0 0 0 -164.5366070659602 -131.29344709309953 0 -131.29344709309953 1496.6017238410786 0 0 0 0 1.162011002797152 -5.5074150405724804 0 -5.5074150405724804 15.153704407407261 0 0 0 0 -480.23757903149385 89.823009717889363 0 89.823009717889363 700.0155396212358 0 0 0 0 -216.4262440544444 -450.55336759234706 0 -450.55336759234706 1257.2496557980558 0 0 0 0 -206.36508060918572 173.61912279632452 0 173.61912279632452 107.25029719917802 0 0 0 0 518.63544806710934 -561.93514842220611 0 -561.93514842220611 272.9708883407875 0 0 0 0 63.934101859445036 29.283524895019582 0 29.283524895019582 -173.98284021086874 0 0 0 0 249.3446948675944 -466.6493906655578 0 -466.6493906655578 682.16677642121795 0 0 0 0 221.70659685134683 -275.73997351737853 0 -275.73997351737853 331.35620780608224 0 0 0 0 -62.510833237260044 113.02875743684979 0 113.02875743684979 468.0575642105905 0 0 0 0 527.74291253325282 -684.41652490031265 0 -684.41652490031265 549.22216134027076 0 0 0 0 -2.8342083773398148 0.44596334446394792 0 0.44596334446394792 7.4298071110146964 0 0 0 0 -67.587471321757278 -11.055514147001759 0 -11.055514147001759 -23.460697371912829 0 0 0 0 -17.026660947409702 21.742560996306203 0 21.742560996306203 32.071095755803526 0 0 0 0 -11.430552537402946 51.028913970592839 0 51.028913970592839 -51.099661706375628 0 0 0 0 -2.1217048657083524 -262.8412379635829 0 -262.8412379635829 601.52985817584704 0 0 0 0 -2.1593369609418045 9.3243752679243386 0 9.3243752679243386 5.1700613601826859 0 0 0 0 272.85380902114002 -460.13059648258786 0 -460.13059648258786 528.25763700989046 0 0 0 0 164.06079586405974 -565.42181666136003 0 -565.42181666136003 440.1546862291143 0 0 0 0 113.5334004859069 -103.33065006891047 0 -103.33065006891047 353.55872414998794 0 0 0 0 82.909162932565607 -24.993717809976033 0 -24.993717809976033 293.23603641451336 0 0 0 0 157.26271761124463 -49.333975390470187 0 -49.333975390470187 299.55464904984547 0 0 0 0 63.258275585776573 -59.974725152806059 0 -59.974725152806059 298.80994827651739 0 0 0 0 41.162896107522101 -40.753443546185736 0 -40.753443546185736 361.33650136723736 0 0 0 0 58.22597359030965 -6.9539580238797498 0 -6.9539580238797498 417.19660737425147 0 0 0 0 14.191658117536008 -17.79978072828635 0 -17.79978072828635 421.56373950055604 0 0 0 0 14.490219507052188 -12.889725221421031 0 -12.889725221421031 455.52137974528341 0 0 0 0 -34.817744647708878 -67.498772194456251 0 -67.498772194456251 441.96446022641612 0 0 0 0 -21.817214586075124 -109.91137550970689 0 -109.91137550970689 496.41893375029031 0 0 0 0 -16.363054632963212 -52.536476944456808 0 -52.536476944456808 443.42207134516684 0 0 0 0 37.28263995335692 -96.08855204442807 0 -96.08855204442807 309.99440401978063 0 0 0 0 36.992408531272133 -92.875572326121983 0 -92.875572326121983 343.68814857305551 0 0 0 0 72.685104775739546 -75.691337237225525 0 -75.691337237225525 174.91833130909072 0 0 0 0 63.551016503051414 -93.159106245548173 0 -93.159106245548173 150.06729799261666 0 0 0 0 65.932578084845773 -152.48605800879159 0 -152.48605800879159 275.70448195831705 0 0 0 0 74.251181780421575 -131.05578652928671 0 -131.05578652928671 114.63567956894985 0 0 0 0 82.106001155494596 -274.08164172161923 0 -274.08164172161923 410.04148864952731 0 0 0 0 3.9843185346480823 -127.25705185697007 0 -127.25705185697007 425.98051154677523 0 0 0 0 16.8630012474664 -107.21542204959769 0 -107.21542204959769 432.92450557480333 0 0 0 0 67.021189182196395 -152.3469969913167 0 -152.3469969913167 446.78041829114954 0 0 0 0 20.993756595767991 -201.67837234277977 0 -201.67837234277977 578.93862996963617 0 0 0 0 170.45718481433687 -263.66350283309657 0 -263.66350283309657 -40.341528857592493 0 0 0 0 -74.298732400618064 -51.841461348183657 0 -51.841461348183657 -7.8250987681676634 0 0 0 0 0.14749452197946944 -1.1844866819104993 0 -1.1844866819104993 3.3928295416760363 0 0 0 0 -0.25658604912209437 -1.0690336930030995 0 -1.0690336930030995 2.9158755496774447 0 0 0 0 -4.2133817609656035 26.473741631918529 0 26.473741631918529 13.493316690786742 0 0 0 0 0.99800697156570095 -63.15556175664824 0 -63.15556175664824 -57.985338239785051 0 0 0 0 -12.010246466003537 -151.71072371841365 0 -151.71072371841365 517.49000589603384 0 0 0 0 -143.07866861886669 -92.652995741758787 0 -92.652995741758787 544.33688628452092 0 0 0 0 0.029441062634759874 -139.08875277523839 0 -139.08875277523839 530.22513266488386 0 0 0 0 -46.05872322404548 -284.15983008813782 0 -284.15983008813782 625.09377246573422 0 0 0 0 -187.1371495818546 -59.201228689918935 0 -59.201228689918935 536.64768727017508 0 0 0 0 -190.33430995079198 10.859273925816524 0 10.859273925816524 529.65202971170083 0 0 0 0 -106.91851291435751 -104.52809629941112 0 -104.52809629941112 216.30193485418567 0 0 0 0 -65.580229177039655 -112.51165222754753 0 -112.51165222754753 -63.79409477605077 0 0 0 0 -100.76031548046785 16.403981752546315 0 16.403981752546315 201.0404297688292 0 0 0 0 9.0562828574775267 -119.74712706397986 0 -119.74712706397986 232.0761351640358 0 0 0 0 -105.82702968273998 -76.411663992235844 0 -76.411663992235844 494.96631005722156 0 0 0 0 -69.941827929151145 22.072666202818255 0 22.072666202818255 490.17995949213218 0 0 0 0 216.12374231521176 -173.4989651239016 0 -173.4989651239016 96.59736231041461 0 0 0 0 187.44264870561983 3.604882026955238 0 3.604882026955238 -50.96941472958315 0 0 0 0 215.79625955922211 128.47433267946144 0 128.47433267946144 510.22823805143707 0 0 0 0 10.234198921968527 -139.96105429682575 0 -139.96105429682575 543.21480146151998 0 0 0 0 266.38112458767 -128.41467913068118 0 -128.41467913068118 357.44230605314624 0 0 0 0 66.185711283595992 -43.91047662879464 0 -43.91047662879464 -20.510209038129688 0 0 0 0 65.84310842782952 7.0807502570296492 0 7.0807502570296492 -18.684232725136098 0 0 0 0 67.272712530606896 -29.407096222041218 0 -29.407096222041218 4.4816062797617633 0 0 0 0 90.984223021577918 -66.267285015544985 0 -66.267285015544985 -20.053034134711197 0 0 0 0 -1.794027660861957 -82.555615020472032 0 -82.555615020472032 -18.641635872902498 0 0 0 0 -79.427131150716605 -77.750568205479794 0 -77.750568205479794 11.249661934132746 0 0 0 0 -73.172763505529929 -114.83432590777738 0 -114.83432590777738 -3.000512167929628 0 0 0 0 5.2404277315558829 -141.27029275226414 0 -141.27029275226414 34.753843402882922 0 0 0 0 -28.238057922385678 -38.400876646312099 0 -38.400876646312099 110.2145153481797 0 0 0 0 -172.30943449235144 -149.4362563155828 0 -149.4362563155828 -5.9444275419591577 0 0 0 0 -99.488882211861267 -118.16810059670297 0 -118.16810059670297 -15.163864818336151 0 0 0 0 -105.81235481274848 -85.173066096556795 0 -85.173066096556795 -0.971785366324184 0 0 0 0 -127.80452064871884 -109.54891764176318 0 -109.54891764176318 1.468474673521996 0 0 0 0 -188.76135188854551 -58.910625790418635 0 -58.910625790418635 30.507878439486376 0 0 0 0 -124.92208594292765 -53.804310656949383 0 -53.804310656949383 28.835560307959895 0 0 0 0 -119.2572655798117 -72.177246571252908 0 -72.177246571252908 9.2877761352519883 0 0 0 0 -61.767533402029244 -50.047501519524758 0 -50.047501519524758 -10.924304429412587 0 0 0 0 -56.571685116966364 -65.318479535217193 0 -65.318479535217193 -1.3995981942425715 0 0 0 0 -60.841647708542268 -85.590482911001345 0 -85.590482911001345 -11.102513739540882 0 0 0 0 -14.587102934919358 -70.26207810255255 0 -70.26207810255255 -15.226541414162057 0 0 0 0 -78.797018040280363 -67.979198651410115 0 -67.979198651410115 3.5181976386720635 0 0 0 0 49.390512187034346 -34.443690552528096 0 -34.443690552528096 -19.075630720581103 0 0 0 0 -2.5168074868104213 -53.715742216613307 0 -53.715742216613307 -15.69611489880117 0 0 0 0 -1.9676941978032119 -54.587011410372725 0 -54.587011410372725 -16.7606815687177 0 0 0 0 15.428898594844213 -41.844986386560777 0 -41.844986386560777 -8.7222494458183064 0 0 0 0 14.766527516368569 -25.903933285258972 0 -25.903933285258972 25.986120101715642 0 0 0 0 206.42030643376211 -100.81010884584612 0 -100.81010884584612 59.773902379820356 0 0 0 0 131.80242597470766 -62.836566714178844 0 -62.836566714178844 177.87997835138958 0 0 0 0 288.00208621491356 -206.95524022188329 0 -206.95524022188329 158.40267281916658 0 0 0 0 242.82131162599035 -272.87899465759983 0 -272.87899465759983 200.21878758902676 0 0 0 0 419.3279583967751 -291.78854638333814 0 -291.78854638333814 188.20889430210445 0 0 0 0 318.0728164128675 -146.87556833855206 0 -146.87556833855206 376.00383977410092 0 0 0 0 276.95929529897057 -269.41668800794287 0 -269.41668800794287 193.32227840178712 0 0 0 0 215.35510458466581 -83.168256665587705 0 -83.168256665587705 -65.433527419554594 0 0 0 0 292.39416188321411 -272.70107270837252 0 -272.70107270837252 155.8599749176783 0 0 0 0 165.96206514969981 -337.513007999396 0 -337.513007999396 264.08835737812842 0 0 0 0 -387.88340674113203 -145.51551225000003 0 -145.51551225000003 57.15981087966793 0 0 0 0 1.262054328747753 -10.318323050574133 0 -10.318323050574133 39.76115798961726 0 0 0 0 -524.86204185801398 -179.73576284059982 0 -179.73576284059982 177.60010833976412 0 0 0 0 -17.848077047581683 -209.33670944654477 0 -209.33670944654477 -181.07936090634212 0 0 0 0 -28.756197023171126 -81.811237187106599 0 -81.811237187106599 106.07095064773966 0 0 0 0 132.94154309663304 -58.01630081285839 0 -58.01630081285839 -54.650605485852793 0 0 0 0 -39.452313535744508 -272.06797262551078 0 -272.06797262551078 408.69663310075703 0 0 0 0 -1.580338009625553 162.52431291650885 0 162.52431291650885 163.24632388087412 0 0 0 0 -616.81350139949359 -253.64163984532024 0 -253.64163984532024 693.07678624652908 0 0 0 0 -270.59739166215843 -124.35591103926527 0 -124.35591103926527 48.269239336001192 0 0 0 0 -497.0572773646586 166.55306935653607 0 166.55306935653607 97.681778214174301 0 0 0 0 1.4126446382865687 -11.084024674498238 0 -11.084024674498238 52.989737239113133 0 0 0 0 -0.31286135039488938 0.35616006939747002 0 0.35616006939747002 1.6382643904496277 0 0 0 0 243.87621113571026 96.477233201456329 0 96.477233201456329 -476.16575079810173 0 0 0 0 18.47204882452283 -60.097938933600062 0 -60.097938933600062 1.3607165937755781 0 0 0 0 -519.51014582713015 205.20907750080642 0 205.20907750080642 194.11793596544703 0 0 0 0 -0.61327872679433393 1.0094413313255188 0 1.0094413313255188 6.0288347288256503 0 0 0 0 -41.445424087358333 416.07436526516904 0 416.07436526516904 131.88520564130931 0 0 0 0 -120.3120569858151 -107.62779078654239 0 -107.62779078654239 369.79428509448428 0 0 0 0 -22.221220253272236 -178.63067405985294 0 -178.63067405985294 175.24665551098678 0 0 0 0 66.541564262591038 -31.34787598197012 0 -31.34787598197012 164.97103723377586 0 0 0 0 -3.7171815339888781 27.79523292948943 0 27.79523292948943 386.03311619380725 0 0 0 0 65.377313302837138 -131.1616381164813 0 -131.1616381164813 211.3282149251695 0 0 0 0 159.1276965416655 -212.70426248320473 0 -212.70426248320473 275.09220099329104 0 0 0 0 -18.537839408791115 -133.34139778609824 0 -133.34139778609824 275.69519072036178 0 0 0 0 197.86647999148499 -250.12996148025559 0 -250.12996148025559 285.18706726764867 0 0 0 0 47.929347998518551 -286.87580030130857 0 -286.87580030130857 367.4160853150679 0 0 0 0 181.14979647410473 -254.16818362944105 0 -254.16818362944105 456.28703895922581 0 0 0 0 510.50945886719637 -342.92040780402385 0 -342.92040780402385 490.86099596877375 0 0 0 0 795.09844094980872 -706.24699516304099 0 -706.24699516304099 740.3864465703482 0 0 0 0 698.80016485529995 -505.49611498158265 0 -505.49611498158265 418.45253243439674 0 0 0 0 676.64259890288668 -367.98462817390828 0 -367.98462817390828 251.99128346349426 0 0 0 0 958.00865234921912 -262.90761395245772 0 -262.90761395245772 208.56542257142792 0 0 0 0 660.25552568311014 -246.41954596797757 0 -246.41954596797757 216.47302783835039 0 0 0 0 481.68767068153102 -345.45048517081523 0 -345.45048517081523 313.89942516887095 0 0 0 0 416.98646306473165 -405.413346685953 0 -405.413346685953 349.46182592394871 0 0 0 0 414.72191345474312 -272.31843123257386 0 -272.31843123257386 217.61822708846375 0 0 0 0 601.99214502844006 -277.73677232602131 0 -277.73677232602131 171.46741063016088 0 0 0 0 275.95530232773126 -364.28287485390138 0 -364.28287485390138 347.848842495594 0 0 0 0 136.32083508849246 -251.53044370223643 0 -251.53044370223643 260.20467343896235 0 0 0 0 253.02502131319034 -291.3788883752286 0 -291.3788883752286 264.60486369755199 0 0 0 0 37.85997864032197 -329.26757048487343 0 -329.26757048487343 827.27162611176027 0 0 0 0 191.37627745645659 -532.26686492543649 0 -532.26686492543649 656.97249712365374 0 0 0 0 188.89075563778351 -539.3080514611438 0 -539.3080514611438 880.97180353692602 0 0 0 0 131.17134440068548 -465.8566668934991 0 -465.8566668934991 818.20885662492219 0 0 0 0 68.989998711878798 -438.60549103129279 0 -438.60549103129279 1025.3294887916154 0 0 0 0 -2666.4744136932736 1201.1718762117614 0 1201.1718762117614 -2820.2239936656006 0 0 0 0 -1.3362997927233353 3.6587834517317734 0 3.6587834517317734 20.864127449450795 0 0 0 0 797.20752756636102 -880.55486677932549 0 -880.55486677932549 720.19936010700258 0 0 0 0 130.72919424222883 -936.19638660557632 0 -936.19638660557632 1757.5241078524359 0 0 0 0 1664.5556507177571 -849.91819338384687 0 -849.91819338384687 383.28767909346789 0 0 0 0 1384.5084980107931 -399.7587103058795 0 -399.7587103058795 204.26020847109066 0 0 0 0 604.18893539780584 -284.76410102048249 0 -284.76410102048249 193.8655227888994 0 0 0 0 -82.444088261590423 775.57229768697482 0 775.57229768697482 -1077.5860488676626 0 0 0 0 -19.853315472886607 349.61891402608398 0 349.61891402608398 1212.0436333111866 0 0 0 0 -3.8678532824913852 3.8837311290411503 0 3.8837311290411503 66.375906907223467 0 0 0 0 -2430.2569114544008 -254.75395822230848 0 -254.75395822230848 5052.8483952370698 0 0 0 0 -211.74986290743982 -107.17571427666007 0 -107.17571427666007 2081.6405726710873 0 0 0 0 58.777445277188235 -181.68588816150395 0 -181.68588816150395 254.49643731903416 0 0 0 0 -73.380286495391147 166.87669939226055 0 166.87669939226055 242.40741592568884 0 0 0 0 3.0888360171338718 -152.53627916405185 0 -152.53627916405185 392.08169593315188 0 0 0 0 -149.08495394204238 -32.29052001865648 0 -32.29052001865648 907.59145125649593 0 0 0 0 31.17018989126791 -44.066334761673716 0 -44.066334761673716 -13.921411510449502 0 0 0 0 -0.93378571323449688 -1.3595341755617074 0 -1.3595341755617074 -0.86469419301451822 0 0 0 0 33.537588970015804 69.833798538450537 0 69.833798538450537 -61.917491082244851 0 0 0 0 -74.900280264642788 -2.0705481967261221 0 -2.0705481967261221 106.18879174246104 0 0 0 0 -5.2539163467330035 -7.3585228452900626 0 -7.3585228452900626 -8.0149850134769025 0 0 0 0 73.710904751139424 -19.584867767889705 0 -19.584867767889705 -49.842907474783715 0 0 0 0 551.66289543402172 57.829341121367179 0 57.829341121367179 -981.44505686984485 0 0 0 0 278.55467283133839 78.692504542839742 0 78.692504542839742 99.557418008647801 0 0 0 0 45.437188417186007 -479.89589225192935 0 -479.89589225192935 -957.32557850707235 0 0 0 0 28.599151795078797 -229.99929464621118 0 -229.99929464621118 72.779526102959721 0 0 0 0 147.07700973456849 -99.188921151125669 0 -99.188921151125669 3.3918202032928093 0 0 0 0 -223.21070142891858 178.22877129380822 0 178.22877129380822 174.06580699968072 0 0 0 0 288.04361500518189 -570.78955509985735 0 -570.78955509985735 650.82478417773928 0 0 0 0 26.001083640079742 -9.2100573438765423 0 -9.2100573438765423 -38.582519505975142 0 0 0 0 4.2063353664360719 -1.3154136343467329 0 -1.3154136343467329 -3.6291808774055827 0 0 0 0 12.463827258186512 -7.0692975389225836 0 -7.0692975389225836 -21.341514028809343 0 0 0 0 1.4770505784963461 -18.325392014696035 0 -18.325392014696035 19.700139019365338 0 0 0 0 -2.4769239956301004 -3.6231502709459731 0 -3.6231502709459731 1.4226586634142002 0 0 0 0 -0.25781366372673364 -14.287018331082384 0 -14.287018331082384 -15.251989266054913 0 0 0 0 338.20196452281562 -274.81687670651445 0 -274.81687670651445 175.92959609493846 0 0 0 0 292.4175307894584 -302.60999829791945 0 -302.60999829791945 213.90098823366134 0 0 0 0 276.43526627213851 -255.60397662230935 0 -255.60397662230935 170.67438023209161 0 0 0 0 -4.5530879090503973 3.6836854079639014 0 3.6836854079639014 89.735080241625937 0 0 0 0 -802.92359841353073 -5.4553010448780697 0 -5.4553010448780697 301.31508942396795 0 0 0 0 331.10486282391503 -215.72653666068072 0 -215.72653666068072 173.30606250608434 0 0 0 0 317.64454819379171 -226.04233278047468 0 -226.04233278047468 165.43603819884174 0 0 0 0 210.66809499108058 -109.34326247531135 0 -109.34326247531135 86.11331237068589 0 0 0 0 184.30236004672633 -264.52501022728666 0 -264.52501022728666 253.35511137716821 0 0 0 0 160.16219336757149 -203.01491406460627 0 -203.01491406460627 177.92087928198816 0 0 0 0 195.89056084270305 -408.12280757211374 0 -408.12280757211374 440.51893998659943 0 0 0 0 84.518867694941946 101.26046592727107 0 101.26046592727107 42.848993660089036 0 0 0 0 18.25582570485858 -208.66849708821428 0 -208.66849708821428 285.30083508754979 0 0 0 0 -8.7986705404900931 5.360272527566849 0 5.360272527566849 118.18906192203576 0 0 0 0 6.1971460897843826 -32.753645341472293 0 -32.753645341472293 108.03294887902211 0 0 0 0 -18.094711736351684 19.133373407291955 0 19.133373407291955 35.756152917825922 0 0 0 0 1.9890164409098361 -20.302227867205602 0 -20.302227867205602 72.076966796006673 0 0 0 0 -0.50828196608745202 -6.8671087785005511 0 -6.8671087785005511 138.64127805106364 0 0 0 0 48.003294626997558 -14.403217734734426 0 -14.403217734734426 78.376395570598106 0 0 0 0 49.792069753370015 -85.462680216798617 0 -85.462680216798617 108.34498003934459 0 0 0 0 -1.995529840226947 0.65279597250751031 0 0.65279597250751031 0.087843586392452266 0 0 0 0 -68.75900222126802 -97.171056693339779 0 -97.171056693339779 274.21027048503311 0 0 0 0 -10.582100335584554 5.1243532394713061 0 5.1243532394713061 99.318251389752319 0 0 0 0 3.8245895711852427 -42.389130339860003 0 -42.389130339860003 68.24846218683615 0 0 0 0 -192.33838283461546 -67.629668386903859 0 -67.629668386903859 164.65704024707338 0 0 0 0 -8.7086831664524169 -24.664579549591963 0 -24.664579549591963 -3.3353239018370262 0 0 0 0 -2.1665157513511986 -52.605905384653397 0 -52.605905384653397 54.208396835932945 0 0 0 0 -30.01055972748145 -39.199696790778034 0 -39.199696790778034 56.353448041102183 0 0 0 0 -3.1078011173264564 -23.893558326546447 0 -23.893558326546447 -17.681486218251358 0 0 0 0 -0.47739244429166638 -14.405563797747378 0 -14.405563797747378 30.509751777910243 0 0 0 0 -9.3809987227446072 -16.975836639747683 0 -16.975836639747683 25.469254571937199 0 0 0 0 -2.1013280035062962 -18.211625227669003 0 -18.211625227669003 19.74963764829954 0 0 0 0 -3.6276234946476507 -12.210851199304329 0 -12.210851199304329 29.303050966653018 0 0 0 0 -0.62874281834774592 -10.637664822486613 0 -10.637664822486613 28.957048551654225 0 0 0 0 -20.018329959769289 4.1164782326122804 0 4.1164782326122804 46.436167955786232 0 0 0 0 -24.222051547847514 -1.0376913721415804 0 -1.0376913721415804 43.451639350147161 0 0 0 0 -50.609692557205562 2.1508740305434912 0 2.1508740305434912 61.151665999110264 0 0 0 0 -15.400105148534749 14.016608431311397 0 14.016608431311397 37.130699693349925 0 0 0 0 -2.6432599970148658 -49.423581329542458 0 -49.423581329542458 75.766502616460059 0 0 0 0 -3.6236547635512579 -11.980773385720113 0 -11.980773385720113 34.487323102351183 0 0 0 0 -1.989509695646692 -8.5004536365871086 0 -8.5004536365871086 34.412906672796474 0 0 0 0 -1.2988596275750544 -0.77453016048058254 0 -0.77453016048058254 5.2866736526312375 0 0 0 0 -3.3766314759236593 -10.738753781885293 0 -10.738753781885293 37.657547238460211 0 0 0 0 23.093714439454288 -22.207541396968168 0 -22.207541396968168 57.218263299448154 0 0 0 0 31.412920081791526 -31.891155699784576 0 -31.891155699784576 70.360200781368803 0 0 0 0 -9.3457439785015595 -37.72532608847996 0 -37.72532608847996 77.04023176771625 0 0 0 0 22.263710509027987 -22.879353911042017 0 -22.879353911042017 90.344493566083202 0 0 0 0 71.85047947203293 -52.182824269002595 0 -52.182824269002595 76.307357138795851 0 0 0 0 -1.7589232116295395 4.7014221015293973 0 4.7014221015293973 0.52567159419938392 0 0 0 0 31.67913579610763 -14.940770423323215 0 -14.940770423323215 52.231501225446664 0 0 0 0 34.785743246374068 -7.0635287988352502 0 -7.0635287988352502 56.396330173680326 0 0 0 0 -7.4409652975764402 -16.531491764094881 0 -16.531491764094881 65.197742976826703 0 0 0 0 24.977287656850422 -27.977527798199844 0 -27.977527798199844 55.100599905749959 0 0 0 0 28.148629637538559 -11.644791171402858 0 -11.644791171402858 56.039547585831315 0 0 0 0 -8.0767259851809676 15.626868239195389 0 15.626868239195389 59.229648302593887 0 0 0 0 -15.020558310128113 12.569985701689175 0 12.569985701689175 18.572541703964554 0 0 0 0 -2.7579626875436549 -8.7236626689564218 0 -8.7236626689564218 60.706435443116334 0 0 0 0 -12.672288393665795 13.77679779862436 0 13.77679779862436 18.239491481129257 0 0 0 0 9.5685454516287791 6.7026298033160856 0 6.7026298033160856 24.996471510872652 0 0 0 0 -5.307720838934074 22.328297162592207 0 22.328297162592207 28.885995662592904 0 0 0 0 -25.428761726296898 -2.0930775073506993 0 -2.0930775073506993 71.871057051110256 0 0 0 0 -12.511246525018679 10.185459423818884 0 10.185459423818884 81.217845615846215 0 0 0 0 -21.183811432120365 13.321326177170704 0 13.321326177170704 17.714649298784934 0 0 0 0 -0.78471281164027928 0.33057158497551598 0 0.33057158497551598 2.8081820096371111 0 0 0 0 1.2725979599124555 4.9728710723666429 0 4.9728710723666429 -3.5798901496600166 0 0 0 0 -9.2975214755099387 -6.6447425556143571 0 -6.6447425556143571 51.100632202535053 0 0 0 0 -13.409633907642274 -10.342455350353703 0 -10.342455350353703 53.349575176682265 0 0 0 0 1.7988169430605012 -13.409052849307045 0 -13.409052849307045 52.308480678662818 0 0 0 0 -0.047012568000354804 6.7361906071037083 0 6.7361906071037083 45.262083116711437 0 0 0 0 2.524281340282414 1.6927289353061497 0 1.6927289353061497 54.468232486960915 0 0 0 0 2.7588526764411654 -7.2128731152661203 0 -7.2128731152661203 56.95273566751348 0 0 0 0 2.7255371579133225 -19.805104719623159 0 -19.805104719623159 96.927267215698521 0 0 0 0 13.024817749070962 -2.3625119110261039 0 -2.3625119110261039 59.063687006771943 0 0 0 0 4.5129578010128171 -11.625896901654414 0 -11.625896901654414 79.863429455758705 0 0 0 0 -14.058938034433595 14.437917894689235 0 14.437917894689235 65.105713096446834 0 0 0 0 18.202287934603646 -1.523321376943386 0 -1.523321376943386 51.338467814912292 0 0 0 0 -17.329183703606304 6.6053270467973562 0 6.6053270467973562 49.862118806828221 0 0 0 0 6.8801816677405441 -2.1471197754235618 0 -2.1471197754235618 32.750586295782341 0 0 0 0 14.975570589870586 15.650166407661118 0 15.650166407661118 64.668851634392468 0 0 0 0 -37.908574501375369 -26.80429860362301 0 -26.80429860362301 76.616834169767856 0 0 0 0 -0.39919023960442246 -17.014139754799487 0 -17.014139754799487 40.920252602509663 0 0 0 0 5.864996654290735 -12.855201599877091 0 -12.855201599877091 43.410418669399405 0 0 0 0 -2.7813502584103844 -0.57862364608536154 0 -0.57862364608536154 40.872731550970457 0 0 0 0 -3.3570676386889318 3.7619727732076171 0 3.7619727732076171 30.115391893883498 0 0 0 0 -3.9962475671126292 3.7223918036466692 0 3.7223918036466692 27.441148998590293 0 0 0 0 -0.15805276826386461 1.2972712717632149 0 1.2972712717632149 3.8473522429329385 0 0 0 0 -21.255734514373216 -0.055932772984306212 0 -0.055932772984306212 19.23065313473785 0 0 0 0 -5.7173055107045911 4.4663913598803333 0 4.4663913598803333 59.095099686743197 0 0 0 0 0.91341092780068323 0.92460594665256934 0 0.92460594665256934 -1.4965086164095194 0 0 0 0 -36.927833071701571 -19.108009423206113 0 -19.108009423206113 -0.78600408978991254 0 0 0 0 -44.72006072610202 -72.606003194895948 0 -72.606003194895948 -11.883781230363923 0 0 0 0 -7.038259325670424 -18.010654890692422 0 -18.010654890692422 35.730074797935231 0 0 0 0 -56.678856971713685 -45.998774125785076 0 -45.998774125785076 67.041162972433995 0 0 0 0 -36.928691150194936 -49.459904665726754 0 -49.459904665726754 51.90612875014267 0 0 0 0 -9.3687866967866285 -36.739663752715842 0 -36.739663752715842 53.337812013482107 0 0 0 0 3.6554487229750521 -52.976202815631041 0 -52.976202815631041 50.582297756919615 0 0 0 0 -41.187746377943768 -32.85704793292507 0 -32.85704793292507 65.902062572852628 0 0 0 0 -3.033867374330157 -27.417880116755953 0 -27.417880116755953 103.27489944576291 0 0 0 0 -0.21706769511547463 11.760300080088541 0 11.760300080088541 84.58471941207398 0 0 0 0 -24.987999919995673 29.397735629831914 0 29.397735629831914 146.87095640526536 0 0 0 0 -1.2798324054661627 0.90507170415038973 0 0.90507170415038973 0.55384120466678866 0 0 0 0 -2.3835406054604391 -25.181173259033926 0 -25.181173259033926 26.331617840049603 0 0 0 0 -24.482909273135647 -19.079869221841655 0 -19.079869221841655 32.994453230985037 0 0 0 0 -18.832104328797868 -25.457684892732562 0 -25.457684892732562 28.627273245673386 0 0 0 0 0.80900924587604095 -7.4330235357701895 0 -7.4330235357701895 34.765718367792829 0 0 0 0 8.943749060249047 -13.567705943128374 0 -13.567705943128374 25.191796404313664 0 0 0 0 -5.1630854766299308 -18.297951633887649 0 -18.297951633887649 24.211382245934306 0 0 0 0 0.55706604359238554 -15.159960639280122 0 -15.159960639280122 21.919397698470775 0 0 0 0 -5.7019935198632083 -11.877266599945074 0 -11.877266599945074 19.049762920223202 0 0 0 0 -0.80668994623283652 -15.782220893393742 0 -15.782220893393742 21.957205768702337 0 0 0 0 -5.6082244664130485 -18.078173397017338 0 -18.078173397017338 25.57441882953464 0 0 0 0 -8.9592417439071141 -17.001720245286833 0 -17.001720245286833 25.712284826317315 0 0 0 0 -18.498713143840178 -11.690133950973291 0 -11.690133950973291 27.180745918326238 0 0 0 0 -22.455088668782992 -18.001220910838356 0 -18.001220910838356 33.019858126246305 0 0 0 0 -7.5397257182503381 -18.682961223594361 0 -18.682961223594361 23.381856648208554 0 0 0 0 -15.95188680055935 -10.978415605457172 0 -10.978415605457172 32.311669893634416 0 0 0 0 0.18891011682080716 -15.252560669183538 0 -15.252560669183538 29.291043373062507 0 0 0 0 12.27068648121076 -15.265125593769199 0 -15.265125593769199 26.954364816390523 0 0 0 0 5.3925977499775399 -13.227705276913966 0 -13.227705276913966 29.27733708903321 0 0 0 0 4.6668752775167377 -15.385591515853264 0 -15.385591515853264 24.030088282443785 0 0 0 0 14.040042007486591 -22.011259752978958 0 -22.011259752978958 7.0458658910865779e-05 0 0 0 0 -46.173580276867142 -35.728874133034424 0 -35.728874133034424 20.882813545303293 0 0 0 0 -10.347654059674142 -23.630052556359402 0 -23.630052556359402 24.947494786602419 0 0 0 0 16.361400882612543 -40.692533843850924 0 -40.692533843850924 -28.201030373469166 0 0 0 0 39.345660160875013 -3.1785144486289028 0 -3.1785144486289028 6.0034295860230031 0 0 0 0 7.5061293957633097 -13.055884892302174 0 -13.055884892302174 18.615808031500535 0 0 0 0 -7.0028781797054762 -0.95160742669236242 0 -0.95160742669236242 20.033625619738359 0 0 0 0 -40.620220743660866 -7.1411665997500222 0 -7.1411665997500222 28.283914989883669 0 0 0 0 -23.309517963916733 -12.924673547438715 0 -12.924673547438715 26.864726129935207 0 0 0 0 -2.3940564507033617 0.4653715619044636 0 0.4653715619044636 0.49151773880867644 0 0 0 0 -27.070277345410432 -0.82566687803318928 0 -0.82566687803318928 20.682134936956004 0 0 0 0 35.663134938507937 -99.048862777784507 0 -99.048862777784507 -18.798670612866317 0 0 0 0 0.8437769269785349 44.302999196070459 0 44.302999196070459 -54.037184814226521 0 0 0 0 -14.023691141183008 -12.986227531485156 0 -12.986227531485156 -5.6888908840792283 0 0 0 0 0.75670815588142304 -1.3775917144458729 0 -1.3775917144458729 0.26207918175517619 0 0 0 0 -2.6222523588938973 -5.4175881001207724 0 -5.4175881001207724 -2.4967796473014996 0 0 0 0 0.14880235984628598 -67.9878834691051 0 -67.9878834691051 509.20275730065259 0 0 0 0 -2.6574087870039875 -143.67633229771855 0 -143.67633229771855 543.55228276644993 0 0 0 0 77.722876270929191 -229.51280571042389 0 -229.51280571042389 565.21298671223667 0 0 0 0 48.599801386436411 -172.35419817475577 0 -172.35419817475577 719.86928044262686 0 0 0 0 190.16190717546215 -309.5277999307018 0 -309.5277999307018 606.9426072376009 0 0 0 0 44.666394396751457 -276.61785470514769 0 -276.61785470514769 601.06563994442695 0 0 0 0 -66.898780111604992 -28.090967793117443 0 -28.090967793117443 196.46315368623709 0 0 0 0 -0.66298781214612745 -1.0544312713230752 0 -1.0544312713230752 2.129277444265913 0 0 0 0 -74.099621862616914 71.500620607537485 0 71.500620607537485 56.217629343048884 0 0 0 0 6.0824247454958993 -6.7233641839207596 0 -6.7233641839207596 2.366461685927681 0 0 0 0 -36.223607717147388 -27.513278467022246 0 -27.513278467022246 0.30011254942701271 0 0 0 0 -119.51826644689299 -104.80784786219601 0 -104.80784786219601 555.67634801478471 0 0 0 0 -21.425600371882865 -197.01696724801332 0 -197.01696724801332 415.06797490928557 0 0 0 0 34.280866680717963 -41.020726144530272 0 -41.020726144530272 356.21321878420895 0 0 0 0 112.37038556611787 -56.00268063263843 0 -56.00268063263843 199.76541559421639 0 0 0 0 -27.717328626495146 -111.78406795393016 0 -111.78406795393016 667.44053539749621 0 0 0 0 -0.083839680081382539 -126.22951649313745 0 -126.22951649313745 558.57360413038373 0 0 0 0 -17.023648018683161 -142.44052945101475 0 -142.44052945101475 595.17675540531854 0 0 0 0 101.05847230610289 -207.00182562677492 0 -207.00182562677492 489.02121809601931 0 0 0 0 223.07861720910296 33.027952457004176 0 33.027952457004176 449.53808695754515 0 0 0 0 130.23061222930886 -147.66898904481525 0 -147.66898904481525 235.97452932867418 0 0 0 0 115.060826695787 -187.79560547982783 0 -187.79560547982783 479.95104629973866 0 0 0 0 139.60850490819985 -96.732682974844465 0 -96.732682974844465 172.71581422309464 0 0 0 0 133.88738489761761 -69.579715662117906 0 -69.579715662117906 16.509630960618779 0 0 0 0 98.440611955648819 -131.48402219957643 0 -131.48402219957643 150.05775991532028 0 0 0 0 152.14924888417727 -66.136643552241367 0 -66.136643552241367 182.81155862432297 0 0 0 0 120.0672580936216 -101.96513581760973 0 -101.96513581760973 149.90266111451001 0 0 0 0 37.723529917414908 41.361173557532311 0 41.361173557532311 -5.2557958467332355 0 0 0 0 -6.3559353050045502 -10.283787907138958 0 -10.283787907138958 -8.2171012204071303 0 0 0 0 -1.5342520972681086 15.40761831126224 0 15.40761831126224 -35.460192728952279 0 0 0 0 0.50416308692070366 1.6369334971554963 0 1.6369334971554963 8.6098321471103532 0 0 0 0 -0.033956076553409709 0.68465187823454521 0 0.68465187823454521 3.9414110481967732 0 0 0 0 27.144243775338509 31.834167209312 0 31.834167209312 45.548129709974432 0 0 0 0 -0.091630412331665134 1.3809332365449922 0 1.3809332365449922 1.3955953520472129 0 0 0 0 252.58498528900327 -187.57655935708954 0 -187.57655935708954 63.726480054075353 0 0 0 0 49.767415966315639 -19.552469096949608 0 -19.552469096949608 0.3670481141149935 0 0 0 0 -82.67053832597685 61.271385393826677 0 61.271385393826677 479.89772182743855 0 0 0 0 172.20180204463031 65.665028902601989 0 65.665028902601989 59.637738512662509 0 0 0 0 261.01396838205574 -333.15324646997578 0 -333.15324646997578 444.46006202595345 0 0 0 0 0.4372800344855019 1.1357775619562602 0 1.1357775619562602 4.2923350247797032 0 0 0 0 98.21655123077926 -247.16438904142342 0 -247.16438904142342 679.01754770487059 0 0 0 0 330.43581343357255 -113.86039330097083 0 -113.86039330097083 592.42838448574139 0 0 0 0 149.44866820940297 -205.10170240525076 0 -205.10170240525076 532.37952246685018 0 0 0 0 103.66745634536164 -218.90441107296169 0 -218.90441107296169 547.75365891760339 0 0 0 0 122.12284461063064 -180.41840441316253 0 -180.41840441316253 533.55221321258432 0 0 0 0 125.29589943522114 -350.94070723050027 0 -350.94070723050027 499.80588753093616 0 0 0 0 299.68422479895798 -319.19357387911532 0 -319.19357387911532 449.93429648089841 0 0 0 0 146.93882163883023 -411.02771338460633 0 -411.02771338460633 482.71222275820219 0 0 0 0 144.07173260704144 -389.78882608062986 0 -389.78882608062986 510.70665012276186 0 0 0 0 231.87432756364069 -482.20458750158468 0 -482.20458750158468 370.33702063565056 0 0 0 0 -52.108349446834836 -164.68382215075962 0 -164.68382215075962 339.15702302852515 0 0 0 0 115.4645644359498 155.30982136996499 0 155.30982136996499 -118.43876827445243 0 0 0 0 647.59298434125139 -434.95069429674913 0 -434.95069429674913 127.78127214850974 0 0 0 0 522.22865335873939 -238.90007432139009 0 -238.90007432139009 -128.81767058159858 0 0 0 0 199.71661135995782 -317.65247349851961 0 -317.65247349851961 266.002072682375 0 0 0 0 510.89821069396112 -604.12924966380979 0 -604.12924966380979 423.48312254992561 0 0 0 0 1669.2554573204638 -1130.1733989404001 0 -1130.1733989404001 619.53941878621481 0 0 0 0 -1.0468696579976333 2.7350452325193046 0 2.7350452325193046 24.191923803397181 0 0 0 0 -2111.642101621761 1746.3399916550334 0 1746.3399916550334 -2984.3849064086025 0 0 0 0 670.98862315631413 -701.80402228787352 0 -701.80402228787352 914.33955823249562 0 0 0 0 726.66973680938145 -466.66947244713901 0 -466.66947244713901 665.69808081636438 0 0 0 0 117.0494864749453 -129.49040016446997 0 -129.49040016446997 2126.1614419980024 0 0 0 0 378.92746521676781 307.93254170003593 0 307.93254170003593 437.82587064561085 0 0 0 0 1019.5998869542145 -1272.4206519726936 0 -1272.4206519726936 1544.919543316506 0 0 0 0 93.599850885384512 -3052.7430910521762 0 -3052.7430910521762 5986.7555157751194 0 0 0 0 120.64526524632311 31.897254793255343 0 31.897254793255343 304.13859278790096 0 0 0 0 -107.17100379320118 661.65620412058456 0 661.65620412058456 956.75611589335313 0 0 0 0 232.29053815578663 193.20573611503505 0 193.20573611503505 -434.95900518910094 0 0 0 0 33.745144042393804 384.30015100920627 0 384.30015100920627 631.87454524619352 0 0 0 0 -4.1880231498617331 2.3598190080473049 0 2.3598190080473049 47.022380441283801 0 0 0 0 -275.0331701976711 147.03618589937469 0 147.03618589937469 263.87087601946405 0 0 0 0 -1200.6032556185205 249.92223414993282 0 249.92223414993282 1584.8468099407528 0 0 0 0 -134.61717548366596 -163.79582699427283 0 -163.79582699427283 84.313825031673332 0 0 0 0 -25.476196925562363 -117.63921325167348 0 -117.63921325167348 406.8568191759332 0 0 0 0 160.40173273349046 -46.397004828295394 0 -46.397004828295394 163.08144499552873 0 0 0 0 145.64849063687871 -127.61505343877252 0 -127.61505343877252 598.66338585699214 0 0 0 0 319.09217732731668 -155.85279251463635 0 -155.85279251463635 492.11906750207845 0 0 0 0 406.65480799908983 -437.08451433776827 0 -437.08451433776827 569.74594543929925 0 0 0 0 339.79851289074941 -534.96767658963472 0 -534.96767658963472 874.60373505598909 0 0 0 0 643.51926026830733 90.550580073452693 0 90.550580073452693 154.15271758174185 0 0 0 0 -0.11412267549621724 -0.88033787179948497 0 -0.88033787179948497 -1.1703285896709268 0 0 0 0 273.12633625666876 -129.0059103922639 0 -129.0059103922639 34.440091908210889 0 0 0 0 42.511211120156986 193.06758088840297 0 193.06758088840297 335.54660512922601 0 0 0 0 64.58767074267962 -46.877747317194007 0 -46.877747317194007 -33.397680692609356 0 0 0 0 96.770762351512985 102.25991693967825 0 102.25991693967825 -126.35466293265472 0 0 0 0 173.51636004258853 47.488877665102791 0 47.488877665102791 42.516518114190148 0 0 0 0 177.49208689498937 40.286545499036038 0 40.286545499036038 -135.05594940667652 0 0 0 0 -7.819807573975595 85.200121352165297 0 85.200121352165297 18.998569524414961 0 0 0 0 46.461997668210813 30.834060388626312 0 30.834060388626312 -21.971461542905672 0 0 0 0 -162.83627448983634 187.30551855254726 0 187.30551855254726 -134.37695216074735 0 0 0 0 7.0374477795026875 15.479979530292249 0 15.479979530292249 25.887615679025998 0 0 0 0 -77.234218957903067 1.5172032960967954 0 1.5172032960967954 -77.646520643329495 0 0 0 0 5.0982137413375312 137.91181229490121 0 137.91181229490121 -194.78095814749986 0 0 0 0 -111.59660579583505 215.70853510560613 0 215.70853510560613 -128.29725281998435 0 0 0 0 -152.56930719916454 117.87682438312459 0 117.87682438312459 26.444419358468622 0 0 0 0 -4.6409339392592095 -0.17703137097109156 0 -0.17703137097109156 44.739944840334374 0 0 0 0 62.226521515351294 137.38062584350556 0 137.38062584350556 -41.895301896401179 0 0 0 0 177.52356168417737 -265.82641881740619 0 -265.82641881740619 -365.08498085543067 0 0 0 0 412.98132356743281 -134.27067231958222 0 -134.27067231958222 -59.357991726156797 0 0 0 0 0.50470167218208495 -1.1514211041506819 0 -1.1514211041506819 -4.3266080613953832 0 0 0 0 153.56233690448789 -23.944541610627766 0 -23.944541610627766 44.745699356956948 0 0 0 0 -164.98280913565941 17.396767859259171 0 17.396767859259171 74.719283047331373 0 0 0 0 -22.611165153874936 -9.3239895344770503 0 -9.3239895344770503 41.948823906267535 0 0 0 0 66.842443537102554 -113.27305213130376 0 -113.27305213130376 59.010371805325718 0 0 0 0 0.45326839429203503 -0.87136887821122322 0 -0.87136887821122322 -4.5249824098804545 0 0 0 0 278.09091221013114 -73.281430868321422 0 -73.281430868321422 -14.631456025358602 0 0 0 0 224.27047220844679 34.97733512986747 0 34.97733512986747 -62.234428774740991 0 0 0 0 77.572293002896913 35.38335112578352 0 35.38335112578352 26.690267419994143 0 0 0 0 119.43675357515349 -12.490717577612486 0 -12.490717577612486 40.717763547677578 0 0 0 0 166.90206852154733 -12.684421192945138 0 -12.684421192945138 5.2098682754099173 0 0 0 0 129.1981254381119 33.758685812582428 0 33.758685812582428 -7.5730927285421785 0 0 0 0 75.403112757185227 18.906147063831213 0 18.906147063831213 8.7901351171253737 0 0 0 0 17.64562858800582 23.197307225121222 0 23.197307225121222 27.47662404113953 0 0 0 0 63.883068342094703 -10.333492207923427 0 -10.333492207923427 17.221974934130003 0 0 0 0 1.4353797690563823 0.42342851926494518 0 0.42342851926494518 -2.1441118190936095 0 0 0 0 17.268743618145891 -28.331522659088932 0 -28.331522659088932 32.296472751566398 0 0 0 0 176.7026634857807 -86.827091156884819 0 -86.827091156884819 13.099232021808348 0 0 0 0 -37.143416811547311 -5.2131502971062673 0 -5.2131502971062673 110.5349326195028 0 0 0 0 -335.51730412526513 130.2161551789502 0 130.2161551789502 -39.781261142063158 0 0 0 0 2.8705604566535419 4.9478908372727215 0 4.9478908372727215 0.9102711599775013 0 0 0 0 -44.483802254651891 107.44099841399111 0 107.44099841399111 -3.6924416754259255 0 0 0 0 -55.972002270795201 61.510520702150643 0 61.510520702150643 -36.965034891333744 0 0 0 0 0.66850850056380295 135.45811910836665 0 135.45811910836665 -61.359267721170909 0 0 0 0 34.935436793687813 21.751688870709131 0 21.751688870709131 -56.812391347978519 0 0 0 0 86.321904998882928 75.95334659184482 0 75.95334659184482 -42.034059400694787 0 0 0 0 55.996181721327957 78.05903265892448 0 78.05903265892448 30.133389816849274 0 0 0 0 5.0246535350252088 60.361092647130135 0 60.361092647130135 49.924763747923862 0 0 0 0 -38.251934102205269 79.263842321088759 0 79.263842321088759 43.477028885720756 0 0 0 0 -4.4673331534626142 -1.9848270946431841 0 -1.9848270946431841 4.1087495461513424 0 0 0 0 -32.674346992112078 -45.278648827863435 0 -45.278648827863435 41.581687126112229 0 0 0 0 0.3581078421251993 12.445906805167944 0 12.445906805167944 30.900199107285076 0 0 0 0 -5.5383771981987042 0.050143024661942093 0 0.050143024661942093 7.0573988053706884 0 0 0 0 -0.34690400668819166 8.7937989634883706 0 8.7937989634883706 18.80222683928514 0 0 0 0 -0.10316044686483949 6.0955863329440838 0 6.0955863329440838 17.133935364046902 0 0 0 0 5.1821182276100402 11.060647543363871 0 11.060647543363871 18.858378506294169 0 0 0 0 -16.583484599203075 65.327098767123516 0 65.327098767123516 30.94967572808082 0 0 0 0 40.766039281926908 -12.165223703403399 0 -12.165223703403399 -45.037889865499892 0 0 0 0 1.0857514036099474 71.060099093711301 0 71.060099093711301 26.34294560158196 0 0 0 0 7.0654787429625117 4.8975835654937363 0 4.8975835654937363 7.8454782084026924 0 0 0 0 125.41208215743836 56.797034247848387 0 56.797034247848387 -6.0324222159733836 0 0 0 0 315.9883669442097 185.83693130639085 0 185.83693130639085 -219.90663007087142 0 0 0 0 94.495192667331139 17.105974957798708 0 17.105974957798708 -17.040557901107604 0 0 0 0 2.3140350131281622 -0.85689543935386503 0 -0.85689543935386503 0.93947812445021128 0 0 0 0 8.9522227107017898 -8.8714058009791188 0 -8.8714058009791188 155.46653077028623 0 0 0 0 2.0977289055768651 -0.92742859737318106 0 -0.92742859737318106 0.50082726842448899 0 0 0 0 80.807728796269657 -94.730813208920154 0 -94.730813208920154 81.140900471849818 0 0 0 0 113.45086810514113 -19.218229524261574 0 -19.218229524261574 2.3542270938087313 0 0 0 0 43.650803098575807 36.967594788658118 0 36.967594788658118 2.157598595554191 0 0 0 0 26.218349539198243 -47.925775885056282 0 -47.925775885056282 107.36625266433566 0 0 0 0 71.005983590424876 -10.198564342738791 0 -10.198564342738791 -57.389158859450845 0 0 0 0 -1.3783181286933264 3.4552421315699178 0 3.4552421315699178 3.5982393544521329 0 0 0 0 -15.521123839074647 -11.209170815675655 0 -11.209170815675655 2.6527408960696448 0 0 0 0 -60.991782908024106 76.799083035760759 0 76.799083035760759 76.427164989273479 0 0 0 0 52.370280537385042 -19.717256286880001 0 -19.717256286880001 12.527981621277831 0 0 0 0 15.908667395443008 15.695405613228843 0 15.695405613228843 13.786304851098206 0 0 0 0 106.8189709904882 10.692576243789517 0 10.692576243789517 -61.122660802267092 0 0 0 0 73.228780501651272 19.83229046438737 0 19.83229046438737 22.927754658186132 0 0 0 0 261.23661985076615 19.966570460077946 0 19.966570460077946 13.922221026828993 0 0 0 0 91.723601639585468 -139.51837576084608 0 -139.51837576084608 372.62012146093002 0 0 0 0 73.564478246820727 -67.541170466219228 0 -67.541170466219228 155.00573036458536 0 0 0 0 103.94003990884812 -38.578024884842762 0 -38.578024884842762 -33.244036156843322 0 0 0 0 1.0486751556508112 -2.2083437306805376 0 -2.2083437306805376 14.594820210646208 0 0 0 0 -0.13780541393358625 -4.1310480813172212 0 -4.1310480813172212 16.771401467181391 0 0 0 0 31.28542771845423 3.9852991197180927 0 3.9852991197180927 36.970265848930921 0 0 0 0 2.395604428779734 2.3344361784010346 0 2.3344361784010346 16.454602374065644 0 0 0 0 -80.189417272049013 -67.538047521245176 0 -67.538047521245176 94.380608900840343 0 0 0 0 -81.550346228495982 -68.705097922979917 0 -68.705097922979917 156.11900802442869 0 0 0 0 -15.292508203893703 44.707744361812388 0 44.707744361812388 6.7608345148586864 0 0 0 0 -33.389461805980318 3.7326862560049676 0 3.7326862560049676 26.979444083850083 0 0 0 0 -6.7494308005534549 0.35046911955458881 0 0.35046911955458881 12.861817672605753 0 0 0 0 68.063317832660687 67.253471885368072 0 67.253471885368072 72.322610996371623 0 0 0 0 1.1790478939892637 -12.685704618526415 0 -12.685704618526415 -15.228574218781432 0 0 0 0 11.990837164521054 1.6641613613062418 0 1.6641613613062418 15.577718488182654 0 0 0 0 -151.47975970309926 107.08251882959485 0 107.08251882959485 -74.596293790767959 0 0 0 0 1.3239206197443671 -2.2648243721133481 0 -2.2648243721133481 3.5061386575492826 0 0 0 0 11.155341673918883 -41.25715416562889 0 -41.25715416562889 35.496664597671042 0 0 0 0 4.9051599269162338 -0.0030384204310855978 0 -0.0030384204310855978 22.563483363142502 0 0 0 0 -0.3985199554447636 2.2308645752520322 0 2.2308645752520322 3.6095821380691859 0 0 0 0 29.865701532061394 -3.6671642171877465 0 -3.6671642171877465 9.4681586736833196 0 0 0 0 25.763502048905139 -4.8033119130486739 0 -4.8033119130486739 10.596288539477428 0 0 0 0 10.943550125658021 -12.849874839969289 0 -12.849874839969289 19.351955667083985 0 0 0 0 24.447152242461925 -5.3891338653634193 0 -5.3891338653634193 10.429208845528365 0 0 0 0 6.3123750654694959 -21.38119552361195 0 -21.38119552361195 29.178423179434958 0 0 0 0 9.6693095078870801 -2.2312005452558061 0 -2.2312005452558061 1.7944386096104772 0 0 0 0 8.7334878163487897 0.32763465066270037 0 0.32763465066270037 -1.2678268441992939 0 0 0 0 1.7421788131105131 -6.6281018389672681 0 -6.6281018389672681 20.343205829150065 0 0 0 0 -208.75758452760078 -47.734782043755104 0 -47.734782043755104 231.4583410561354 0 0 0 0 3.0330463505651517 3.5888942233304579 0 3.5888942233304579 11.826780903197671 0 0 0 0 396.79824711323363 16.93902397099373 0 16.93902397099373 -39.1979482325562 0 0 0 0 122.24295080431807 -78.590540520319337 0 -78.590540520319337 -1.5761569702826819 0 0 0 0 -28.205102117161005 0.067573238064596808 0 0.067573238064596808 21.56150429989043 0 0 0 0 14.081456093649876 -7.0364154648937074 0 -7.0364154648937074 11.460359116827931 0 0 0 0 0.61836417093156637 3.4255237135071717 0 3.4255237135071717 12.646773977463315 0 0 0 0 -18.752914288549846 18.67407597069905 0 18.67407597069905 25.86188676950951 0 0 0 0 110.3221559601443 -60.059490362116776 0 -60.059490362116776 25.683890226206255 0 0 0 0 118.44343252240742 -41.048467311250079 0 -41.048467311250079 70.186576702619277 0 0 0 0 166.58802988386742 -95.625371460704628 0 -95.625371460704628 48.571115946328064 0 0 0 0 -14.001916407568842 1.8022137219300021 0 1.8022137219300021 52.103179292033019 0 0 0 0 0.72663194379330776 3.1026473128036542 0 3.1026473128036542 11.158253105557634 0 0 0 0 43.132095160503013 34.539520129007087 0 34.539520129007087 -32.01838312872087 0 0 0 0 -36.794666277595525 40.121344390479862 0 40.121344390479862 18.65269479417293 0 0 0 0 -12.182795507274932 -21.475804041840092 0 -21.475804041840092 115.90037387239227 0 0 0 0 -29.800850392184429 -72.309519830273985 0 -72.309519830273985 117.09926335486216 0 0 0 0 -3.7996699690500648 -4.8741773825659553 0 -4.8741773825659553 34.206628340325075 0 0 0 0 -4.080649819384214 2.1422661458483701 0 2.1422661458483701 8.1884265945553079 0 0 0 0 -35.390650583759452 44.601838558450027 0 44.601838558450027 25.265404373233082 0 0 0 0 49.509411516878572 37.009336786296444 0 37.009336786296444 -22.794998997926996 0 0 0 0 0.38435213156771653 -3.8777336957860342 0 -3.8777336957860342 11.558707124741378 0 0 0 0 -29.966066067600423 25.80001250887517 0 25.80001250887517 19.604108981890022 0 0 0 0 0.74520929615139231 -2.8931898207338165 0 -2.8931898207338165 20.284974407770555 0 0 0 0 0.025892290470934221 0.070488294235153681 0 0.070488294235153681 0.90758077935663195 0 0 0 0 8.7278985267585085 -33.323034257362451 0 -33.323034257362451 25.320087264685753 0 0 0 0 26.892825889458891 -7.4865252453009816 0 -7.4865252453009816 6.2593327592812784 0 0 0 0 73.172683351191154 0.23817566296781933 0 0.23817566296781933 -12.007064644032653 0 0 0 0 -17.509756370906871 14.978683147543052 0 14.978683147543052 -17.312187891830035 0 0 0 0 -13.694529788685031 -2.4802485676009383 0 -2.4802485676009383 -33.339483115509211 0 0 0 0 -17.991175447220712 7.0874971617831761 0 7.0874971617831761 -12.200722444082203 0 0 0 0 -46.072271646704394 -7.7591691411325883 0 -7.7591691411325883 -10.624263905787984 0 0 0 0 -22.820813753471157 -4.7977943104851875 0 -4.7977943104851875 35.779080486136081 0 0 0 0 -57.404102801885301 -21.062628451018099 0 -21.062628451018099 127.78938134085911 0 0 0 0 -40.359166208395436 -27.127187624599173 0 -27.127187624599173 31.962572228841509 0 0 0 0 -36.006838319045528 -37.398720915231024 0 -37.398720915231024 55.105346060703596 0 0 0 0 0.37223564425789846 -49.376801746591809 0 -49.376801746591809 10.438796588496189 0 0 0 0 -11.200783512729004 -41.763714796989916 0 -41.763714796989916 55.851322531703772 0 0 0 0 -16.377159262162877 -59.002409086886473 0 -59.002409086886473 31.817536850128818 0 0 0 0 -15.681134087752298 -62.405602433047534 0 -62.405602433047534 -11.468286960749538 0 0 0 0 -35.592395188158321 -87.39979256730112 0 -87.39979256730112 109.34692324540811 0 0 0 0 -29.592883917151994 -64.399174704876714 0 -64.399174704876714 30.074814275390963 0 0 0 0 8.7966636575342818 -90.6769754959696 0 -90.6769754959696 18.720632780983578 0 0 0 0 -63.618479115850278 -47.388743402578257 0 -47.388743402578257 23.872919692665164 0 0 0 0 -92.318876826682299 -78.92979083138016 0 -78.92979083138016 -0.79200995557039278 0 0 0 0 -204.21119841618065 51.898261086839739 0 51.898261086839739 35.504442442404979 0 0 0 0 -1.8370873258806353 -7.3276620046237042 0 -7.3276620046237042 10.630707938711083 0 0 0 0 -62.419916889012256 -90.578462889545335 0 -90.578462889545335 50.103546688760616 0 0 0 0 -149.15656651781421 -26.210593572070138 0 -26.210593572070138 162.62825335486195 0 0 0 0 -0.49593825257793533 -4.1664702330010304 0 -4.1664702330010304 44.876006072438166 0 0 0 0 -30.438664835202616 37.305569556564933 0 37.305569556564933 23.711558299437456 0 0 0 0 0.3250746613794806 -1.3419702187816549 0 -1.3419702187816549 1.4999027837156547 0 0 0 0 16.072236497315771 -83.461992040221958 0 -83.461992040221958 9.5355442007767124 0 0 0 0 -49.101998497558498 21.495590834076211 0 21.495590834076211 59.913851101624459 0 0 0 0 -6.2495594125057323 -58.070641352549501 0 -58.070641352549501 -14.915225358745374 0 0 0 0 0.39893304324244783 -4.8142864585230409 0 -4.8142864585230409 41.288882136355092 0 0 0 0 -143.72940481175226 -24.374206459699963 0 -24.374206459699963 77.55290229136881 0 0 0 0 -46.506358224103053 -69.402508288264471 0 -69.402508288264471 44.483540096389333 0 0 0 0 99.381548780768526 -46.248357247190143 0 -46.248357247190143 15.768296111817108 0 0 0 0 -14.415016739330667 -28.91504446662293 0 -28.91504446662293 33.783781894708227 0 0 0 0 53.592294236216503 -77.464275603166243 0 -77.464275603166243 49.031612025720278 0 0 0 0 50.88654881714217 -77.371985457126357 0 -77.371985457126357 77.40481855895041 0 0 0 0 -6.1786487568521515 -0.63438292038689781 0 -0.63438292038689781 7.2695165186832114 0 0 0 0 0.65720808301980349 4.3126092207444318 0 4.3126092207444318 -0.10047008663752877 0 0 0 0 -296.95750180185109 101.7343381693986 0 101.7343381693986 20.988778373055538 0 0 0 0 86.114660001660013 -95.279109167526258 0 -95.279109167526258 37.027354553309124 0 0 0 0 -25.856128700276713 14.632883299629157 0 14.632883299629157 -14.231923863470001 0 0 0 0 -36.53703390210012 -2.3359964956043768 0 -2.3359964956043768 1.9957660848549494 0 0 0 0 3.4685899433358713 -2.7483579912022833 0 -2.7483579912022833 35.185993956099992 0 0 0 0 -20.904768976502098 -65.624616326149408 0 -65.624616326149408 50.982528662590994 0 0 0 0 -5.3366619159934041 -6.0607575149865784 0 -6.0607575149865784 14.954026803955344 0 0 0 0 -30.99746172959567 38.006885692309879 0 38.006885692309879 26.533767184646422 0 0 0 0 -12.039651269111801 46.055344141052046 0 46.055344141052046 29.878709273903951 0 0 0 0 -0.017249954440429871 -10.11332858530794 0 -10.11332858530794 56.920610443302593 0 0 0 0 -138.37081657827741 8.9074883657742703 0 8.9074883657742703 83.74530578093254 0 0 0 0 -65.823091864858384 158.20834412722525 0 158.20834412722525 -151.80983847123935 0 0 0 0 -287.79108758276675 -101.62083822156501 0 -101.62083822156501 61.188869732197418 0 0 0 0 -403.72554729269962 159.83566756140908 0 159.83566756140908 40.057670743237395 0 0 0 0 -1.0822903875446173 23.468833935859038 0 23.468833935859038 15.318724719130842 0 0 0 0 -227.54844042506784 -24.252394869976342 0 -24.252394869976342 -14.676068457938527 0 0 0 0 0.7316574414385566 2.3814888493719106 0 2.3814888493719106 2.3250490513289108 0 0 0 0 -173.09498799687748 57.889342637032769 0 57.889342637032769 86.224236604091857 0 0 0 0 48.678373581175066 -83.954841018668048 0 -83.954841018668048 -32.833575112184917 0 0 0 0 -381.05653404987061 161.20843661587014 0 161.20843661587014 162.92485309749554 0 0 0 0 2.3941779731554229 6.1783830920240561 0 6.1783830920240561 13.453669245253941 0 0 0 0 21.050969170937606 -104.26979195653121 0 -104.26979195653121 115.63102141966556 0 0 0 0 -158.08005370260344 84.92320490964994 0 84.92320490964994 50.49314144149821 0 0 0 0 35.517476352811627 83.720388032195842 0 83.720388032195842 -86.481752996604882 0 0 0 0 -299.48548330425137 -22.049099674505669 0 -22.049099674505669 210.48058892957215 0 0 0 0 66.978910448121781 -33.363008473075752 0 -33.363008473075752 -17.531165758035058 0 0 0 0 -302.21585620240148 236.86827624597845 0 236.86827624597845 46.185665608106319 0 0 0 0 6.8140847657775101 11.678712976656454 0 11.678712976656454 19.074443172637832 0 0 0 0 -186.61183220706084 144.38527181297468 0 144.38527181297468 -25.835700499971608 0 0 0 0 -91.157549652089415 61.239678573822857 0 61.239678573822857 -103.25346413922762 0 0 0 0 -37.769081289537553 134.76192053073373 0 134.76192053073373 -20.925136998222115 0 0 0 0 -97.327198739051369 16.949771482740289 0 16.949771482740289 -28.751100385641621 0 0 0 0 -150.56186017487164 52.843754665092092 0 52.843754665092092 -69.11961053457344 0 0 0 0 -123.18099707383419 93.156292564694013 0 93.156292564694013 -9.7809365171424361 0 0 0 0 -86.270808181970438 47.07774512107062 0 47.07774512107062 41.173680019523999 0 0 0 0 -87.728842722467562 15.651291847032553 0 15.651291847032553 -24.209533813882445 0 0 0 0 28.798892759390611 73.978405855772962 0 73.978405855772962 -23.815038718777942 0 0 0 0 -156.08311972855213 -1.5384231040889063 0 -1.5384231040889063 12.326178072127732 0 0 0 0 18.70297066636806 83.147905200001333 0 83.147905200001333 42.981220295123421 0 0 0 0 19.027668861497261 63.995998033749359 0 63.995998033749359 -51.070954870581772 0 0 0 0 26.635515471595255 -62.106690029047058 0 -62.106690029047058 140.78150919617474 0 0 0 0 -1.7257018287245012 1.9671605358102244 0 1.9671605358102244 4.8698216191436927 0 0 0 0 -254.85577327392525 164.04623003808138 0 164.04623003808138 -35.857231399525972 0 0 0 0 -1.6404960588281379 1.6823426559117269 0 1.6823426559117269 -0.47622596378026572 0 0 0 0 126.8140927099943 -69.557959851116266 0 -69.557959851116266 114.67558275032206 0 0 0 0 122.63592153259611 -87.954856365991873 0 -87.954856365991873 81.271777091711556 0 0 0 0 195.38616513831954 -243.14080106285087 0 -243.14080106285087 228.50488956519621 0 0 0 0 152.93229001639997 -116.88291861289144 0 -116.88291861289144 101.30320149697945 0 0 0 0 16.41145702169284 -21.746718396660526 0 -21.746718396660526 167.03522929863902 0 0 0 0 83.852134396643407 -122.52457645009599 0 -122.52457645009599 193.52055588024086 0 0 0 0 36.521519943875205 -141.2868549923769 0 -141.2868549923769 349.2379935023946 0 0 0 0 -123.60702485682617 261.89059032612931 0 261.89059032612931 -86.197309394181502 0 0 0 0 -91.553347558780047 164.85473062192523 0 164.85473062192523 -34.622158920883521 0 0 0 0 0.13858968228975643 0.66917878498273531 0 0.66917878498273531 1.7843541280423381 0 0 0 0 -113.83851300916575 -74.728782424558858 0 -74.728782424558858 136.80863992903323 0 0 0 0 38.958068855762235 35.344248696527757 0 35.344248696527757 -9.9421475022281811 0 0 0 0 -16.941359763994569 -0.50725904118007747 0 -0.50725904118007747 37.290377773409091 0 0 0 0 -5.7889667959472382 2.0307174430846437 0 2.0307174430846437 3.4154611351256516 0 0 0 0 52.834740136619615 -59.890416201853441 0 -59.890416201853441 -98.772925847240913 0 0 0 0 -53.922433317156788 -0.19212426732792665 0 -0.19212426732792665 23.568915260482754 0 0 0 0 -21.919370862352508 39.14513116004764 0 39.14513116004764 113.98341364983571 0 0 0 0 58.775168680840579 -7.9868332728783571 0 -7.9868332728783571 24.107464320550662 0 0 0 0 -6.3687223070942593 44.592651476638821 0 44.592651476638821 227.47711833077483 0 0 0 0 23.998208417310252 -37.78465947323275 0 -37.78465947323275 119.15245879580777 0 0 0 0 -19.339004416813168 15.246360400953563 0 15.246360400953563 74.938926222173905 0 0 0 0 -67.906135667007675 26.687491669043084 0 26.687491669043084 86.388881336399209 0 0 0 0 -75.333508747631925 48.969605208020766 0 48.969605208020766 65.700933213600365 0 0 0 0 -29.185244353566986 -8.3690682455744536 0 -8.3690682455744536 15.394410731129028 0 0 0 0 -1.6878228811188905 0.62461032053877119 0 0.62461032053877119 -0.79112463197842864 0 0 0 0 3.8129159004959661 46.950958442075262 0 46.950958442075262 -24.492167188860549 0 0 0 0 -49.805482871348886 -35.702036614403369 0 -35.702036614403369 -84.08902854626831 0 0 0 0 -45.910278585392575 41.523243026405908 0 41.523243026405908 14.887217030196553 0 0 0 0 -132.03856141896779 75.38152160435493 0 75.38152160435493 2.5610643921554583 0 0 0 0 -56.520510839421149 59.010927928613455 0 59.010927928613455 27.943549290010196 0 0 0 0 -48.983513872199637 36.539971889991648 0 36.539971889991648 47.398504318354753 0 0 0 0 -53.077948813214391 41.202595384601409 0 41.202595384601409 50.849062082386808 0 0 0 0 -73.405198271095401 15.184772473809062 0 15.184772473809062 70.070033776126365 0 0 0 0 -53.536749698784433 -26.874753497575512 0 -26.874753497575512 84.779682602292269 0 0 0 0 -42.24592405879693 -6.3544935484933376 0 -6.3544935484933376 109.71592967707693 0 0 0 0 -51.935042197376902 24.447010324505754 0 24.447010324505754 61.825752962417027 0 0 0 0 -37.043891289186973 3.6132310924785997 0 3.6132310924785997 131.63638489731238 0 0 0 0 34.623401882339465 -51.585185803409331 0 -51.585185803409331 126.35203241875206 0 0 0 0 35.345569025400778 -51.429306910025844 0 -51.429306910025844 124.57089754139088 0 0 0 0 -12.158964540824002 -0.29380949709411652 0 -0.29380949709411652 92.722934126755717 0 0 0 0 30.089545754406572 -58.731408101753914 0 -58.731408101753914 107.8545155176671 0 0 0 0 35.841252092287391 -46.408837006969407 0 -46.408837006969407 133.05727372970614 0 0 0 0 171.89949951790149 -108.252316871723 0 -108.252316871723 92.804676150317391 0 0 0 0 48.490573345696021 -55.553020730418211 0 -55.553020730418211 80.538089375957952 0 0 0 0 49.052579111826049 -52.210749372412465 0 -52.210749372412465 52.50211981125949 0 0 0 0 -16.457050427895069 -61.810235348915739 0 -61.810235348915739 92.169358816048771 0 0 0 0 -31.036046892116872 -23.172934569583958 0 -23.172934569583958 11.465336162216772 0 0 0 0 -20.488662129877639 -6.3959429017058937 0 -6.3959429017058937 69.316504936941783 0 0 0 0 -98.150576972085901 22.58485597647541 0 22.58485597647541 53.793105006065161 0 0 0 0 -110.49808871890605 16.065804934940388 0 16.065804934940388 7.385988212437951 0 0 0 0 0.26388970316459326 -1.9011782792641485 0 -1.9011782792641485 4.4075728778772856 0 0 0 0 -118.21038248926288 -30.834351260963558 0 -30.834351260963558 64.538323828592183 0 0 0 0 -137.26652968942062 9.5996722084082649 0 9.5996722084082649 72.704183288411514 0 0 0 0 61.422858562361398 -23.813778868570807 0 -23.813778868570807 -36.41273527148951 0 0 0 0 0.046099404026585078 -3.3222820997362272 0 -3.3222820997362272 37.246719513089914 0 0 0 0 -145.89545633579735 -15.967574767553288 0 -15.967574767553288 74.434164151054574 0 0 0 0 -69.484821460686589 6.0666162515772157 0 6.0666162515772157 21.452729083293889 0 0 0 0 -0.10825796614844208 -2.1253286987372544 0 -2.1253286987372544 33.684654100045151 0 0 0 0 -55.942286929164311 24.452513197063126 0 24.452513197063126 40.132918132208943 0 0 0 0 -57.768706761246506 30.450205519779956 0 30.450205519779956 28.279775920289467 0 0 0 0 -44.237060642331727 36.369415445802133 0 36.369415445802133 22.410082307831544 0 0 0 0 21.785233398017681 3.0078740603967162 0 3.0078740603967162 -8.3025188558985974 0 0 0 0 -53.19305298887366 41.164827094649809 0 41.164827094649809 31.700994403026925 0 0 0 0 0.23876762094107074 -2.0327238890716877 0 -2.0327238890716877 4.9872983947061726 0 0 0 0 33.079066352220082 13.889191700751098 0 13.889191700751098 -24.552812433332292 0 0 0 0 74.550084619573227 -78.319359762930617 0 -78.319359762930617 -89.955770355691129 0 0 0 0 -188.47925418764703 11.256642604570516 0 11.256642604570516 180.37901618985779 0 0 0 0 0.36946864937288182 -1.5363481507241503 0 -1.5363481507241503 2.0581443477047543 0 0 0 0 45.665962069306261 -90.844662970375794 0 -90.844662970375794 -72.422189627235639 0 0 0 0 46.886963168205966 -116.2085020486229 0 -116.2085020486229 -1.9353238054718531 0 0 0 0 -63.815968448001456 42.994928766149769 0 42.994928766149769 108.62070908214082 0 0 0 0 -41.841167295103332 -44.573416522540356 0 -44.573416522540356 -4.1040424615366646 0 0 0 0 -9.4785049235592851 -96.33410806414031 0 -96.33410806414031 52.072232411981531 0 0 0 0 -34.059313324594768 -28.094751178450679 0 -28.094751178450679 -18.692049860203042 0 0 0 0 46.474607457758339 -52.898075865981809 0 -52.898075865981809 -83.444068995446287 0 0 0 0 1.9895601256571052 0.047548588844243511 0 0.047548588844243511 -0.30953577590250347 0 0 0 0 -25.964455532482134 -0.58883175707160262 0 -0.58883175707160262 225.54127514123138 0 0 0 0 15.288335137266586 -42.253969584491642 0 -42.253969584491642 38.351809847903496 0 0 0 0 10.275904175209234 -92.239372401201763 0 -92.239372401201763 117.53639934888452 0 0 0 0 -0.30970600841283158 -10.842984471815726 0 -10.842984471815726 17.79253115012034 0 0 0 0 13.358422483361664 -43.732355870026367 0 -43.732355870026367 -21.262703779590083 0 0 0 0 -28.074558217609592 37.356679510026879 0 37.356679510026879 -39.520444975990358 0 0 0 0 -13.056823810957212 20.421605183119937 0 20.421605183119937 -20.723965136246989 0 0 0 0 3.2691487154145307 -17.68773352439257 0 -17.68773352439257 3.1885842358315131 0 0 0 0 -0.20438091773030465 -0.64999446179899678 0 -0.64999446179899678 -6.9816325937517831 0 0 0 0 -25.482597550925675 5.5975211152453994 0 5.5975211152453994 34.066745431653544 0 0 0 0 -1.4903805538692723 -7.4901789244122483 0 -7.4901789244122483 34.45588552261961 0 0 0 0 0.12764370394006619 -12.191000944181724 0 -12.191000944181724 36.759173145625027 0 0 0 0 1.1267099366850744 -4.3368657486407756 0 -4.3368657486407756 33.886551931545 0 0 0 0 -2.3146149509385054 -11.651170520389996 0 -11.651170520389996 32.439344324400736 0 0 0 0 -0.41723963312256274 -9.5826511187124197 0 -9.5826511187124197 19.948265641085527 0 0 0 0 -8.9465170848783941 -8.4860472206553368 0 -8.4860472206553368 47.07580157551638 0 0 0 0 -6.2374956598651465 -16.139745449059319 0 -16.139745449059319 17.640366381230706 0 0 0 0 0.2272185269983531 1.7264049675242426 0 1.7264049675242426 6.0045569745592076 0 0 0 0 2.7723889063731804 2.790807741585013 0 2.790807741585013 40.925934658193 0 0 0 0 0.85629409664710998 0.70735175549318541 0 0.70735175549318541 0.16044327065012709 0 0 0 0 69.96185774706737 -23.4682540215872 0 -23.4682540215872 -55.068970431254456 0 0 0 0 -2.450705614071012 6.3238389974867459 0 6.3238389974867459 70.346575856430718 0 0 0 0 -72.233755053635832 -74.248499583267403 0 -74.248499583267403 16.391385564620577 0 0 0 0 -2.3493488654248722 -45.828433366973513 0 -45.828433366973513 5.2050067085801857 0 0 0 0 -9.8463322819698078 -48.2980741152669 0 -48.2980741152669 185.60528963908291 0 0 0 0 112.51137971404842 99.946449707491411 0 99.946449707491411 4.6377436172679154 0 0 0 0 21.503728617953811 -132.8988506373089 0 -132.8988506373089 47.951791938990937 0 0 0 0 -8.4452928814578172 -0.97448184115637559 0 -0.97448184115637559 45.794371047099048 0 0 0 0 0.99541134543051157 5.5845899881715013 0 5.5845899881715013 33.442730671660684 0 0 0 0 -0.73481201451910039 4.8254082829141396 0 4.8254082829141396 4.5811516613157144 0 0 0 0 60.062770840017322 15.095895672794995 0 15.095895672794995 -70.832233775996428 0 0 0 0 -1.9648333360518961 -3.4304957934548099 0 -3.4304957934548099 3.5768852331935683 0 0 0 0 -2.1174826305810939 4.5704867254180499 0 4.5704867254180499 36.268512502449994 0 0 0 0 0.11858396411572014 -1.3985586412940725 0 -1.3985586412940725 19.027719012176753 0 0 0 0 0.0020617262703126471 2.8864807528152596 0 2.8864807528152596 32.288913057891477 0 0 0 0 -0.25138656970012185 -2.8803456808713008 0 -2.8803456808713008 9.5312405192124032 0 0 0 0 -0.45361572816589024 -2.3351306306902258 0 -2.3351306306902258 30.603009247809609 0 0 0 0 21.953431828949078 -93.723358103221472 0 -93.723358103221472 -73.87019858365602 0 0 0 0 -61.241519333275846 -5.3744749919642345 0 -5.3744749919642345 34.605633831703017 0 0 0 0 -51.641282570185467 17.328051441899333 0 17.328051441899333 87.801041526683548 0 0 0 0 -60.651705315914114 -37.422192351736157 0 -37.422192351736157 171.62452395474611 0 0 0 0 0.42981155112109359 0.97385020141683043 0 0.97385020141683043 6.766487317382019 0 0 0 0 -1.2015382585245789 -11.459656063497278 0 -11.459656063497278 65.422358140378492 0 0 0 0 2.5767172365556519 -0.066720020637831112 0 -0.066720020637831112 36.604359216398734 0 0 0 0 27.325098339281567 -23.567647442270754 0 -23.567647442270754 21.754281568073566 0 0 0 0 -11.477072487600253 -12.95400550956947 0 -12.95400550956947 27.282136865516804 0 0 0 0 -0.22585121447689183 0.5369788023792168 0 0.5369788023792168 7.6515996307150891 0 0 0 0 -2.7297517027281515 3.1294761029814708 0 3.1294761029814708 40.902784010546384 0 0 0 0 6.09649264019572 -12.518462808515324 0 -12.518462808515324 5.7286808222568197 0 0 0 0 -7.8855592776362755 -21.572186638390122 0 -21.572186638390122 30.928696417555329 0 0 0 0 -10.150951571165933 -8.5171594660191658 0 -8.5171594660191658 19.711360600349508 0 0 0 0 -12.725636468348625 1.955241070179909 0 1.955241070179909 64.194201375597913 0 0 0 0 0.78120388918823336 0.31185316865628465 0 0.31185316865628465 6.5340822982135762 0 0 0 0 -8.787676738542018 -8.1672520302568046 0 -8.1672520302568046 8.6632606754646986 0 0 0 0 0.13954939756390283 -2.8879432717556615 0 -2.8879432717556615 24.511554613745218 0 0 0 0 -4.0557620067515927 3.4325071568127896 0 3.4325071568127896 36.126141470478615 0 0 0 0 -6.1963181149772026 -10.030023347059796 0 -10.030023347059796 19.622850240108164 0 0 0 0 0.39541049932812511 -3.4505490716137492 0 -3.4505490716137492 24.457828224137359 0 0 0 0 -9.3171712240446141 -13.390548392892015 0 -13.390548392892015 17.119235329628282 0 0 0 0 -11.685571915770424 1.3653870625385025 0 1.3653870625385025 51.404390216488537 0 0 0 0 -14.002596834937322 -13.137943645529958 0 -13.137943645529958 22.264525537562804 0 0 0 0 -14.900742753245311 -18.181121872166841 0 -18.181121872166841 13.405368041598194 0 0 0 0 -11.65453743054411 -12.676445090723064 0 -12.676445090723064 22.314747170166811 0 0 0 0 -34.076780100106646 -18.549993401274151 0 -18.549993401274151 30.08465163756091 0 0 0 0 -21.862063647964135 -20.729731491567691 0 -20.729731491567691 4.7063740608591615 0 0 0 0 -21.310302186676154 -16.320337554935577 0 -16.320337554935577 24.93612574502913 0 0 0 0 -19.709099147589427 -14.444824269828132 0 -14.444824269828132 25.129433222612306 0 0 0 0 -27.069745266620245 -16.185138065497995 0 -16.185138065497995 29.203875674183564 0 0 0 0 -31.784807340196679 -8.9525741142660991 0 -8.9525741142660991 47.911483243815383 0 0 0 0 -28.171459671768503 -10.398802978102367 0 -10.398802978102367 13.406370022135889 0 0 0 0 -27.994791343352176 -20.22902093182347 0 -20.22902093182347 28.946083354534494 0 0 0 0 -27.013475395951772 -21.357164903824241 0 -21.357164903824241 -21.163555450359127 0 0 0 0 -59.476273226273804 -16.316940879431058 0 -16.316940879431058 12.292294208336898 0 0 0 0 -26.29210092292621 -16.911434035630009 0 -16.911434035630009 4.2747635841961937 0 0 0 0 -16.109152106543675 -21.994763803721071 0 -21.994763803721071 -14.256353740423947 0 0 0 0 0.35694361584316026 -0.20600960074153107 0 -0.20600960074153107 -0.12210619619172647 0 0 0 0 1.0229163285617773 57.512534037682428 0 57.512534037682428 106.37355861676951 0 0 0 0 -9.1183429550702897 -31.292916853832594 0 -31.292916853832594 91.076374123871574 0 0 0 0 -31.350750794200223 -67.063558395536347 0 -67.063558395536347 41.575396407291919 0 0 0 0 7.3419029829424431 36.099173867212812 0 36.099173867212812 -69.905357828403794 0 0 0 0 -23.584254443013833 40.073834418881233 0 40.073834418881233 5.6618790343386536 0 0 0 0 -69.742053292293534 129.44575054882489 0 129.44575054882489 149.66528677224596 0 0 0 0 0.15023983448311873 0.18671393904933353 0 0.18671393904933353 -0.12124199170871108 0 0 0 0 -72.46241949152693 -63.403260222123208 0 -63.403260222123208 -48.191949516894965 0 0 0 0 -100.45407464627891 -7.3748015603011936 0 -7.3748015603011936 14.516704497780665 0 0 0 0 -33.19335729362524 19.402299365047838 0 19.402299365047838 14.298383808953076 0 0 0 0 4.4266507285781245 9.8497661428127685 0 9.8497661428127685 16.641383798545576 0 0 0 0 -8.9759106898929986 2.1423006665054345 0 2.1423006665054345 22.456346006742024 0 0 0 0 0.16152276561391243 -1.2187332223568896 0 -1.2187332223568896 12.488369591192846 0 0 0 0 -17.406922609198318 2.6455729847029943 0 2.6455729847029943 0.090835586258435796 0 0 0 0 -19.638874751410867 -9.4475273643361106 0 -9.4475273643361106 15.61052309545812 0 0 0 0 -41.039633145206949 6.5029540048417402 0 6.5029540048417402 -0.022298876470813411 0 0 0 0 -38.157266042953324 0.23624601778101351 0 0.23624601778101351 13.394203165606996 0 0 0 0 -31.417679569172265 3.67429645924949 0 3.67429645924949 7.2410255279755802 0 0 0 0 -39.986667310163057 3.4265494382761972 0 3.4265494382761972 11.566801947922158 0 0 0 0 70.218700516223436 53.138376937513613 0 53.138376937513613 40.362459426429268 0 0 0 0 0.070006774147535644 -0.62840279654726139 0 -0.62840279654726139 7.7518689440123367 0 0 0 0 198.60847486196127 146.32282047468391 0 146.32282047468391 96.059455932039782 0 0 0 0 -17.660532433099434 -56.151991438468031 0 -56.151991438468031 73.062268888514154 0 0 0 0 0.18414562483241381 -0.3379155401374998 0 -0.3379155401374998 2.6419269925367814 0 0 0 0 -41.492735686514493 -11.116418943821373 0 -11.116418943821373 92.895616485431674 0 0 0 0 -5.8507214680425932 -32.598376872834706 0 -32.598376872834706 16.030834087892799 0 0 0 0 -50.945833637903092 -44.522910714644695 0 -44.522910714644695 147.74520751388991 0 0 0 0 -55.626746680973838 66.813905186674219 0 66.813905186674219 172.74452797398044 0 0 0 0 231.49045763704123 -19.746718025849987 0 -19.746718025849987 -89.858816560708874 0 0 0 0 -94.925247449295512 55.688939868482521 0 55.688939868482521 210.24706953070472 0 0 0 0 4.427540588797271 1.8774000092697776 0 1.8774000092697776 0.17999239862256111 0 0 0 0 94.197381783307605 230.32756647330189 0 230.32756647330189 1187.4247730066882 0 0 0 0 -11.142517480278574 245.4545161415881 0 245.4545161415881 1500.7343550575979 0 0 0 0 26.105666662512849 353.15676483635161 0 353.15676483635161 1320.5804177583923 0 0 0 0 1.6362208015759949 6.0301627893635565 0 6.0301627893635565 -2.2730325389400026 0 0 0 0 -17.852430361688477 44.900086668473705 0 44.900086668473705 43.068824452297122 0 0 0 0 -0.30365181893881399 431.91299655300327 0 431.91299655300327 1113.9111695795709 0 0 0 0 -96.096482463854528 619.5399309256718 0 619.5399309256718 1497.4836973406641 0 0 0 0 1.3338401763609156 7.9303895380351719 0 7.9303895380351719 47.911392149062522 0 0 0 0 0.60393209393137681 32.87787726319948 0 32.87787726319948 46.423891867765633 0 0 0 0 -20.496523498544036 3.0025442544165344 0 3.0025442544165344 46.132256985885761 0 0 0 0 -9.6945564583177202 13.189545150865342 0 13.189545150865342 46.834571280339901 0 0 0 0 -30.599517950033601 37.183546150567963 0 37.183546150567963 65.467203279684327 0 0 0 0 -47.859215229444203 53.965449773881119 0 53.965449773881119 56.885269341709318 0 0 0 0 -34.347251526884847 5.4641621335686068 0 5.4641621335686068 83.064166663620199 0 0 0 0 -40.686128519058784 -12.823834794596223 0 -12.823834794596223 51.464270358788781 0 0 0 0 -24.24690784406701 -1.6686310133450206 0 -1.6686310133450206 41.929488775131176 0 0 0 0 -26.698751198139064 -9.4691358880609187 0 -9.4691358880609187 44.68425477229539 0 0 0 0 -11.890283279562254 -4.2096599988262824 0 -4.2096599988262824 30.776385821214944 0 0 0 0 -17.936257294352231 -11.402684922534718 0 -11.402684922534718 30.278645119209614 0 0 0 0 -18.30756448916145 -6.9585100722651987 0 -6.9585100722651987 27.725460522874528 0 0 0 0 -12.793567605113196 -10.242125928697305 0 -10.242125928697305 23.014360922761625 0 0 0 0 0.65669599544577351 -3.6949636218765445 0 -3.6949636218765445 22.121262253297715 0 0 0 0 -8.2630049857477843 6.4510475719489477 0 6.4510475719489477 31.040834253151161 0 0 0 0 -15.618732320503796 -8.3961730196974713 0 -8.3961730196974713 28.325948624852572 0 0 0 0 -5.0427060516531128 16.773339232689068 0 16.773339232689068 45.021748460205345 0 0 0 0 -11.230455969855598 13.704974985630088 0 13.704974985630088 60.876960200387657 0 0 0 0 -11.123388584626326 0.59371575625021933 0 0.59371575625021933 43.719857936339395 0 0 0 0 -5.2855829751155312 9.7135925745424174 0 9.7135925745424174 -0.13915352360708155 0 0 0 0 2.5531495332030274 3.5583431859581154 0 3.5583431859581154 0.7419344044241214 0 0 0 0 28.18657145272801 -177.41423111798031 0 -177.41423111798031 1499.0705143367734 0 0 0 0 537.75739307688218 280.06073862836774 0 280.06073862836774 127.26246985404578 0 0 0 0 -84.362562606645 563.22354954234834 0 563.22354954234834 1498.049000229915 0 0 0 0 26.786018785027995 -148.29609410997409 0 -148.29609410997409 965.48732577676856 0 0 0 0 -4.3325122708777997 5.2012639188051253 0 5.2012639188051253 14.683163392348433 0 0 0 0 -0.76874360653210594 3.166081750172836 0 3.166081750172836 7.4545137834687818 0 0 0 0 -5.7961030112323897 7.3619010074519338 0 7.3619010074519338 35.214172005677028 0 0 0 0 -4.6631589381802847 9.1986564292570332 0 9.1986564292570332 14.32349294905217 0 0 0 0 -17.660742180649549 4.8153673903993877 0 4.8153673903993877 39.427762983153116 0 0 0 0 -1.8192807136678777 0.45621231348187075 0 0.45621231348187075 21.038807917458229 0 0 0 0 132.63601586563129 82.607316910256486 0 82.607316910256486 -0.081285064593430434 0 0 0 0 -11.282309022842551 6.7117180742771332 0 6.7117180742771332 17.646655952634614 0 0 0 0 -2.0655778689069546 0.12988374924881718 0 0.12988374924881718 19.786075547267174 0 0 0 0 -192.66347093867293 -90.495932382213596 0 -90.495932382213596 154.90574525224656 0 0 0 0 294.64680438693563 -106.56401302782251 0 -106.56401302782251 -151.45487546368531 0 0 0 0 59.655504262087533 -310.20433834292498 0 -310.20433834292498 1697.1682738567179 0 0 0 0 2.9870949721365747 -1.4430084001313759 0 -1.4430084001313759 2.9442467617856778 0 0 0 0 2.8025183412250421 -0.64639882713389785 0 -0.64639882713389785 0.8405946004742475 0 0 0 0 589.47025868417813 -804.5893874776375 0 -804.5893874776375 1499.4265397677095 0 0 0 0 -78.621587529780285 -526.07114460830599 0 -526.07114460830599 1413.5927598467979 0 0 0 0 537.89016663669554 -635.04623052269562 0 -635.04623052269562 460.30577113603431 0 0 0 0 -47.073331284749273 -4.1126925032167492 0 -4.1126925032167492 331.29327597042311 0 0 0 0 -8.98551829616855 5.3564350204283073 0 5.3564350204283073 11.520875748792605 0 0 0 0 -4.8682601773543865 -3.5170547173675004 0 -3.5170547173675004 15.198216663902713 0 0 0 0 -9.4282518480065391 -5.3016557966452638 0 -5.3016557966452638 18.377054182801658 0 0 0 0 -0.031507738677461816 -2.258399591783359 0 -2.258399591783359 17.125349040801666 0 0 0 0 -5.887311264138134 -3.7974525101471954 0 -3.7974525101471954 16.723567925924726 0 0 0 0 -9.6106289462084078 4.4073016361089685 0 4.4073016361089685 12.990683667503617 0 0 0 0 -0.37240272559438381 -1.8618543693719403 0 -1.8618543693719403 11.304366393400414 0 0 0 0 316.43347903952144 264.88692411915599 0 264.88692411915599 255.32463399161111 0 0 0 0 109.01422085047216 93.623983015935664 0 93.623983015935664 149.98724803420328 0 0 0 0 221.65293553439142 298.51572779262665 0 298.51572779262665 273.03432162625541 0 0 0 0 -46.153506181281955 -86.122016573965084 0 -86.122016573965084 27.126036043904605 0 0 0 0 -1.578029178628185 129.84129753479147 0 129.84129753479147 234.38377892952849 0 0 0 0 56.530434221939117 -63.674317878944407 0 -63.674317878944407 53.443400323615606 0 0 0 0 86.74927250491146 82.369443360102196 0 82.369443360102196 187.58464307863596 0 0 0 0 36.551315814940608 -29.963414194195593 0 -29.963414194195593 8.9584930227865698 0 0 0 0 16.614717893719899 -136.92482669237461 0 -136.92482669237461 -20.80894732368381 0 0 0 0 111.109360587634 -13.498823849155542 0 -13.498823849155542 -45.284787394399075 0 0 0 0 79.493593647193848 76.47893426351402 0 76.47893426351402 170.51275589467787 0 0 0 0 -283.66793546077042 -48.377680658833128 0 -48.377680658833128 211.01211185031354 0 0 0 0 179.82097292658489 -148.56492782306424 0 -148.56492782306424 58.772882577005021 0 0 0 0 396.24859400876403 178.49095596700073 0 178.49095596700073 485.48244285858311 0 0 0 0 294.36217888536424 316.0015643573135 0 316.0015643573135 333.8630388779743 0 0 0 0 196.40187438285443 39.571004332176244 0 39.571004332176244 157.68085297734706 0 0 0 0 208.57715559075348 282.39307267351182 0 282.39307267351182 474.62585550544327 0 0 0 0 426.06852744006142 525.22184186332709 0 525.22184186332709 572.99996215213787 0 0 0 0 173.34080082552745 370.77625355613873 0 370.77625355613873 671.15880508990404 0 0 0 0 102.2639031301585 192.14610523376814 0 192.14610523376814 359.11972347804658 0 0 0 0 200.75656966129856 403.77248820445209 0 403.77248820445209 560.42057747345007 0 0 0 0 262.21659600983776 449.56156577010734 0 449.56156577010734 568.25754812623563 0 0 0 0 264.27857402965469 260.62725953318545 0 260.62725953318545 306.71034842100198 0 0 0 0 217.56982873302036 241.37912263702469 0 241.37912263702469 241.71382998651097 0 0 0 0 5.7869280570830597 -22.520999270156608 0 -22.520999270156608 193.86476775560186 0 0 0 0 94.345141209411651 41.336961446070688 0 41.336961446070688 66.388551578405895 0 0 0 0 42.737196457204846 -14.434754202444992 0 -14.434754202444992 7.5808515607354821 0 0 0 0 0.54002432396819433 -1.3356264330645011 0 -1.3356264330645011 1.9191649773791175 0 0 0 0 171.38200142972335 250.39734831989426 0 250.39734831989426 437.36289713044425 0 0 0 0 -18.425908823245607 155.32711445739415 0 155.32711445739415 509.01433883192112 0 0 0 0 110.09652306396163 141.95453655721622 0 141.95453655721622 192.43234217582722 0 0 0 0 85.648125099822664 77.838543014343259 0 77.838543014343259 26.758739505386984 0 0 0 0 1.7815536722466732 -10.560804426122559 0 -10.560804426122559 120.92786805275591 0 0 0 0 67.577461743687536 -40.721993349764489 0 -40.721993349764489 -21.509841499473623 0 0 0 0 13.020575126258336 21.45322151641335 0 21.45322151641335 -34.936796494173905 0 0 0 0 3.2395674012878697 0.86944989048720434 0 0.86944989048720434 -1.1507067468944534 0 0 0 0 395.33748319717688 308.34270169027241 0 308.34270169027241 -223.60682255520896 0 0 0 0 10.645928454826091 4.5014316507067722 0 4.5014316507067722 3.7258678071741684 0 0 0 0 13.917861092668261 8.9280096690163191 0 8.9280096690163191 -8.4457658953315331 0 0 0 0 16.442514750908856 -23.952346441722966 0 -23.952346441722966 10.976257062335208 0 0 0 0 34.449084819325662 -16.130053858696556 0 -16.130053858696556 3.5851338360271257 0 0 0 0 41.146551817008913 -46.876264875760171 0 -46.876264875760171 29.308327987962002 0 0 0 0 19.481783934214036 -16.785641156845372 0 -16.785641156845372 15.292799652163922 0 0 0 0 -22.362140513746226 -3.1975402124085122 0 -3.1975402124085122 40.286959682795441 0 0 0 0 -1.579900995808595 -1.0040935108306241 0 -1.0040935108306241 14.343718669999761 0 0 0 0 13.901873570704083 57.306589990783323 0 57.306589990783323 -112.23795528886785 0 0 0 0 65.777198314583984 -68.397790145744011 0 -68.397790145744011 -131.03311063469118 0 0 0 0 44.762855630256126 -76.687856893927801 0 -76.687856893927801 -28.984350751605234 0 0 0 0 0.40544385940891869 -1.6917298207345981 0 -1.6917298207345981 0.56669380634351008 0 0 0 0 10.308973809249437 -31.028116770652559 0 -31.028116770652559 -34.876140345487329 0 0 0 0 12.799700104564351 4.2267054841427125 0 4.2267054841427125 49.485325888726948 0 0 0 0 -107.13604606629542 -97.960230582771601 0 -97.960230582771601 10.606268400889348 0 0 0 0 4.7849195122418262 -9.0171683295483689 0 -9.0171683295483689 6.1908527352648708 0 0 0 0 0.76059109097749378 0.91445513932767142 0 0.91445513932767142 45.328960964510472 0 0 0 0 -12.494303395717452 -45.800104935713534 0 -45.800104935713534 -44.397774427621243 0 0 0 0 6.2072492942541446 -6.5452884354744478 0 -6.5452884354744478 16.346933110985006 0 0 0 0 11.128335424558827 -4.5103410699164215 0 -4.5103410699164215 12.704893955943149 0 0 0 0 3.3389940765398478 -4.0363892126215006 0 -4.0363892126215006 23.130592129462741 0 0 0 0 10.982910650843678 -26.362486332543995 0 -26.362486332543995 -9.6551438267524645 0 0 0 0 33.077575316117873 -27.69959503984046 0 -27.69959503984046 -34.913056249899228 0 0 0 0 21.152460777409942 -12.467826965687436 0 -12.467826965687436 5.6439408351907332 0 0 0 0 48.446778870922572 -12.844241951430831 0 -12.844241951430831 -21.058539772212498 0 0 0 0 16.447213678815697 12.456408165247355 0 12.456408165247355 11.154894317274234 0 0 0 0 42.102086315259783 57.399007463564487 0 57.399007463564487 -49.567922489337889 0 0 0 0 -17.436448683296476 19.142395869403117 0 19.142395869403117 36.927132088659619 0 0 0 0 3.607324153676843 2.4215220638119312 0 2.4215220638119312 3.1819317243381953 0 0 0 0 23.677628663952419 -5.9325542187716565 0 -5.9325542187716565 11.198327612197318 0 0 0 0 11.892537983538205 10.831581542870481 0 10.831581542870481 34.702263475531709 0 0 0 0 -10.558104230562776 -13.764010391253123 0 -13.764010391253123 38.309114373443663 0 0 0 0 12.618776255362945 6.7453955585169751 0 6.7453955585169751 29.596912915087159 0 0 0 0 11.614781217946984 13.185969220508014 0 13.185969220508014 45.026200165131741 0 0 0 0 12.432233767718117 14.96936343894231 0 14.96936343894231 47.435252461769778 0 0 0 0 15.581581213015397 13.083689867446083 0 13.083689867446083 45.891038230657273 0 0 0 0 10.481107771134702 -0.82210229429620085 0 -0.82210229429620085 44.52345872098158 0 0 0 0 26.275105791564783 25.876881559561298 0 25.876881559561298 60.881029426072928 0 0 0 0 3.9037002312263667 -2.1783612325634749 0 -2.1783612325634749 87.802684869722725 0 0 0 0 49.833672467586439 42.86225674549496 0 42.86225674549496 12.73356843120564 0 0 0 0 41.694839465158566 -11.946896051787917 0 -11.946896051787917 44.494931937973888 0 0 0 0 23.021364699733134 9.1455881211680499 0 9.1455881211680499 17.321112246207598 0 0 0 0 6.914565916285448 0.0082262768668517339 0 0.0082262768668517339 -5.8921233271469724 0 0 0 0 -0.91118940555304628 -2.0855211684399144 0 -2.0855211684399144 16.480982361216462 0 0 0 0 85.936472107131976 54.551019760401687 0 54.551019760401687 -20.839240400140625 0 0 0 0 104.27961287623884 -16.757457761027126 0 -16.757457761027126 9.3397685830786941 0 0 0 0 -86.254127886227252 -38.620736994079834 0 -38.620736994079834 132.25592306983344 0 0 0 0 1.590837429450743 0.071664052430174152 0 0.071664052430174152 -0.10560711391822686 0 0 0 0 59.676067883432097 -25.807828789891573 0 -25.807828789891573 37.784375136997369 0 0 0 0 -18.671588587819087 20.547276918380248 0 20.547276918380248 124.6193797818396 0 0 0 0 39.093262563294729 29.115989722533413 0 29.115989722533413 14.596536361261769 0 0 0 0 46.916056232384335 -6.4459666776001541 0 -6.4459666776001541 34.669829473834398 0 0 0 0 49.448849335032975 11.045096617562422 0 11.045096617562422 -1.723932662343941 0 0 0 0 -9.7320406286698926 41.875040200937519 0 41.875040200937519 19.282237889021417 0 0 0 0 37.420151905673265 22.259088818719647 0 22.259088818719647 18.321993443099927 0 0 0 0 44.84630472552044 27.899559654886616 0 27.899559654886616 20.432407836242419 0 0 0 0 20.495734538858869 26.807247840969467 0 26.807247840969467 31.304039082831196 0 0 0 0 34.404455710125603 25.207747097490028 0 25.207747097490028 31.055095490155509 0 0 0 0 27.953392807197815 15.90635480186279 0 15.90635480186279 34.383898884587325 0 0 0 0 36.640531146882722 43.175442846782516 0 43.175442846782516 47.397159816015119 0 0 0 0 10.462255673394111 28.519396276240514 0 28.519396276240514 50.161821247721946 0 0 0 0 4.4061882900899718 9.3142662484078755 0 9.3142662484078755 40.63567127859011 0 0 0 0 22.357872804453677 10.719606916872635 0 10.719606916872635 40.434589666710963 0 0 0 0 13.392057046143009 15.847386117082351 0 15.847386117082351 45.825841926964728 0 0 0 0 14.244540246709107 16.445963102011774 0 16.445963102011774 40.960808986930715 0 0 0 0 8.4806738472573215 15.660537246742933 0 15.660537246742933 41.273243140868544 0 0 0 0 11.210131095836687 18.469712827735293 0 18.469712827735293 38.395385719214573 0 0 0 0 3.7505817719722927 19.234918142527022 0 19.234918142527022 46.704781517142237 0 0 0 0 20.890774634149153 24.607027728004027 0 24.607027728004027 42.080034475140565 0 0 0 0 7.2821424296423629 14.941326765340818 0 14.941326765340818 38.259303871243901 0 0 0 0 -2.7638805283580585 3.0438713793980083 0 3.0438713793980083 39.78055532410206 0 0 0 0 3.5649674514273784 9.2429418768638243 0 9.2429418768638243 35.073889806224543 0 0 0 0 9.2329588328055934 15.263350261552205 0 15.263350261552205 40.524111933810673 0 0 0 0 22.369079478664048 2.221683632097097 0 2.221683632097097 31.191460042815834 0 0 0 0 -9.1336348887941767 3.6685030793705664 0 3.6685030793705664 39.416399479718166 0 0 0 0 -2.3849122084032195 4.9289234561447639 0 4.9289234561447639 29.589168744402038 0 0 0 0 -5.2321520082916777 7.0702100161361159 0 7.0702100161361159 36.989198230739021 0 0 0 0 -3.80245744756985 3.1370421225656173 0 3.1370421225656173 36.113329633739795 0 0 0 0 -1.807359226973233 10.493017335058539 0 10.493017335058539 43.81851629225639 0 0 0 0 -16.126506178670297 -3.3127790544876916 0 -3.3127790544876916 48.585307261130765 0 0 0 0 -4.5736377161706514 4.9913105466048364 0 4.9913105466048364 39.397111873948234 0 0 0 0 -4.8926803973198609 14.496061745438709 0 14.496061745438709 55.904572542982351 0 0 0 0 224.81236914529325 686.39432006892071 0 686.39432006892071 1561.5363929538144 0 0 0 0 -0.36836227840389846 -3.0979756802016016 0 -3.0979756802016016 6.5648256047051854 0 0 0 0 -2.3198443859732834 -2.1669202212406162 0 -2.1669202212406162 29.259195508899666 0 0 0 0 479.82042344800539 612.85082576973491 0 612.85082576973491 1588.554500940942 0 0 0 0 580.55132368283648 905.63460787355871 0 905.63460787355871 1508.2010345538934 0 0 0 0 767.82307052546457 1082.1304825304396 0 1082.1304825304396 2795.2577565039282 0 0 0 0 402.0631083511671 835.63161528646515 0 835.63161528646515 2682.7497093947932 0 0 0 0 0.44317420092527349 -0.34026232032455628 0 -0.34026232032455628 0.1550530800147456 0 0 0 0 -253.1957680118503 639.03170115879766 0 639.03170115879766 2836.7210351234244 0 0 0 0 31.621567516779123 38.405075287771979 0 38.405075287771979 46.008066272900351 0 0 0 0 30.432900556974445 43.902210521652648 0 43.902210521652648 61.954486327638733 0 0 0 0 9.6472938807846731 20.333865793741097 0 20.333865793741097 46.106255750876699 0 0 0 0 -10.230271161925657 17.410897808656046 0 17.410897808656046 76.348215072273888 0 0 0 0 3.5813390640070546 -1.752731736675937 0 -1.752731736675937 1.5303308859080218 0 0 0 0 -15.289255573854916 -43.865008805316393 0 -43.865008805316393 12.616427292679873 0 0 0 0 -28.930310722489111 271.9959288863115 0 271.9959288863115 1293.9746247510211 0 0 0 0 296.50837563827946 289.000817819031 0 289.000817819031 1098.9734518737305 0 0 0 0 153.07069240981946 404.85379645434023 0 404.85379645434023 1079.454823244203 0 0 0 0 567.68268661738296 281.86979236789239 0 281.86979236789239 1106.1351095163136 0 0 0 0 58.517477451020696 280.8208733686165 0 280.8208733686165 1291.836433214452 0 0 0 0 216.20729367642269 99.038518429573742 0 99.038518429573742 1498.4111763707397 0 0 0 0 574.88618571492998 454.73809421444798 0 454.73809421444798 944.57487913832392 0 0 0 0 292.76179786183724 610.92911711486522 0 610.92911711486522 1257.3386516674927 0 0 0 0 3.7385253308645079 -4.1150818057924559 0 -4.1150818057924559 8.2849173336805002 0 0 0 0 291.07354069461923 793.76137137073897 0 793.76137137073897 1074.109220657374 0 0 0 0 211.67634327294172 566.83241372033262 0 566.83241372033262 1525.4139823659825 0 0 0 0 512.16457665689938 894.45732960289206 0 894.45732960289206 1499.5329862954727 0 0 0 0 491.41257944646065 450.50612347018159 0 450.50612347018159 793.77014933909413 0 0 0 0 2.1391946720805706 -0.92059187032649525 0 -0.92059187032649525 4.8809953910395549 0 0 0 0 384.564145701352 681.05350386637269 0 681.05350386637269 1159.4067465787598 0 0 0 0 210.58204877164187 697.12198998986526 0 697.12198998986526 1499.8093362694815 0 0 0 0 145.28126992698785 541.09518392866744 0 541.09518392866744 1307.2467684444123 0 0 0 0 115.85763446000493 471.21235260307003 0 471.21235260307003 1144.8142232165173 0 0 0 0 264.84588420331846 630.75993301917106 0 630.75993301917106 1050.486940265042 0 0 0 0 338.77468569293126 614.13643373159698 0 614.13643373159698 1150.5649912929878 0 0 0 0 299.91138521347733 687.91928846497672 0 687.91928846497672 1141.766233096776 0 0 0 0 791.52933793548675 653.10258920729302 0 653.10258920729302 890.33425879477272 0 0 0 0 638.29318955057033 1465.6658436452358 0 1465.6658436452358 2166.0509716874535 0 0 0 0 772.68540195173227 1044.0042599495653 0 1044.0042599495653 1169.1480431525661 0 0 0 0 4.6257011850991354 1.4577659506825942 0 1.4577659506825942 4.9742000972885911 0 0 0 0 143.56515722105905 1195.7448377936307 0 1195.7448377936307 3113.3618838159609 0 0 0 0 523.9365261046687 818.45349926224662 0 818.45349926224662 1667.889246889853 0 0 0 0 1.478300332348534 -2.3088437001417867 0 -2.3088437001417867 6.130579050660228 0 0 0 0 258.92662516339863 328.23101960217321 0 328.23101960217321 837.53908904088746 0 0 0 0 491.99496761190773 389.51898063767476 0 389.51898063767476 751.21071159274106 0 0 0 0 199.6445444621869 352.28461402254965 0 352.28461402254965 1649.0629043688825 0 0 0 0 345.81217085967774 771.1060715483834 0 771.1060715483834 971.62122887789849 0 0 0 0 596.1942386001997 521.55892724081355 0 521.55892724081355 133.88866788328568 0 0 0 0 84.742162953613288 420.42216634340508 0 420.42216634340508 981.34061209025367 0 0 0 0 343.26620112687169 665.50194334656203 0 665.50194334656203 941.18958992921091 0 0 0 0 85.095511408446171 408.43811597377089 0 408.43811597377089 1301.5239327259878 0 0 0 0 258.04009542593207 352.43590008928703 0 352.43590008928703 1150.7688831432333 0 0 0 0 42.832967480956057 320.19599767858972 0 320.19599767858972 1199.3007163622851 0 0 0 0 42.010364838460646 267.44265162270403 0 267.44265162270403 1150.8035548098806 0 0 0 0 82.912239731865355 489.24447254970488 0 489.24447254970488 1500.0977784033128 0 0 0 0 -98.818076207063385 172.18768023056214 0 172.18768023056214 1497.8249297359839 0 0 0 0 -134.74199487894163 -29.807510245103884 0 -29.807510245103884 1049.303278441565 0 0 0 0 -62.11937543991931 -140.66756939858712 0 -140.66756939858712 495.38903945762604 0 0 0 0 -110.76878481705477 260.63972078935694 0 260.63972078935694 1026.2188521638411 0 0 0 0 -2.4930371599650272 334.99159277508534 0 334.99159277508534 987.59163504178821 0 0 0 0 37.814131449184345 256.59998014520386 0 256.59998014520386 1134.4469912301622 0 0 0 0 213.21965471871155 524.29963100124041 0 524.29963100124041 1069.9255972362225 0 0 0 0 -153.31497566017316 458.92398997995451 0 458.92398997995451 1499.7420402982825 0 0 0 0 -1.3362494742820505 -0.83368971143750237 0 -0.83368971143750237 4.4502114833576627 0 0 0 0 326.43692795921874 764.91399524863118 0 764.91399524863118 1499.4538290021458 0 0 0 0 19.518340651318113 336.67843638009072 0 336.67843638009072 725.46356764539246 0 0 0 0 17.818321912370791 342.70148183735114 0 342.70148183735114 1050.6953052768781 0 0 0 0 -11.32245291461129 333.53063654432526 0 333.53063654432526 1028.9830487268546 0 0 0 0 -2.557124153745836 -2.1999867106160158 0 -2.1999867106160158 6.6930076673906571 0 0 0 0 65.598778401854247 274.47229367905084 0 274.47229367905084 1003.2756976141043 0 0 0 0 -20.019996928121628 298.96003198325411 0 298.96003198325411 1047.5505438962164 0 0 0 0 25.049282367755374 392.86361973127521 0 392.86361973127521 1110.5026791797852 0 0 0 0 0.062821104832607944 315.17829960339373 0 315.17829960339373 1021.7351545159524 0 0 0 0 -4.0068892202563724 330.78386294651455 0 330.78386294651455 988.69260761601481 0 0 0 0 88.15586679255432 317.18507151837275 0 317.18507151837275 990.56837598998163 0 0 0 0 75.283354367534855 349.77118673404652 0 349.77118673404652 910.10897185463227 0 0 0 0 166.92561826522771 509.62135686757523 0 509.62135686757523 862.6698540609973 0 0 0 0 0.028849537875088149 0.13700300060714454 0 0.13700300060714454 1.7506789225458208 0 0 0 0 154.79718493388512 309.60865087330944 0 309.60865087330944 696.03420992167958 0 0 0 0 195.68621791942655 332.11347124693839 0 332.11347124693839 621.5855820229981 0 0 0 0 245.99275888320307 230.1968861758852 0 230.1968861758852 701.3945308650882 0 0 0 0 197.78631292279573 334.60147919433689 0 334.60147919433689 620.51245423049772 0 0 0 0 22.431904915331074 246.0436448469502 0 246.0436448469502 915.99089387411368 0 0 0 0 0.38714387606937506 -0.12663189519659213 0 -0.12663189519659213 2.1451344352348958 0 0 0 0 10.242923315506914 225.32901887344087 0 225.32901887344087 1053.0409785683892 0 0 0 0 113.87729519792657 149.51076174948184 0 149.51076174948184 764.36092019139505 0 0 0 0 0.24258688502706427 -0.23001052826163715 0 -0.23001052826163715 1.6276639303493745 0 0 0 0 49.595586737662266 219.92313728507588 0 219.92313728507588 854.70485402468421 0 0 0 0 38.860618826796809 141.84201106802675 0 141.84201106802675 685.44440918303007 0 0 0 0 111.46878344481568 128.86356289551009 0 128.86356289551009 494.32294520963023 0 0 0 0 33.987218729200094 76.355651287255569 0 76.355651287255569 723.11312815140241 0 0 0 0 -42.187397094027119 230.20703216309107 0 230.20703216309107 636.91200080038288 0 0 0 0 48.294766390453276 218.34995583664741 0 218.34995583664741 206.30876960245405 0 0 0 0 21.446914703131085 78.096049227902768 0 78.096049227902768 446.42618584162392 0 0 0 0 45.6745007073431 296.03464927347159 0 296.03464927347159 467.43878905829388 0 0 0 0 58.255163073028939 80.468354742657539 0 80.468354742657539 105.6611604108266 0 0 0 0 169.14141079158057 18.470596320977165 0 18.470596320977165 97.165703247530473 0 0 0 0 551.39784197086726 439.13215828858392 0 439.13215828858392 438.20400199183359 0 0 0 0 170.87336381012301 -233.59684049803309 0 -233.59684049803309 -39.023206131020743 0 0 0 0 4.8706677284973185 1.5562116412372227 0 1.5562116412372227 0.73403879069928024 0 0 0 0 520.77719612912563 -307.05761517132214 0 -307.05761517132214 -34.009315043663264 0 0 0 0 17.328643199291161 178.71303531250044 0 178.71303531250044 764.2042573649569 0 0 0 0 9.7484651389800092 -41.939490901349473 0 -41.939490901349473 215.96333753940326 0 0 0 0 396.04396273505654 49.62318043133746 0 49.62318043133746 704.96178848422733 0 0 0 0 27.218415840525836 129.84487676194226 0 129.84487676194226 845.48191423354365 0 0 0 0 531.46264728350286 365.58127914629858 0 365.58127914629858 554.39140245425278 0 0 0 0 150.58881049494744 198.92337448782382 0 198.92337448782382 722.80098191679281 0 0 0 0 164.93576687922223 221.81144139490846 0 221.81144139490846 610.7882942655724 0 0 0 0 456.4924407364457 224.16125478768254 0 224.16125478768254 593.11649228209512 0 0 0 0 20.738937319289732 36.01753935908755 0 36.01753935908755 473.08871851340427 0 0 0 0 -39.242181993308805 104.3360626372023 0 104.3360626372023 642.80411056639332 0 0 0 0 33.814962593597215 201.30232660371985 0 201.30232660371985 444.94139805933082 0 0 0 0 25.633840339819926 86.546887650582903 0 86.546887650582903 279.85724352984653 0 0 0 0 14.372005263274332 214.96720240046125 0 214.96720240046125 519.35448522117122 0 0 0 0 58.69642577356035 265.79865587677887 0 265.79865587677887 735.06931696827314 0 0 0 0 -8.5997083434198771 121.43860783662467 0 121.43860783662467 608.34184713549894 0 0 0 0 76.257905151890611 270.51900503810202 0 270.51900503810202 653.84729990629876 0 0 0 0 60.817427698132633 152.79723109079623 0 152.79723109079623 829.96988036748508 0 0 0 0 61.349706687823769 245.77389713444938 0 245.77389713444938 957.02160048556107 0 0 0 0 98.448973330182923 140.7208603144195 0 140.7208603144195 877.59858525483833 0 0 0 0 73.231677546896506 230.18135517179587 0 230.18135517179587 743.92177566491682 0 0 0 0 17.315195740105708 89.812032703243858 0 89.812032703243858 863.25935919111271 0 0 0 0 15.155378000766035 -6.9098475031737507 0 -6.9098475031737507 1013.8962014151612 0 0 0 0 29.635039429725282 166.51840640712339 0 166.51840640712339 1046.2172372898931 0 0 0 0 -132.39066518955667 41.545830334723632 0 41.545830334723632 1181.0205265858044 0 0 0 0 -115.46859332690275 -37.056280091492226 0 -37.056280091492226 1032.9421409498618 0 0 0 0 49.927766578977867 94.235431993925886 0 94.235431993925886 1090.8513951835866 0 0 0 0 130.16304288333663 559.37919205792946 0 559.37919205792946 1608.3032327999974 0 0 0 0 -1.3069290903775284 -0.96984552874602059 0 -0.96984552874602059 3.7338756908283877 0 0 0 0 -207.73337190588234 -185.46967991962174 0 -185.46967991962174 423.44861074775736 0 0 0 0 -53.876692033044321 409.55217887801507 0 409.55217887801507 1012.2265026868909 0 0 0 0 -295.789454470046 -31.745862491003209 0 -31.745862491003209 1165.8229007561067 0 0 0 0 -378.76865456930949 185.25675245918183 0 185.25675245918183 1499.8033846183025 0 0 0 0 -315.98727508359082 191.82667772912919 0 191.82667772912919 1162.8352788854763 0 0 0 0 -87.097836030643847 -112.60497216210513 0 -112.60497216210513 1096.0828123967713 0 0 0 0 -246.22044040384316 43.17221854772697 0 43.17221854772697 1086.9803156042044 0 0 0 0 -232.47107746409921 -27.627260520505388 0 -27.627260520505388 1252.3815850173919 0 0 0 0 -223.41344864400241 -170.01717271085727 0 -170.01717271085727 1499.5449938019983 0 0 0 0 -201.33541885976197 -203.46255942700304 0 -203.46255942700304 1158.132018590095 0 0 0 0 -163.84990010866193 -339.54519255906189 0 -339.54519255906189 1500.5264117974057 0 0 0 0 -77.596066073900417 -144.59756128517859 0 -144.59756128517859 1134.4556035697551 0 0 0 0 -43.415356471388463 -393.82810158238544 0 -393.82810158238544 1032.2700086016421 0 0 0 0 84.863312729987655 -927.9404818014491 0 -927.9404818014491 1496.3011388100019 0 0 0 0 1.2011049727610326 -2.9521736435291253 0 -2.9521736435291253 7.199140750946647 0 0 0 0 285.22966688845679 -793.0488254159618 0 -793.0488254159618 73.647193568089278 0 0 0 0 -39.115446108620347 124.8664615771695 0 124.8664615771695 8.1677131741562334 0 0 0 0 160.23568747314064 -268.5469265085062 0 -268.5469265085062 766.79834211734669 0 0 0 0 -16.820789461476011 -397.45150534402092 0 -397.45150534402092 678.07545369560557 0 0 0 0 8.9580763574175393 -46.074325328005216 0 -46.074325328005216 595.87478671268218 0 0 0 0 41.403856670610459 -138.56478322930252 0 -138.56478322930252 829.34839306935646 0 0 0 0 -231.25932090397686 -27.595525310956418 0 -27.595525310956418 807.97190952317305 0 0 0 0 41.331182383331111 -51.54514540866785 0 -51.54514540866785 739.94642337273854 0 0 0 0 49.37109426329053 -71.65649697612389 0 -71.65649697612389 781.08119210144014 0 0 0 0 17.419198588855824 -38.684474207075453 0 -38.684474207075453 883.77899561427148 0 0 0 0 16.720733061565554 -185.69331936763183 0 -185.69331936763183 966.3286471876836 0 0 0 0 9.2681328417353797 -153.09517060614235 0 -153.09517060614235 826.07410928484342 0 0 0 0 -370.21956366383995 119.29639320950764 0 119.29639320950764 1499.4236358539883 0 0 0 0 -35.766449160718658 -273.84651784931384 0 -273.84651784931384 1049.0017564321324 0 0 0 0 -155.85905462796114 -394.39487865435513 0 -394.39487865435513 934.8835088577689 0 0 0 0 -51.705092915899016 681.05355243493796 0 681.05355243493796 1498.2396401797539 0 0 0 0 -179.70731593796151 154.2556906851396 0 154.2556906851396 239.8607219479054 0 0 0 0 -496.80110309322089 -31.766078802433185 0 -31.766078802433185 622.44451175287554 0 0 0 0 -294.38439785604362 129.43575430143505 0 129.43575430143505 630.57167440768899 0 0 0 0 1.5723936860928509 -6.9295945570833339 0 -6.9295945570833339 15.345813286477089 0 0 0 0 -51.435988208996548 351.70831844929762 0 351.70831844929762 479.23650009123412 0 0 0 0 -378.44315723812053 -251.33227914463441 0 -251.33227914463441 297.28947285342474 0 0 0 0 -208.44868630879216 -129.49445285599541 0 -129.49445285599541 1261.5935129685113 0 0 0 0 -204.7962561522595 -278.44744542316721 0 -278.44744542316721 953.73313277475972 0 0 0 0 -31.387186528254745 -838.57104095698196 0 -838.57104095698196 2436.3578046165476 0 0 0 0 -109.67577925483502 493.50864369312012 0 493.50864369312012 2061.3120483977364 0 0 0 0 533.84557966549789 -612.77104399519521 0 -612.77104399519521 -147.12298505616764 0 0 0 0 1.2388223773882854 -3.6877567629930343 0 -3.6877567629930343 8.1332296214862083 0 0 0 0 224.9230354419044 -1168.3042575159816 0 -1168.3042575159816 445.38540915785597 0 0 0 0 164.80577031117059 -717.49503632114499 0 -717.49503632114499 1142.5152152056035 0 0 0 0 185.35800514418511 -528.46447251487371 0 -528.46447251487371 517.71502121450612 0 0 0 0 514.32660917627527 -1368.6819310660885 0 -1368.6819310660885 989.37365382611097 0 0 0 0 1030.393645819385 -308.53064137763158 0 -308.53064137763158 2438.9629375239492 0 0 0 0 198.52270891236594 -937.52869434697641 0 -937.52869434697641 2256.8700231734256 0 0 0 0 -581.60229009491172 243.96177367529708 0 243.96177367529708 2073.0698520406222 0 0 0 0 -283.87768211766684 83.031536665068415 0 83.031536665068415 966.70451355148907 0 0 0 0 -174.30342559154235 -1062.1220121120969 0 -1062.1220121120969 2577.4575332070344 0 0 0 0 -359.39003634970322 -544.54030311832139 0 -544.54030311832139 1138.5892575753933 0 0 0 0 -247.92665839438439 -371.31958690640749 0 -371.31958690640749 1394.6640323772972 0 0 0 0 -297.31798981429949 137.24261124223449 0 137.24261124223449 1022.6574927066176 0 0 0 0 -150.97568246140753 -146.0945048579315 0 -146.0945048579315 932.57024479038591 0 0 0 0 -273.59313061272553 -248.71137080398057 0 -248.71137080398057 874.93781144014793 0 0 0 0 -81.317821027722147 -473.71485707061674 0 -473.71485707061674 933.28647577158881 0 0 0 0 -162.04501061374782 -456.73011678396961 0 -456.73011678396961 1064.1863296894189 0 0 0 0 22.79394673433751 -201.41496691366956 0 -201.41496691366956 49.815715166161681 0 0 0 0 -19.242548133982737 -176.8354687190008 0 -176.8354687190008 -58.190334883867763 0 0 0 0 -1.3077416765586207 -75.374074897919172 0 -75.374074897919172 166.48604859804618 0 0 0 0 -8.4147182309525874 -79.558592018782292 0 -79.558592018782292 172.1459715861638 0 0 0 0 -145.44711611631249 8.7470179777528756 0 8.7470179777528756 498.37866777285672 0 0 0 0 -89.051083837794295 -25.688834837906143 0 -25.688834837906143 497.17899297873737 0 0 0 0 -39.464197076654386 55.374565531728877 0 55.374565531728877 135.09491460596837 0 0 0 0 -104.32612552886656 -121.99410313041153 0 -121.99410313041153 -271.8051428578583 0 0 0 0 -0.22088499059371072 -1.2945748776578423 0 -1.2945748776578423 10.314057797452271 0 0 0 0 -510.73217357252656 434.46508082611672 0 434.46508082611672 1003.4793306688916 0 0 0 0 -197.77076766565705 470.1711693410798 0 470.1711693410798 288.22849370843505 0 0 0 0 -522.32799764997264 -137.32726452811039 0 -137.32726452811039 92.187907494917454 0 0 0 0 -206.4060738000212 -174.34030231476208 0 -174.34030231476208 53.128235088515794 0 0 0 0 -200.21800388208339 -28.970026967135709 0 -28.970026967135709 -11.418739782264311 0 0 0 0 -1.1581623090837989 -1.9460478138785717 0 -1.9460478138785717 21.327737318626646 0 0 0 0 111.52702908975201 -44.498112126007072 0 -44.498112126007072 -43.95480852037872 0 0 0 0 -133.93096466131078 -9.7410302952539496 0 -9.7410302952539496 178.46668326103645 0 0 0 0 379.3237182949793 -170.47989843933556 0 -170.47989843933556 -219.8407807792737 0 0 0 0 983.20793513033766 -1182.716428131152 0 -1182.716428131152 979.28806168590017 0 0 0 0 182.22239152764453 -597.73639350036706 0 -597.73639350036706 973.42230401941379 0 0 0 0 55.484936673707921 -166.94800826088704 0 -166.94800826088704 398.02385251392298 0 0 0 0 42.332622798877054 -234.37352255179712 0 -234.37352255179712 338.37697506599397 0 0 0 0 70.735279725293395 70.96043398792699 0 70.96043398792699 62.820094129093377 0 0 0 0 143.83501864686508 185.71861524381711 0 185.71861524381711 463.36786948264125 0 0 0 0 74.968586729405388 -4.9307216455454181 0 -4.9307216455454181 -59.596922145396093 0 0 0 0 -1.5574680718903862 0.45073410267767855 0 0.45073410267767855 3.3073693268503721 0 0 0 0 79.470912790620318 344.08021240078551 0 344.08021240078551 740.21057546537122 0 0 0 0 70.953091336866805 -281.01939767047224 0 -281.01939767047224 619.43450129263147 0 0 0 0 0.41535316909393294 -1.1732034646280498 0 -1.1732034646280498 2.5131406618206 0 0 0 0 -119.24899222219847 -38.88448800137985 0 -38.88448800137985 21.135314933009795 0 0 0 0 -1.2770091429565729 -2.7989667076090883 0 -2.7989667076090883 21.448078247418195 0 0 0 0 -113.26434398698029 60.535647235637043 0 60.535647235637043 76.904177578830058 0 0 0 0 -77.215355720680691 -104.62295734590589 0 -104.62295734590589 -28.434738088930317 0 0 0 0 -131.56756657162805 -141.10353803477938 0 -141.10353803477938 92.575976752985298 0 0 0 0 -103.12892040382917 -192.36606788888457 0 -192.36606788888457 115.1712770300619 0 0 0 0 -46.039001410057381 -158.57487861890331 0 -158.57487861890331 28.853401947886596 0 0 0 0 109.37285178959792 -143.61152779815893 0 -143.61152779815893 340.437672721122 0 0 0 0 -103.09205169796138 -172.32460514445575 0 -172.32460514445575 -238.37999098263026 0 0 0 0 2.8833419980295996 -5.5060437193561569 0 -5.5060437193561569 4.0766732669508192 0 0 0 0 -55.608892663103767 2.8898334560935837 0 2.8898334560935837 667.07708772007027 0 0 0 0 1.1850633934091761 -3.5234916366043194 0 -3.5234916366043194 0.87140547056931439 0 0 0 0 68.105036256393646 -66.35842639485054 0 -66.35842639485054 -452.91902659116022 0 0 0 0 0.78074625199493353 -0.52547660580083289 0 -0.52547660580083289 -0.20559118474956239 0 0 0 0 -44.684080012476258 -34.624479579664694 0 -34.624479579664694 -401.25306849905974 0 0 0 0 -101.07721431773143 -131.54584988540228 0 -131.54584988540228 171.89332086082095 0 0 0 0 -9.3141409555965993 -95.138300957301908 0 -95.138300957301908 68.920054733775032 0 0 0 0 -34.657388145017308 -161.44158098569824 0 -161.44158098569824 24.88345931146614 0 0 0 0 -46.972985505228507 -182.38204247192152 0 -182.38204247192152 29.267495533120382 0 0 0 0 179.45879994633646 19.437760672519289 0 19.437760672519289 655.00608555677309 0 0 0 0 247.64478566005209 137.20980608192849 0 137.20980608192849 695.93274913714163 0 0 0 0 96.262387801474262 93.29296356154282 0 93.29296356154282 687.10830142807845 0 0 0 0 125.23190927530936 40.304225161235081 0 40.304225161235081 779.86875135920855 0 0 0 0 66.908357914577067 -52.22746048246654 0 -52.22746048246654 636.25733111713544 0 0 0 0 -23.364767493858828 -52.654402578898953 0 -52.654402578898953 754.89231909135242 0 0 0 0 -38.996959688490676 -117.78945764765058 0 -117.78945764765058 850.27392742590882 0 0 0 0 122.8800404336189 -41.036785010753192 0 -41.036785010753192 422.044407753423 0 0 0 0 35.485631633601358 -262.40845626126469 0 -262.40845626126469 640.31394157058639 0 0 0 0 132.84002031957277 -68.009016847523071 0 -68.009016847523071 492.2563406428344 0 0 0 0 65.07930081852686 4.8872737053052333 0 4.8872737053052333 490.19825581215355 0 0 0 0 139.49414076418569 52.80797003038424 0 52.80797003038424 358.1706977235126 0 0 0 0 158.68915269178427 117.10380841276401 0 117.10380841276401 573.01258285090762 0 0 0 0 244.28763275767454 114.42459414510131 0 114.42459414510131 606.01520928527316 0 0 0 0 184.96983975706871 66.112474860750126 0 66.112474860750126 671.91851317567307 0 0 0 0 181.44717258762032 37.497398162573973 0 37.497398162573973 590.81305471069845 0 0 0 0 380.23723553092299 0.64643251701590998 0 0.64643251701590998 693.51223295801083 0 0 0 0 452.79680174416404 307.41993000803933 0 307.41993000803933 614.81305164896548 0 0 0 0 174.5134622688268 144.79963187559042 0 144.79963187559042 886.3692348249715 0 0 0 0 138.80898499024102 73.68737026882809 0 73.68737026882809 460.56388705265726 0 0 0 0 211.61485314590323 234.89378230999318 0 234.89378230999318 539.79273207629922 0 0 0 0 122.69106112494697 228.48736811146227 0 228.48736811146227 654.58062539282309 0 0 0 0 185.0028387978997 192.47547097458516 0 192.47547097458516 596.45088372174541 0 0 0 0 49.635516820704879 222.47275100786555 0 222.47275100786555 596.50172870446204 0 0 0 0 152.51716551671677 163.6776138362402 0 163.6776138362402 630.07500365066335 0 0 0 0 90.381455784598472 146.3592904883335 0 146.3592904883335 625.2606621535615 0 0 0 0 118.98200691868342 212.72621167723855 0 212.72621167723855 595.89528131380939 0 0 0 0 231.01411705254361 202.88137611415095 0 202.88137611415095 569.72787074365806 0 0 0 0 41.826408330358049 -20.558450238257592 0 -20.558450238257592 503.60234169402611 0 0 0 0 192.98380781204986 86.212873484774263 0 86.212873484774263 645.81971823411368 0 0 0 0 110.35443505935368 249.70606058705516 0 249.70606058705516 671.85515282262168 0 0 0 0 0.41674763386953639 -0.84657485453464254 0 -0.84657485453464254 3.1800273802396362 0 0 0 0 150.36430795853278 -103.18279929189021 0 -103.18279929189021 72.70353226863881 0 0 0 0 -103.44841381870015 52.544485476395494 0 52.544485476395494 124.39081717432964 0 0 0 0 139.4753254967211 34.480975833206685 0 34.480975833206685 123.31849454141775 0 0 0 0 104.13450219600702 -104.6356806940953 0 -104.6356806940953 -69.611575894996349 0 0 0 0 75.894850050389323 87.35226777754724 0 87.35226777754724 23.847412929519123 0 0 0 0 -50.750323185927073 -7.5767173518670461 0 -7.5767173518670461 340.83009284287073 0 0 0 0 88.76310536925962 106.34571970312481 0 106.34571970312481 439.97710719035967 0 0 0 0 150.67597791761841 78.241903835031735 0 78.241903835031735 338.38599086658724 0 0 0 0 9.5910097607124953 91.7776783665322 0 91.7776783665322 477.26436718150399 0 0 0 0 148.94344013716363 242.94956224168163 0 242.94956224168163 562.36471633760993 0 0 0 0 -48.139820907116125 85.705160532398395 0 85.705160532398395 460.28061469945533 0 0 0 0 -74.346778148479359 31.482845081980486 0 31.482845081980486 559.32645730377999 0 0 0 0 -50.818933895220766 23.099920009630296 0 23.099920009630296 607.70536173140863 0 0 0 0 -60.480073836169922 27.581256284470328 0 27.581256284470328 622.05858057316254 0 0 0 0 -47.025307587189957 -13.574876887852838 0 -13.574876887852838 586.04305105901221 0 0 0 0 149.88400311593588 188.8077116448103 0 188.8077116448103 680.10519799248323 0 0 0 0 -78.754902236664066 -44.733363957815527 0 -44.733363957815527 839.28592107272561 0 0 0 0 -44.030868372887696 41.907331940839867 0 41.907331940839867 550.78339807959856 0 0 0 0 210.04465314395824 99.675648605561037 0 99.675648605561037 183.97456884042003 0 0 0 0 -23.173275856669697 -13.482127041123022 0 -13.482127041123022 464.22307688052842 0 0 0 0 204.50816838281315 168.52383557478424 0 168.52383557478424 504.67777295273117 0 0 0 0 273.27939802501544 37.460059448080301 0 37.460059448080301 574.81084573232511 0 0 0 0 173.44216144122669 18.555731042631123 0 18.555731042631123 780.99459827972714 0 0 0 0 57.097425390543833 142.11000128683054 0 142.11000128683054 658.05635902219183 0 0 0 0 79.965461041638662 145.63148437558129 0 145.63148437558129 633.4803874377867 0 0 0 0 202.41224958456814 151.28156282838972 0 151.28156282838972 633.10963634321479 0 0 0 0 90.456777207298771 161.48459288879405 0 161.48459288879405 666.81412272456873 0 0 0 0 107.29133369592431 94.41435768712563 0 94.41435768712563 630.12698938215999 0 0 0 0 144.51765710482115 241.07531232253632 0 241.07531232253632 306.15173814499758 0 0 0 0 33.445685391461325 176.96955465251085 0 176.96955465251085 431.88998348998132 0 0 0 0 241.87384962735453 270.9263921882507 0 270.9263921882507 429.38555108042601 0 0 0 0 2.1848327513780896 0.942081281227793 0 0.942081281227793 0.68989787946462178 0 0 0 0 42.149938267343657 287.33872484446738 0 287.33872484446738 801.46634376379188 0 0 0 0 102.32170049237561 266.65999577131333 0 266.65999577131333 455.10453075979967 0 0 0 0 44.993848754804276 187.54028425519255 0 187.54028425519255 452.185467580779 0 0 0 0 58.769040288451379 -137.58490040766583 0 -137.58490040766583 386.7761898063236 0 0 0 0 -42.014918791009904 -50.745427524640036 0 -50.745427524640036 31.894031318959605 0 0 0 0 5.1219270555509411 55.210716999197757 0 55.210716999197757 7.0435688434445183 0 0 0 0 2.1299608664633678 1.5752041210059957 0 1.5752041210059957 0.67566044238918721 0 0 0 0 2.6246095372269203 1.5349867478752621 0 1.5349867478752621 1.9369659549522282 0 0 0 0 6.9627391712848521 243.37873751625943 0 243.37873751625943 677.40123193867475 0 0 0 0 207.39053627426074 340.80082610600766 0 340.80082610600766 472.45196862224839 0 0 0 0 -54.901292055040017 70.294559549526184 0 70.294559549526184 354.9633351797238 0 0 0 0 72.277488038023165 130.84319479618932 0 130.84319479618932 303.24193833962272 0 0 0 0 72.060453085073618 272.95452524028769 0 272.95452524028769 472.25381736269628 0 0 0 0 59.506810676991606 36.995945900982861 0 36.995945900982861 139.24510941032349 0 0 0 0 55.034295157743941 154.32281369814336 0 154.32281369814336 285.40754128171284 0 0 0 0 68.953596167154274 51.133459660233711 0 51.133459660233711 64.324532428905513 0 0 0 0 23.902667903783652 28.259619050384117 0 28.259619050384117 141.50763257629296 0 0 0 0 -17.610484084837481 35.66588963641334 0 35.66588963641334 205.79074867874078 0 0 0 0 44.034268018817556 97.490904221005621 0 97.490904221005621 181.09562235712656 0 0 0 0 39.349721568081122 30.25494873466414 0 30.25494873466414 61.161403195743333 0 0 0 0 -6.5818102027221812 27.437872367152522 0 27.437872367152522 61.015260271193711 0 0 0 0 0.32315796018285592 -0.21685510045569512 0 -0.21685510045569512 -0.27582214689084594 0 0 0 0 14.588732394786916 2.1969933284526633 0 2.1969933284526633 18.64644558040527 0 0 0 0 52.08469531511895 71.675744814411701 0 71.675744814411701 113.5054792505216 0 0 0 0 147.74946334839859 191.39518407383457 0 191.39518407383457 252.05786931138027 0 0 0 0 50.048205623546323 44.528436509104807 0 44.528436509104807 146.89484000143057 0 0 0 0 2.2906326586634123 42.703101491908456 0 42.703101491908456 168.62617031655645 0 0 0 0 102.43678254081976 15.917478879699047 0 15.917478879699047 171.75015534469821 0 0 0 0 18.355170788872442 -27.832626253009948 0 -27.832626253009948 5.5174237090354836 0 0 0 0 91.982752395859166 22.854717529948175 0 22.854717529948175 -25.660485784104822 0 0 0 0 10.850282579007626 4.5897373427651473 0 4.5897373427651473 -1.9005349065409973 0 0 0 0 6.974239002503225 3.3660848046386036 0 3.3660848046386036 15.088879395792901 0 0 0 0 3.966232600849894 -1.1433177693428362 0 -1.1433177693428362 3.9241018000854844 0 0 0 0 2.5065812856752077 -2.3277207833986377 0 -2.3277207833986377 7.2737767489913168 0 0 0 0 10.056408393035781 51.154482173393262 0 51.154482173393262 44.501248106776984 0 0 0 0 22.279814217820682 0.91227346770215156 0 0.91227346770215156 -0.85874883066570007 0 0 0 0 -348.50851511592737 194.28403815091133 0 194.28403815091133 360.56237500394491 0 0 0 0 -15.132139990970245 -125.88096830824179 0 -125.88096830824179 -53.49157735165727 0 0 0 0 36.426424206784191 24.618389836265123 0 24.618389836265123 39.976192703468769 0 0 0 0 5.1877301186121549 4.134722504763249 0 4.134722504763249 13.813408962130946 0 0 0 0 37.280168070735272 24.957263004203014 0 24.957263004203014 32.692334111914533 0 0 0 0 12.235024383146293 4.236713581528651 0 4.236713581528651 5.7084599696151663 0 0 0 0 10.194685751159271 9.0832487425827555 0 9.0832487425827555 11.682560814080418 0 0 0 0 5.5026890632434515 5.0129358585109003 0 5.0129358585109003 3.8862654671829659 0 0 0 0 20.246333788113862 11.046518202717177 0 11.046518202717177 6.4700662568973968 0 0 0 0 10.150701879523695 6.1634252458425181 0 6.1634252458425181 13.190953913654084 0 0 0 0 12.319386314986332 9.1534036291704979 0 9.1534036291704979 12.851918439169822 0 0 0 0 12.501294428653637 8.6365022490863339 0 8.6365022490863339 15.479839128791355 0 0 0 0 12.505586067930381 10.429459993851196 0 10.429459993851196 16.691168483404908 0 0 0 0 13.170088658093846 7.2830116477907723 0 7.2830116477907723 9.0912044937795145 0 0 0 0 14.311042563960655 12.963851963126217 0 12.963851963126217 13.908925486597582 0 0 0 0 20.867498260756292 3.5944057595261256 0 3.5944057595261256 4.6723605195511482 0 0 0 0 12.296756594277044 3.387575282421377 0 3.387575282421377 8.4379876152554232 0 0 0 0 12.174174990396583 1.8488879191866161 0 1.8488879191866161 4.978976150307286 0 0 0 0 13.939508709758229 8.458853507268941 0 8.458853507268941 7.8255927433492616 0 0 0 0 13.799025107444322 8.7763033677038038 0 8.7763033677038038 12.320580647145107 0 0 0 0 23.094815862867975 11.386585165095539 0 11.386585165095539 0.48456252650430542 0 0 0 0 24.708762132566108 11.145895476573969 0 11.145895476573969 -1.1751857087456301 0 0 0 0 5.737972761347379 2.398613696286799 0 2.398613696286799 -0.11649676127974118 0 0 0 0 29.041215279309313 14.298960002504828 0 14.298960002504828 -19.224269103298866 0 0 0 0 40.045782785377924 -4.7397037597329472 0 -4.7397037597329472 -6.8636872958122694 0 0 0 0 9.8266902204985485 6.6004122120507134 0 6.6004122120507134 6.6159622093910002 0 0 0 0 9.7456728939387176 10.936366994195851 0 10.936366994195851 7.6274290510191349 0 0 0 0 11.359751753388188 8.5481392043224318 0 8.5481392043224318 6.7657643163985526 0 0 0 0 8.4714234189589206 7.6589894387680033 0 7.6589894387680033 7.8210890163427393 0 0 0 0 14.271147989851087 9.5449213625047626 0 9.5449213625047626 4.8583511533104158 0 0 0 0 6.325214114440314 5.727310713235056 0 5.727310713235056 0.78403277709730901 0 0 0 0 13.940814796487636 6.5826680226683862 0 6.5826680226683862 2.2640254967697118 0 0 0 0 11.195362641559027 8.0514836711376141 0 8.0514836711376141 8.7112802040196229 0 0 0 0 15.429029900857131 6.4878609043807955 0 6.4878609043807955 1.2656957862345735 0 0 0 0 17.270380800462245 11.799785143501019 0 11.799785143501019 7.7705713436692605 0 0 0 0 12.871918646695121 7.563886632273352 0 7.563886632273352 8.6454404565738514 0 0 0 0 15.599211951332109 10.813455850424361 0 10.813455850424361 7.1131285473529715 0 0 0 0 16.000333951305947 10.269208551282645 0 10.269208551282645 15.801091605448164 0 0 0 0 15.423713862172008 12.181807218665199 0 12.181807218665199 28.588426956808689 0 0 0 0 9.6920546642172667 13.847293572858689 0 13.847293572858689 21.712704744324583 0 0 0 0 0.15764245614879258 0.39887283695667008 0 0.39887283695667008 0.9607703591575536 0 0 0 0 12.454003277478478 9.4070559474384936 0 9.4070559474384936 16.389936885003408 0 0 0 0 4.0249814679018545 7.3547684783103815 0 7.3547684783103815 15.492005166359334 0 0 0 0 7.3392296460170705 4.7810535358945678 0 4.7810535358945678 9.5461309054656844 0 0 0 0 6.4955746753024854 5.0334159102761582 0 5.0334159102761582 3.5973976771423999 0 0 0 0 9.7287474625484691 5.3807013955287353 0 5.3807013955287353 -1.757673488081938 0 0 0 0 11.922064599813893 10.937721220427193 0 10.937721220427193 9.3776772823484862 0 0 0 0 14.552836590159131 7.7997374412352656 0 7.7997374412352656 7.7989495782130689 0 0 0 0 14.481974799758746 8.2693271465050202 0 8.2693271465050202 8.5598626706814684 0 0 0 0 13.469936281144328 8.6254735492620966 0 8.6254735492620966 7.4262844259228586 0 0 0 0 14.111051740377661 7.4801633372371725 0 7.4801633372371725 7.6055554998001753 0 0 0 0 13.525646430766834 3.6142850024494315 0 3.6142850024494315 -3.2768747014165243 0 0 0 0 14.490944906352297 7.1638564508270974 0 7.1638564508270974 6.5112876340754156 0 0 0 0 14.962081451015365 8.3386083659188444 0 8.3386083659188444 4.0741343245317694 0 0 0 0 9.3286822298273702 7.0099168078796161 0 7.0099168078796161 5.40934445997501 0 0 0 0 4.1670945935676826 -0.72838133350710521 0 -0.72838133350710521 0.27345249855258658 0 0 0 0 15.27175948300453 9.5550838780441154 0 9.5550838780441154 6.2575263525322953 0 0 0 0 -38.471220130143195 -4.0836876660775943 0 -4.0836876660775943 191.37757302480986 0 0 0 0 443.3781525360082 -113.44357927486089 0 -113.44357927486089 -25.646538502085605 0 0 0 0 32.747149745673582 -2.8514541103854061 0 -2.8514541103854061 -2.9395259655415984 0 0 0 0 51.404887959737152 10.498356323148073 0 10.498356323148073 12.520924364446273 0 0 0 0 100.30268842289661 7.2759634601061407 0 7.2759634601061407 -157.490642013041 0 0 0 0 3.6364678971129578 -6.6894661668235855 0 -6.6894661668235855 -3.0119276361581102 0 0 0 0 -54.290860636467187 49.301588417834864 0 49.301588417834864 512.9320164367964 0 0 0 0 0.24506772286986234 13.39920557457117 0 13.39920557457117 88.053813471691683 0 0 0 0 -1.6638897405973694 30.073255555889773 0 30.073255555889773 133.4456723962212 0 0 0 0 48.151761277503283 44.766361827781111 0 44.766361827781111 85.088514895473054 0 0 0 0 30.775592394976123 9.4148296879276359 0 9.4148296879276359 2.0399797169484897 0 0 0 0 67.791103224645667 -16.25039976287735 0 -16.25039976287735 34.474685980778304 0 0 0 0 75.500471578372526 98.85236331905071 0 98.85236331905071 117.83477390772896 0 0 0 0 4.900884372542869 4.182704542355161 0 4.182704542355161 0.97161965442622389 0 0 0 0 44.076997589893836 97.021796283323056 0 97.021796283323056 240.44049123041623 0 0 0 0 45.822042239064558 -89.506376574471687 0 -89.506376574471687 69.691303212953699 0 0 0 0 7.317415940707944 -5.5446842324572252 0 -5.5446842324572252 3.8343857815144098 0 0 0 0 89.391467148709125 224.41950788431495 0 224.41950788431495 -38.121719476458793 0 0 0 0 -100.51606937460286 -178.34489494170657 0 -178.34489494170657 -33.332026241179847 0 0 0 0 110.49079826378784 -70.747873299539606 0 -70.747873299539606 -44.464548893695607 0 0 0 0 -271.47218715470694 243.84904903326833 0 243.84904903326833 -69.762831996242312 0 0 0 0 -91.305384228660387 215.31160466288702 0 215.31160466288702 262.04173499423632 0 0 0 0 617.77425379315036 209.16769035977632 0 209.16769035977632 -292.95605001118929 0 0 0 0 230.42630629667156 7.8874887702440901 0 7.8874887702440901 26.182730375778192 0 0 0 0 134.94663454339297 28.50594120596179 0 28.50594120596179 13.588342924924291 0 0 0 0 228.9253234827604 -3.8716957243532306 0 -3.8716957243532306 -63.739224731998547 0 0 0 0 61.031112771053017 -12.897850251371892 0 -12.897850251371892 46.258673266296682 0 0 0 0 111.18126529400206 -95.777297374224872 0 -95.777297374224872 96.305272403682466 0 0 0 0 473.02209865277251 -242.56289578331462 0 -242.56289578331462 54.374870594976528 0 0 0 0 197.62496778719151 -60.094033329911326 0 -60.094033329911326 -63.502945982952042 0 0 0 0 -28.697212425461771 -6.1141230584416917 0 -6.1141230584416917 28.874345751773944 0 0 0 0 0.51664074056183606 -2.4497305224611523 0 -2.4497305224611523 6.6949847945519707 0 0 0 0 -16.172411337973472 18.752176236832383 0 18.752176236832383 41.818432711454989 0 0 0 0 4.0342770550349298 -2.2822644863869996 0 -2.2822644863869996 1.1286420717451833 0 0 0 0 3.0763806899728934 14.503719129814272 0 14.503719129814272 -13.247986451795441 0 0 0 0 -79.431943144714751 -275.76694543807389 0 -275.76694543807389 345.36450262726066 0 0 0 0 -3.6400747260936441 19.739583607499299 0 19.739583607499299 3.8200765094861708 0 0 0 0 -13.390221726113055 32.383261637223768 0 32.383261637223768 -11.986272518846818 0 0 0 0 88.563540563434572 -81.529560978331574 0 -81.529560978331574 82.47405684370824 0 0 0 0 4.3215942156133069 -2.8125656728134896 0 -2.8125656728134896 1.9088596735504595 0 0 0 0 -191.96616353799254 -28.533922169161087 0 -28.533922169161087 226.17151671117426 0 0 0 0 130.53727902461651 193.39676528405107 0 193.39676528405107 -310.8584095636761 0 0 0 0 2.3664165586312786 -0.98065175953781747 0 -0.98065175953781747 0.3483327289394893 0 0 0 0 -23.372565982947663 43.220858255410349 0 43.220858255410349 45.574104934973207 0 0 0 0 4.8314072718249008 -21.466021628652015 0 -21.466021628652015 67.277260399978331 0 0 0 0 44.331858200919669 347.62198741337124 0 347.62198741337124 -77.107603619157089 0 0 0 0 -342.68612353857861 91.687406093224126 0 91.687406093224126 451.6871031919618 0 0 0 0 326.27915205049408 -0.57745580641267225 0 -0.57745580641267225 -126.79412437760402 0 0 0 0 31.051599610472319 -5.8575286075211324 0 -5.8575286075211324 -3.9681438131595463 0 0 0 0 11.823853172804775 65.267030499313478 0 65.267030499313478 77.29652775073373 0 0 0 0 438.32050733854885 -472.09941957598494 0 -472.09941957598494 -94.630448133444588 0 0 0 0 369.82299131286709 435.13043516468861 0 435.13043516468861 225.20080397618949 0 0 0 0 716.5662356761095 -323.66442411749085 0 -323.66442411749085 -121.00911805030864 0 0 0 0 -186.24882725997941 414.00633801876165 0 414.00633801876165 535.44466525901225 0 0 0 0 119.94381353139033 598.80177896968598 0 598.80177896968598 366.62609375715147 0 0 0 0 -7.2208209562559205 368.94467414634346 0 368.94467414634346 159.66912344259435 0 0 0 0 -40.12640193716652 -212.97415666925554 0 -212.97415666925554 1253.2142473196609 0 0 0 0 213.9001679112298 47.950731087506938 0 47.950731087506938 -75.97533895581364 0 0 0 0 585.22087228554665 441.93473084074685 0 441.93473084074685 534.37300750321356 0 0 0 0 5.6865755273608301 3.1651706162305899 0 3.1651706162305899 2.4341329793270603 0 0 0 0 -47.834076224635282 35.920675756773562 0 35.920675756773562 455.66004221812182 0 0 0 0 -9.6819203704071697 3.909867945953124 0 3.909867945953124 391.83949893627869 0 0 0 0 -34.420710001246334 222.37199669667825 0 222.37199669667825 369.02607109944256 0 0 0 0 23.333841296138417 97.71260562261341 0 97.71260562261341 33.583010852998996 0 0 0 0 17.795367707167316 113.235404631032 0 113.235404631032 163.36663214019063 0 0 0 0 -17.314884113802691 45.804592674172454 0 45.804592674172454 266.12310928493571 0 0 0 0 -20.843885403381819 65.835078808286994 0 65.835078808286994 332.51769935650009 0 0 0 0 -18.681958051696711 60.392437183452785 0 60.392437183452785 354.11209889631846 0 0 0 0 -51.20665255303129 93.716324268542849 0 93.716324268542849 322.38641586378071 0 0 0 0 -13.042874075530563 128.07902890286641 0 128.07902890286641 483.23123219214176 0 0 0 0 21.803762611441925 88.860099023524526 0 88.860099023524526 318.38063311047517 0 0 0 0 1.0670205563976154 -2.2286598103504414 0 -2.2286598103504414 1.6254499371846123 0 0 0 0 30.713405486530974 49.208393309367693 0 49.208393309367693 342.75994388877734 0 0 0 0 110.05602157945032 56.760184569146077 0 56.760184569146077 258.93236643519049 0 0 0 0 41.382047107182871 190.72668063121444 0 190.72668063121444 710.98432581900306 0 0 0 0 1.2259010712405143 -28.716366867062789 0 -28.716366867062789 169.25477290864001 0 0 0 0 -24.799435040498793 29.655173833523804 0 29.655173833523804 367.0544338462978 0 0 0 0 -29.79156784384395 6.5957618915399507 0 6.5957618915399507 131.20422131635132 0 0 0 0 26.632613143939185 9.6121421038941044 0 9.6121421038941044 3.3203986040026159 0 0 0 0 53.933644021143209 38.100735925723711 0 38.100735925723711 13.782174473079067 0 0 0 0 41.662517574895901 -0.0076953895004407968 0 -0.0076953895004407968 48.389696805666972 0 0 0 0 65.120782727299229 20.664998769973408 0 20.664998769973408 66.392367214276419 0 0 0 0 156.61793816422232 -51.619446384866933 0 -51.619446384866933 100.05486307197134 0 0 0 0 -74.975457209063279 38.187620777321172 0 38.187620777321172 117.40755529587886 0 0 0 0 -11.566154630718302 43.630923720412284 0 43.630923720412284 95.690412569363616 0 0 0 0 -58.185597817534472 74.272346216536789 0 74.272346216536789 85.366612464300943 0 0 0 0 58.884816901989325 -92.520079644698853 0 -92.520079644698853 191.4175856374768 0 0 0 0 81.588240971453615 -63.855440083490066 0 -63.855440083490066 106.57921723293839 0 0 0 0 129.19206664346166 -48.059651982456217 0 -48.059651982456217 90.894117631360132 0 0 0 0 81.425129042126173 -93.63424173027397 0 -93.63424173027397 176.79410616770792 0 0 0 0 49.538667738795994 -65.264007416951245 0 -65.264007416951245 107.83987749642483 0 0 0 0 11.610811718618152 18.385780820231957 0 18.385780820231957 67.71199868483609 0 0 0 0 69.215628527300396 -27.392832436185927 0 -27.392832436185927 31.257853394195081 0 0 0 0 20.745189034799651 7.2407136931528022 0 7.2407136931528022 2.6236038610561563 0 0 0 0 54.117540113698396 -43.353471337416522 0 -43.353471337416522 357.82179768051537 0 0 0 0 -40.717977812568279 -148.27940219435459 0 -148.27940219435459 457.5666457272755 0 0 0 0 -35.299465727466668 -189.53394438167834 0 -189.53394438167834 -81.310869974060097 0 0 0 0 0.75899878937959642 -0.24232189260558101 0 -0.24232189260558101 0.57681593930068153 0 0 0 0 15.734229801557376 -34.612530462968607 0 -34.612530462968607 357.21154934058359 0 0 0 0 -26.58046625300085 -97.835604826323106 0 -97.835604826323106 304.75898063248496 0 0 0 0 19.37107077906694 37.678644408381842 0 37.678644408381842 367.07967973935229 0 0 0 0 18.908597247664829 50.162630218637958 0 50.162630218637958 329.23908773389485 0 0 0 0 62.124979511344463 -65.773384159086163 0 -65.773384159086163 131.27549094859705 0 0 0 0 37.54853474579545 -83.238369548759238 0 -83.238369548759238 233.70696403624606 0 0 0 0 19.015647609294319 -63.141398964449763 0 -63.141398964449763 458.32434587562693 0 0 0 0 12.82388951039006 4.5455352437106775 0 4.5455352437106775 2.1034379602503215 0 0 0 0 218.93290367651525 -215.33783261407962 0 -215.33783261407962 419.98971946111942 0 0 0 0 4.2963416941561761 1.5830659496319477 0 1.5830659496319477 1.3287142976969646 0 0 0 0 10.463323714567196 -14.004064616327014 0 -14.004064616327014 697.84030841379877 0 0 0 0 124.33294429970738 -179.75616853558768 0 -179.75616853558768 303.83675888114135 0 0 0 0 252.29590125048742 -130.91514044765029 0 -130.91514044765029 208.13574696520118 0 0 0 0 126.26754346534688 -143.51966516951109 0 -143.51966516951109 197.92537623898897 0 0 0 0 129.96561667351762 -126.78465781840623 0 -126.78465781840623 216.83190463796518 0 0 0 0 138.54965274790175 -106.5407972380126 0 -106.5407972380126 149.42535725276957 0 0 0 0 171.91044974604847 -148.37974979402588 0 -148.37974979402588 178.4158265663782 0 0 0 0 206.95878752018098 -104.08775558884963 0 -104.08775558884963 123.85694618537491 0 0 0 0 148.44735036830389 -98.150062489587981 0 -98.150062489587981 133.87086141060672 0 0 0 0 43.655775238225715 -95.967299675927052 0 -95.967299675927052 188.95820879649 0 0 0 0 22.41347826207857 -40.982113498747367 0 -40.982113498747367 142.72829915306465 0 0 0 0 80.315786944340744 -122.51599919687442 0 -122.51599919687442 200.34388131066225 0 0 0 0 114.83050369722423 -111.27016528227705 0 -111.27016528227705 203.7777870881373 0 0 0 0 87.026082573931944 -105.90331983725218 0 -105.90331983725218 170.04307846905795 0 0 0 0 67.671269275116174 -114.52264670035038 0 -114.52264670035038 228.31454667919388 0 0 0 0 82.240536876283841 -103.46911427035684 0 -103.46911427035684 161.01916108995374 0 0 0 0 75.86455729121019 -84.779075866452331 0 -84.779075866452331 280.92472396659832 0 0 0 0 69.749615614877712 -105.90564178930526 0 -105.90564178930526 228.54705947794224 0 0 0 0 83.75842412201564 -96.040845313639693 0 -96.040845313639693 197.43206620294222 0 0 0 0 105.60563925943325 -64.088971689074242 0 -64.088971689074242 240.56489086530746 0 0 0 0 98.938361726160565 9.9203370255636401 0 9.9203370255636401 226.14813459047582 0 0 0 0 91.199283446569694 -4.9473964446374623 0 -4.9473964446374623 285.59973735434869 0 0 0 0 91.581044918025896 -9.0213666775069044 0 -9.0213666775069044 199.21658830934939 0 0 0 0 14.453961792226437 -25.990701036003202 0 -25.990701036003202 417.96798143200249 0 0 0 0 27.177661067852114 -3.9704580449620153 0 -3.9704580449620153 346.23406361485377 0 0 0 0 169.59719458910286 -104.78461592194253 0 -104.78461592194253 101.87902081783977 0 0 0 0 161.75419354775659 -41.856535042957148 0 -41.856535042957148 102.62431650617128 0 0 0 0 128.71738315083644 -99.178299060481095 0 -99.178299060481095 175.19119251696247 0 0 0 0 107.25344307384967 -56.263826456552124 0 -56.263826456552124 163.83950026260436 0 0 0 0 92.094609410327394 38.661838084150077 0 38.661838084150077 131.33561460399937 0 0 0 0 144.73134398921138 -34.247582805491675 0 -34.247582805491675 154.81429943225885 0 0 0 0 160.61889221560523 -63.512868904829247 0 -63.512868904829247 31.698074037451079 0 0 0 0 227.49433765951017 18.495371171847182 0 18.495371171847182 41.219334612923944 0 0 0 0 175.8016770878653 70.037134614450906 0 70.037134614450906 109.12877908920382 0 0 0 0 115.38478476443083 61.276912758047047 0 61.276912758047047 65.230559718771474 0 0 0 0 88.257566744415271 95.078907820701716 0 95.078907820701716 103.45536345727578 0 0 0 0 9.9293474652162708 -2.369663226601487 0 -2.369663226601487 -0.0062452988404082532 0 0 0 0 -4.2017752135419446 170.66186337353395 0 170.66186337353395 11.020156776066869 0 0 0 0 3.8423768493847499 -1.5306210859297771 0 -1.5306210859297771 0.52492506628513169 0 0 0 0 265.31787613732968 235.90315439355436 0 235.90315439355436 215.04974573888103 0 0 0 0 145.03860908919859 -424.61467129374921 0 -424.61467129374921 -205.28666913430243 0 0 0 0 12.131015200482247 -0.93320021880376203 0 -0.93320021880376203 0.51883133622524547 0 0 0 0 47.60728201731672 -15.799982013009867 0 -15.799982013009867 1.3285320369591318 0 0 0 0 1.5066077619821421 -0.96392682314703393 0 -0.96392682314703393 0.31176556045362247 0 0 0 0 71.775020164828959 23.336966469499203 0 23.336966469499203 -205.88455043167414 0 0 0 0 44.059463644238349 119.59045560372124 0 119.59045560372124 148.73209163295633 0 0 0 0 132.90393547246472 -87.558293131574828 0 -87.558293131574828 -397.38540448168578 0 0 0 0 -23.786327567389037 92.107867865753633 0 92.107867865753633 107.55285573033871 0 0 0 0 8.0290867557814636 3.2867254567968303 0 3.2867254567968303 115.88452719899306 0 0 0 0 -27.945401364159125 -9.0263708491002035 0 -9.0263708491002035 286.34190424482949 0 0 0 0 12.995934410790584 3.988563996140563 0 3.988563996140563 1.5606341714695073 0 0 0 0 19.776566503420781 18.519639894564534 0 18.519639894564534 5.5246775244481796 0 0 0 0 68.502095653145517 91.489488661208384 0 91.489488661208384 -28.840313210631393 0 0 0 0 1.0772116962293801 0.66490329285706373 0 0.66490329285706373 1.4818148402458302 0 0 0 0 10.616826269528207 4.1155266731552658 0 4.1155266731552658 1.8313235204950331 0 0 0 0 202.72724165325508 -45.74576336363225 0 -45.74576336363225 37.302076252725783 0 0 0 0 -5.3796446058172478 -141.22326189908927 0 -141.22326189908927 289.3113334987429 0 0 0 0 -17.443120225503971 128.03258244660714 0 128.03258244660714 242.84690360918739 0 0 0 0 73.764524281937355 36.239909957225791 0 36.239909957225791 303.2274173777696 0 0 0 0 423.98652326678507 -139.93270202644433 0 -139.93270202644433 217.61727923499075 0 0 0 0 88.055627681754814 272.50871018814087 0 272.50871018814087 887.48827861732025 0 0 0 0 4.4956847249320067 1.4145140044970965 0 1.4145140044970965 1.1497174596314323 0 0 0 0 75.157020507653215 -220.98050686072838 0 -220.98050686072838 386.61750875519192 0 0 0 0 19.534187146093245 -121.17211142148335 0 -121.17211142148335 309.05211309018705 0 0 0 0 -7.3588426985012347 -164.92628651230143 0 -164.92628651230143 586.04890826651126 0 0 0 0 253.53871442292285 -290.01837989005401 0 -290.01837989005401 399.75362544082782 0 0 0 0 141.99491622396903 -162.92888441821196 0 -162.92888441821196 436.41182590487551 0 0 0 0 -85.407234337206773 -17.597537131200625 0 -17.597537131200625 347.70455062274323 0 0 0 0 57.638230562776243 82.05106496074859 0 82.05106496074859 6.20006757876763 0 0 0 0 3.0593163706090332 -2.575166032153744 0 -2.575166032153744 2.2622171183393469 0 0 0 0 204.34177550219465 -69.039683765685368 0 -69.039683765685368 6.341531147589194 0 0 0 0 148.44314692838361 -64.29595020223951 0 -64.29595020223951 85.491951109861475 0 0 0 0 280.56959111307287 -251.73903269697257 0 -251.73903269697257 250.27743578778973 0 0 0 0 94.950632067212155 -91.310162970664351 0 -91.310162970664351 177.18808149210827 0 0 0 0 153.26944003403307 -203.29439485301211 0 -203.29439485301211 343.40064178790089 0 0 0 0 60.748519508503591 -102.44714434244315 0 -102.44714434244315 324.79472415975033 0 0 0 0 101.05408678540698 -140.72193971539855 0 -140.72193971539855 217.07165162118599 0 0 0 0 51.716063702501742 -97.096239280852387 0 -97.096239280852387 322.29922017721856 0 0 0 0 -2.8301713624935019 -36.013275664161483 0 -36.013275664161483 512.30002402680475 0 0 0 0 39.248195991257717 -107.90375921195027 0 -107.90375921195027 438.88012884981254 0 0 0 0 73.209125035856232 -195.24391353737201 0 -195.24391353737201 716.95290933602701 0 0 0 0 55.045905472608865 -106.23897769186351 0 -106.23897769186351 355.33860056633318 0 0 0 0 238.69283310202695 33.793480894675469 0 33.793480894675469 391.97462116083079 0 0 0 0 -4.9722134406017346 -9.4810253491377807 0 -9.4810253491377807 36.925222303872943 0 0 0 0 -10.282554832948684 16.711173285959376 0 16.711173285959376 115.68799411696091 0 0 0 0 0.12729490536672194 -25.67462385352519 0 -25.67462385352519 47.207191284276632 0 0 0 0 -4.954926825669979 2.8934074025546579 0 2.8934074025546579 15.729714543209411 0 0 0 0 -3.5556416765119891 -25.486508929723641 0 -25.486508929723641 -6.917017707874038 0 0 0 0 -15.448733470407745 -4.0871578004189359 0 -4.0871578004189359 34.554903748212382 0 0 0 0 0.3250510411957781 0.8622997532024641 0 0.8622997532024641 7.1440671529543351 0 0 0 0 -22.105672362974474 7.2547276901350415 0 7.2547276901350415 57.552782842398301 0 0 0 0 -14.820485733438034 -13.751387591550156 0 -13.751387591550156 24.518241386802401 0 0 0 0 -47.288060254688219 -13.681445865924616 0 -13.681445865924616 36.95527685263005 0 0 0 0 -0.85060057213278795 -4.5742349814556604 0 -4.5742349814556604 29.938439874357954 0 0 0 0 -39.49315967298844 -48.445131868309545 0 -48.445131868309545 -24.379691025620559 0 0 0 0 -2.5230721568431891 0.53815742369915398 0 0.53815742369915398 8.7309751703859817 0 0 0 0 -8.0903717833550175 -1.6967449334015328 0 -1.6967449334015328 34.957711548653606 0 0 0 0 -0.79840325172914728 -3.4516748408140288 0 -3.4516748408140288 31.055631430975708 0 0 0 0 -37.656987184312356 -10.189611882451572 0 -10.189611882451572 44.620578484333237 0 0 0 0 -14.368907458889737 0.67619155159627553 0 0.67619155159627553 34.154492632376787 0 0 0 0 -14.227805953933657 3.974917341875198 0 3.974917341875198 54.988308292493457 0 0 0 0 -1.0741860237536685 3.435998744713288 0 3.435998744713288 31.553048339515954 0 0 0 0 3.6091143807267025 3.5373433611790546 0 3.5373433611790546 3.5945892557951682 0 0 0 0 15.457728237623201 181.95704121323797 0 181.95704121323797 775.9410631956107 0 0 0 0 96.788386146593439 95.730437138799971 0 95.730437138799971 574.00803647953944 0 0 0 0 -2.0765425228046297 52.784665937564569 0 52.784665937564569 604.6262678342755 0 0 0 0 -19.584030582087507 77.687946057314548 0 77.687946057314548 858.65801080957681 0 0 0 0 8.0911121379124324 164.06628345538047 0 164.06628345538047 1014.448678343736 0 0 0 0 29.433847954773597 30.098154098177474 0 30.098154098177474 -9.2615910952117702 0 0 0 0 1.4094873925276827 1.6239669488469275 0 1.6239669488469275 0.52712277851555633 0 0 0 0 105.63269531675309 121.83273153135087 0 121.83273153135087 101.12807213128053 0 0 0 0 0.013430890134798742 60.923974668143273 0 60.923974668143273 652.29561441488477 0 0 0 0 85.06552227952001 172.2629042998833 0 172.2629042998833 795.80156710258962 0 0 0 0 0.018422533729523669 125.5872180452734 0 125.5872180452734 844.89382782546454 0 0 0 0 -174.60826081720927 219.41277793071549 0 219.41277793071549 1498.9867596208596 0 0 0 0 47.107454828245082 127.07296518037856 0 127.07296518037856 810.10720386447792 0 0 0 0 -0.49269486446365063 0.85452769850843424 0 0.85452769850843424 1.9574938531006554 0 0 0 0 2.3122389890572776 59.614040995875257 0 59.614040995875257 1185.9862294708473 0 0 0 0 0.33234076119950851 60.64316068043081 0 60.64316068043081 1193.1639548813189 0 0 0 0 -1.400506532505513 1.5180651418499451 0 1.5180651418499451 2.2076388296554121 0 0 0 0 -16.819278737855996 198.40835451839848 0 198.40835451839848 1078.9962309333969 0 0 0 0 36.907878197511536 123.30882424466836 0 123.30882424466836 864.06208196175203 0 0 0 0 81.302143644359489 147.03333970021595 0 147.03333970021595 788.43616347968054 0 0 0 0 -133.07426974378339 107.86249117891384 0 107.86249117891384 1455.3448153785866 0 0 0 0 -54.516422144274259 348.94228113649751 0 348.94228113649751 704.08659508791607 0 0 0 0 -64.99859133583746 384.33831486034978 0 384.33831486034978 873.21529743663427 0 0 0 0 -0.92240362683189092 0.54724908789937388 0 0.54724908789937388 1.9663273540700876 0 0 0 0 -76.606077748621004 490.99104423329845 0 490.99104423329845 947.81397877520135 0 0 0 0 64.300436290159411 282.14470694789179 0 282.14470694789179 1175.7165293999096 0 0 0 0 87.538919361915902 369.21565005106322 0 369.21565005106322 1482.5275906118404 0 0 0 0 320.74379602120632 431.70762688867762 0 431.70762688867762 586.10218137561606 0 0 0 0 675.90729617249485 964.86851476066931 0 964.86851476066931 1386.3496956138879 0 0 0 0 150.68901700582992 583.94415741811099 0 583.94415741811099 889.13412067174795 0 0 0 0 34.566322185383747 341.39569321029558 0 341.39569321029558 685.76890542272668 0 0 0 0 204.34473929611849 255.54062833807347 0 255.54062833807347 210.6452483480025 0 0 0 0 -14.35399778282823 -9.3111072063020401 0 -9.3111072063020401 -3.5723363376964699 0 0 0 0 -1.2504862732605111 -2.2113931221469443 0 -2.2113931221469443 14.19200220203119 0 0 0 0 253.45449235203614 394.79283675116312 0 394.79283675116312 595.36170575079814 0 0 0 0 -2.4351682663489407 -8.0483295449512084 0 -8.0483295449512084 5.6828320494251585 0 0 0 0 -24.194330567975669 -27.97578058635554 0 -27.97578058635554 1.914948439298314 0 0 0 0 -18.190097026511296 -17.015399260419144 0 -17.015399260419144 2.3882280007819645 0 0 0 0 -45.3941024430884 -61.251525763902464 0 -61.251525763902464 -33.815848087047925 0 0 0 0 -0.10156372990945783 -32.707542398695296 0 -32.707542398695296 -18.227347656724305 0 0 0 0 9.337725758592569 -10.050222911213496 0 -10.050222911213496 -50.227850108662096 0 0 0 0 22.72534378314695 -18.346859156264877 0 -18.346859156264877 -40.691053191635703 0 0 0 0 -22.440147096322427 -18.432246045300545 0 -18.432246045300545 8.2404520651576636 0 0 0 0 -57.527433975626991 -49.625309150844259 0 -49.625309150844259 -1.9202699362540443 0 0 0 0 -52.937107902278512 -72.596913157722156 0 -72.596913157722156 -39.543826399825775 0 0 0 0 -67.115975137362511 -69.703936268810139 0 -69.703936268810139 -21.309632054679241 0 0 0 0 -3.307976213803256 -6.4144451399871727 0 -6.4144451399871727 -1.7196819584223135 0 0 0 0 -2.9161406410741257 -8.7705461497679238 0 -8.7705461497679238 14.054917720871742 0 0 0 0 23.871197291365412 29.450263627219101 0 29.450263627219101 321.96567859038623 0 0 0 0 -2.1921935274316411 183.12712064521838 0 183.12712064521838 397.59412020898162 0 0 0 0 -70.459427733338998 4.5068671244189318 0 4.5068671244189318 426.66113311558365 0 0 0 0 -103.7307270879387 132.19912290244247 0 132.19912290244247 889.74775207390962 0 0 0 0 20.902022008623817 -7.6781243418663507 0 -7.6781243418663507 527.74076348432573 0 0 0 0 -0.88058964517881577 147.35523189222658 0 147.35523189222658 370.35032875191246 0 0 0 0 0.37641484312318196 -9.8963819260070522 0 -9.8963819260070522 4.2029733067435782 0 0 0 0 -3.1469704199402031 -13.894166115958797 0 -13.894166115958797 25.852279441282008 0 0 0 0 40.064820052280226 -77.636655821066597 0 -77.636655821066597 159.29992781636975 0 0 0 0 2.0050254182948262 -0.90818681464616802 0 -0.90818681464616802 -0.82251969733144392 0 0 0 0 -0.69537465079743699 -5.2386606507159001 0 -5.2386606507159001 28.170167459734188 0 0 0 0 -12.849942095425888 -23.074352120802359 0 -23.074352120802359 25.707906759176694 0 0 0 0 64.851723483141626 81.557261921656391 0 81.557261921656391 96.745863710995764 0 0 0 0 -2.6835845915070018 -9.6848614306260288 0 -9.6848614306260288 7.906635190702886 0 0 0 0 11.001422885646093 -5.411802251051995 0 -5.411802251051995 20.855329904346036 0 0 0 0 62.279439558845297 -102.88988444402275 0 -102.88988444402275 -146.28549622220271 0 0 0 0 -7.6935619308413976 -10.149234072105521 0 -10.149234072105521 31.299712655777199 0 0 0 0 7.9510193511627989 -20.049449168398951 0 -20.049449168398951 24.29253437450825 0 0 0 0 -4.6949874089515333 -17.501842535297328 0 -17.501842535297328 39.192396310761978 0 0 0 0 -6.2948697359231574 -12.292930081996019 0 -12.292930081996019 22.421617010313639 0 0 0 0 -34.190936384126772 -25.118722774303023 0 -25.118722774303023 33.514614589075791 0 0 0 0 -4.7083530448442703 -9.128056130364925 0 -9.128056130364925 41.149332834456636 0 0 0 0 28.555767634845949 -27.133240859258876 0 -27.133240859258876 11.08075815859047 0 0 0 0 33.933727457058126 17.320995964095346 0 17.320995964095346 33.775225055626834 0 0 0 0 -9.51538529418076 -3.0462094311078545 0 -3.0462094311078545 23.485040336840029 0 0 0 0 -65.735046546929425 -102.53103863632532 0 -102.53103863632532 11.550702406827924 0 0 0 0 -38.205471567905533 65.554380314242735 0 65.554380314242735 43.491936747448563 0 0 0 0 -123.76813141727916 -147.89413720029938 0 -147.89413720029938 -65.306305670339498 0 0 0 0 14.330480742996466 -11.480655267514193 0 -11.480655267514193 2.0432989534448183 0 0 0 0 -43.876597659145062 -61.163358345563893 0 -61.163358345563893 -6.098359164341673 0 0 0 0 -40.883495832017616 -31.791813263496806 0 -31.791813263496806 -3.7755368577963964 0 0 0 0 3.3771818559357598 -42.682300761218812 0 -42.682300761218812 -11.522590504795517 0 0 0 0 -3.0878737786397323 -22.811059736666721 0 -22.811059736666721 10.096695374433693 0 0 0 0 -9.0548636974718875 -34.571737597553465 0 -34.571737597553465 -3.9373376180737978 0 0 0 0 20.20298091830341 -43.201643638474707 0 -43.201643638474707 -7.6175153783024143 0 0 0 0 -7.462590601036311 -42.41617525462425 0 -42.41617525462425 -33.906756362041051 0 0 0 0 -29.832403742923248 -61.754632126698311 0 -61.754632126698311 -17.450077907546074 0 0 0 0 7.8116117939484866 -41.397585277170947 0 -41.397585277170947 -19.533158493919473 0 0 0 0 -27.356984411485968 -40.535942310946893 0 -40.535942310946893 -8.3253690676574479 0 0 0 0 14.029100530886655 -14.927088224527305 0 -14.927088224527305 0.95634786594334997 0 0 0 0 -76.382001439372289 -111.05270821056911 0 -111.05270821056911 -100.70124175438832 0 0 0 0 -60.365273075251025 -67.282296580437105 0 -67.282296580437105 -1.5928622945539246 0 0 0 0 -40.923995179025951 50.975401915176917 0 50.975401915176917 10.215886771344231 0 0 0 0 2.3484257130507427 -0.016442324526863672 0 -0.016442324526863672 -1.5043103341405057 0 0 0 0 1.7165112169845307 -5.2996482043898281 0 -5.2996482043898281 3.7943264716604546 0 0 0 0 53.479875009173483 -17.241642887061062 0 -17.241642887061062 -12.3059811604071 0 0 0 0 -233.15849016924199 -120.02057416304524 0 -120.02057416304524 -71.563819583479017 0 0 0 0 11.543721748177859 -40.663050466166169 0 -40.663050466166169 -14.228714962553568 0 0 0 0 7.3500628904935148 -25.100412246798214 0 -25.100412246798214 0.258907102059311 0 0 0 0 100.79461524956935 -3.0439865230355281 0 -3.0439865230355281 -7.3007785699765009 0 0 0 0 25.751238914696685 -9.2868201286646581 0 -9.2868201286646581 16.879418609336426 0 0 0 0 37.708776454670897 -19.208216854663988 0 -19.208216854663988 -13.831645081156239 0 0 0 0 -112.49107177934502 -84.597382170684796 0 -84.597382170684796 -114.25344096571735 0 0 0 0 -110.31102740326014 -96.243837306355999 0 -96.243837306355999 -107.50949542079343 0 0 0 0 1.3663303361679451 -0.75992575913216953 0 -0.75992575913216953 0.049814947910448382 0 0 0 0 -135.96344304868609 -124.05257709914508 0 -124.05257709914508 142.81618901790353 0 0 0 0 -73.664854612804447 -84.948053693538895 0 -84.948053693538895 -119.836246896175 0 0 0 0 -61.7420583216674 -62.243611156195584 0 -62.243611156195584 -76.869040123056038 0 0 0 0 -171.97687225011805 -47.592488657239301 0 -47.592488657239301 -34.020944764026353 0 0 0 0 -100.1240922891825 -43.880774901195764 0 -43.880774901195764 -44.736133452337526 0 0 0 0 -24.969404451061735 -72.183998783419156 0 -72.183998783419156 -83.660067167293164 0 0 0 0 -98.290141909235899 -30.80988546255503 0 -30.80988546255503 33.298425159420731 0 0 0 0 -39.125421602735571 -78.12594348955281 0 -78.12594348955281 88.199200579561875 0 0 0 0 -43.307051292547385 -97.800389537314913 0 -97.800389537314913 17.000805125134775 0 0 0 0 -175.5268899498476 -76.280222725406929 0 -76.280222725406929 33.659403549712806 0 0 0 0 -117.15492122584601 -29.126994561286665 0 -29.126994561286665 20.017356373893563 0 0 0 0 2.4553823322002306 -8.0127609251694505 0 -8.0127609251694505 1.4914210651882343 0 0 0 0 -1.4844203459524294 -11.966386346428514 0 -11.966386346428514 21.901739557602163 0 0 0 0 5.9439491954481127 -26.844524972133513 0 -26.844524972133513 -13.110622896130735 0 0 0 0 -17.886618178786193 -21.568563584069125 0 -21.568563584069125 6.598605481184677 0 0 0 0 25.065270079462721 -6.5016857907939993 0 -6.5016857907939993 -2.8223004518367816 0 0 0 0 -3.8927891736589117 -50.799692731314281 0 -50.799692731314281 -19.341524944391722 0 0 0 0 -1.6973972147186265 -16.121026334361339 0 -16.121026334361339 17.426883120292644 0 0 0 0 -15.591968065029505 -34.20096467048279 0 -34.20096467048279 -80.554928759596805 0 0 0 0 -61.930721682454532 -34.769178982902304 0 -34.769178982902304 64.874892300107604 0 0 0 0 1131.8800227888314 89.842822104012157 0 89.842822104012157 1501.2742570060054 0 0 0 0 295.94946473129892 634.20338021708449 0 634.20338021708449 1645.8768799097697 0 0 0 0 0.86878528437359515 -1.9271493549068239 0 -1.9271493549068239 7.5585439465005351 0 0 0 0 -30.646308915533041 -22.264137470826427 0 -22.264137470826427 10.50358692536247 0 0 0 0 97.487433864742627 -42.229761717720066 0 -42.229761717720066 -72.337581678642891 0 0 0 0 24.183987640980831 -105.82747895596003 0 -105.82747895596003 -82.358449930630741 0 0 0 0 84.175261104437936 11.131758133382391 0 11.131758133382391 -43.247082789031992 0 0 0 0 -0.5055769067259015 -0.25933918908392428 0 -0.25933918908392428 5.8902186462695596 0 0 0 0 42.740882877475315 -56.373011893443618 0 -56.373011893443618 24.161843499980023 0 0 0 0 294.56576457965201 511.54190269107767 0 511.54190269107767 1569.0322915351699 0 0 0 0 180.11962409597101 642.96319718940231 0 642.96319718940231 1480.1458921551439 0 0 0 0 -0.17865778071220784 -0.16915098627276848 0 -0.16915098627276848 4.0482023061746446 0 0 0 0 504.8367224237175 -1096.1632856984743 0 -1096.1632856984743 2682.5561203677025 0 0 0 0 345.54039354982672 584.20766942716546 0 584.20766942716546 1694.0504914480334 0 0 0 0 1447.6832504457259 -763.31953860343765 0 -763.31953860343765 461.8545489651151 0 0 0 0 298.76032792937588 256.84132648498417 0 256.84132648498417 -318.24259304268344 0 0 0 0 2.2513060061109336 -3.3343479902287179 0 -3.3343479902287179 12.125026024347392 0 0 0 0 314.19414353659596 -554.22610343059659 0 -554.22610343059659 1226.5198716632076 0 0 0 0 851.29698931932853 -198.948006031761 0 -198.948006031761 -67.512776558331097 0 0 0 0 751.13417644010724 -1054.1519104174349 0 -1054.1519104174349 822.98550217785669 0 0 0 0 270.78847577854174 -472.01837308842005 0 -472.01837308842005 328.70338585740319 0 0 0 0 432.38675528263349 -484.93647839451205 0 -484.93647839451205 81.690955789155851 0 0 0 0 0.43051349317862075 -10.18300501815947 0 -10.18300501815947 28.726630620346796 0 0 0 0 -189.7314831072153 -133.99342696421263 0 -133.99342696421263 134.60235256215856 0 0 0 0 -63.76685116529984 0.25235733001591143 0 0.25235733001591143 48.61350753736042 0 0 0 0 10.603102910652751 79.148995613926672 0 79.148995613926672 89.212384076177841 0 0 0 0 -78.283737276499778 -182.38694727409711 0 -182.38694727409711 -47.861760553367276 0 0 0 0 -3.7615922071033294 0.64709512480422404 0 0.64709512480422404 4.2975856680913793 0 0 0 0 221.55566516789628 -291.80982693270562 0 -291.80982693270562 103.58858179655726 0 0 0 0 4.7868338125674654 -63.490573416856932 0 -63.490573416856932 -32.262523695054369 0 0 0 0 209.36393936084625 -415.02719121038535 0 -415.02719121038535 329.71258987978581 0 0 0 0 112.93918511170013 -331.69165925033758 0 -331.69165925033758 323.98743573125103 0 0 0 0 67.777882671792469 -475.95281965167487 0 -475.95281965167487 682.97325212509531 0 0 0 0 22.067920746510765 -468.37600108199695 0 -468.37600108199695 684.04825117509972 0 0 0 0 379.08340535687535 -667.30453910286633 0 -667.30453910286633 412.17220563706132 0 0 0 0 240.94747781419423 -770.01773103433788 0 -770.01773103433788 1050.7429282835838 0 0 0 0 -182.04738670109458 -591.16384967947397 0 -591.16384967947397 1499.782070440888 0 0 0 0 29.381886286826713 -632.21692788783548 0 -632.21692788783548 1026.0551191933173 0 0 0 0 -158.17668076774527 -403.76107527009935 0 -403.76107527009935 1106.5383246880028 0 0 0 0 -170.72695278347641 -395.197157889349 0 -395.197157889349 861.31208423232601 0 0 0 0 23.974561244616126 -545.90184258879526 0 -545.90184258879526 789.81192739980906 0 0 0 0 -107.02905427971098 -548.96275284072362 0 -548.96275284072362 1015.88914832503 0 0 0 0 35.006009577841212 -349.10072408238648 0 -349.10072408238648 429.92969363148222 0 0 0 0 -50.500805535483892 -370.32412954686697 0 -370.32412954686697 703.98393191906325 0 0 0 0 -52.197461415282703 -188.87239378577942 0 -188.87239378577942 567.97260861623181 0 0 0 0 -46.45865556484506 -384.72706876337793 0 -384.72706876337793 737.0876953749721 0 0 0 0 -25.423229756068395 -88.972904722129897 0 -88.972904722129897 430.85972982430576 0 0 0 0 -67.576559335760834 -153.36958238810348 0 -153.36958238810348 490.32552941220638 0 0 0 0 32.589748795666878 -190.097420725755 0 -190.097420725755 169.8920501959268 0 0 0 0 68.760145631995726 -105.32181164053782 0 -105.32181164053782 175.51409808548851 0 0 0 0 75.962233180284613 -197.80629730982673 0 -197.80629730982673 348.36843854195649 0 0 0 0 71.81287312449912 -165.46198896924716 0 -165.46198896924716 206.33192269817482 0 0 0 0 26.986631036134952 -192.99559940495965 0 -192.99559940495965 240.32628110116821 0 0 0 0 78.625774564067285 -350.97624177199759 0 -350.97624177199759 425.29876034588233 0 0 0 0 108.97396853584885 -201.75295762187307 0 -201.75295762187307 106.44527294923319 0 0 0 0 -70.684748261179266 -51.323866796396032 0 -51.323866796396032 95.325815645704097 0 0 0 0 -8.501347640527797 -65.91235057988888 0 -65.91235057988888 -128.70042404668857 0 0 0 0 -19.083267072338032 -24.226890651944814 0 -24.226890651944814 7.4987096091426793 0 0 0 0 -36.654800494904975 -78.227067424109919 0 -78.227067424109919 34.782731403736761 0 0 0 0 -6.8536376550976854 -213.15761442871826 0 -213.15761442871826 179.00978101975761 0 0 0 0 1.5283619514914706 -0.52811930309600541 0 -0.52811930309600541 -0.24096544285573884 0 0 0 0 -41.077466949400787 -100.03077921725435 0 -100.03077921725435 -298.53269411797373 0 0 0 0 44.589360121713469 -6.5462286428337393 0 -6.5462286428337393 -121.54985533794752 0 0 0 0 -53.648577603288331 -54.626466929370508 0 -54.626466929370508 -138.08169621283378 0 0 0 0 -33.81259596420864 -100.79593226591896 0 -100.79593226591896 -137.14595875711893 0 0 0 0 2.6328848191404646 -1.4119927709061919 0 -1.4119927709061919 0.0051016660641920453 0 0 0 0 36.758466372526982 -219.42086147896589 0 -219.42086147896589 -206.34279512479407 0 0 0 0 39.810172560881483 -114.67727345453022 0 -114.67727345453022 328.41771791409519 0 0 0 0 39.237736691448163 -101.40541694255126 0 -101.40541694255126 131.67162602479584 0 0 0 0 -88.706364002456667 48.736713621317904 0 48.736713621317904 -10.35885021604372 0 0 0 0 36.449509062771298 -48.487767161463125 0 -48.487767161463125 -402.96756176660892 0 0 0 0 17.426874485992812 -101.56295979033166 0 -101.56295979033166 351.87956274859971 0 0 0 0 0.95757563389851619 -0.45827924429163502 0 -0.45827924429163502 -0.051687969141307022 0 0 0 0 -14.386934063060892 -119.54821548358427 0 -119.54821548358427 391.08960447433492 0 0 0 0 -7.4708125981727429 -132.30601481794781 0 -132.30601481794781 -432.20504874042308 0 0 0 0 -12.194274042411919 -58.707471033456386 0 -58.707471033456386 -390.12110222444926 0 0 0 0 0.18892926623439255 -1.022186964422378 0 -1.022186964422378 0.50875484648668134 0 0 0 0 97.938207152828227 -118.23156375593317 0 -118.23156375593317 -245.14164295485489 0 0 0 0 1.6314132282659366 -1.5126190168527245 0 -1.5126190168527245 -0.2943740960386565 0 0 0 0 66.8256135613955 -150.93705280060885 0 -150.93705280060885 -47.405112795546302 0 0 0 0 -8.887442126442215 -55.937752189172443 0 -55.937752189172443 -66.369935977880232 0 0 0 0 -54.684734467281075 -62.488012692596385 0 -62.488012692596385 -144.39172229001269 0 0 0 0 154.17337507916397 -168.48430172857752 0 -168.48430172857752 -125.12653927921929 0 0 0 0 10.336694515272285 32.128232108951124 0 32.128232108951124 -305.188672739092 0 0 0 0 -18.751797530526915 37.738963627583871 0 37.738963627583871 449.66508468228744 0 0 0 0 55.511128500702966 28.552272170581091 0 28.552272170581091 270.29242197042549 0 0 0 0 -60.898316294814663 36.204171283432515 0 36.204171283432515 870.07699948737491 0 0 0 0 -18.987379391198218 -4.4014007968862643 0 -4.4014007968862643 628.77290850533245 0 0 0 0 17.386146771845731 -23.763456703174597 0 -23.763456703174597 522.69442605410768 0 0 0 0 25.918285920009804 -9.7686714396604657 0 -9.7686714396604657 621.69802883558623 0 0 0 0 48.999127114988688 78.41119160495623 0 78.41119160495623 651.56063935816928 0 0 0 0 71.309291384014045 29.142364620327044 0 29.142364620327044 446.36823440049193 0 0 0 0 32.435673829437746 -103.62873442061118 0 -103.62873442061118 637.30332906492731 0 0 0 0 20.055624369047223 -44.327943593945065 0 -44.327943593945065 368.0298011434279 0 0 0 0 24.280244456193941 -40.808684237727903 0 -40.808684237727903 369.90998113791102 0 0 0 0 25.87006783001641 -17.73325388025205 0 -17.73325388025205 257.04841865839262 0 0 0 0 -4.3208737871672156 -22.034220650412863 0 -22.034220650412863 311.52681631984706 0 0 0 0 -40.542374046977784 38.840313088780022 0 38.840313088780022 225.66080803236764 0 0 0 0 26.508256857245584 44.774076510512316 0 44.774076510512316 292.54749358685876 0 0 0 0 -40.762153355099827 90.034918870335787 0 90.034918870335787 493.82716085694767 0 0 0 0 32.415361818862124 69.415317644852621 0 69.415317644852621 365.96329141146089 0 0 0 0 23.700303939597006 68.933733083400512 0 68.933733083400512 379.05306267105522 0 0 0 0 4.0984173075002666 1.8486304265632683 0 1.8486304265632683 0.33985670251631328 0 0 0 0 61.713594236577933 101.59210837555975 0 101.59210837555975 -21.208938018808112 0 0 0 0 1.5170942167495882 0.76528010774329402 0 0.76528010774329402 0.32084657840733311 0 0 0 0 -43.442711905830464 74.334408995701324 0 74.334408995701324 287.72542437268021 0 0 0 0 -37.85842371568495 99.152980716379943 0 99.152980716379943 330.78824249345962 0 0 0 0 46.378924221510488 60.817312371154912 0 60.817312371154912 159.86873128897059 0 0 0 0 4.7653582219096773 2.0112348194196272 0 2.0112348194196272 0.45707907999778064 0 0 0 0 117.80264271327269 152.88671546383648 0 152.88671546383648 340.45942922341908 0 0 0 0 10.89713799616635 112.59592470051211 0 112.59592470051211 391.51640190081162 0 0 0 0 268.63282925374756 119.54071268325333 0 119.54071268325333 371.90705990809784 0 0 0 0 -0.70779904320033893 128.3508080028214 0 128.3508080028214 591.13543857311743 0 0 0 0 6.594695047118023 141.73276241581129 0 141.73276241581129 404.8004413505696 0 0 0 0 59.073017267303612 200.14386044929961 0 200.14386044929961 234.04717539281228 0 0 0 0 -4.4978570995646123 231.30052841388169 0 231.30052841388169 436.92116362042725 0 0 0 0 129.10984317322436 363.71855756806872 0 363.71855756806872 506.56434599297518 0 0 0 0 363.97745438892412 162.55980430789532 0 162.55980430789532 25.479158870875835 0 0 0 0 -3.6150916280184902 -15.852254892584824 0 -15.852254892584824 59.654212268592346 0 0 0 0 177.24720913741021 105.16271759014489 0 105.16271759014489 16.051948343963886 0 0 0 0 68.465769678785364 151.98882021646205 0 151.98882021646205 247.27293220247157 0 0 0 0 50.81473028031462 73.878910196174729 0 73.878910196174729 89.190855430217198 0 0 0 0 21.375838291227126 9.9214169449552507 0 9.9214169449552507 2.7699753045757554 0 0 0 0 76.174859848389247 78.635223430050701 0 78.635223430050701 78.031246892311174 0 0 0 0 24.604617832670556 18.373280072979469 0 18.373280072979469 -0.19939115289798792 0 0 0 0 10.252722176514693 6.2070216612093319 0 6.2070216612093319 0.25329424059010996 0 0 0 0 -0.17392771376853489 -23.346743206706378 0 -23.346743206706378 17.413871678108123 0 0 0 0 17.036176829094984 9.2101571458206308 0 9.2101571458206308 7.7829018321826879 0 0 0 0 6.2465834399032385 1.6273152050174069 0 1.6273152050174069 0.76504562766103845 0 0 0 0 18.096988369615005 8.2532226623891844 0 8.2532226623891844 2.7871502813209226 0 0 0 0 -16.891033523428632 11.430476965466369 0 11.430476965466369 19.19251677469947 0 0 0 0 22.422867035864019 9.5199694046311407 0 9.5199694046311407 3.8092751443740909 0 0 0 0 46.49586022816402 7.5010416016139061 0 7.5010416016139061 -26.44420121453004 0 0 0 0 -12.712510258175826 155.92642142070872 0 155.92642142070872 -114.26629510878774 0 0 0 0 1.2378930125423722 13.063813359618507 0 13.063813359618507 24.225749895271292 0 0 0 0 -12.82566833676583 80.990624314641536 0 80.990624314641536 341.5256965062199 0 0 0 0 -25.617624716292539 91.782919309031968 0 91.782919309031968 377.89141630761242 0 0 0 0 -13.837457976929045 88.051116481059125 0 88.051116481059125 376.60012073322468 0 0 0 0 -30.234646620987178 150.37422244060281 0 150.37422244060281 453.10806878861877 0 0 0 0 -29.650515386399547 170.8001326597996 0 170.8001326597996 318.17788618696522 0 0 0 0 -0.59739902642854759 172.30754661215724 0 172.30754661215724 349.6692012592307 0 0 0 0 -6.3481746905572436 232.37797470368059 0 232.37797470368059 378.92303943343632 0 0 0 0 -12.349921541458798 134.89726198351877 0 134.89726198351877 259.84047511736571 0 0 0 0 -11.174863507831333 174.03105695718568 0 174.03105695718568 393.56095666154579 0 0 0 0 108.86220903324161 257.91734432613657 0 257.91734432613657 184.00085983208737 0 0 0 0 100.2621161130935 112.49802177639867 0 112.49802177639867 15.468975638012125 0 0 0 0 44.593462312777973 131.55318786001362 0 131.55318786001362 666.64770549148307 0 0 0 0 191.41842715771372 411.6566070962308 0 411.6566070962308 951.11667574721014 0 0 0 0 11.556002820674394 281.13625843265618 0 281.13625843265618 499.00887598700501 0 0 0 0 13.60891336037929 6.7416466357380145 0 6.7416466357380145 3.8295185404317742 0 0 0 0 -19.772050660483728 29.692905914126641 0 29.692905914126641 726.15087937496082 0 0 0 0 -34.744067901209974 24.34518056342813 0 24.34518056342813 726.26346311495399 0 0 0 0 91.706186626187446 -184.90392699494805 0 -184.90392699494805 1067.5088711399512 0 0 0 0 -79.291514301663938 1.9660521972600691 0 1.9660521972600691 -42.722145256349904 0 0 0 0 11.111442547108254 181.73914750981021 0 181.73914750981021 -220.74753575247087 0 0 0 0 12.652707258230866 3.3497986139942597 0 3.3497986139942597 -0.26163870591217631 0 0 0 0 39.757629351573996 -0.12801843107808963 0 -0.12801843107808963 -33.309745013557404 0 0 0 0 -69.268995717617145 1.4641236998777458 0 1.4641236998777458 11.086990059548043 0 0 0 0 211.01269280830093 224.64899745575894 0 224.64899745575894 -65.246732356116354 0 0 0 0 811.43969026082004 469.22179341561605 0 469.22179341561605 -99.500764289556173 0 0 0 0 244.97700964067735 132.40920124028889 0 132.40920124028889 -5.2665897200313339 0 0 0 0 -10.468359431470844 26.786367554851495 0 26.786367554851495 1824.5714812574806 0 0 0 0 403.0034841913839 34.173836221938473 0 34.173836221938473 -381.48982366142081 0 0 0 0 9.200800622695148 1.2066175357098317 0 1.2066175357098317 0.62877386347565078 0 0 0 0 139.69457913385395 421.47589485744356 0 421.47589485744356 1584.5931611739188 0 0 0 0 62.029463480172353 580.64391477729896 0 580.64391477729896 717.78115839583734 0 0 0 0 234.51240864284966 -308.94800406675677 0 -308.94800406675677 494.65291686322234 0 0 0 0 897.12622400724433 344.34840905076817 0 344.34840905076817 451.24157157653099 0 0 0 0 157.91752916986366 -165.63262282377946 0 -165.63262282377946 321.71552906060447 0 0 0 0 171.704771966664 396.45367772728423 0 396.45367772728423 334.54376394171777 0 0 0 0 223.89101941581816 -83.865240018109034 0 -83.865240018109034 113.53180286938004 0 0 0 0 -3.0517783921457244 -1.680564555564402 0 -1.680564555564402 -0.66029107392641961 0 0 0 0 59.252156313315709 164.34270425699651 0 164.34270425699651 -193.63965674358224 0 0 0 0 191.58919511856402 -310.15956659801122 0 -310.15956659801122 153.63868650001132 0 0 0 0 -89.381170208804861 -125.07456708490099 0 -125.07456708490099 184.32225219943393 0 0 0 0 -205.10336073860185 -39.519797887520326 0 -39.519797887520326 91.610211616789456 0 0 0 0 -185.9270734861924 39.280890674614966 0 39.280890674614966 129.05605371768979 0 0 0 0 -157.1143620572841 6.2480602377918331 0 6.2480602377918331 98.175572155232658 0 0 0 0 33.021441125597903 110.93884836212965 0 110.93884836212965 115.16661571809163 0 0 0 0 29.18888135997895 109.62445954277791 0 109.62445954277791 156.51066593964492 0 0 0 0 -190.03604613593532 84.299954185346337 0 84.299954185346337 209.05791940790004 0 0 0 0 -67.157633888768487 -44.376278882922634 0 -44.376278882922634 127.01304923794032 0 0 0 0 71.445476522841659 84.343781407631013 0 84.343781407631013 129.30425265182748 0 0 0 0 -47.166795113035924 -94.170567892942898 0 -94.170567892942898 137.52833876355362 0 0 0 0 -99.174749429578696 -60.046996917774777 0 -60.046996917774777 194.47315872548097 0 0 0 0 -109.57658386299204 -113.32411820327252 0 -113.32411820327252 -64.0878590561897 0 0 0 0 -455.23265454079842 -173.99261845190767 0 -173.99261845190767 154.07593309606818 0 0 0 0 1.1444454261315744 -4.3837426537712503 0 -4.3837426537712503 4.2421398120512137 0 0 0 0 41.616039370244948 -31.741599246130136 0 -31.741599246130136 24.03147164037 0 0 0 0 46.10599023205009 -5.9667627050366718 0 -5.9667627050366718 29.109646263548711 0 0 0 0 244.38958574241758 -57.719144085540847 0 -57.719144085540847 -1.1546412282878009 0 0 0 0 0.31542099974188786 -1.5643943206357873 0 -1.5643943206357873 2.1408436865814124 0 0 0 0 -243.90882219920741 90.853004995392439 0 90.853004995392439 42.248273551831517 0 0 0 0 -454.90504640865265 -16.908305017960629 0 -16.908305017960629 169.30966996170537 0 0 0 0 -38.492633307994993 -11.278305795333836 0 -11.278305795333836 29.248230638988389 0 0 0 0 47.452070577235418 -33.751004856338113 0 -33.751004856338113 16.782065691153548 0 0 0 0 -15.063638870811019 -37.483878529901631 0 -37.483878529901631 49.893738276361546 0 0 0 0 40.571761874358231 -26.355211731403415 0 -26.355211731403415 0.79918624109632219 0 0 0 0 -7.3744281680487802 -26.585405234140126 0 -26.585405234140126 22.441356822728267 0 0 0 0 -3.7432412839716562 -39.89469704881958 0 -39.89469704881958 15.19763149526807 0 0 0 0 -31.520301956988988 -31.575713979675129 0 -31.575713979675129 16.693738317098905 0 0 0 0 -28.78157016177488 -28.015654809018088 0 -28.015654809018088 -19.747739595753956 0 0 0 0 -82.942027721334853 19.860339670996837 0 19.860339670996837 -94.324814717598429 0 0 0 0 11.705968275092209 -10.862061029124472 0 -10.862061029124472 -0.11636364678994227 0 0 0 0 -36.616267727898048 -27.783832180443824 0 -27.783832180443824 12.388801025679641 0 0 0 0 -185.1996563827463 -101.36889424014862 0 -101.36889424014862 52.877548997639678 0 0 0 0 -26.003476016888726 -48.063030197070475 0 -48.063030197070475 64.675036341679515 0 0 0 0 -165.17391244145301 -402.81242233308058 0 -402.81242233308058 -9.8450055434805108 0 0 0 0 29.658158859188006 -143.8933496216714 0 -143.8933496216714 362.9462315639903 0 0 0 0 -228.65226143484563 -270.33339050581935 0 -270.33339050581935 74.138312914939888 0 0 0 0 -4.4663976643941572 -11.321225354092796 0 -11.321225354092796 44.9491896811017 0 0 0 0 128.65857105316354 -22.580439662808203 0 -22.580439662808203 6.5386172566795722 0 0 0 0 92.654287255117765 -338.08849146099283 0 -338.08849146099283 29.049755405365431 0 0 0 0 3.3718250764503335 -2.2366811160330364 0 -2.2366811160330364 -2.0018121732082896 0 0 0 0 370.79845226681209 -48.792580152367009 0 -48.792580152367009 -3.1474503975186963 0 0 0 0 -2.9385201505777108 -1.3506528717584629 0 -1.3506528717584629 0.88377381024510981 0 0 0 0 304.87256236856501 -325.63852971544748 0 -325.63852971544748 28.11097006136697 0 0 0 0 -28.533286655256234 -104.80052165958659 0 -104.80052165958659 380.60460968298867 0 0 0 0 -23.369852234896996 -89.021226108349993 0 -89.021226108349993 -209.49704787070004 0 0 0 0 -15.258510151986147 -6.43448473423026 0 -6.43448473423026 0.047985081607045288 0 0 0 0 -37.594407980395545 -12.177851266446851 0 -12.177851266446851 3.7220205692387935 0 0 0 0 33.578771798920656 -126.06657122745582 0 -126.06657122745582 276.75049255720114 0 0 0 0 23.658666803150936 5.2054393457065089 0 5.2054393457065089 236.80499008138941 0 0 0 0 190.60579693546333 -16.877069994932754 0 -16.877069994932754 76.541469547213637 0 0 0 0 -81.890984255481271 -43.814956698453898 0 -43.814956698453898 136.41542308837234 0 0 0 0 -99.259598008974535 11.286457240071286 0 11.286457240071286 107.36870210900997 0 0 0 0 18.473127112400107 45.21066858170434 0 45.21066858170434 50.903061317543688 0 0 0 0 69.539993153140131 57.567771891113807 0 57.567771891113807 90.70875879934556 0 0 0 0 27.596155318315624 -24.088233525639566 0 -24.088233525639566 168.96218337744722 0 0 0 0 74.598772472555538 92.426520270211768 0 92.426520270211768 238.09214486679775 0 0 0 0 14.984724949025349 26.705456725971999 0 26.705456725971999 189.2242121862846 0 0 0 0 -10.860802901919481 -3.5643683805171236 0 -3.5643683805171236 -0.11978300869371594 0 0 0 0 -54.751272962964634 54.673380793351839 0 54.673380793351839 -1.3155606085219915 0 0 0 0 -111.44954310393769 -291.41699835357849 0 -291.41699835357849 425.35990258317088 0 0 0 0 84.52981612968415 -66.880433277987322 0 -66.880433277987322 158.64459644754788 0 0 0 0 -892.29548696261077 -154.90037324141485 0 -154.90037324141485 262.75324516052297 0 0 0 0 248.58140967870656 133.61096050984656 0 133.61096050984656 55.11326320639273 0 0 0 0 -1.2194654799050495 2.7943417728471438 0 2.7943417728471438 -0.96224161942043196 0 0 0 0 -151.29784492356976 129.14914250781476 0 129.14914250781476 21.784217683167071 0 0 0 0 -110.2437420937672 -406.19531579791283 0 -406.19531579791283 84.818190531705113 0 0 0 0 -160.25307562766989 159.37350795078601 0 159.37350795078601 -23.3996021843177 0 0 0 0 -2.4101688495976901 5.9937954098686745 0 5.9937954098686745 -7.7197860526727169 0 0 0 0 -965.8492818169434 16.321105226947111 0 16.321105226947111 367.17082149332782 0 0 0 0 45.476334176220917 38.058747285998834 0 38.058747285998834 -46.681216590091935 0 0 0 0 -500.35048991928534 124.98400062209112 0 124.98400062209112 42.028669608404016 0 0 0 0 -2.4000934648695158 15.869928928420149 0 15.869928928420149 -19.153857642061737 0 0 0 0 207.55760909490652 384.93349964262779 0 384.93349964262779 -73.592216928336711 0 0 0 0 -145.26054025063422 395.34352575153753 0 395.34352575153753 90.427110371467279 0 0 0 0 -19.737830819996816 24.301367014935749 0 24.301367014935749 35.467201602135901 0 0 0 0 15.566694226925847 22.065074529162302 0 22.065074529162302 1.8400592118487111 0 0 0 0 -11.68278899967072 101.08735088857247 0 101.08735088857247 -21.581288067649893 0 0 0 0 0.15452525848900933 16.546891539006054 0 16.546891539006054 24.395165196348685 0 0 0 0 3.2079932181795812 13.973094314821537 0 13.973094314821537 -14.945697125229572 0 0 0 0 2.2607807634985866 13.93480783005905 0 13.93480783005905 31.107398424472564 0 0 0 0 -52.774945732157107 137.67888138375565 0 137.67888138375565 -5.4442916917905677 0 0 0 0 -14.318120908920719 42.702929115803272 0 42.702929115803272 17.397075185115682 0 0 0 0 -93.315716174439785 38.989013030804017 0 38.989013030804017 50.293116639135405 0 0 0 0 82.964271140053881 72.527180263923128 0 72.527180263923128 4.227739863905299 0 0 0 0 153.95104001920799 48.361510414446457 0 48.361510414446457 -0.24167504434467446 0 0 0 0 -20.370367667026414 47.832945070552 0 47.832945070552 126.71650598546694 0 0 0 0 -15.094140981722802 81.488934590889926 0 81.488934590889926 65.291911061252904 0 0 0 0 -98.099130285462252 63.570680833369806 0 63.570680833369806 43.514249140689117 0 0 0 0 -1.1945278438229634 7.2624619916787729 0 7.2624619916787729 13.298870014906157 0 0 0 0 -1.6924848425001073 8.1475791781576845 0 8.1475791781576845 29.785442571577732 0 0 0 0 -2.7507252485387759 3.3096012451713257 0 3.3096012451713257 20.624117270383834 0 0 0 0 -11.001104380859033 -8.501569000291056 0 -8.501569000291056 20.583476714717108 0 0 0 0 -23.330606368611939 -5.372852190809283 0 -5.372852190809283 20.690556869551074 0 0 0 0 -4.3733115427986231 -3.2943736088182476 0 -3.2943736088182476 26.105820247575551 0 0 0 0 5.1678612159284967 42.804730277679482 0 42.804730277679482 26.473913509005797 0 0 0 0 1.7426359153210775 13.305285780813175 0 13.305285780813175 33.501750490343163 0 0 0 0 -13.213997826302148 18.353353257241906 0 18.353353257241906 4.3938541235584125 0 0 0 0 0.4204849439196181 1.3905050412674029 0 1.3905050412674029 5.5226204544058852 0 0 0 0 15.010179835999907 26.599199322332424 0 26.599199322332424 53.718272714701016 0 0 0 0 19.089453550880989 25.412512976148719 0 25.412512976148719 0.43663491529514431 0 0 0 0 -15.184346382725607 6.9074725390628373 0 6.9074725390628373 31.933452877099626 0 0 0 0 -24.657890316132352 28.167104186266442 0 28.167104186266442 32.66727695146983 0 0 0 0 13.000695217763223 22.582074731231842 0 22.582074731231842 38.233909933358518 0 0 0 0 25.905668449657924 9.1535746094941715 0 9.1535746094941715 36.925164521839179 0 0 0 0 17.446848145135391 17.240395381457347 0 17.240395381457347 32.554639808900902 0 0 0 0 -96.786505534179867 -39.547661356304161 0 -39.547661356304161 -2.4126592638349393 0 0 0 0 -30.23748031161108 149.74148114956915 0 149.74148114956915 -338.09398670867085 0 0 0 0 48.383322150438353 79.309455471757246 0 79.309455471757246 -367.48799565072113 0 0 0 0 4.5127491723240709 -1.7615814731025239 0 -1.7615814731025239 -10.563950441948563 0 0 0 0 239.59390294016828 229.93414091679733 0 229.93414091679733 -314.781269314768 0 0 0 0 6.6875583558781155 20.328623596734516 0 20.328623596734516 15.071477734112989 0 0 0 0 -3.0581162913686057 3.1729168969504826 0 3.1729168969504826 49.79807496939975 0 0 0 0 9.6496507231819351 3.9164509037809694 0 3.9164509037809694 28.595743725869397 0 0 0 0 35.138655943315378 2.1379252113874827 0 2.1379252113874827 29.331841457198607 0 0 0 0 0.028566377119765222 -7.8843251521102502 0 -7.8843251521102502 7.0018238511675008 0 0 0 0 1.6623649606456399 2.4061360612091001 0 2.4061360612091001 3.5315288309223547 0 0 0 0 -2.8834230992148875 19.208945183025207 0 19.208945183025207 18.650438093442062 0 0 0 0 92.394440172491898 -27.459872802502105 0 -27.459872802502105 -187.13933203855413 0 0 0 0 -49.641591992097034 -82.439811322592504 0 -82.439811322592504 -16.036889950224577 0 0 0 0 1.8698562888875527 1.5672668363161755 0 1.5672668363161755 3.8004796390746662 0 0 0 0 -1.5408746425219366 2.4923175582670005 0 2.4923175582670005 21.019045922774708 0 0 0 0 24.899693397914263 18.584081313136267 0 18.584081313136267 5.2648920155334054 0 0 0 0 5.2074095022194342 6.6141178528741875 0 6.6141178528741875 13.949949012017896 0 0 0 0 -2.8613554206394838 8.2112405229345313 0 8.2112405229345313 14.258736664807657 0 0 0 0 0.029759432775553485 2.5276559266025629 0 2.5276559266025629 16.697046886601754 0 0 0 0 -3.7749211188388472 7.5069604072486982 0 7.5069604072486982 14.157409481231298 0 0 0 0 9.9667237750262245 26.946246236677624 0 26.946246236677624 22.691106859051473 0 0 0 0 3.1328181428831625 8.1005471121399495 0 8.1005471121399495 11.006895397232256 0 0 0 0 -4.2631685220185318 7.0802025398297701 0 7.0802025398297701 13.854513209727884 0 0 0 0 -3.5944493622176878 7.6313236199202947 0 7.6313236199202947 13.820115635899128 0 0 0 0 3.2776582680373205 9.5386373414550611 0 9.5386373414550611 12.625351953812128 0 0 0 0 6.0716034262046659 14.003854408435508 0 14.003854408435508 10.117810110483909 0 0 0 0 0.61085116444610321 4.337402544246288 0 4.337402544246288 4.6166773410950555 0 0 0 0 4.6130472598808776 6.8584640791034346 0 6.8584640791034346 9.6001284484998166 0 0 0 0 -0.14170853811303807 3.4366110708402324 0 3.4366110708402324 11.649958289057892 0 0 0 0 0.0019636246538723579 1.3424563589360332 0 1.3424563589360332 6.2688165335130179 0 0 0 0 2.7020742045788211 4.7948109297431074 0 4.7948109297431074 12.045425776792399 0 0 0 0 -0.57472421370799465 2.821960596929209 0 2.821960596929209 12.515391919136746 0 0 0 0 1.0847288904865582 4.8947131288213939 0 4.8947131288213939 8.2481922895740141 0 0 0 0 -1.8913542821409237 3.4712798294240201 0 3.4712798294240201 11.221147770076641 0 0 0 0 -2.5519423585991206 3.0045112303560018 0 3.0045112303560018 10.995260947849602 0 0 0 0 -0.071116413862306604 2.1107623910745303 0 2.1107623910745303 10.796339858283645 0 0 0 0 7.8074536675554 5.0744421022027382 0 5.0744421022027382 8.6421889457924408 0 0 0 0 -7.6401629541503535 6.104840015865193 0 6.104840015865193 16.842901008203626 0 0 0 0 0.53263668598941383 1.0572490015851628 0 1.0572490015851628 1.2634609351297854 0 0 0 0 11.289596677302312 20.346939878007106 0 20.346939878007106 12.679819062483148 0 0 0 0 -0.59477025828682928 -0.23297203030391245 0 -0.23297203030391245 3.4908372860938215 0 0 0 0 50.157704845060927 31.844650251674466 0 31.844650251674466 29.255992184765091 0 0 0 0 -3.8095238826022806 -5.9906989486735256 0 -5.9906989486735256 27.751510166257503 0 0 0 0 0.49350781115573961 3.817494480570339 0 3.817494480570339 5.8091051160756848 0 0 0 0 1.4064898328947892 -19.054433739709566 0 -19.054433739709566 11.384079483606911 0 0 0 0 0.83111266155015073 2.4657012273892178 0 2.4657012273892178 6.6030956359099946 0 0 0 0 -0.69209152990501588 -2.2620663023157448 0 -2.2620663023157448 4.8823903487781664 0 0 0 0 0.27590722115260036 -15.071286092683295 0 -15.071286092683295 1.66076342893939 0 0 0 0 0.010199867634574922 1.369232429161805 0 1.369232429161805 7.1896318172002225 0 0 0 0 -11.515548598326429 -10.77373594637902 0 -10.77373594637902 10.217674048763001 0 0 0 0 -1.4812651299657773 5.2497219867855165 0 5.2497219867855165 21.915607605985315 0 0 0 0 5.1983263046307542 6.9519971953566255 0 6.9519971953566255 15.100747243253863 0 0 0 0 4.0997049500104241 5.3293319776679979 0 5.3293319776679979 15.713303948970321 0 0 0 0 2.5672559276692937 4.1569035023203469 0 4.1569035023203469 13.742311416164739 0 0 0 0 0.67654452227642725 3.8321401800202608 0 3.8321401800202608 19.21844742229581 0 0 0 0 -13.782423466831453 -13.30816884397791 0 -13.30816884397791 25.393335673448746 0 0 0 0 -2.5778343561855763 -3.1696981195855187 0 -3.1696981195855187 7.3328495435998775 0 0 0 0 -1.1334379302990649 -1.702017061528224 0 -1.702017061528224 13.03279106772689 0 0 0 0 -1.2543672132644468 -3.5096492427690542 0 -3.5096492427690542 5.6717136300967468 0 0 0 0 -17.043570424120738 -3.2947193066756881 0 -3.2947193066756881 24.026641285287042 0 0 0 0 -19.441082916140868 -4.7007582553887914 0 -4.7007582553887914 24.27950864699369 0 0 0 0 -32.097141194148662 -12.988591409055516 0 -12.988591409055516 8.1272824612969998 0 0 0 0 -2.1670669011398442 0.60345335774712083 0 0.60345335774712083 14.333958774683907 0 0 0 0 -4.7517484494245554 -1.6320251083170305 0 -1.6320251083170305 21.416942796796235 0 0 0 0 -23.329376520340134 -5.6882522896848968 0 -5.6882522896848968 13.793593593203695 0 0 0 0 -1.2785139001322572 7.2516800751376138 0 7.2516800751376138 16.092257795438201 0 0 0 0 -18.876416657485823 -9.5979635135809076 0 -9.5979635135809076 46.439087888960785 0 0 0 0 -4.641794446939115 -22.402502169601576 0 -22.402502169601576 29.163498110581713 0 0 0 0 -28.161997323685423 -13.289067795621577 0 -13.289067795621577 33.152903551206691 0 0 0 0 -0.039152874660389886 -2.2805736845893989 0 -2.2805736845893989 27.601695985737024 0 0 0 0 0.12219284949866464 -18.837474464278785 0 -18.837474464278785 34.236382881916143 0 0 0 0 3.3120683244129054 -13.726294453852461 0 -13.726294453852461 19.490770146276191 0 0 0 0 -9.2674052776535092 -37.450084288326252 0 -37.450084288326252 30.316718261816277 0 0 0 0 -31.388252671816954 11.935801832078369 0 11.935801832078369 27.923750369816844 0 0 0 0 -0.39095583675898382 -3.2790699344527496 0 -3.2790699344527496 5.3836023180500234 0 0 0 0 -2.2819225218241854 1.0194591000999935 0 1.0194591000999935 5.4119071724562673 0 0 0 0 -25.782789520658014 -15.421218099629186 0 -15.421218099629186 14.499709424635512 0 0 0 0 -11.175456754561514 -21.14689068840346 0 -21.14689068840346 47.811523945110096 0 0 0 0 -3.9289716635032996 -0.78325461065091062 0 -0.78325461065091062 35.147917791381488 0 0 0 0 -10.708410449257372 -0.63256793180153181 0 -0.63256793180153181 30.69224485981249 0 0 0 0 -4.3666775594132314 -0.35742792534480117 0 -0.35742792534480117 19.916148385755235 0 0 0 0 -22.05436051941615 -4.4327913119486766 0 -4.4327913119486766 48.979975855298107 0 0 0 0 -0.40408027988288076 -2.091358572159546 0 -2.091358572159546 4.1755087066249956 0 0 0 0 -0.31788989310820592 -3.4927260554490616 0 -3.4927260554490616 29.679917737964757 0 0 0 0 -151.16901214259042 11.005229568328105 0 11.005229568328105 64.26578603106509 0 0 0 0 -110.17920415876415 37.879683249891968 0 37.879683249891968 46.830139996916841 0 0 0 0 -344.55227609059057 -93.884202196657498 0 -93.884202196657498 77.122629193032253 0 0 0 0 -4.1703293451629415 -5.9385394448304591 0 -5.9385394448304591 24.059188999834504 0 0 0 0 -37.883576232647528 -31.310264109484706 0 -31.310264109484706 -3.1496167451950896 0 0 0 0 -162.33976643554979 128.29322179594647 0 128.29322179594647 93.485774644483172 0 0 0 0 -1.4225176102494324 -2.3820409456060858 0 -2.3820409456060858 26.982255900520144 0 0 0 0 0.39617626585436483 -11.927854085018225 0 -11.927854085018225 -1.4694574420154822 0 0 0 0 -13.09890528049209 -18.663168888269865 0 -18.663168888269865 121.99084384989692 0 0 0 0 24.369632982995824 36.600628467398565 0 36.600628467398565 -182.50549111881264 0 0 0 0 -73.481158865299335 -44.676000450232095 0 -44.676000450232095 327.17644229513826 0 0 0 0 -50.2535190607488 -29.083911135507151 0 -29.083911135507151 50.804125264381582 0 0 0 0 -29.485788699675844 6.2547450332531298 0 6.2547450332531298 60.037416782870423 0 0 0 0 0.17386965015772432 -0.35991621817373698 0 -0.35991621817373698 1.4613642155476612 0 0 0 0 -1.1977810836803287 -3.8443941885612816 0 -3.8443941885612816 31.507304333699338 0 0 0 0 -44.271945925910472 125.19455269676473 0 125.19455269676473 338.73741693192278 0 0 0 0 53.469888614651722 -67.653832573725595 0 -67.653832573725595 -13.234134896520118 0 0 0 0 -55.37714900108071 -38.443387406741749 0 -38.443387406741749 56.532075284034363 0 0 0 0 -11.581785976438141 44.347954666487567 0 44.347954666487567 -60.311263120944204 0 0 0 0 -13.626479014626852 48.316364587357384 0 48.316364587357384 59.61062655493879 0 0 0 0 13.903852342637137 13.820916894113907 0 13.820916894113907 16.174867262758198 0 0 0 0 -1.8520850852740462 40.98434168293079 0 40.98434168293079 91.041121866444882 0 0 0 0 0.14715805606704052 -0.64481002000565724 0 -0.64481002000565724 0.26017794577350628 0 0 0 0 -0.093845730546256695 -0.21084796792187888 0 -0.21084796792187888 0.46189816638374737 0 0 0 0 -0.038077351955014327 -22.358218123170445 0 -22.358218123170445 -25.857627825345844 0 0 0 0 -21.825210153223857 -11.343615580159167 0 -11.343615580159167 93.587187041004654 0 0 0 0 22.488235430476223 57.727300339538488 0 57.727300339538488 119.93007857073462 0 0 0 0 -8.373516559238837 -1.1755516966513824 0 -1.1755516966513824 54.345800605180557 0 0 0 0 2.5277444607642399 2.1160128131934854 0 2.1160128131934854 4.0661546395562027 0 0 0 0 32.074861437127879 27.501581254051416 0 27.501581254051416 -38.990629004008952 0 0 0 0 0.02425610130724953 7.8446756403063773 0 7.8446756403063773 33.241017818116234 0 0 0 0 4.7846881246655446 9.4986672369486769 0 9.4986672369486769 29.124150714878851 0 0 0 0 0.026240333062632085 0.027086783813189186 0 0.027086783813189186 -0.36804029760751433 0 0 0 0 -0.0033029614984173821 20.044192460985869 0 20.044192460985869 -38.456465128565469 0 0 0 0 50.070884326518808 -49.420498502597184 0 -49.420498502597184 28.763888660741941 0 0 0 0 -0.97232866025856479 -1.0545916735432286 0 -1.0545916735432286 1.7647791224646596 0 0 0 0 52.793296826966753 -38.618167365559202 0 -38.618167365559202 -223.33499641765229 0 0 0 0 273.56379021523298 -126.46986465118243 0 -126.46986465118243 -282.17128049959683 0 0 0 0 -38.757031759428173 6.0765361565354397 0 6.0765361565354397 54.222673789285182 0 0 0 0 -44.159312533092248 169.81902959721629 0 169.81902959721629 -176.4166699706675 0 0 0 0 -27.593755771640645 10.812809413762807 0 10.812809413762807 53.494904669831158 0 0 0 0 3.0102962645548841 15.509862387828043 0 15.509862387828043 44.870315756393651 0 0 0 0 1.2894906187672888 53.113843321891181 0 53.113843321891181 -32.116762782705337 0 0 0 0 19.320535627060679 22.118486796391153 0 22.118486796391153 13.345878923737473 0 0 0 0 14.084278107988315 26.544178855160496 0 26.544178855160496 12.578352645592943 0 0 0 0 11.786408903493793 22.334528147301171 0 22.334528147301171 82.557672723381984 0 0 0 0 23.04648212423308 45.118050592550844 0 45.118050592550844 74.357265356480639 0 0 0 0 16.817435800216117 47.764423800388613 0 47.764423800388613 89.207708324136547 0 0 0 0 2.0963806152496716 1.2666682547547268 0 1.2666682547547268 6.9778897063245324 0 0 0 0 -3.1403751078545401 0.43793352652619433 0 0.43793352652619433 8.0792561130984151 0 0 0 0 26.232270991584301 21.940977561182081 0 21.940977561182081 27.523742515582853 0 0 0 0 -25.323538988326618 -0.58794563484116225 0 -0.58794563484116225 79.99648922480992 0 0 0 0 5.2196649870505336 9.2140297344377551 0 9.2140297344377551 -4.7621716668730585 0 0 0 0 38.420744757851935 32.009793074932531 0 32.009793074932531 72.082032529224307 0 0 0 0 7.700539859145465 9.2422764057646418 0 9.2422764057646418 95.628844380262308 0 0 0 0 -2.4970953314341386 31.006619696696362 0 31.006619696696362 76.618348093295936 0 0 0 0 -6.4267399389397948 -10.441159314323954 0 -10.441159314323954 11.484877695021009 0 0 0 0 -44.413425593742204 -3.1833913297159597 0 -3.1833913297159597 143.08586184385604 0 0 0 0 13.406497949762525 14.247820201355353 0 14.247820201355353 44.097201969681919 0 0 0 0 -7.8742755296791529 4.1772602044402447 0 4.1772602044402447 28.689361938209913 0 0 0 0 -9.2056370512506263 0.30522264980866964 0 0.30522264980866964 24.467013578951423 0 0 0 0 -4.1281193814375925 4.0250355894831529 0 4.0250355894831529 3.1439427376549745 0 0 0 0 -48.412494903171137 -45.745919796841918 0 -45.745919796841918 81.750455694422271 0 0 0 0 -16.581734657893549 12.1476531776716 0 12.1476531776716 39.771260035566229 0 0 0 0 -12.98858349326269 4.6550244873713353 0 4.6550244873713353 7.9778678795415061 0 0 0 0 -14.145215104455474 8.72883285887292 0 8.72883285887292 29.921746548894589 0 0 0 0 -5.3825570592618988 7.6341766490932059 0 7.6341766490932059 32.803419121017214 0 0 0 0 -20.75701243421463 -5.1724659703104408 0 -5.1724659703104408 24.482328126301582 0 0 0 0 19.990000829057749 19.201522921932337 0 19.201522921932337 32.625588767325098 0 0 0 0 1.2957631747259981 3.2908322588850822 0 3.2908322588850822 7.7216879043901372 0 0 0 0 -2.1522036220673142 17.944153865764058 0 17.944153865764058 39.929834566580283 0 0 0 0 -5.4902539493011773 12.051892412437155 0 12.051892412437155 29.871615679145179 0 0 0 0 3.0804899186337025 6.0159289653311134 0 6.0159289653311134 33.765935724084557 0 0 0 0 2.9829060859613472 13.203457378613436 0 13.203457378613436 3.5260132883916473 0 0 0 0 -0.78478084283661342 1.0953425554220644 0 1.0953425554220644 15.280689073311486 0 0 0 0 -0.071796304499491176 -17.372110997272177 0 -17.372110997272177 46.871300960658118 0 0 0 0 -5.4102098391504798 -6.6406628097394034 0 -6.6406628097394034 22.060283494061366 0 0 0 0 5.1445689958454013 -13.532221157264459 0 -13.532221157264459 24.085122801951186 0 0 0 0 5.1378418118149369 5.5172719060210511 0 5.5172719060210511 -18.113722145080828 0 0 0 0 5.178924932551153 -51.38437294564195 0 -51.38437294564195 75.099997871293453 0 0 0 0 -0.12450889649105928 -23.663235881631408 0 -23.663235881631408 99.374138198996661 0 0 0 0 -1.1722700564596766 32.583687150046899 0 32.583687150046899 224.83828965110297 0 0 0 0 27.121128598897663 148.20367544192413 0 148.20367544192413 237.99478360818921 0 0 0 0 42.548274335796222 -4.8159115813905373 0 -4.8159115813905373 33.572091128648026 0 0 0 0 4.7275672523940191 -9.1542148071211358 0 -9.1542148071211358 17.044481010399778 0 0 0 0 -147.2917449534375 -114.43149425507727 0 -114.43149425507727 61.583030114081339 0 0 0 0 75.478703666284261 108.46818420975251 0 108.46818420975251 125.12641547127714 0 0 0 0 -10.627325885500795 21.02193851255106 0 21.02193851255106 -41.194084227492567 0 0 0 0 42.856696912025029 91.285085911805254 0 91.285085911805254 403.854614217169 0 0 0 0 -6.9493682900620115 147.17429454435842 0 147.17429454435842 399.25696440854517 0 0 0 0 231.32125159973964 504.65449266185897 0 504.65449266185897 910.77897937276816 0 0 0 0 0.59746794924729452 -12.304772821027655 0 -12.304772821027655 481.16947649314534 0 0 0 0 -65.956732001432727 184.56342978755856 0 184.56342978755856 834.34747253668684 0 0 0 0 -0.88103945755789159 -32.922635591327655 0 -32.922635591327655 249.31599031839869 0 0 0 0 -83.098435339584597 249.75590745561385 0 249.75590745561385 818.43871748999163 0 0 0 0 -0.20012554484904027 -0.39663856612189363 0 -0.39663856612189363 2.0183458257749862 0 0 0 0 -0.027333831812716581 0.045177731315483527 0 0.045177731315483527 0.27603733440236056 0 0 0 0 -64.042721099624004 -8.2955644857247535 0 -8.2955644857247535 918.75532176085835 0 0 0 0 -52.574035613980854 190.13993775830022 0 190.13993775830022 425.60937345428101 0 0 0 0 145.06266917762625 -206.18238591475165 0 -206.18238591475165 51.11258101959902 0 0 0 0 45.870719037734901 -25.99048077853513 0 -25.99048077853513 51.741719264100539 0 0 0 0 28.21799241235076 80.117207105271063 0 80.117207105271063 -98.495494197210064 0 0 0 0 -0.012152683862196005 -2.9358441692735786 0 -2.9358441692735786 -0.35673373600002378 0 0 0 0 -6.2817774386385707 -1.2423082180102938 0 -1.2423082180102938 0.65103852575703058 0 0 0 0 0.28824033284903705 -0.15797330566545398 0 -0.15797330566545398 0.83882773193573712 0 0 0 0 -129.52266519761247 -92.898017761559458 0 -92.898017761559458 96.12543423923853 0 0 0 0 243.41444757338522 338.11173728433891 0 338.11173728433891 539.48739885800751 0 0 0 0 314.35514194977191 -254.5777655894417 0 -254.5777655894417 573.68389772783121 0 0 0 0 137.14772766339286 144.55154264692464 0 144.55154264692464 111.94229512909442 0 0 0 0 244.05744254913091 693.32803484408214 0 693.32803484408214 1276.6163895394275 0 0 0 0 -19.354749909253137 225.14559981704406 0 225.14559981704406 1450.1738662237549 0 0 0 0 -291.83330398199041 69.565497299408889 0 69.565497299408889 1104.1818636317112 0 0 0 0 -79.467898395017983 -305.91762536108126 0 -305.91762536108126 886.90698121939204 0 0 0 0 -48.706610496967016 -357.06964572890411 0 -357.06964572890411 115.37582844762801 0 0 0 0 2.241995123656118 -3.2984272950351752 0 -3.2984272950351752 6.4632813402329532 0 0 0 0 -144.26332848796619 163.59974517566297 0 163.59974517566297 107.42479083239874 0 0 0 0 119.40394321156748 130.50685526300185 0 130.50685526300185 -0.38567846419027774 0 0 0 0 0.06183389755455343 -3.0844571678467467 0 -3.0844571678467467 -1.2583932759337557 0 0 0 0 -12.633743640890088 -0.56452343307682895 0 -0.56452343307682895 -17.020910870229272 0 0 0 0 -135.56138433727301 100.5674424904646 0 100.5674424904646 371.70588590150874 0 0 0 0 9.7305147642425425 -18.701397938454996 0 -18.701397938454996 9.7422234179506262 0 0 0 0 -22.679168288706705 27.633687626479514 0 27.633687626479514 136.23218135236311 0 0 0 0 41.905285397063722 17.525370747804118 0 17.525370747804118 63.99599835978006 0 0 0 0 213.40760777425567 12.327925740304636 0 12.327925740304636 -464.97735413241753 0 0 0 0 298.27396630766708 939.95490831896859 0 939.95490831896859 455.61858096804644 0 0 0 0 -375.06985743323821 78.044666490623058 0 78.044666490623058 1598.155481806054 0 0 0 0 -132.24588430269159 -9.6290909142444434 0 -9.6290909142444434 369.84853178502135 0 0 0 0 -365.24475802202141 142.70878361722862 0 142.70878361722862 1001.4107709030359 0 0 0 0 -309.15904367168787 -17.799825370377221 0 -17.799825370377221 741.59029931473924 0 0 0 0 -130.39978084636641 -152.10622109269752 0 -152.10622109269752 474.93478100807988 0 0 0 0 -275.79390661647176 -184.05073557044307 0 -184.05073557044307 979.93741661031527 0 0 0 0 294.48375798512052 -341.50188793101188 0 -341.50188793101188 481.33022200224514 0 0 0 0 -152.56184117412886 -197.77367763350776 0 -197.77367763350776 698.99840684427181 0 0 0 0 -89.338201120919621 -493.77812889115376 0 -493.77812889115376 1340.019339435963 0 0 0 0 -137.70232429657153 -175.08686562346702 0 -175.08686562346702 693.3176194644675 0 0 0 0 175.73409699260162 -341.0194148180808 0 -341.0194148180808 161.47966994657327 0 0 0 0 -22.13996400931228 -131.74085661490062 0 -131.74085661490062 124.81620924334857 0 0 0 0 68.316881400402963 17.991138815812519 0 17.991138815812519 -67.329759719621507 0 0 0 0 -331.15446798927496 329.32085545119116 0 329.32085545119116 -220.69046213087859 0 0 0 0 -13.32749500977744 31.835497388610779 0 31.835497388610779 28.400494486038497 0 0 0 0 -4.7914255868147162 16.311240246847525 0 16.311240246847525 20.764447441775204 0 0 0 0 -136.25453958181859 220.83139020075868 0 220.83139020075868 357.04950515752716 0 0 0 0 96.035719419778616 135.617584669395 0 135.617584669395 -133.69412379203277 0 0 0 0 9.2393829092492297 388.01950424534152 0 388.01950424534152 641.16212984822414 0 0 0 0 197.41099246537925 600.57383117819154 0 600.57383117819154 104.80684729143104 0 0 0 0 1.8705171573170993 1.2360774068057054 0 1.2360774068057054 0.0058505244840603154 0 0 0 0 59.449824456191891 301.04090978581371 0 301.04090978581371 -234.73959623785231 0 0 0 0 324.25554026910322 485.91404685305679 0 485.91404685305679 774.03050595441891 0 0 0 0 -3.2266432937321667 3.8816573504919916 0 3.8816573504919916 20.155503325044549 0 0 0 0 580.4853656370999 774.14923995722211 0 774.14923995722211 929.46697599811159 0 0 0 0 -24.305651848550042 465.97677478473634 0 465.97677478473634 1673.6762976075261 0 0 0 0 -19.489617536624792 159.34605624078176 0 159.34605624078176 630.59965325530356 0 0 0 0 -43.837015576067643 510.78952749786913 0 510.78952749786913 968.32690360963534 0 0 0 0 -23.530880201628072 204.55340624765472 0 204.55340624765472 463.12742933733534 0 0 0 0 -383.08906795520363 105.74931742742137 0 105.74931742742137 673.87025098414597 0 0 0 0 -174.84703215609534 335.81840832031412 0 335.81840832031412 479.21523442986654 0 0 0 0 241.15847589145619 -965.67852526947229 0 -965.67852526947229 928.55863365107507 0 0 0 0 467.35058931618005 -605.40231438724732 0 -605.40231438724732 -494.00510451674745 0 0 0 0 14.503953060064747 -23.810835380143097 0 -23.810835380143097 12.795290019022822 0 0 0 0 0.46887093554641979 -31.718090330650739 0 -31.718090330650739 140.37842408867073 0 0 0 0 1.0873757951134166 15.131441437217291 0 15.131441437217291 149.42953956695783 0 0 0 0 -0.67929888210806055 -1.3831588414470914 0 -1.3831588414470914 1.1342472726446573 0 0 0 0 -25.422384427010911 1.043485993584909 0 1.043485993584909 213.09654333002982 0 0 0 0 -7.1361833814653437 -76.495742435534339 0 -76.495742435534339 -21.021470765750564 0 0 0 0 -30.475669150033013 -49.893400935743557 0 -49.893400935743557 201.01430167602666 0 0 0 0 -9.5586829385356396 -26.795410268490741 0 -26.795410268490741 65.736610120748082 0 0 0 0 -23.039015397887397 -78.865606872897843 0 -78.865606872897843 56.152077727732831 0 0 0 0 -24.349546110290134 -10.808364836653709 0 -10.808364836653709 80.833235760881507 0 0 0 0 -25.88628319075535 -51.088766415764439 0 -51.088766415764439 58.362131107271125 0 0 0 0 -42.281783002543989 -47.66789087064717 0 -47.66789087064717 7.5593407800297427 0 0 0 0 -32.879453087297577 -29.64738679083348 0 -29.64738679083348 31.096241969535185 0 0 0 0 -31.049983917976657 -2.4735302323782662 0 -2.4735302323782662 86.31759224308189 0 0 0 0 -46.152972800760381 -1.0603050127592724 0 -1.0603050127592724 105.25929255089795 0 0 0 0 -0.44293134232859122 -1.7450135701205269 0 -1.7450135701205269 1.5146180312780153 0 0 0 0 -51.326600390710837 -14.24852240607288 0 -14.24852240607288 98.519520405685398 0 0 0 0 -0.13728588043821688 -2.0062199988347658 0 -2.0062199988347658 0.80817201800964611 0 0 0 0 42.088816516662746 8.8590606179313909 0 8.8590606179313909 36.206289119360008 0 0 0 0 -11.84503224691116 56.186266023600183 0 56.186266023600183 124.92936500030191 0 0 0 0 37.000651005034229 43.700075901217133 0 43.700075901217133 50.450918290469417 0 0 0 0 -19.070842123158855 -2.3656465442036279 0 -2.3656465442036279 51.422033798148902 0 0 0 0 -9.2469003004885053 42.195420870375528 0 42.195420870375528 68.38036654879761 0 0 0 0 -36.479055211356354 -15.010709950100136 0 -15.010709950100136 72.0872958155378 0 0 0 0 -30.620652934808618 45.413418662365075 0 45.413418662365075 -22.835542365573929 0 0 0 0 -109.58216178815098 -16.243477793290367 0 -16.243477793290367 73.228552531606965 0 0 0 0 -95.640670848431924 8.4809746099899712 0 8.4809746099899712 102.89766984917514 0 0 0 0 -56.620716265444116 -41.926838965911884 0 -41.926838965911884 47.68713742043019 0 0 0 0 -0.78078682402200528 -1.7608008213345485 0 -1.7608008213345485 -0.66034727486132727 0 0 0 0 -11.488152528724413 4.1908739781702025 0 4.1908739781702025 44.028065753580449 0 0 0 0 -13.856822594404576 -13.797568551440236 0 -13.797568551440236 60.435331946311635 0 0 0 0 -27.023594043510457 20.039361764091154 0 20.039361764091154 28.130499757999132 0 0 0 0 -26.893103685540382 -3.8608505743832211 0 -3.8608505743832211 42.830514752778981 0 0 0 0 -26.288533887809081 14.220717928525119 0 14.220717928525119 71.038051343093684 0 0 0 0 -52.529227751041837 38.41465173364486 0 38.41465173364486 119.40897564063198 0 0 0 0 -37.201406910852029 0.73395192407042487 0 0.73395192407042487 55.445092689155899 0 0 0 0 -25.664324156988414 19.050448420843168 0 19.050448420843168 111.86216272546699 0 0 0 0 -8.4935050367438407 56.875865791951583 0 56.875865791951583 130.52870207191518 0 0 0 0 -14.680523111136608 -22.680616618194108 0 -22.680616618194108 95.41055418958058 0 0 0 0 -48.934229902452557 51.83466944464999 0 51.83466944464999 66.175409694165864 0 0 0 0 31.84650195082213 27.630623887298498 0 27.630623887298498 171.57526765137663 0 0 0 0 1.3106905405929865 -4.392588752476513 0 -4.392588752476513 171.9108086264423 0 0 0 0 -8.2812657106176175 38.178636425320292 0 38.178636425320292 180.46129515461507 0 0 0 0 25.716757088064242 75.466358911124189 0 75.466358911124189 193.67438496802606 0 0 0 0 21.809601607838886 63.268052418034131 0 63.268052418034131 225.26336106766394 0 0 0 0 38.818213960351386 102.83796110220464 0 102.83796110220464 294.25708863272121 0 0 0 0 46.520009531634059 44.687209767263994 0 44.687209767263994 226.4924753156738 0 0 0 0 59.878606399346609 39.552028227573828 0 39.552028227573828 344.02676336929653 0 0 0 0 56.666250210091675 73.381792357702579 0 73.381792357702579 280.6529755130432 0 0 0 0 80.258386249231989 -7.0050291020561417 0 -7.0050291020561417 201.39017593496465 0 0 0 0 26.570599665171358 27.761297201264824 0 27.761297201264824 283.8657293416486 0 0 0 0 22.394721760141692 4.6865883862228657 0 4.6865883862228657 241.6711827041654 0 0 0 0 39.629570450773826 -16.476337236441395 0 -16.476337236441395 120.34520332117972 0 0 0 0 25.215772491348616 0.080642263004847337 0 0.080642263004847337 201.53440269937255 0 0 0 0 8.0472645154384281 -16.950171102163495 0 -16.950171102163495 132.9610191537613 0 0 0 0 67.392394049128598 -0.37480094778402417 0 -0.37480094778402417 131.2184875291241 0 0 0 0 1.9127378622224569 -35.357763080124641 0 -35.357763080124641 120.92486398030417 0 0 0 0 -16.652029249999487 -52.323232351687693 0 -52.323232351687693 96.631183086622428 0 0 0 0 16.738356114480666 -19.269460556506601 0 -19.269460556506601 96.24629509024453 0 0 0 0 5.6861190831314161 -31.716971490236574 0 -31.716971490236574 162.43666304281942 0 0 0 0 -9.1545949138285323 -43.928136815635298 0 -43.928136815635298 104.90091609703995 0 0 0 0 6.2506547529415002 12.504469650277315 0 12.504469650277315 125.45904997237085 0 0 0 0 -13.421684116968208 -74.653988438207307 0 -74.653988438207307 48.950044689585411 0 0 0 0 -3.447290413718747 -66.82757005638814 0 -66.82757005638814 53.713763244082656 0 0 0 0 -18.786899034448197 -69.530055595275371 0 -69.530055595275371 64.11960133150933 0 0 0 0 5.3008655818136958 -16.709249001338321 0 -16.709249001338321 76.033629298643064 0 0 0 0 -32.18476043783744 -47.650952542973755 0 -47.650952542973755 64.932407405896811 0 0 0 0 10.86745472909297 -49.611452374459986 0 -49.611452374459986 64.089241338304419 0 0 0 0 5.529003752410631 -22.823574452957168 0 -22.823574452957168 13.542854887652162 0 0 0 0 -149.33272322970316 -79.01367089478299 0 -79.01367089478299 158.49274374758716 0 0 0 0 -8.1934100619382662 -70.888312482451511 0 -70.888312482451511 6.9580976162269508 0 0 0 0 28.643106410975861 111.18418300173107 0 111.18418300173107 329.90209132016753 0 0 0 0 21.145117132098903 65.742066527356656 0 65.742066527356656 175.67796351791912 0 0 0 0 18.786071655362321 6.0182502540810674 0 6.0182502540810674 70.942273138463861 0 0 0 0 -34.706356324424974 229.6439251286447 0 229.6439251286447 144.57272076164372 0 0 0 0 214.57036026239257 337.19449957738289 0 337.19449957738289 116.6887699267354 0 0 0 0 43.849196688367556 65.98070461926909 0 65.98070461926909 40.794829423966803 0 0 0 0 -10.343015671432113 21.009651942487835 0 21.009651942487835 198.97522518044207 0 0 0 0 -7.2139787458908948 -17.963185640705149 0 -17.963185640705149 12.03649946855311 0 0 0 0 -22.095754206476158 73.52708472732138 0 73.52708472732138 261.46978568002669 0 0 0 0 -68.787813054004801 103.84064434249558 0 103.84064434249558 243.52897488118106 0 0 0 0 -19.812984426724817 -13.375308074908226 0 -13.375308074908226 9.9781883203437332 0 0 0 0 -9.0431648414140895 -7.7143572265068592 0 -7.7143572265068592 43.465661884005385 0 0 0 0 -8.7342092550429697 -73.662101657102539 0 -73.662101657102539 -41.076017689955734 0 0 0 0 -0.4105936520522846 -15.450224937773783 0 -15.450224937773783 36.068665827438963 0 0 0 0 23.969278032244802 -53.056092812223142 0 -53.056092812223142 55.064852720239287 0 0 0 0 39.638862938760212 -29.166247511573602 0 -29.166247511573602 47.616064643437312 0 0 0 0 50.079715079087691 -4.9925644478389586 0 -4.9925644478389586 64.986485674614642 0 0 0 0 28.642745192559232 51.880202119053138 0 51.880202119053138 140.29937660803444 0 0 0 0 -2.0641676456943969 -4.579649722090835 0 -4.579649722090835 82.954753378002351 0 0 0 0 -43.906185848460154 -43.214101076966472 0 -43.214101076966472 -22.328609363939904 0 0 0 0 22.844713527632848 18.877536699792472 0 18.877536699792472 18.802761797538551 0 0 0 0 -96.006359692240949 92.530526591972375 0 92.530526591972375 8.8341839127824642 0 0 0 0 29.785449599065942 -8.8617103291553576 0 -8.8617103291553576 -46.087790012992627 0 0 0 0 -8.0178654388764699 -16.48859195042678 0 -16.48859195042678 64.278291723527218 0 0 0 0 4.1659919361181892 -46.011052916479457 0 -46.011052916479457 -72.03323410790108 0 0 0 0 1.1701998781426823 9.0152909352654547 0 9.0152909352654547 -64.045932579047076 0 0 0 0 -43.100054634841399 12.553695940255238 0 12.553695940255238 -30.199115366418482 0 0 0 0 -29.595084037183454 -6.5849362512050433 0 -6.5849362512050433 9.7531014330283554 0 0 0 0 -23.189876912853379 114.09764416219241 0 114.09764416219241 72.230855000689189 0 0 0 0 30.445252615164364 15.684854885368544 0 15.684854885368544 8.1029148732426961 0 0 0 0 42.727411933483381 -20.685143897610033 0 -20.685143897610033 4.6342514289899555 0 0 0 0 10.16611061077856 6.9458342515317781 0 6.9458342515317781 6.024060813718279 0 0 0 0 7.0013007336285682 3.3739593642806369 0 3.3739593642806369 0.89989145670367066 0 0 0 0 31.797660118139902 26.750152041004185 0 26.750152041004185 16.475236731597761 0 0 0 0 24.433246218504792 12.435809422822786 0 12.435809422822786 22.75598664907011 0 0 0 0 1.454900093373908 2.9145616288396923 0 2.9145616288396923 -1.7275334187470435 0 0 0 0 -0.63256874683635544 0.70935995334359347 0 0.70935995334359347 0.33605190801459628 0 0 0 0 4.8971046076974982 7.2222001499980344 0 7.2222001499980344 6.1094935996014286 0 0 0 0 23.952809428559704 21.516461749371956 0 21.516461749371956 6.6890846880996833 0 0 0 0 11.04881641031643 14.066191620544707 0 14.066191620544707 8.7905088910697309 0 0 0 0 0.99139624953721039 2.4444750495662468 0 2.4444750495662468 2.5138066225936342 0 0 0 0 0.17523502236872446 11.966507863486186 0 11.966507863486186 11.952079784663511 0 0 0 0 -14.044290508110645 7.8116671166663281 0 7.8116671166663281 12.178574565555667 0 0 0 0 -23.49954623855956 -12.938575513588148 0 -12.938575513588148 -8.0380581566423643 0 0 0 0 39.287777541791002 -74.459608121243946 0 -74.459608121243946 -35.481136024274747 0 0 0 0 -1.7542958273846914 0.27122996017357082 0 0.27122996017357082 -0.96143321351796374 0 0 0 0 0.29900762134320757 70.600942364903858 0 70.600942364903858 46.433736675018736 0 0 0 0 6.7301025844208198 63.676629985435284 0 63.676629985435284 52.691236812417628 0 0 0 0 0.12883763476617816 -0.48811160458249603 0 -0.48811160458249603 -0.11943436931912288 0 0 0 0 46.667694612862761 -42.576698924220182 0 -42.576698924220182 -63.59781273801616 0 0 0 0 69.736252055045043 33.261155656233313 0 33.261155656233313 -61.952461080630087 0 0 0 0 -11.82931268572429 -23.147717757306964 0 -23.147717757306964 4.2611502211020564 0 0 0 0 54.331637975881677 16.542400486765473 0 16.542400486765473 4.0363178119587246 0 0 0 0 31.005147445307557 8.1688342798643134 0 8.1688342798643134 45.835308412963059 0 0 0 0 59.527087977116025 63.864369628161512 0 63.864369628161512 38.539000605448109 0 0 0 0 26.621819853266061 55.734810785521404 0 55.734810785521404 104.19923411964191 0 0 0 0 10.313114410564594 58.053993741752492 0 58.053993741752492 212.82091856261104 0 0 0 0 35.368996727313061 63.032074082231702 0 63.032074082231702 -117.21780619926722 0 0 0 0 41.07553433771136 36.564531460700891 0 36.564531460700891 -12.316684847901342 0 0 0 0 44.24197356921286 90.513648297684995 0 90.513648297684995 -6.6386968644055742 0 0 0 0 -7.5454991950537078 29.217292448454828 0 29.217292448454828 53.826512082141562 0 0 0 0 35.122207692395932 84.33147984620291 0 84.33147984620291 79.206691808285541 0 0 0 0 76.000369354579107 135.58324708877262 0 135.58324708877262 122.76434716989752 0 0 0 0 25.750708289029717 65.250633610861769 0 65.250633610861769 145.79092830582886 0 0 0 0 38.189493082422814 133.76535104402865 0 133.76535104402865 180.11660982797548 0 0 0 0 96.632263866557878 195.74358045656845 0 195.74358045656845 226.24079143286872 0 0 0 0 88.477386988356557 215.08156496332776 0 215.08156496332776 238.01026286711203 0 0 0 0 156.01826729698041 190.66399305378945 0 190.66399305378945 192.27660477655172 0 0 0 0 64.050625826734176 -35.893357288387051 0 -35.893357288387051 55.193870060069003 0 0 0 0 206.43237688382419 257.89599310750236 0 257.89599310750236 244.9521069043185 0 0 0 0 2.1746062637380916 -0.36871824586931012 0 -0.36871824586931012 0.36339746907565296 0 0 0 0 245.18224608903097 152.51381283460523 0 152.51381283460523 208.22678558669941 0 0 0 0 146.16607852553534 98.585306632279753 0 98.585306632279753 293.07000411434001 0 0 0 0 150.46610626962047 112.35540334145844 0 112.35540334145844 207.33431701214431 0 0 0 0 82.502371847952418 147.46552382891423 0 147.46552382891423 212.0527742241029 0 0 0 0 114.77800485321313 104.29797709436025 0 104.29797709436025 146.25532416665865 0 0 0 0 59.74126323416931 84.044255361706746 0 84.044255361706746 208.61647374696622 0 0 0 0 84.431338228305094 30.028020120233123 0 30.028020120233123 147.68207146559507 0 0 0 0 93.817156774541218 84.661901267831126 0 84.661901267831126 203.56876369061501 0 0 0 0 99.629679124216636 10.154624307104314 0 10.154624307104314 144.57458910476907 0 0 0 0 28.166822874142099 10.744321205725782 0 10.744321205725782 149.61797179117275 0 0 0 0 88.903267030764709 55.29531808896661 0 55.29531808896661 227.537934957174 0 0 0 0 47.129747435763875 7.2690217737153944 0 7.2690217737153944 220.412856523355 0 0 0 0 168.21478146237678 117.4983584339825 0 117.4983584339825 239.64507423855002 0 0 0 0 92.986880691505576 65.968594647324608 0 65.968594647324608 246.12006099934297 0 0 0 0 157.21855072793107 120.51117922240763 0 120.51117922240763 252.74189770238445 0 0 0 0 168.3627334650273 -15.724943109571541 0 -15.724943109571541 290.9946037385198 0 0 0 0 144.56407394049074 -12.350002660530663 0 -12.350002660530663 493.8314435128741 0 0 0 0 94.267200474568199 78.364320665576088 0 78.364320665576088 332.92273077270056 0 0 0 0 404.94687133339721 54.514677921504699 0 54.514677921504699 268.91145705595045 0 0 0 0 1.8232320750024265 -1.4342930358101853 0 -1.4342930358101853 1.0995688896573625 0 0 0 0 223.27236518612881 207.58849961946908 0 207.58849961946908 235.91221571199094 0 0 0 0 10.145318029315604 -135.02747074080253 0 -135.02747074080253 503.52057939545284 0 0 0 0 123.7267675255523 -3.3442017794124297 0 -3.3442017794124297 68.547840180923231 0 0 0 0 118.37821432211824 220.20914460203772 0 220.20914460203772 288.05879715092669 0 0 0 0 161.82080704716827 180.41661911505798 0 180.41661911505798 324.18852505020368 0 0 0 0 1.382891651333189 1.5872088609389863 0 1.5872088609389863 2.5721207322565931 0 0 0 0 -13.942942247734663 329.46932007523924 0 329.46932007523924 -45.08087590645664 0 0 0 0 54.917551332879157 -365.08052406405841 0 -365.08052406405841 836.13311338820995 0 0 0 0 37.249877187009474 -184.17448122542385 0 -184.17448122542385 370.11464748332946 0 0 0 0 -68.814644211966879 -125.84221622683981 0 -125.84221622683981 579.03209844332014 0 0 0 0 -25.410042845761041 83.831443564577057 0 83.831443564577057 520.858260443787 0 0 0 0 322.62499216511605 117.81688654849495 0 117.81688654849495 685.6976597557441 0 0 0 0 268.09010841738836 14.297886605161693 0 14.297886605161693 528.7167668778784 0 0 0 0 89.167059091434567 85.979267912513023 0 85.979267912513023 597.38675504007733 0 0 0 0 48.947031994624467 179.78077364779074 0 179.78077364779074 345.6826933214943 0 0 0 0 25.051867769686396 157.54789323857767 0 157.54789323857767 565.163015867176 0 0 0 0 163.48096445637748 123.17363373785338 0 123.17363373785338 445.76254825419164 0 0 0 0 -12.337588920207054 356.17507693262996 0 356.17507693262996 385.88496903496343 0 0 0 0 -39.683022587675623 70.122255095673609 0 70.122255095673609 231.08978655823012 0 0 0 0 41.43689194961371 109.92782855029509 0 109.92782855029509 126.36583506933675 0 0 0 0 104.1204799281827 225.95813351547349 0 225.95813351547349 309.10145208284666 0 0 0 0 28.365211012379405 83.267070647563742 0 83.267070647563742 211.2080264490869 0 0 0 0 -4.486451473579109 37.752904396746089 0 37.752904396746089 291.75276013849725 0 0 0 0 40.333851291653446 -69.905647027200757 0 -69.905647027200757 44.923335787010728 0 0 0 0 -7.3363143555352508 0.19714128955092747 0 0.19714128955092747 83.562314067854459 0 0 0 0 -151.16025506055848 -4.452903959339892 0 -4.452903959339892 114.33080206066734 0 0 0 0 -184.01495745078682 -28.378225372631277 0 -28.378225372631277 -24.538185068477787 0 0 0 0 -39.22335666758795 62.43250445057015 0 62.43250445057015 27.077312608387729 0 0 0 0 29.190349481054 33.534148982083934 0 33.534148982083934 294.81807917429433 0 0 0 0 -151.61730775033038 104.75417064254225 0 104.75417064254225 31.004862343288551 0 0 0 0 1.7125210622410734 4.3593421588524706 0 4.3593421588524706 6.0134434384480073 0 0 0 0 -41.494241987971691 -12.956481091201567 0 -12.956481091201567 5.7354029887937941 0 0 0 0 -139.01630874715238 33.524687559700396 0 33.524687559700396 7.7508314275473822 0 0 0 0 -144.5133463182151 -8.6094401394557281 0 -8.6094401394557281 51.462337905533786 0 0 0 0 -72.0108839453369 17.956148732326255 0 17.956148732326255 19.313917051469616 0 0 0 0 -28.33259825497953 36.422068016843696 0 36.422068016843696 126.64696545613697 0 0 0 0 -123.04769561283319 -103.32712955176976 0 -103.32712955176976 -53.852190778688964 0 0 0 0 -1.8077195033892046 -0.41642225141036704 0 -0.41642225141036704 1.184986439227032 0 0 0 0 -65.492056741872616 -31.579793666480015 0 -31.579793666480015 17.096572849208314 0 0 0 0 -59.758455523535304 -13.760735452917288 0 -13.760735452917288 27.359059692204028 0 0 0 0 -54.795819440638297 15.189422635125084 0 15.189422635125084 44.791312012064736 0 0 0 0 -84.303825683778996 -12.743053063342813 0 -12.743053063342813 61.013529476047552 0 0 0 0 -42.38422085408456 -0.9836140292827622 0 -0.9836140292827622 63.610877204177996 0 0 0 0 -62.631519159405798 -27.582073065146687 0 -27.582073065146687 14.031262474818504 0 0 0 0 -93.364637314344691 -9.3317414659995848 0 -9.3317414659995848 72.347501834909053 0 0 0 0 -70.239024239906485 -45.159990072745131 0 -45.159990072745131 113.88690153473726 0 0 0 0 -33.271963289900668 -44.345448768544884 0 -44.345448768544884 111.02069901623872 0 0 0 0 -4.1035638464309159 -17.485018847371975 0 -17.485018847371975 88.644063981968429 0 0 0 0 -46.739021340988984 -10.809936160996585 0 -10.809936160996585 94.119962039847451 0 0 0 0 -26.9718798528138 -49.900481616252364 0 -49.900481616252364 152.10787355108187 0 0 0 0 -67.968824911736647 -18.607867987138889 0 -18.607867987138889 158.08891446208145 0 0 0 0 -49.997154917098669 -59.440789832120572 0 -59.440789832120572 123.31530121656033 0 0 0 0 -46.296860105188898 -70.177481058171907 0 -70.177481058171907 142.37311305580079 0 0 0 0 0.37251330812526362 0.29352835004063138 0 0.29352835004063138 -0.43541913172846591 0 0 0 0 11.960436710540307 -63.833334343249589 0 -63.833334343249589 142.72191350550747 0 0 0 0 -98.318090872539869 13.418313772833244 0 13.418313772833244 12.452033686364302 0 0 0 0 -4.7486559557988812 -11.075445219507856 0 -11.075445219507856 157.53132744478353 0 0 0 0 -5.7900880074027263 -1.243892726709376 0 -1.243892726709376 5.3587015980613444 0 0 0 0 1.5001168757196446 3.0936349924803181 0 3.0936349924803181 3.9699136473739003 0 0 0 0 -80.596510210302768 -34.118905588798953 0 -34.118905588798953 -1.4573747720232859 0 0 0 0 -80.090004232752108 15.409986103684787 0 15.409986103684787 14.964190416591009 0 0 0 0 -65.655071279165298 -23.470526731090843 0 -23.470526731090843 -5.4120046458047 0 0 0 0 -3.0609012147066288 0.24777533676102337 0 0.24777533676102337 2.3591371260906158 0 0 0 0 -29.538560903095259 3.1160234431633285 0 3.1160234431633285 91.168022211269999 0 0 0 0 13.421658332632433 -24.820281399532178 0 -24.820281399532178 33.69065883674557 0 0 0 0 2.0434424688669424 10.629094708586308 0 10.629094708586308 22.855091241595801 0 0 0 0 -48.707083845903071 26.241047668459942 0 26.241047668459942 48.974780769422978 0 0 0 0 -86.668802607592625 -26.362356852834637 0 -26.362356852834637 53.10075376797613 0 0 0 0 -85.537466149053216 23.800961047956662 0 23.800961047956662 70.128985223069321 0 0 0 0 -165.80809597800089 -134.63495040319867 0 -134.63495040319867 -21.998105171325733 0 0 0 0 -35.873890292622946 3.2706054613663582 0 3.2706054613663582 27.325929413294944 0 0 0 0 -4.6638811732696865 -1.3214329161321174 0 -1.3214329161321174 3.9578049144056848 0 0 0 0 -65.431273206608239 158.30737084888824 0 158.30737084888824 336.22970942411848 0 0 0 0 -1.4800744609033245 54.414363139607303 0 54.414363139607303 188.52299987765582 0 0 0 0 -93.870617986144907 -105.17619729772741 0 -105.17619729772741 220.30275043032088 0 0 0 0 -12.829949495533583 -118.66269679430116 0 -118.66269679430116 170.13347410587676 0 0 0 0 -2.138967749453613 -0.64619986629081438 0 -0.64619986629081438 1.9987176847082253 0 0 0 0 -115.23627630496776 -268.20292117529243 0 -268.20292117529243 -149.66795178909706 0 0 0 0 -102.70027427845923 10.115854372432295 0 10.115854372432295 104.47975213167956 0 0 0 0 -23.293980564995763 17.338981252636586 0 17.338981252636586 79.647887586084835 0 0 0 0 -53.635045238451823 87.059536575929997 0 87.059536575929997 331.21495211771253 0 0 0 0 50.422174187234759 134.05738319307784 0 134.05738319307784 252.46686783042969 0 0 0 0 -107.92734998197488 -8.8559380509086623 0 -8.8559380509086623 155.53787388266574 0 0 0 0 -23.558492557856425 132.60155076981755 0 132.60155076981755 286.77609146532632 0 0 0 0 37.32351039612422 158.68334657583546 0 158.68334657583546 193.51308748415249 0 0 0 0 2.9816791009702115 208.34769097291019 0 208.34769097291019 353.69285026795842 0 0 0 0 26.299109151357243 195.35879665156972 0 195.35879665156972 366.21088614557084 0 0 0 0 34.36693524373004 219.05030592185176 0 219.05030592185176 359.94078828454076 0 0 0 0 16.082044626240986 218.2472560613005 0 218.2472560613005 315.70696248847435 0 0 0 0 -48.031270865798433 192.38347554416487 0 192.38347554416487 415.93098847008878 0 0 0 0 1.8559026036099944 1.4980802837006024 0 1.4980802837006024 0.79252712710054141 0 0 0 0 79.952902063949296 265.63755548795598 0 265.63755548795598 130.6785911103716 0 0 0 0 29.681849360790238 -65.32736121088692 0 -65.32736121088692 389.45851646728988 0 0 0 0 167.82923241531898 198.60565384148595 0 198.60565384148595 326.46174422472541 0 0 0 0 78.991910551010733 202.96858891505326 0 202.96858891505326 485.80146950474045 0 0 0 0 80.089577560603175 126.35233820022768 0 126.35233820022768 371.85407482400478 0 0 0 0 74.201108872593977 174.39675981003165 0 174.39675981003165 320.24880969853348 0 0 0 0 91.912181810780112 206.93893709368604 0 206.93893709368604 361.1506416557022 0 0 0 0 50.715700004794598 147.89614894665283 0 147.89614894665283 402.04056629292791 0 0 0 0 35.665020049352052 106.73750845260747 0 106.73750845260747 289.50827513743207 0 0 0 0 71.807143437159539 171.27590041265103 0 171.27590041265103 330.18593434759532 0 0 0 0 36.315348611841728 129.58723993541207 0 129.58723993541207 277.34346400777031 0 0 0 0 16.664437583285235 91.877870384581911 0 91.877870384581911 227.08643421488523 0 0 0 0 31.680305643147221 99.597107457710081 0 99.597107457710081 177.4325562930145 0 0 0 0 54.226734398662131 168.03934553893259 0 168.03934553893259 263.65927174066019 0 0 0 0 25.931369554360117 167.01611291343579 0 167.01611291343579 282.47030513028221 0 0 0 0 54.136675695963504 124.11483266466576 0 124.11483266466576 275.66187017683842 0 0 0 0 25.642800677581818 166.33303013380828 0 166.33303013380828 342.70343594894257 0 0 0 0 -90.979058175094252 78.06985814192376 0 78.06985814192376 200.0069916459106 0 0 0 0 47.298518314227522 108.19999859573431 0 108.19999859573431 164.48350971650507 0 0 0 0 -10.344624967778486 90.863339794477724 0 90.863339794477724 209.87334214668954 0 0 0 0 -1.3686133511166858 61.706620101064345 0 61.706620101064345 156.72837712719775 0 0 0 0 -45.69825676684809 68.95699062712265 0 68.95699062712265 169.29713173845812 0 0 0 0 -25.035002253906896 70.49932721901132 0 70.49932721901132 130.6373957459291 0 0 0 0 -34.312897364285021 51.818018575691895 0 51.818018575691895 99.79111244088017 0 0 0 0 -62.815627058612336 33.150813005182499 0 33.150813005182499 62.51502532232189 0 0 0 0 9.1479425797133445 42.251941372063811 0 42.251941372063811 54.72965814240888 0 0 0 0 -33.212942481392929 7.7363857195105084 0 7.7363857195105084 49.475286287182826 0 0 0 0 0.76960436829018097 2.702553908644493 0 2.702553908644493 13.143207502907742 0 0 0 0 330.60881989076984 166.99395505714529 0 166.99395505714529 43.51776553057789 0 0 0 0 109.04054624392393 62.893027486734354 0 62.893027486734354 12.18690625731324 0 0 0 0 -84.151074879008775 143.97955052236648 0 143.97955052236648 194.1868185432686 0 0 0 0 -7.6332308322655535 128.49198855383656 0 128.49198855383656 118.15722211721823 0 0 0 0 45.697282018646433 188.85036285692422 0 188.85036285692422 159.59544873810228 0 0 0 0 -41.729838086549989 190.13855295889152 0 190.13855295889152 162.3733044209057 0 0 0 0 -297.47068433581467 126.71682304276692 0 126.71682304276692 280.75976157896366 0 0 0 0 -89.963401395582423 300.84343413034003 0 300.84343413034003 310.03548506873267 0 0 0 0 -41.730949069267268 182.83942835797188 0 182.83942835797188 222.94740266088047 0 0 0 0 -884.96190648918605 90.968206832403666 0 90.968206832403666 1456.5633376400292 0 0 0 0 165.26070230437313 339.47083893143281 0 339.47083893143281 197.17179521368962 0 0 0 0 115.90742500131833 -265.04471393628955 0 -265.04471393628955 -134.98176446616708 0 0 0 0 -14.6521636874877 81.893260179276695 0 81.893260179276695 119.93609395838939 0 0 0 0 111.31222093038713 59.927104913411313 0 59.927104913411313 73.466626203975466 0 0 0 0 692.78674039370912 -772.56086224233786 0 -772.56086224233786 -299.7789179454885 0 0 0 0 1.591616625971799 5.6072742399368991 0 5.6072742399368991 14.686393952545302 0 0 0 0 2.2051629578057006 2.007958995892551 0 2.007958995892551 4.3122777803133445 0 0 0 0 178.89918964775117 30.467694524799299 0 30.467694524799299 73.177110635748249 0 0 0 0 95.356723946937976 258.55043170052159 0 258.55043170052159 400.88833359387354 0 0 0 0 118.13758188008057 301.71303387185253 0 301.71303387185253 461.86353275880174 0 0 0 0 1.7116417534561899 -1.0392268941484701 0 -1.0392268941484701 -0.11641930565442493 0 0 0 0 79.087269309846761 86.422715474758661 0 86.422715474758661 108.35884974604414 0 0 0 0 -107.86499652284448 -52.967549345921725 0 -52.967549345921725 6.1207569083635462 0 0 0 0 116.8395978128533 207.43187383822806 0 207.43187383822806 231.58230980813278 0 0 0 0 133.08168016282661 203.2665812746709 0 203.2665812746709 319.00961250491309 0 0 0 0 164.65006733081373 305.79327171690784 0 305.79327171690784 378.11657958123396 0 0 0 0 147.02373608316702 261.13406324227981 0 261.13406324227981 344.50040115766387 0 0 0 0 146.53212126942847 271.58796408527985 0 271.58796408527985 379.40473710888182 0 0 0 0 61.518410893852852 187.87493549610235 0 187.87493549610235 719.03466561586538 0 0 0 0 61.980674150028392 202.44026569630614 0 202.44026569630614 417.6948901445794 0 0 0 0 41.046729440498211 196.42664805951972 0 196.42664805951972 424.93067538225296 0 0 0 0 21.001631670492316 27.649916665701312 0 27.649916665701312 154.96420993333595 0 0 0 0 28.551774759453281 70.861628246339478 0 70.861628246339478 319.00287139819557 0 0 0 0 177.33409741653622 -81.769533592996595 0 -81.769533592996595 328.96851225261344 0 0 0 0 114.55737353755865 75.235621936530151 0 75.235621936530151 428.62695558830455 0 0 0 0 56.464896091392347 7.6453034127880528 0 7.6453034127880528 436.574340923612 0 0 0 0 74.968095631654251 -46.510272612493281 0 -46.510272612493281 329.7841299109532 0 0 0 0 94.074975242878509 -69.717980408564472 0 -69.717980408564472 192.70629952636591 0 0 0 0 -11.866907814542628 -86.687166159485059 0 -86.687166159485059 285.35571451559917 0 0 0 0 388.61963420608492 52.509908008134516 0 52.509908008134516 297.7881166965999 0 0 0 0 252.56404310782005 63.80748156948539 0 63.80748156948539 300.01100446537203 0 0 0 0 208.92523198866274 32.6248348602021 0 32.6248348602021 346.25448121857517 0 0 0 0 189.94689523594786 -69.424912214530195 0 -69.424912214530195 305.42586914018102 0 0 0 0 241.99710664798846 86.998153741202259 0 86.998153741202259 523.57942056923457 0 0 0 0 281.63405247206379 -73.032024525884481 0 -73.032024525884481 494.19016940490837 0 0 0 0 175.19716657563097 170.46519424671351 0 170.46519424671351 533.10071953251463 0 0 0 0 563.29805045184139 303.56890315117039 0 303.56890315117039 558.36415675435273 0 0 0 0 136.44164607607806 363.66299250172597 0 363.66299250172597 997.96320663587721 0 0 0 0 211.6583592132352 -29.398669974933 0 -29.398669974933 534.10685834886681 0 0 0 0 556.01419735199352 -203.26890879431031 0 -203.26890879431031 791.49461139120103 0 0 0 0 136.86027680278289 345.69098835489785 0 345.69098835489785 450.11577741240399 0 0 0 0 1.1570324800161618 2.1364243859501322 0 2.1364243859501322 5.7169201116283546 0 0 0 0 83.817368161218155 18.234950403235416 0 18.234950403235416 148.24930207192665 0 0 0 0 115.98409651431602 -405.74562228831564 0 -405.74562228831564 767.99959389950527 0 0 0 0 604.2204134020842 421.05703431698203 0 421.05703431698203 145.30850010147697 0 0 0 0 50.457651515696341 -182.1713096340136 0 -182.1713096340136 427.75853141920015 0 0 0 0 -28.588546588031491 -4.9344816408083716 0 -4.9344816408083716 174.74177503298415 0 0 0 0 87.642011182657427 -43.198168883543985 0 -43.198168883543985 159.34449075762677 0 0 0 0 3.0295311844752177 -65.831670378469425 0 -65.831670378469425 273.81339048235532 0 0 0 0 -26.316612310409653 19.522126270374429 0 19.522126270374429 246.58198090094083 0 0 0 0 -54.583395041445598 -40.463881766684466 0 -40.463881766684466 448.85831354167021 0 0 0 0 -55.172682083817449 7.7146743524916417 0 7.7146743524916417 599.47407010821917 0 0 0 0 21.115334474545932 210.09887963655274 0 210.09887963655274 1062.964273116444 0 0 0 0 -19.33362934354605 14.207645565846178 0 14.207645565846178 571.56261999543858 0 0 0 0 172.66014434496046 150.82767051734845 0 150.82767051734845 430.57392700797936 0 0 0 0 -16.137389496636999 111.93342904102974 0 111.93342904102974 631.13336003260156 0 0 0 0 -30.224251139475399 60.806849712061648 0 60.806849712061648 469.446844281425 0 0 0 0 67.310296305684147 109.58079413340602 0 109.58079413340602 369.79637188399283 0 0 0 0 41.529341861162976 76.421909092281567 0 76.421909092281567 394.25972666711095 0 0 0 0 -12.552661390779697 64.936093426294974 0 64.936093426294974 391.30255492773904 0 0 0 0 -22.18552971279793 69.372788406848485 0 69.372788406848485 473.96383237587725 0 0 0 0 -0.062436992868772571 27.645936540797265 0 27.645936540797265 441.75923548440915 0 0 0 0 -40.113468896096769 13.490001439507978 0 13.490001439507978 440.32007008180517 0 0 0 0 -40.460114601144149 20.009498631890892 0 20.009498631890892 517.38244927476262 0 0 0 0 -25.518135737194715 10.980632947033882 0 10.980632947033882 410.65773950108087 0 0 0 0 -23.078308504209488 -8.3996915750940389 0 -8.3996915750940389 434.52646792105952 0 0 0 0 -0.01607363336732881 4.3601876718948915 0 4.3601876718948915 439.14366581482864 0 0 0 0 -0.10401602765214291 -0.48203947052736851 0 -0.48203947052736851 0.55647686794790729 0 0 0 0 0.074482545887225984 -13.220387752346141 0 -13.220387752346141 69.870738003315637 0 0 0 0 29.517805020609952 11.053455894860235 0 11.053455894860235 -35.056705287817749 0 0 0 0 -3.1432988917508027 54.540423480779282 0 54.540423480779282 177.05971891481022 0 0 0 0 21.15598386882321 6.8562668301674421 0 6.8562668301674421 80.758184681195416 0 0 0 0 -1.8385459248645759 47.182556421736081 0 47.182556421736081 209.12105956851155 0 0 0 0 25.269511908748356 -23.812340353051695 0 -23.812340353051695 -26.277998316327285 0 0 0 0 -18.465638888880562 11.552897075471265 0 11.552897075471265 80.441951372142285 0 0 0 0 -0.867962920070244 -1.3906435107714685 0 -1.3906435107714685 0.25446041162081201 0 0 0 0 3.7357233815503719 -38.064170550107519 0 -38.064170550107519 16.344260121652042 0 0 0 0 6.0796137132318222 17.150756877130334 0 17.150756877130334 52.57046122567408 0 0 0 0 84.106711357410944 -40.550078808701073 0 -40.550078808701073 56.391559253679588 0 0 0 0 -2.4348849649879307 0.44497943507535354 0 0.44497943507535354 6.4172624711856407 0 0 0 0 -25.725915179392132 -15.300759751022269 0 -15.300759751022269 6.4215401377387025 0 0 0 0 -68.985195405902232 -6.1311426750398823 0 -6.1311426750398823 35.533556064543518 0 0 0 0 0.40468856776083584 6.522542087748846 0 6.522542087748846 22.274312400895539 0 0 0 0 -51.985108471565184 -29.95112538286412 0 -29.95112538286412 45.916700631161802 0 0 0 0 67.565732220703978 -5.2662220928941679 0 -5.2662220928941679 -21.661334506781714 0 0 0 0 54.677678546511856 106.47752119440884 0 106.47752119440884 188.04055991772475 0 0 0 0 24.346791878468537 19.423588832250971 0 19.423588832250971 49.641271669508569 0 0 0 0 -12.736452735084384 116.96209577517584 0 116.96209577517584 189.1118667882256 0 0 0 0 43.954916932872095 263.50380822115767 0 263.50380822115767 465.42400319358421 0 0 0 0 164.35609663318854 190.35762290055936 0 190.35762290055936 137.13476723229178 0 0 0 0 288.83298512629688 -421.31876603988712 0 -421.31876603988712 -225.19244308668567 0 0 0 0 0.22700505912401089 1.320658324749715 0 1.320658324749715 8.9292018508867841 0 0 0 0 1.8426751976899753 8.4111908297989508 0 8.4111908297989508 34.192315606195351 0 0 0 0 -391.08523528679893 362.53429158519793 0 362.53429158519793 988.14242755493615 0 0 0 0 197.33003704941117 -263.89503155961938 0 -263.89503155961938 82.040116037740518 0 0 0 0 -124.85022284909697 -58.78662324878087 0 -58.78662324878087 317.54265467781079 0 0 0 0 -136.24836784011188 -30.315435938896826 0 -30.315435938896826 739.71068343496881 0 0 0 0 32.256906962694643 42.437190653807193 0 42.437190653807193 50.049604096962867 0 0 0 0 -0.12326158302418114 -0.82975567278016271 0 -0.82975567278016271 1.3350172987238125 0 0 0 0 -48.4659864822871 -38.084820328065689 0 -38.084820328065689 147.82268236980599 0 0 0 0 53.601030402367662 113.68380361984691 0 113.68380361984691 278.31534689376713 0 0 0 0 -0.042575569599804276 84.118324508784511 0 84.118324508784511 408.71692701356369 0 0 0 0 63.81534527098141 2.8103559128394409 0 2.8103559128394409 205.41935057373848 0 0 0 0 -53.542699144505661 39.905376668895769 0 39.905376668895769 367.5560247441972 0 0 0 0 -39.082241250471874 15.938545962781063 0 15.938545962781063 360.79133139405167 0 0 0 0 -39.004034966778711 27.381465012251283 0 27.381465012251283 342.04539782424399 0 0 0 0 -16.938816337976647 72.149131638776453 0 72.149131638776453 203.68843768655825 0 0 0 0 -76.783835388566388 66.975705951786949 0 66.975705951786949 403.69394708153413 0 0 0 0 -23.250498742590167 110.5964383493465 0 110.5964383493465 355.74324484165118 0 0 0 0 -70.962649396826606 62.616553444089732 0 62.616553444089732 338.74476168579713 0 0 0 0 3.3012817364506191 6.9985606293430465 0 6.9985606293430465 97.818585127097322 0 0 0 0 4.578379492244494 4.8730115278640369 0 4.8730115278640369 93.980527793671172 0 0 0 0 5.1133369386006962 3.3459540553149054 0 3.3459540553149054 90.808971965797355 0 0 0 0 2.0848622160119703 10.903342497455014 0 10.903342497455014 88.520006503262493 0 0 0 0 7.4434765355636046 4.1308486695611464 0 4.1308486695611464 93.068414937682974 0 0 0 0 8.0273660922276804 9.6964815064945924 0 9.6964815064945924 98.442397353262095 0 0 0 0 -1.7987423415142985 9.462780563780143 0 9.462780563780143 -41.327424102754776 0 0 0 0 7.7048854367130843 -23.505480861133947 0 -23.505480861133947 -68.12560519958879 0 0 0 0 3.7707522073565087 1.1739253402178011 0 1.1739253402178011 -1.0609561118183219 0 0 0 0 -14.352190709143542 2.9307736178870982 0 2.9307736178870982 -30.484672051869097 0 0 0 0 1.2217259973426664 0.68747954402944522 0 0.68747954402944522 -0.34908594347764144 0 0 0 0 8.7890498726083024 -33.004876959066678 0 -33.004876959066678 -103.7519226790464 0 0 0 0 6.6596207810410775 1.8530569052943076 0 1.8530569052943076 9.1011723995069858 0 0 0 0 -0.69475101278658258 -28.75939204703127 0 -28.75939204703127 114.47171331153186 0 0 0 0 -14.373621149281462 0.049957815843299613 0 0.049957815843299613 65.323744610643189 0 0 0 0 32.757632473345438 5.7799887024348209 0 5.7799887024348209 -83.941143694101811 0 0 0 0 -2.4277162617926891 1.7253190671836229 0 1.7253190671836229 56.936951359796836 0 0 0 0 6.0781667193368776 3.9409972917037521 0 3.9409972917037521 81.705229713940355 0 0 0 0 1.1991350587369407 2.2753816123070862 0 2.2753816123070862 38.668598179149761 0 0 0 0 10.332377686590917 3.8331456235669066 0 3.8331456235669066 75.253082952645855 0 0 0 0 8.3697858815867221 2.9411192249572196 0 2.9411192249572196 79.288386104943129 0 0 0 0 7.8857333652595116 8.0360634960943571 0 8.0360634960943571 77.200275672149928 0 0 0 0 10.12925822600846 8.0236452553008348 0 8.0236452553008348 70.514713136808496 0 0 0 0 5.0921289375473862 4.734213039113456 0 4.734213039113456 81.071640531046796 0 0 0 0 7.0069720837400382 9.6377494454550288 0 9.6377494454550288 75.854800864382923 0 0 0 0 5.0331642089076922 9.9987946853570975 0 9.9987946853570975 84.252708426995923 0 0 0 0 7.4712427047925303 15.242969233369195 0 15.242969233369195 73.30301195075117 0 0 0 0 4.7318453345578746 10.294158751158193 0 10.294158751158193 84.2604619499416 0 0 0 0 7.7107520602567092 13.729122132652265 0 13.729122132652265 79.164467915874184 0 0 0 0 4.1424724600310583 17.932990144011455 0 17.932990144011455 84.625077369551036 0 0 0 0 7.7024555973866882 13.226784174378167 0 13.226784174378167 74.352220166321786 0 0 0 0 1.9176666758646519 19.586962074326777 0 19.586962074326777 57.851376353059258 0 0 0 0 53.331011614203817 123.4936691455332 0 123.4936691455332 61.298660805972759 0 0 0 0 -5.8915859158987587 41.936861613634392 0 41.936861613634392 87.101020597412571 0 0 0 0 -34.089348450339457 12.622531761475329 0 12.622531761475329 85.639149179301967 0 0 0 0 -70.884262597149586 17.727665208749045 0 17.727665208749045 175.84848153057101 0 0 0 0 -4.3357565292502969 -3.9863151531960952 0 -3.9863151531960952 18.247211761167776 0 0 0 0 -72.683193685277786 70.156174947876139 0 70.156174947876139 40.65845912729128 0 0 0 0 3.4363804984132003 21.738730419702279 0 21.738730419702279 70.267985131134992 0 0 0 0 -0.76774269129612804 7.236726229469447 0 7.236726229469447 34.865338225353625 0 0 0 0 -1.9331712040439015 -8.5810473950914457 0 -8.5810473950914457 38.355632564205735 0 0 0 0 -4.4069741661254831 14.423890122781167 0 14.423890122781167 39.915064664719701 0 0 0 0 6.4802832832281183 13.968720131057069 0 13.968720131057069 71.243041375767461 0 0 0 0 -0.53191387558581482 -4.9032718024927817 0 -4.9032718024927817 15.665376516020842 0 0 0 0 2.3831226461812136 0.75933933779067075 0 0.75933933779067075 3.8957339720054804 0 0 0 0 9.1347324106436645 16.270401177911481 0 16.270401177911481 72.110684982514158 0 0 0 0 8.820891704857786 24.876445335721428 0 24.876445335721428 88.683681512031058 0 0 0 0 -3.2357550603519485 -2.8278582358166204 0 -2.8278582358166204 4.7962989931877473 0 0 0 0 1.2509368298626313 0.42401487808508609 0 0.42401487808508609 -0.99640303737104841 0 0 0 0 18.884023798473208 -3.0466879646369307 0 -3.0466879646369307 0.96607077147064047 0 0 0 0 40.157675829839718 -37.384744432973548 0 -37.384744432973548 14.237263387909593 0 0 0 0 -8.9240304313134402 -46.023022984213185 0 -46.023022984213185 83.444497397014857 0 0 0 0 50.917685598508342 -24.287024914844778 0 -24.287024914844778 40.963360188751722 0 0 0 0 -8.9446982600711635 14.962224696428166 0 14.962224696428166 63.803158814192102 0 0 0 0 9.0211862381543426 10.470807347138045 0 10.470807347138045 121.57737385811197 0 0 0 0 58.705546721746941 -2.3962834303920317 0 -2.3962834303920317 99.841810049619653 0 0 0 0 -12.361206556533944 -10.345834124998646 0 -10.345834124998646 35.512626550790344 0 0 0 0 -19.906022892226247 -5.014519008922889 0 -5.014519008922889 37.375816070695237 0 0 0 0 -2.7639283139019675 5.2774189029341994 0 5.2774189029341994 24.299617185572696 0 0 0 0 -22.405900010657206 -19.757177133932146 0 -19.757177133932146 33.570078705678497 0 0 0 0 -38.043224252287473 -26.301858259049595 0 -26.301858259049595 50.955725970139611 0 0 0 0 -14.587688548062943 -5.1348801022950283 0 -5.1348801022950283 12.737903974611072 0 0 0 0 -55.362624816594234 10.029809257940315 0 10.029809257940315 33.149403688222264 0 0 0 0 -3.1478703954760068 4.9313386860880328 0 4.9313386860880328 23.575730966259403 0 0 0 0 8.8122683731817233 -16.020756261170618 0 -16.020756261170618 38.840762913573315 0 0 0 0 24.144944512056099 -18.159868457881529 0 -18.159868457881529 26.335106622529565 0 0 0 0 15.786687976946268 -8.8136432637200244 0 -8.8136432637200244 37.56813942777837 0 0 0 0 -104.39037925881348 56.032761497243655 0 56.032761497243655 47.164952011351488 0 0 0 0 -3.6769316431390244 4.4750735546699989 0 4.4750735546699989 21.978613097342457 0 0 0 0 17.83215999255026 -12.619941303031396 0 -12.619941303031396 16.616986811558945 0 0 0 0 16.942157027671783 -10.867129638773235 0 -10.867129638773235 32.238024628441963 0 0 0 0 47.291995676967417 41.55308649726112 0 41.55308649726112 124.04331420959352 0 0 0 0 83.929055658913057 30.669041929943887 0 30.669041929943887 50.318108120132365 0 0 0 0 111.17940046237709 89.673995549688243 0 89.673995549688243 -19.169403510173424 0 0 0 0 -32.367983062434178 -53.311962672968093 0 -53.311962672968093 41.006408537758034 0 0 0 0 1.2375829594293606 0.94091351130795431 0 0.94091351130795431 0.19323341298488866 0 0 0 0 -3.0850575262957136 -10.403965340066861 0 -10.403965340066861 -8.0850801051695669 0 0 0 0 5.0885683332263199 0.92557440784084299 0 0.92557440784084299 1.8184431948602038 0 0 0 0 49.865925401693858 -1.2125007510289834 0 -1.2125007510289834 -55.77556880571683 0 0 0 0 -2.2492820285464958 2.1711615116078882 0 2.1711615116078882 19.493780401479313 0 0 0 0 -44.1817534995389 47.790148655913072 0 47.790148655913072 -26.178355029846898 0 0 0 0 -27.52758955078707 45.542158999777939 0 45.542158999777939 36.837244661172917 0 0 0 0 43.566916480618602 -2.9534316049739573 0 -2.9534316049739573 13.185512233693771 0 0 0 0 3.0449864084817673 -0.2219356940785886 0 -0.2219356940785886 4.6644441192360695 0 0 0 0 14.668096956153931 12.133665824507261 0 12.133665824507261 28.627060355657704 0 0 0 0 18.284755524564389 -1.2126743068395172 0 -1.2126743068395172 16.046794872559303 0 0 0 0 22.124625045330504 -6.5166368345227283 0 -6.5166368345227283 20.890931049210849 0 0 0 0 23.802580423242944 -8.9080741234691914 0 -8.9080741234691914 22.393229344010251 0 0 0 0 16.096569007415383 -8.560758786471979 0 -8.560758786471979 23.780334748960513 0 0 0 0 76.474552119115287 -11.440114378607177 0 -11.440114378607177 -81.297955773168269 0 0 0 0 14.162642990636854 -7.5818465233459538 0 -7.5818465233459538 5.0624260996198105 0 0 0 0 11.020863734383081 -7.2384928977329634 0 -7.2384928977329634 3.0867378849351561 0 0 0 0 25.92437383734341 5.8386891547082769 0 5.8386891547082769 21.748183050339776 0 0 0 0 133.6264486261507 -86.910716141588182 0 -86.910716141588182 -80.228793451884258 0 0 0 0 53.935836518430733 -57.324967991879021 0 -57.324967991879021 207.43736266907854 0 0 0 0 1.4104220244150838 83.028651002036668 0 83.028651002036668 61.737954120188078 0 0 0 0 214.59588260391232 141.69981876995516 0 141.69981876995516 300.5273481047243 0 0 0 0 -0.27052240413902062 0.47557404421974425 0 0.47557404421974425 1.8874927855660317 0 0 0 0 197.53919657875031 14.863866573234645 0 14.863866573234645 -15.982262378404812 0 0 0 0 -65.32625820856606 104.71055037369945 0 104.71055037369945 321.67982239110461 0 0 0 0 55.129359692546132 68.021347612985664 0 68.021347612985664 32.831429968338284 0 0 0 0 -35.219484257782824 -7.9521878411796934 0 -7.9521878411796934 312.70150956061661 0 0 0 0 121.13516313560649 53.738550910594313 0 53.738550910594313 307.49579192277361 0 0 0 0 130.11424499756208 -14.430059251096282 0 -14.430059251096282 182.6160869576488 0 0 0 0 -14.167365367826278 20.566972175225601 0 20.566972175225601 287.81905545247264 0 0 0 0 -16.552918177196375 -6.9902528514741675 0 -6.9902528514741675 105.55015323467342 0 0 0 0 -69.918744280068495 1.9592797406121463 0 1.9592797406121463 118.57616574184249 0 0 0 0 48.0416009602759 100.06459893760666 0 100.06459893760666 72.279839025657566 0 0 0 0 -56.235522699660578 30.931632672762134 0 30.931632672762134 146.02073107084107 0 0 0 0 138.65977334094077 165.03650623296016 0 165.03650623296016 152.01774153994347 0 0 0 0 63.400442284349992 75.916057633969103 0 75.916057633969103 48.294938786730199 0 0 0 0 42.215497861287076 74.718060313577553 0 74.718060313577553 48.337388298226642 0 0 0 0 34.337952435151237 61.790888252416153 0 61.790888252416153 67.996037387689285 0 0 0 0 40.484126377509483 66.947098572489892 0 66.947098572489892 61.275119253383309 0 0 0 0 -12.08215401245252 80.121729825015791 0 80.121729825015791 70.063945374200557 0 0 0 0 33.899748475198976 79.867599867690387 0 79.867599867690387 86.169349524309837 0 0 0 0 51.065205309914745 78.92304063213669 0 78.92304063213669 62.223129712076116 0 0 0 0 3.5135013595482363 1.0419574453272631 0 1.0419574453272631 -1.1802817672970143 0 0 0 0 18.46655368500501 99.525915947229635 0 99.525915947229635 102.52940175682306 0 0 0 0 -31.33509475901883 -9.7388976666288727 0 -9.7388976666288727 38.967747714912093 0 0 0 0 -38.965537247717293 93.630864364808076 0 93.630864364808076 214.09589054654498 0 0 0 0 5.8153189867189212 19.446172476149513 0 19.446172476149513 141.46910579600899 0 0 0 0 -11.409789186816852 56.42694996726641 0 56.42694996726641 91.212257671695625 0 0 0 0 -95.381948504673346 22.5503131544383 0 22.5503131544383 80.309667902205547 0 0 0 0 -4.1386800996988313 56.019658330079892 0 56.019658330079892 -4.4270178417027637 0 0 0 0 -47.764298630925623 -16.444853900801718 0 -16.444853900801718 57.683422572720701 0 0 0 0 16.140219299757064 21.943116924696824 0 21.943116924696824 38.334667056442413 0 0 0 0 -1.3247996664101196 6.6275784135693172 0 6.6275784135693172 48.761003873179227 0 0 0 0 -51.712416527203459 -22.358243693297482 0 -22.358243693297482 51.250948501314269 0 0 0 0 0.62141331239218189 8.2642187376824481 0 8.2642187376824481 1.9335448418404688 0 0 0 0 -67.377180254316045 14.607382024840604 0 14.607382024840604 17.594420055364026 0 0 0 0 -5.4639734111373315 -0.62529371172568204 0 -0.62529371172568204 10.835242808706294 0 0 0 0 -111.67920328854962 99.73155260889871 0 99.73155260889871 1.8345229836759245 0 0 0 0 -83.831731348152971 48.458422565927322 0 48.458422565927322 42.432253066725025 0 0 0 0 -141.71873623975989 44.070353055156374 0 44.070353055156374 73.197347600120338 0 0 0 0 -90.789851238192568 13.80547908466724 0 13.80547908466724 97.08517728372135 0 0 0 0 -55.104357679354507 15.417815381659238 0 15.417815381659238 64.305524170507397 0 0 0 0 -85.467503804016815 -29.756070231642752 0 -29.756070231642752 87.580403741096234 0 0 0 0 -61.126897100698443 -42.220587361433445 0 -42.220587361433445 17.317934933082142 0 0 0 0 -5.681804356387147 0.93486060576833552 0 0.93486060576833552 49.185422225768889 0 0 0 0 -30.836854152048545 6.8314780474706822 0 6.8314780474706822 50.005931659170528 0 0 0 0 -15.244109342874253 21.314973838865626 0 21.314973838865626 40.522546749562025 0 0 0 0 -8.9584626321952783 17.663196832526182 0 17.663196832526182 39.696977574589255 0 0 0 0 4.3556313672161195 21.057155389687978 0 21.057155389687978 323.34207753383635 0 0 0 0 3.3347754884353975 -1.0939300407392896 0 -1.0939300407392896 9.0615757881501118 0 0 0 0 -5.3223374083663657 8.5652933993642364 0 8.5652933993642364 51.20490138088212 0 0 0 0 7.8434704290573336 18.506752806742668 0 18.506752806742668 30.392004769745654 0 0 0 0 6.4840657611110828 18.648873273728938 0 18.648873273728938 24.818723598140664 0 0 0 0 3.5331774088444945 9.5925017579593259 0 9.5925017579593259 30.592453417923025 0 0 0 0 -10.297721826329507 21.048213450965704 0 21.048213450965704 45.964719229152252 0 0 0 0 -12.423390986841696 30.054581867563684 0 30.054581867563684 35.578203188961197 0 0 0 0 -2.4756534319094499 26.971577459215041 0 26.971577459215041 52.083567668164505 0 0 0 0 5.0312047448593944 34.187319817607545 0 34.187319817607545 31.987727316176461 0 0 0 0 -23.244633683232678 29.758452092253719 0 29.758452092253719 31.936919927558847 0 0 0 0 2.4407780333440314 34.207853518844786 0 34.207853518844786 -4.7143721273241681 0 0 0 0 -2.9036395757248101 32.934158134528843 0 32.934158134528843 13.949914253438692 0 0 0 0 -45.363403264636872 35.841248607288435 0 35.841248607288435 29.907642217987814 0 0 0 0 -10.027804584727235 6.0698890451524186 0 6.0698890451524186 7.5074253560830542 0 0 0 0 4.975386483109105 -16.264910903266355 0 -16.264910903266355 404.91566408731524 0 0 0 0 12.394320596014076 11.137705061984388 0 11.137705061984388 9.3118262224701382 0 0 0 0 -53.691955241500182 -52.457262150488532 0 -52.457262150488532 -16.832859667458251 0 0 0 0 -39.351488176187559 7.7903550302053191 0 7.7903550302053191 106.56825512611249 0 0 0 0 -109.55112279755713 482.95927084336563 0 482.95927084336563 446.47157409825013 0 0 0 0 -266.70157046403256 123.14171796108712 0 123.14171796108712 128.8323249792893 0 0 0 0 332.53854908263202 -41.91283265052698 0 -41.91283265052698 -150.92081433026215 0 0 0 0 -231.7725218821779 200.61497371663063 0 200.61497371663063 -2.695784182051284 0 0 0 0 -4.7476243730382919 0.10962970074581335 0 0.10962970074581335 0.58447579488026236 0 0 0 0 -16.784646418698685 107.95348663140248 0 107.95348663140248 -176.88920270100061 0 0 0 0 -107.98674227088577 116.33057569362109 0 116.33057569362109 52.642892800460686 0 0 0 0 -102.45561056947554 96.132214165918867 0 96.132214165918867 78.338117137027439 0 0 0 0 -89.0692366468611 85.106759377178605 0 85.106759377178605 74.962671221572236 0 0 0 0 -263.33636545652439 -23.299534625800788 0 -23.299534625800788 105.0039858230266 0 0 0 0 69.326670530139381 -11.104915980564328 0 -11.104915980564328 69.562318899582351 0 0 0 0 -116.24282713975708 45.387193876740639 0 45.387193876740639 111.92724213772453 0 0 0 0 -18.144418720403337 -19.027999845271552 0 -19.027999845271552 112.88041815742588 0 0 0 0 -98.751115155619118 91.614350764566552 0 91.614350764566552 80.921609958531917 0 0 0 0 -97.321531512727233 84.535042889390752 0 84.535042889390752 86.079211196436518 0 0 0 0 -38.031410700852575 77.301985100530146 0 77.301985100530146 61.507168506039307 0 0 0 0 -150.38550718920305 98.319373768194055 0 98.319373768194055 90.167172203132395 0 0 0 0 -113.73063909399207 91.866464806655131 0 91.866464806655131 88.78220815014356 0 0 0 0 -96.987612948992137 87.065364506677042 0 87.065364506677042 79.229309281508904 0 0 0 0 -85.061968887406692 55.558829242898355 0 55.558829242898355 81.661306511363364 0 0 0 0 -127.83762821787968 58.111483797107212 0 58.111483797107212 96.12153615299394 0 0 0 0 -112.91799451615225 45.318313360410684 0 45.318313360410684 106.98448920591181 0 0 0 0 -118.68526288593239 20.478074885220849 0 20.478074885220849 86.748682227625977 0 0 0 0 -97.11306277562835 11.596815025674005 0 11.596815025674005 90.404903647187894 0 0 0 0 -26.246898664718174 10.116897340682044 0 10.116897340682044 62.245179317200382 0 0 0 0 -52.086243020170514 14.862130313220405 0 14.862130313220405 64.831274716678308 0 0 0 0 -84.276855449956543 42.218600997464023 0 42.218600997464023 69.134466348710703 0 0 0 0 -54.593924255517777 25.382711661117355 0 25.382711661117355 76.240103275580623 0 0 0 0 -35.431284830177901 33.051831369102729 0 33.051831369102729 65.892738688357895 0 0 0 0 -35.400851289510683 30.940487817632857 0 30.940487817632857 50.840709671683726 0 0 0 0 -7.245721745530318 4.9757656575275178 0 4.9757656575275178 60.015088339247995 0 0 0 0 -6.8700827595566807 18.938878617245791 0 18.938878617245791 41.034111196306185 0 0 0 0 -24.860513702908065 23.489048562478274 0 23.489048562478274 54.131141374084109 0 0 0 0 -33.764406641570531 35.783849323826871 0 35.783849323826871 46.709702059815754 0 0 0 0 -36.273638063394174 56.537128432606551 0 56.537128432606551 32.018934420073492 0 0 0 0 -26.69905412711978 46.168547418560593 0 46.168547418560593 42.769498549016134 0 0 0 0 -33.175549588904687 91.126485766850237 0 91.126485766850237 -33.542863837148616 0 0 0 0 -82.809799813090649 81.708881346236012 0 81.708881346236012 72.345798304570053 0 0 0 0 -88.11508772889465 92.001179716677143 0 92.001179716677143 56.202831316386437 0 0 0 0 -83.221667824214819 64.137613450000572 0 64.137613450000572 71.591434874844708 0 0 0 0 -64.581836298839335 60.660371245196075 0 60.660371245196075 44.201629907973256 0 0 0 0 5.1142570474203239 37.035636398550196 0 37.035636398550196 -4.3890524205780821 0 0 0 0 24.373392270994373 54.272799807768024 0 54.272799807768024 0.38293992043327307 0 0 0 0 40.86287144923881 3.207906284245837 0 3.207906284245837 19.57594711434831 0 0 0 0 -1.8036210882164596 36.408712858386934 0 36.408712858386934 1.1805070620484912 0 0 0 0 17.272150467495521 30.88997414863843 0 30.88997414863843 22.747177833341993 0 0 0 0 2.0993464098309254 1.1557859266736124 0 1.1557859266736124 2.3527091936986864 0 0 0 0 14.474665035392718 27.586718632601333 0 27.586718632601333 36.709985886704089 0 0 0 0 28.260274489373842 -0.24804263057740172 0 -0.24804263057740172 87.544561410351889 0 0 0 0 1.9848531836723389 2.8938437429590849 0 2.8938437429590849 3.8460287333959329 0 0 0 0 -10.102222824811179 17.001089337893063 0 17.001089337893063 38.956451363279484 0 0 0 0 5.4782386172898949 0.93231051052947578 0 0.93231051052947578 5.0051202040630471 0 0 0 0 3.2195046848719358 25.567813617963111 0 25.567813617963111 -7.0620671989354378 0 0 0 0 8.8571232629165024 10.903057118553988 0 10.903057118553988 -6.6235379719619232 0 0 0 0 11.02505227751135 7.5562056825310719 0 7.5562056825310719 10.479819460892031 0 0 0 0 1.1952876668988015 3.7774187751132544 0 3.7774187751132544 9.227587256558607 0 0 0 0 -0.37305896195586641 1.5524160386840737 0 1.5524160386840737 1.9174284838320261 0 0 0 0 79.725740376203703 143.75150334345972 0 143.75150334345972 135.24568977130548 0 0 0 0 -42.135836655681487 -0.11792164623329882 0 -0.11792164623329882 12.532167828496313 0 0 0 0 0.71354698858723253 1.2825555676841489 0 1.2825555676841489 8.3434001273327851 0 0 0 0 -47.942430906190566 42.866895564939114 0 42.866895564939114 11.149549058904086 0 0 0 0 237.12177752288153 167.35229680770499 0 167.35229680770499 52.988370178656623 0 0 0 0 224.52788756011068 309.53301655038013 0 309.53301655038013 170.7263462054143 0 0 0 0 233.53049678371826 315.30078096956458 0 315.30078096956458 173.37674200264337 0 0 0 0 92.790999302626005 206.46779565130419 0 206.46779565130419 244.05044338511289 0 0 0 0 124.46818234904276 128.41989507654216 0 128.41989507654216 34.306752907366899 0 0 0 0 -12.897002255991879 29.878375609050522 0 29.878375609050522 253.134441527538 0 0 0 0 -18.578591122699436 -75.877872774533898 0 -75.877872774533898 51.984859929449158 0 0 0 0 46.182284482910745 17.820703059311654 0 17.820703059311654 289.04850914513008 0 0 0 0 37.641684213327608 -54.914287474699449 0 -54.914287474699449 -132.95162492044801 0 0 0 0 52.304778320241894 98.228279356870189 0 98.228279356870189 102.44542307005759 0 0 0 0 326.81675520949466 463.25479997097136 0 463.25479997097136 180.47471581980062 0 0 0 0 8.0288231592770885 2.9561161403299536 0 2.9561161403299536 0.50001476794101762 0 0 0 0 250.96878050943633 70.056338521482758 0 70.056338521482758 -0.17434649526194335 0 0 0 0 94.298448751131673 229.26515682249874 0 229.26515682249874 450.48999102273956 0 0 0 0 251.33671760166726 254.1665441975274 0 254.1665441975274 70.781046981544932 0 0 0 0 443.94728103993111 407.70122803086269 0 407.70122803086269 193.16122063076 0 0 0 0 130.71245880555216 130.38192168670321 0 130.38192168670321 74.986028596358665 0 0 0 0 70.108569924394033 104.53482193631862 0 104.53482193631862 185.97635596113832 0 0 0 0 113.00376586365473 72.312018201968385 0 72.312018201968385 102.40578815495064 0 0 0 0 88.337044421097744 49.18244532474273 0 49.18244532474273 253.57622477503628 0 0 0 0 106.65588218569428 151.43457146844776 0 151.43457146844776 428.97501902764952 0 0 0 0 200.91023490904081 225.76347430923852 0 225.76347430923852 195.61009264630138 0 0 0 0 196.30164395862812 229.79338723024739 0 229.79338723024739 197.36040618230618 0 0 0 0 -70.998186373783483 -66.240284454621815 0 -66.240284454621815 114.85003401644644 0 0 0 0 -0.052286935393589751 0.98618482678393349 0 0.98618482678393349 3.2592712638329999 0 0 0 0 609.19902688889124 349.51423323695781 0 349.51423323695781 141.63014290254432 0 0 0 0 261.13938168108234 359.7038415231109 0 359.7038415231109 406.15267613616015 0 0 0 0 295.52554586874021 85.305661434276772 0 85.305661434276772 175.8952782983215 0 0 0 0 85.081835822218636 206.15365528196799 0 206.15365528196799 228.38087567835828 0 0 0 0 218.84893483083033 341.75977833699289 0 341.75977833699289 354.20832603269582 0 0 0 0 27.009520899395284 31.278730147329043 0 31.278730147329043 96.062605719482235 0 0 0 0 -40.951654744641928 82.151877955699092 0 82.151877955699092 421.03004426784491 0 0 0 0 9.6063238603492209 22.06367197255895 0 22.06367197255895 97.168232703479589 0 0 0 0 2.8913187476150597 74.100435777088933 0 74.100435777088933 135.11549469689635 0 0 0 0 71.30429490692768 226.30505667701436 0 226.30505667701436 409.68746101042962 0 0 0 0 100.93227811810721 223.68920055059152 0 223.68920055059152 232.83660860523742 0 0 0 0 72.842078959244645 65.75943998925186 0 65.75943998925186 178.6468208885999 0 0 0 0 173.31709344495357 213.46008556335073 0 213.46008556335073 194.89873993764013 0 0 0 0 128.38164625622358 73.513837878990671 0 73.513837878990671 2.289487339930929 0 0 0 0 37.509354649260786 -34.668511804156878 0 -34.668511804156878 -14.282727880249695 0 0 0 0 5.3367151427902613 -0.22545671329124417 0 -0.22545671329124417 0.062830142036599312 0 0 0 0 67.168172101718483 -36.866389366354269 0 -36.866389366354269 12.871493222824938 0 0 0 0 25.675402287242832 119.09834145518744 0 119.09834145518744 120.54108782972071 0 0 0 0 30.377555501238021 10.956531295025343 0 10.956531295025343 55.250197504741664 0 0 0 0 -4.39896775525267 11.919992404100412 0 11.919992404100412 177.2675906331333 0 0 0 0 -36.365048852975633 -3.3914777953614248 0 -3.3914777953614248 64.954509624643833 0 0 0 0 5.0120841432249463 -0.26277659289468858 0 -0.26277659289468858 0.040038336054594836 0 0 0 0 67.936963531139554 2.5784319847698498 0 2.5784319847698498 -60.86073371929524 0 0 0 0 66.176886342233047 62.892473289211921 0 62.892473289211921 45.518504534710701 0 0 0 0 -32.971299224109089 75.131164024425971 0 75.131164024425971 202.34227181514143 0 0 0 0 -25.952967648780486 99.168540969914829 0 99.168540969914829 239.52137562810094 0 0 0 0 8.5756788819453504 87.263119159225425 0 87.263119159225425 204.39197046418849 0 0 0 0 -34.258395338390983 104.57582480018027 0 104.57582480018027 243.18224500477299 0 0 0 0 135.18822152626308 133.18756683883657 0 133.18756683883657 189.82456148503843 0 0 0 0 -9.1447894949524198 -83.859052749682633 0 -83.859052749682633 141.68436562922579 0 0 0 0 173.65148069061979 166.94895923197691 0 166.94895923197691 134.59962336473109 0 0 0 0 1.4256179913077673 -1.0047567946125966 0 -1.0047567946125966 0.6307850261591561 0 0 0 0 -50.453460113631081 11.401971110512022 0 11.401971110512022 226.21050072302023 0 0 0 0 0.065073140534877894 45.673614878238368 0 45.673614878238368 93.434050267411294 0 0 0 0 201.07916090029858 70.084489622273395 0 70.084489622273395 90.289966438438569 0 0 0 0 -10.750333456920998 79.067865202276153 0 79.067865202276153 252.58411857897954 0 0 0 0 3.4895094001172282 -1.9507839865831684 0 -1.9507839865831684 1.0122773914575838 0 0 0 0 107.26161082047656 -78.422406420162588 0 -78.422406420162588 146.64443270086576 0 0 0 0 50.462972977229583 11.891948030646745 0 11.891948030646745 123.17803804307368 0 0 0 0 -18.105056122401265 -17.859321763022763 0 -17.859321763022763 111.92741952912911 0 0 0 0 -393.80109696396539 75.113132705129829 0 75.113132705129829 79.927463304827143 0 0 0 0 -173.35460271517513 -3.0656069304568518 0 -3.0656069304568518 160.72396031876997 0 0 0 0 -162.28557159002958 21.182174669651431 0 21.182174669651431 79.601464959177974 0 0 0 0 -193.03335965109363 15.012796901421098 0 15.012796901421098 85.286153342356556 0 0 0 0 -213.54637940452085 91.942594916636153 0 91.942594916636153 29.749490955972306 0 0 0 0 -161.54850426096527 33.94556238612131 0 33.94556238612131 35.68685414769925 0 0 0 0 -106.70600628379543 79.035644653984491 0 79.035644653984491 -14.270194131873723 0 0 0 0 -5.1414027626483403 7.1992848823447275 0 7.1992848823447275 24.75020800641505 0 0 0 0 -1.4548145450971468 5.0618190114033155 0 5.0618190114033155 25.956554365983827 0 0 0 0 -196.30165084984401 211.08002182370728 0 211.08002182370728 -158.85748556869657 0 0 0 0 -1.2495659985568111 -1.6671428395620822 0 -1.6671428395620822 5.2869800241753966 0 0 0 0 -41.124465007393155 -63.046509482734109 0 -63.046509482734109 -51.029630713659571 0 0 0 0 -1.9539332653644799 -2.3865737868369834 0 -2.3865737868369834 4.3202317048133523 0 0 0 0 12.63335625772379 -67.566498295836936 0 -67.566498295836936 142.83646996409516 0 0 0 0 -425.73547747949488 -81.399550595429901 0 -81.399550595429901 161.01126873111207 0 0 0 0 -21.917695785668911 -11.725304099956702 0 -11.725304099956702 88.32501265058886 0 0 0 0 -4.9957073844595925 -8.2737881505889774 0 -8.2737881505889774 27.430120172649698 0 0 0 0 -34.250635337477433 -8.6635960367202642 0 -8.6635960367202642 95.798272810890921 0 0 0 0 -79.464846277121978 -11.292647197682527 0 -11.292647197682527 74.73630610058899 0 0 0 0 -29.076960235113802 -6.4549623813545622 0 -6.4549623813545622 72.406633178907214 0 0 0 0 -82.037987793155935 -108.28494767008988 0 -108.28494767008988 118.73635008119163 0 0 0 0 -67.720604835958511 -7.4367900210527296 0 -7.4367900210527296 103.13883904314571 0 0 0 0 -202.08205117539183 53.482721931315609 0 53.482721931315609 110.97034750774947 0 0 0 0 -143.4726607682278 1.7957216029135452 0 1.7957216029135452 124.90828306302137 0 0 0 0 -153.65228957288127 99.127576025002782 0 99.127576025002782 97.368276493332814 0 0 0 0 -220.88953424109422 98.975221342734585 0 98.975221342734585 97.412654900370399 0 0 0 0 -204.99773120110331 86.403327932599495 0 86.403327932599495 95.098553235497093 0 0 0 0 -300.31718941096187 23.226408781796636 0 23.226408781796636 121.98957013679683 0 0 0 0 -149.78941525312075 63.399423007013866 0 63.399423007013866 -156.08334185298736 0 0 0 0 -468.49352191790967 218.4175835565984 0 218.4175835565984 37.614950519866397 0 0 0 0 -144.92699962049846 34.144347886717242 0 34.144347886717242 16.527783908211859 0 0 0 0 -159.91100954139256 168.84039550452326 0 168.84039550452326 41.730695639496844 0 0 0 0 -74.270913943641062 123.79199801146024 0 123.79199801146024 51.665185957361246 0 0 0 0 47.310035571470507 12.207536461495692 0 12.207536461495692 47.198851243646459 0 0 0 0 43.692380436330495 110.0583409153769 0 110.0583409153769 23.62804081021568 0 0 0 0 -73.146829758767126 98.659364688737696 0 98.659364688737696 48.716578153289447 0 0 0 0 -56.228025578602683 32.49331930843573 0 32.49331930843573 43.245833176584711 0 0 0 0 1.8353397022124867 -0.50130419253665792 0 -0.50130419253665792 0.25497810668826304 0 0 0 0 22.574796415422497 -28.340277203530604 0 -28.340277203530604 -7.7678265308022674 0 0 0 0 -20.120223563415493 109.13518566335188 0 109.13518566335188 285.32313126648251 0 0 0 0 -50.451537425979041 -69.682299413081637 0 -69.682299413081637 143.84464431473998 0 0 0 0 -93.5991657536415 120.51258226324535 0 120.51258226324535 161.76507890005814 0 0 0 0 95.186428021346728 51.511550258868738 0 51.511550258868738 130.1246677716008 0 0 0 0 -62.156251843410473 -17.752112843263831 0 -17.752112843263831 136.79867703484706 0 0 0 0 -70.76198809307607 7.1310533218857017 0 7.1310533218857017 167.51666364822449 0 0 0 0 -157.20570165827485 -8.0123257237100916 0 -8.0123257237100916 184.62766795228208 0 0 0 0 -46.395520412519545 80.356323856749441 0 80.356323856749441 203.26475681050579 0 0 0 0 -103.38429228174755 -58.855958767013362 0 -58.855958767013362 89.374051482373034 0 0 0 0 -123.03455748453962 -20.305062911775167 0 -20.305062911775167 152.10020894348236 0 0 0 0 -107.08759789706164 -43.358690407481845 0 -43.358690407481845 137.65317381241766 0 0 0 0 -114.76025776357164 -22.037730895881396 0 -22.037730895881396 87.40078561608243 0 0 0 0 -138.1165656065059 -27.684964212530758 0 -27.684964212530758 139.00711777788706 0 0 0 0 -130.72450434509483 -21.556446362079441 0 -21.556446362079441 121.96280252923316 0 0 0 0 -195.72475393618515 5.4636781418557803 0 5.4636781418557803 133.64100144850454 0 0 0 0 -73.920066972196139 -57.636096015839144 0 -57.636096015839144 134.19215423402056 0 0 0 0 -165.32828212935965 0.84219196657068096 0 0.84219196657068096 99.684752032448159 0 0 0 0 0.48583428338385914 9.0874684038187041 0 9.0874684038187041 3.0243582338738406 0 0 0 0 -174.56268611274572 9.8975127983121638 0 9.8975127983121638 138.61233769449973 0 0 0 0 -13.577859961313152 1.7763069345837721 0 1.7763069345837721 78.802517425385304 0 0 0 0 -72.960558603455866 30.88303095197989 0 30.88303095197989 138.94001011387047 0 0 0 0 -48.262923258831506 -18.789252745572412 0 -18.789252745572412 34.523130381150622 0 0 0 0 -26.714636098033225 11.489151518591825 0 11.489151518591825 74.589665922052518 0 0 0 0 -19.554192919327736 2.6150101061633961 0 2.6150101061633961 -1.0864133719131388 0 0 0 0 -28.427772747335439 -1.7459827633192617 0 -1.7459827633192617 229.28632295775242 0 0 0 0 -28.540399226912086 16.489313759496326 0 16.489313759496326 172.1937850457216 0 0 0 0 -35.187522508629627 108.750276861374 0 108.750276861374 327.32819687130905 0 0 0 0 -74.766874708615433 -17.931744821702523 0 -17.931744821702523 87.673205714251935 0 0 0 0 -75.693532365234773 -31.000860103550735 0 -31.000860103550735 50.897586659335502 0 0 0 0 -163.18040570559788 -86.405350984088727 0 -86.405350984088727 111.54432564229774 0 0 0 0 -86.490918796889673 -28.941188060826789 0 -28.941188060826789 83.693324251173181 0 0 0 0 -180.88419830607381 -318.4091414461991 0 -318.4091414461991 -360.48584405476322 0 0 0 0 -3.7204061962637809 0.044859524636947867 0 0.044859524636947867 0.60694144381184145 0 0 0 0 -88.018728231632849 -127.89450912798929 0 -127.89450912798929 -100.10168969062761 0 0 0 0 31.922224835831912 23.869587637507721 0 23.869587637507721 360.51593070711533 0 0 0 0 -11.804165326893227 0.31904885132421157 0 0.31904885132421157 1.6077456376040971 0 0 0 0 219.64397378543799 68.287815905689058 0 68.287815905689058 370.66489813568478 0 0 0 0 -5.0014752102870261 -190.31980310304243 0 -190.31980310304243 242.33140503664617 0 0 0 0 15.625465559041913 41.197247985946888 0 41.197247985946888 536.86068948937827 0 0 0 0 -140.62510174891941 65.235325716990701 0 65.235325716990701 537.58081221695556 0 0 0 0 -219.09019869187523 152.43428583831792 0 152.43428583831792 808.50471542478772 0 0 0 0 -113.98410082612918 145.31642664994183 0 145.31642664994183 192.85369562046981 0 0 0 0 -4.6699962906641304 -147.66796335026447 0 -147.66796335026447 11.941563473286806 0 0 0 0 1.6529535525658048 -1.8906950441913661 0 -1.8906950441913661 1.7079338519481695 0 0 0 0 10.700290074948498 -24.546855212491209 0 -24.546855212491209 -85.204535927914549 0 0 0 0 17.155993128269984 -123.39411603534973 0 -123.39411603534973 32.117424523567024 0 0 0 0 -15.258114931748423 -65.089870878975489 0 -65.089870878975489 33.155695741328486 0 0 0 0 15.258507229428687 -54.345051018040067 0 -54.345051018040067 -41.784559089741379 0 0 0 0 -30.954038778717404 -113.59352437712187 0 -113.59352437712187 267.9622744169028 0 0 0 0 -27.863324043963075 -99.011931550878217 0 -99.011931550878217 148.84949146305553 0 0 0 0 2.9467935458769716 -11.664390875223944 0 -11.664390875223944 -52.928443542998139 0 0 0 0 -9.752230250989669 -61.867649304636871 0 -61.867649304636871 127.47249928091878 0 0 0 0 -38.719848711725717 0.60580488654886722 0 0.60580488654886722 198.6925176424993 0 0 0 0 0.63326485800079624 -0.081595265189029931 0 -0.081595265189029931 0.12394051518013072 0 0 0 0 -76.056353922277594 -76.981895299746611 0 -76.981895299746611 273.43195027860929 0 0 0 0 -59.267778381446533 -31.527751372907005 0 -31.527751372907005 220.88787668738223 0 0 0 0 -32.502724222847064 -67.907469369978571 0 -67.907469369978571 261.59004053809622 0 0 0 0 -66.50554189373679 -40.766516583777047 0 -40.766516583777047 301.37515975434144 0 0 0 0 -104.57654959699357 -47.367725180913112 0 -47.367725180913112 363.03595803823509 0 0 0 0 -71.591198377725959 31.862280334486059 0 31.862280334486059 549.15117310427377 0 0 0 0 -65.994820086862092 -197.03375946830056 0 -197.03375946830056 392.90007153365877 0 0 0 0 -87.480523761422774 -75.436759427675497 0 -75.436759427675497 308.87183447032658 0 0 0 0 -57.41176110166748 -189.96807685382259 0 -189.96807685382259 640.55884149855046 0 0 0 0 464.84195445091245 -138.43910815765048 0 -138.43910815765048 334.4197066638817 0 0 0 0 167.20526022691956 -357.85579283101288 0 -357.85579283101288 730.90891167366499 0 0 0 0 17.935181234111951 14.952201985004649 0 14.952201985004649 66.910866935824743 0 0 0 0 32.451871488579854 48.753780663782891 0 48.753780663782891 203.36486668686121 0 0 0 0 195.47563963657649 272.96833515375056 0 272.96833515375056 470.65387576845387 0 0 0 0 9.3302482030703686 90.473923550562176 0 90.473923550562176 140.15978635416468 0 0 0 0 -57.113527251295636 140.51626977414617 0 140.51626977414617 195.38039086514618 0 0 0 0 -421.86301983858175 -160.06030662373632 0 -160.06030662373632 462.42215330669569 0 0 0 0 -274.88380002214217 -93.499682963705709 0 -93.499682963705709 559.33166995681677 0 0 0 0 -208.98559604362163 -284.00047969824755 0 -284.00047969824755 288.04651358826959 0 0 0 0 -46.574000565820825 -160.22774031274639 0 -160.22774031274639 -75.64750551837642 0 0 0 0 232.42180832440954 -94.398117788285163 0 -94.398117788285163 80.945665043873305 0 0 0 0 246.42221387330937 -127.71825827463726 0 -127.71825827463726 122.60000085649881 0 0 0 0 27.017249142470973 -73.250379636367143 0 -73.250379636367143 113.69242702792326 0 0 0 0 -15.595725362380108 150.2889237590698 0 150.2889237590698 483.28569770124159 0 0 0 0 0.85472015945612956 -1.968983733163526 0 -1.968983733163526 6.6574951329691601 0 0 0 0 856.7786062674495 -183.78559378019236 0 -183.78559378019236 31.995652233134024 0 0 0 0 1.359412162226838 -2.8503599973376481 0 -2.8503599973376481 19.841523705993296 0 0 0 0 5.89889230596782 -11.537153072438741 0 -11.537153072438741 32.32038292731977 0 0 0 0 388.13684574142644 -13.140808555402145 0 -13.140808555402145 16.734958170043683 0 0 0 0 3.115599707295722 2.3085292063165568 0 2.3085292063165568 11.946188938661635 0 0 0 0 -43.533870610276153 -17.731841202241412 0 -17.731841202241412 40.799606670094363 0 0 0 0 44.829116322238406 -42.965956236965212 0 -42.965956236965212 43.386320689616696 0 0 0 0 -18.972191931990892 -13.528361640481307 0 -13.528361640481307 59.450425136594276 0 0 0 0 -15.175247515013325 0.61260520498763071 0 0.61260520498763071 23.368232722459652 0 0 0 0 -51.246660327689824 12.335957492367015 0 12.335957492367015 45.105340952330153 0 0 0 0 -56.422303859904787 -9.0989618886178505 0 -9.0989618886178505 37.540395308169536 0 0 0 0 -30.548851176319658 15.104984480281928 0 15.104984480281928 48.708891996138846 0 0 0 0 -6.4574716128986438 23.998631067073802 0 23.998631067073802 32.502876639824535 0 0 0 0 -3.5849267496397701 -3.4089213882084977 0 -3.4089213882084977 10.527344932645789 0 0 0 0 251.65321917345864 8.6370266563681071 0 8.6370266563681071 69.170234719436849 0 0 0 0 277.43885490563844 125.05412161476124 0 125.05412161476124 79.918983364696032 0 0 0 0 164.01841017212428 -42.194359496570542 0 -42.194359496570542 162.32386378925003 0 0 0 0 184.89531057980275 -125.41001371632592 0 -125.41001371632592 37.226547895184922 0 0 0 0 511.5198365305987 26.966353745170636 0 26.966353745170636 69.844508513378969 0 0 0 0 143.42518669539822 -70.490979484515265 0 -70.490979484515265 -34.544567443525011 0 0 0 0 1.1793970827130247 -6.6554890555292694 0 -6.6554890555292694 47.042539885234248 0 0 0 0 209.6956580501992 -135.55938123119449 0 -135.55938123119449 -56.911854807469354 0 0 0 0 20.548404225417471 6.0771164492489333 0 6.0771164492489333 23.419776082795579 0 0 0 0 160.52965376945394 -128.34059782611075 0 -128.34059782611075 -122.14086054421205 0 0 0 0 175.97513059626772 -70.123207226802151 0 -70.123207226802151 -108.77586904402415 0 0 0 0 32.181261545698362 -19.640010733972304 0 -19.640010733972304 -178.86571208809255 0 0 0 0 125.54231146617167 -136.42164929610226 0 -136.42164929610226 -52.617690534440044 0 0 0 0 147.15017302186607 -96.19886486386531 0 -96.19886486386531 -81.311244142620126 0 0 0 0 181.18046313022205 -45.713697809147561 0 -45.713697809147561 8.8096709741512313 0 0 0 0 117.30019348607675 -96.162380839237812 0 -96.162380839237812 40.932610995150753 0 0 0 0 261.98058857990964 -7.926266968703203 0 -7.926266968703203 0.14017627412249567 0 0 0 0 61.09658497052078 -15.645658924499003 0 -15.645658924499003 -74.408484696752566 0 0 0 0 -227.80928260975088 -36.241229550931166 0 -36.241229550931166 26.949716817729495 0 0 0 0 2.5903630498302981 -3.6974781618526844 0 -3.6974781618526844 3.6189344101971272 0 0 0 0 -2.6264228369982447 -22.031760514364578 0 -22.031760514364578 25.207542444397404 0 0 0 0 -46.197618392795448 -143.83539872915844 0 -143.83539872915844 40.467383818919188 0 0 0 0 -235.09164305603736 -230.4953211797274 0 -230.4953211797274 12.97466360720864 0 0 0 0 -106.9905629314153 -18.109567987916876 0 -18.109567987916876 -95.377442549488478 0 0 0 0 -107.18301014447024 -34.992788865377179 0 -34.992788865377179 261.04426838553991 0 0 0 0 -74.815518778770183 -79.797195862589888 0 -79.797195862589888 314.24453821423958 0 0 0 0 -87.475104120894684 -26.283821059299044 0 -26.283821059299044 250.2803642809522 0 0 0 0 -36.555375558145897 12.615707299668429 0 12.615707299668429 278.2519346116901 0 0 0 0 -1.7614965606953774 -95.764859855053146 0 -95.764859855053146 183.50760267045644 0 0 0 0 -29.671734085723074 -29.262239627123563 0 -29.262239627123563 233.06432723735452 0 0 0 0 116.82653807321185 -191.41962859267369 0 -191.41962859267369 238.23771239609778 0 0 0 0 -3.2285767107478023 -60.99993063943657 0 -60.99993063943657 110.81425140000283 0 0 0 0 53.488009788443378 -121.87964606832611 0 -121.87964606832611 88.289573851136083 0 0 0 0 136.38976953025531 16.133935088051089 0 16.133935088051089 292.18700428986631 0 0 0 0 2.2004563691151162 -2.1553116731485069 0 -2.1553116731485069 0.89768478153960274 0 0 0 0 95.471869722790871 -175.21505017888103 0 -175.21505017888103 -109.75110604242491 0 0 0 0 -30.93268338658163 -80.255597389528702 0 -80.255597389528702 424.072561618701 0 0 0 0 94.885470823578771 -162.7073266671415 0 -162.7073266671415 53.255185537105717 0 0 0 0 1.8901535676831607 -7.4483950442851281 0 -7.4483950442851281 63.954248466570391 0 0 0 0 -111.74823612060936 -99.013100647512147 0 -99.013100647512147 491.09354470006656 0 0 0 0 -99.967292484314385 32.889016322067619 0 32.889016322067619 100.77611091708422 0 0 0 0 -33.843983875273807 -104.76891484772977 0 -104.76891484772977 313.31967949945465 0 0 0 0 16.214470059025189 -75.419822273563113 0 -75.419822273563113 329.05735206616737 0 0 0 0 -0.15671285975290772 0.009729717472865218 0 0.009729717472865218 1.3680637556877286 0 0 0 0 -29.799317962665555 -108.09340931530278 0 -108.09340931530278 -228.14191900429068 0 0 0 0 -54.687194044716307 -30.322681915182329 0 -30.322681915182329 68.81997253278405 0 0 0 0 -43.336512208683416 21.432316155147419 0 21.432316155147419 61.943731703373032 0 0 0 0 -29.327315696363257 8.1783286250611127 0 8.1783286250611127 58.242611638503149 0 0 0 0 -54.799418924667179 14.670588912090807 0 14.670588912090807 65.392974279660848 0 0 0 0 -48.68130857153119 12.110322121367062 0 12.110322121367062 64.250602991870437 0 0 0 0 -50.506339821577058 6.7646695660914702 0 6.7646695660914702 58.346533653340884 0 0 0 0 -3.5890714331399067 49.121213203532534 0 49.121213203532534 4.9952078837322915 0 0 0 0 -3.5240069094260207 43.454139743221518 0 43.454139743221518 118.04753698525019 0 0 0 0 -21.498457095065532 -1.8393579625335406 0 -1.8393579625335406 57.929518944816664 0 0 0 0 -26.310782696113165 28.982927260847646 0 28.982927260847646 117.74706108682585 0 0 0 0 -34.652154543971847 -9.9168264829713735 0 -9.9168264829713735 145.98050877358401 0 0 0 0 -39.059644734232279 -9.6208088237945049 0 -9.6208088237945049 97.946710376863848 0 0 0 0 -37.637749461075146 -10.664794772688765 0 -10.664794772688765 97.626220036523591 0 0 0 0 -36.696516153548828 -4.8847772443500617 0 -4.8847772443500617 60.837440107803559 0 0 0 0 -47.121184651256044 -26.92913568322183 0 -26.92913568322183 102.10544592709994 0 0 0 0 -45.809612551020109 -20.443181180129613 0 -20.443181180129613 105.8093323117846 0 0 0 0 -42.474682088988629 -30.875597532973188 0 -30.875597532973188 97.43378969461628 0 0 0 0 -43.937611488946459 -13.670692077404965 0 -13.670692077404965 84.154539175469836 0 0 0 0 -32.36581930414809 -11.408518830887715 0 -11.408518830887715 50.654482249643479 0 0 0 0 -41.577900236310597 -41.518546334944403 0 -41.518546334944403 62.55789941684634 0 0 0 0 -21.786778428711841 -34.409359345574558 0 -34.409359345574558 8.1638242728295154 0 0 0 0 -46.913820339765152 -42.081312408527083 0 -42.081312408527083 15.956199135929637 0 0 0 0 -36.218461698332703 -17.195295880831964 0 -17.195295880831964 -55.290449575106322 0 0 0 0 -37.564923746895147 -92.957327652080494 0 -92.957327652080494 -97.231093137088465 0 0 0 0 -7.5766187982371775 -7.1313110580558714 0 -7.1313110580558714 0.23035119617998134 0 0 0 0 0.57498021044863634 -0.33038787157033056 0 -0.33038787157033056 0.33339081861896602 0 0 0 0 15.457814167162724 -85.693169941958331 0 -85.693169941958331 -54.041941608054913 0 0 0 0 -14.520433978417714 -58.682725694310648 0 -58.682725694310648 -40.212351811492226 0 0 0 0 1.9601809266229822 -0.90354874124686901 0 -0.90354874124686901 -0.82179802884234476 0 0 0 0 -28.69454921981378 -49.469728429441602 0 -49.469728429441602 -41.486113346167258 0 0 0 0 -34.704809033279162 -38.956094267545268 0 -38.956094267545268 -52.038582203371334 0 0 0 0 -48.278486854931543 -0.77980563342498499 0 -0.77980563342498499 -74.24000307186725 0 0 0 0 10.075604183955875 -38.62545389999832 0 -38.62545389999832 -77.388131206011167 0 0 0 0 -10.312027135267272 -7.2902758016862208 0 -7.2902758016862208 -85.21491513653018 0 0 0 0 -57.363976766602718 -20.72183656296329 0 -20.72183656296329 -88.440267839666376 0 0 0 0 -18.362109022335062 -13.250753535227886 0 -13.250753535227886 -97.65591978316661 0 0 0 0 -96.836233327668197 -122.01361762678789 0 -122.01361762678789 -104.0792447577478 0 0 0 0 -68.327859746004833 -10.771703267215344 0 -10.771703267215344 -73.610878244940977 0 0 0 0 0.69323385455091824 0.41955449032235137 0 0.41955449032235137 -0.53531385461986503 0 0 0 0 -26.224478847849241 31.751507702036179 0 31.751507702036179 275.57459454299533 0 0 0 0 -0.26100001626036828 21.328862349490919 0 21.328862349490919 241.59258172589762 0 0 0 0 1.3898901316254353 -0.15212618683101553 0 -0.15212618683101553 -0.52742367340290031 0 0 0 0 -31.28577061192118 -27.058740745727846 0 -27.058740745727846 -104.19454261032661 0 0 0 0 -17.660412861503573 30.96200599822987 0 30.96200599822987 187.72566848767019 0 0 0 0 0.77298972628742035 0.069018501816213274 0 0.069018501816213274 -0.40791992600259164 0 0 0 0 3.6945844330571163 4.8386854413502078 0 4.8386854413502078 -4.2127899509414419 0 0 0 0 9.7977672430606617 -18.210689338331576 0 -18.210689338331576 7.0374377925863882 0 0 0 0 -27.656825647618462 19.125474361529996 0 19.125474361529996 167.03367487646028 0 0 0 0 -24.320741143357736 -17.623964648203582 0 -17.623964648203582 167.9439471548103 0 0 0 0 -34.544788136419811 -7.9365924746671226 0 -7.9365924746671226 182.45496864252164 0 0 0 0 -24.026561128473986 -22.048662887948012 0 -22.048662887948012 220.09145518241166 0 0 0 0 10.560070432384236 -40.468211061055626 0 -40.468211061055626 180.94326841567454 0 0 0 0 -15.925986694606763 -27.984279378253632 0 -27.984279378253632 177.81831376883929 0 0 0 0 -23.643619942949044 -42.770186296449538 0 -42.770186296449538 171.81196758571605 0 0 0 0 -37.151329879830882 -26.596976916011045 0 -26.596976916011045 185.52270394331026 0 0 0 0 -27.968715015376802 -5.2041464501853625 0 -5.2041464501853625 240.59904751967258 0 0 0 0 8.4156863460812019 0.61267144885823654 0 0.61267144885823654 215.1692906702574 0 0 0 0 -28.77266925134245 -38.364164666547367 0 -38.364164666547367 188.46515577172249 0 0 0 0 -8.3947920229293231 -34.80267084346815 0 -34.80267084346815 172.28195228179356 0 0 0 0 -14.629879952475676 -50.70131091415351 0 -50.70131091415351 166.9830166453703 0 0 0 0 -17.370021090824139 -42.381964575174152 0 -42.381964575174152 154.7173435170771 0 0 0 0 -16.782878482292745 -40.390876317196899 0 -40.390876317196899 143.99872957610569 0 0 0 0 -25.091898600727291 -30.570898647005379 0 -30.570898647005379 149.14193979747506 0 0 0 0 -25.255913190736464 -33.571331268449285 0 -33.571331268449285 145.73864689331822 0 0 0 0 -43.652488391180668 -16.40781747906658 0 -16.40781747906658 151.75172804865724 0 0 0 0 -38.604646550753387 -29.710804428483243 0 -29.710804428483243 159.7544026977921 0 0 0 0 -39.451470053809317 -24.202487927039328 0 -24.202487927039328 159.56582038684792 0 0 0 0 -48.272358201531461 -24.892582319178473 0 -24.892582319178473 166.4698836172247 0 0 0 0 -49.79037320646421 -27.6740795857595 0 -27.6740795857595 167.95817429728777 0 0 0 0 -46.276980631666447 -34.316479702774814 0 -34.316479702774814 167.28584443557338 0 0 0 0 -31.720997868011182 -34.068143069296639 0 -34.068143069296639 164.99906398383428 0 0 0 0 -34.952550271809741 -38.687566520544351 0 -38.687566520544351 167.4941998950344 0 0 0 0 -37.431765842211462 -31.893503177918319 0 -31.893503177918319 161.1084720626186 0 0 0 0 -37.266233951853792 -24.529982858726726 0 -24.529982858726726 161.35469609100619 0 0 0 0 -43.49915669526672 -38.130203078564591 0 -38.130203078564591 170.37373774219304 0 0 0 0 -48.547197236159263 -29.248021299656102 0 -29.248021299656102 165.60996343033548 0 0 0 0 -55.09462721339878 -29.398933792610478 0 -29.398933792610478 167.15685423328978 0 0 0 0 -49.526093471038621 -31.884771887784154 0 -31.884771887784154 159.81942687655101 0 0 0 0 -53.354016221826896 -30.95690171145543 0 -30.95690171145543 160.18496194743784 0 0 0 0 -46.290061283092655 -22.120054451519536 0 -22.120054451519536 139.03725216171006 0 0 0 0 -48.328828207318111 -23.790253941277115 0 -23.790253941277115 138.41733452676999 0 0 0 0 -41.714415835369437 -5.4120952846733417 0 -5.4120952846733417 149.15113119752641 0 0 0 0 -46.534464189398761 -30.838608867962478 0 -30.838608867962478 157.29936323689617 0 0 0 0 -9.5458758420081722 -33.181802304934536 0 -33.181802304934536 75.047911842499161 0 0 0 0 -50.640536849547516 -26.763277194107786 0 -26.763277194107786 144.30297093893387 0 0 0 0 -41.562705093333534 -42.636879181038239 0 -42.636879181038239 138.8895713240745 0 0 0 0 -51.715812860595179 -32.066846445886767 0 -32.066846445886767 139.40464790657279 0 0 0 0 -51.157970323532936 -26.077090366012271 0 -26.077090366012271 140.77003023822272 0 0 0 0 -51.835580827788363 -34.749597963560518 0 -34.749597963560518 158.53782053430768 0 0 0 0 -53.927102764386291 -28.723628164274487 0 -28.723628164274487 162.18844042546698 0 0 0 0 -49.095083359878117 -40.889306649049104 0 -40.889306649049104 160.8182747412684 0 0 0 0 -58.145708953623398 -27.815188397995371 0 -27.815188397995371 184.44574309731979 0 0 0 0 -54.020857061630522 -17.771763691205706 0 -17.771763691205706 179.57667149629924 0 0 0 0 -54.496123003711546 -30.61826321612898 0 -30.61826321612898 167.24766240496274 0 0 0 0 -55.375316211171594 -26.478319613092026 0 -26.478319613092026 175.15777553483349 0 0 0 0 -58.234429190910305 -31.42026705446915 0 -31.42026705446915 168.29201429658497 0 0 0 0 -53.792825901433389 -20.802134773464786 0 -20.802134773464786 173.39638478802408 0 0 0 0 -51.401002493246779 -20.381301023897322 0 -20.381301023897322 165.57829463259986 0 0 0 0 -54.722972689607559 -19.846907375886076 0 -19.846907375886076 174.91203413408948 0 0 0 0 -53.236665040054504 -8.9504738979339891 0 -8.9504738979339891 176.55593245487762 0 0 0 0 -44.179829162007081 -16.234971430181758 0 -16.234971430181758 165.36702313808541 0 0 0 0 -49.899769478197413 -7.9918643947148666 0 -7.9918643947148666 153.52462146561447 0 0 0 0 -60.153526771759061 1.1390159976326686 0 1.1390159976326686 208.41877463143283 0 0 0 0 -55.565875291057637 1.6688414354512133 0 1.6688414354512133 155.15042510953936 0 0 0 0 -42.146942942064925 -18.944166260014754 0 -18.944166260014754 192.9508479324686 0 0 0 0 -54.80627658418598 -49.624453946184076 0 -49.624453946184076 380.27101712559488 0 0 0 0 60.183644381913837 110.2386492978876 0 110.2386492978876 213.85469460050444 0 0 0 0 -49.464137224568731 -25.916094121841525 0 -25.916094121841525 191.88958006167013 0 0 0 0 2.2596826629227893 -3.1209843216323057 0 -3.1209843216323057 0.7736102316587008 0 0 0 0 42.937064967221886 -32.697765549166434 0 -32.697765549166434 16.870304314461009 0 0 0 0 86.602850369898078 -131.0733116704323 0 -131.0733116704323 117.70458975939619 0 0 0 0 37.366885491235735 -95.075501118264583 0 -95.075501118264583 130.44528455789805 0 0 0 0 -13.071393422258552 -28.792119352052396 0 -28.792119352052396 80.040024470785283 0 0 0 0 -48.622997119243337 -46.306497813116721 0 -46.306497813116721 212.77377309361691 0 0 0 0 -63.688589610950658 68.047230823584869 0 68.047230823584869 71.524506405657576 0 0 0 0 -4.4658203951923312 4.8481283985501022 0 4.8481283985501022 82.210736406039885 0 0 0 0 -123.6868100606298 9.5770775013961611 0 9.5770775013961611 175.07913848708449 0 0 0 0 -106.35115521396801 -43.075650328364645 0 -43.075650328364645 321.46107122244484 0 0 0 0 163.42610697336909 166.8353406856022 0 166.8353406856022 93.884678589083705 0 0 0 0 -101.21403256276426 61.489922005019707 0 61.489922005019707 75.419207417799953 0 0 0 0 -109.97527017553148 2.6536641373386374 0 2.6536641373386374 152.22078266996959 0 0 0 0 -101.78392135288414 -30.828656827254235 0 -30.828656827254235 102.61132260015074 0 0 0 0 -100.83820276164624 -41.824675688623756 0 -41.824675688623756 180.76868275306151 0 0 0 0 -108.13921079555075 -69.269659010051328 0 -69.269659010051328 119.92566501439251 0 0 0 0 -127.82234972533888 -7.5300378706435822 0 -7.5300378706435822 148.25850138304668 0 0 0 0 -24.902672951451336 -8.9732085965620172 0 -8.9732085965620172 59.817271062143845 0 0 0 0 -101.35385289694659 -8.8424589921401093 0 -8.8424589921401093 134.0761751843911 0 0 0 0 -1.5292211593591745 5.330949544243115 0 5.330949544243115 87.792101740426602 0 0 0 0 -0.36573909633504709 5.5303850923812208 0 5.5303850923812208 15.555602456572018 0 0 0 0 -60.549449506781912 102.28059701529037 0 102.28059701529037 86.704795317105891 0 0 0 0 -18.947203446753974 -17.35488225088784 0 -17.35488225088784 100.50317555451511 0 0 0 0 -1.2137771902205712 -10.597063295456756 0 -10.597063295456756 44.623037574920787 0 0 0 0 7.8936931724183523 4.2115103432588512 0 4.2115103432588512 63.126728672058562 0 0 0 0 2.5451876920252356 -20.936334935655967 0 -20.936334935655967 66.343388037926289 0 0 0 0 19.547979300416955 -11.279839975220966 0 -11.279839975220966 7.9124502421122997 0 0 0 0 -17.395766901675415 -11.163050970695622 0 -11.163050970695622 36.358169017919863 0 0 0 0 -3.2182950677475377 -13.845002830877618 0 -13.845002830877618 68.405793257009108 0 0 0 0 -34.506070919842387 -105.9373621664372 0 -105.9373621664372 -1.8714406366898402 0 0 0 0 -63.565688174232491 -9.8425808214906283 0 -9.8425808214906283 134.20945080248566 0 0 0 0 -8.6061744834012508 -6.6821841740029448 0 -6.6821841740029448 18.748680999689405 0 0 0 0 -10.294000724617945 -18.15101137430247 0 -18.15101137430247 42.095767969880399 0 0 0 0 -17.048585188418656 -31.725644735814058 0 -31.725644735814058 78.655836297752103 0 0 0 0 -14.250145483638335 -36.304152663120476 0 -36.304152663120476 73.784746778786939 0 0 0 0 21.891898577573556 -9.5482430084994121 0 -9.5482430084994121 43.769549915625248 0 0 0 0 -19.16302494006959 13.769314057413794 0 13.769314057413794 47.468002835837979 0 0 0 0 -26.689797024058066 4.7725714034652356 0 4.7725714034652356 69.021686336440325 0 0 0 0 5.5886531572850799 12.962517289868629 0 12.962517289868629 27.665100784437982 0 0 0 0 -18.882019144288279 4.3031436063720321 0 4.3031436063720321 87.265328105586377 0 0 0 0 0.34420965773891155 0.43785165061995457 0 0.43785165061995457 7.8597181020430043 0 0 0 0 -6.7071063757521188 -7.1719003966009041 0 -7.1719003966009041 75.18758721269478 0 0 0 0 -14.061865349343861 -33.158872689904456 0 -33.158872689904456 -18.486843491220498 0 0 0 0 -3.6115230130708369 13.291514804666804 0 13.291514804666804 66.570661788755388 0 0 0 0 -1.1421920945049351 -37.677817859224888 0 -37.677817859224888 -24.157091139892145 0 0 0 0 -26.27735193695662 -27.103061658977822 0 -27.103061658977822 -20.059869727632758 0 0 0 0 -46.241235932111522 -43.116478179847036 0 -43.116478179847036 29.516329915468305 0 0 0 0 -22.726705192945701 -0.45083503122987167 0 -0.45083503122987167 18.665018707553827 0 0 0 0 -67.343651190416495 -64.028170529487397 0 -64.028170529487397 -26.281101092819881 0 0 0 0 14.254669609261327 2.4435576051364478 0 2.4435576051364478 1.0438693137439259 0 0 0 0 1.6784385280678116 -0.60912370385836212 0 -0.60912370385836212 -0.84742250890425908 0 0 0 0 -42.444343917200513 -14.84474771197074 0 -14.84474771197074 305.02261626884865 0 0 0 0 -18.619754557054875 -28.410746296049183 0 -28.410746296049183 -113.23656698793638 0 0 0 0 -10.213885184879473 -158.00625784507065 0 -158.00625784507065 -149.40516927947101 0 0 0 0 3.6511746586174922 -113.53861483144647 0 -113.53861483144647 410.05055104161147 0 0 0 0 1.100103178010702 0.38655697373989995 0 0.38655697373989995 -0.7352958814774837 0 0 0 0 31.033083620859543 -97.252278833719174 0 -97.252278833719174 278.40350678733648 0 0 0 0 79.494260972295706 -6.6884304482473453 0 -6.6884304482473453 258.64843620616011 0 0 0 0 37.561900573201456 -43.573661212889419 0 -43.573661212889419 185.56008694708726 0 0 0 0 4.9706785368744022 -57.960448472760618 0 -57.960448472760618 233.61387298968111 0 0 0 0 -35.617116135756078 -62.387967949402082 0 -62.387967949402082 260.51295054121147 0 0 0 0 -33.32408001395379 11.421651202756038 0 11.421651202756038 176.47088001122984 0 0 0 0 -5.5754714080749181 -45.335882080431475 0 -45.335882080431475 154.49493303437339 0 0 0 0 0.98416155109771353 -0.76330565233001835 0 -0.76330565233001835 237.40299908462748 0 0 0 0 -22.562834817566909 -84.144604850807809 0 -84.144604850807809 254.33683361276599 0 0 0 0 -20.12562888697903 -49.243228538325639 0 -49.243228538325639 446.65564687321603 0 0 0 0 -18.400827177100837 -101.50375685770814 0 -101.50375685770814 295.30443522971473 0 0 0 0 -73.192252933366035 -130.81610130464833 0 -130.81610130464833 288.00104984183236 0 0 0 0 -59.146218916797807 -32.15822222765928 0 -32.15822222765928 54.565014714040444 0 0 0 0 -31.991788966185595 -175.41930768209568 0 -175.41930768209568 16.379348523907538 0 0 0 0 -9.1010486862578546 -26.375714701523975 0 -26.375714701523975 -31.305770050174033 0 0 0 0 0.64832338347988472 -6.5691964676753294 0 -6.5691964676753294 5.0353078328176792 0 0 0 0 90.170911775190689 -143.61922747255903 0 -143.61922747255903 153.24574341270636 0 0 0 0 -17.076193390790309 -101.91256487216651 0 -101.91256487216651 164.29477795089042 0 0 0 0 -12.41161429665587 -76.608927541555545 0 -76.608927541555545 111.96996214897808 0 0 0 0 -14.519580596577725 -106.2985542523711 0 -106.2985542523711 228.40636201129382 0 0 0 0 8.7336778234994092 -32.958648280341428 0 -32.958648280341428 88.847121076037027 0 0 0 0 -1.4474109976563341 -44.217430502183106 0 -44.217430502183106 152.79247270023052 0 0 0 0 -0.36621984978928523 -10.823337101419019 0 -10.823337101419019 13.819157564654363 0 0 0 0 -193.25923523046913 131.59193500621768 0 131.59193500621768 78.530718026155228 0 0 0 0 -53.054078349676274 3.0112717606730257 0 3.0112717606730257 148.98725484822262 0 0 0 0 -41.647647942521871 32.716064297193043 0 32.716064297193043 11.347730273761044 0 0 0 0 -7.1982686439105805 11.75566475597341 0 11.75566475597341 9.3204222109156873 0 0 0 0 -286.31053907518526 -42.6822327211014 0 -42.6822327211014 181.62555319746207 0 0 0 0 -77.351163442482175 42.249490116946617 0 42.249490116946617 133.03079406888537 0 0 0 0 -18.517984805425346 8.3765914113486275 0 8.3765914113486275 88.120576587260615 0 0 0 0 -22.47090785765613 94.485034167782032 0 94.485034167782032 123.33710656822586 0 0 0 0 19.460035428109222 -63.938487694904325 0 -63.938487694904325 187.36881728249864 0 0 0 0 -24.231415327891227 -25.334373946323467 0 -25.334373946323467 180.74362914640005 0 0 0 0 -4.6564577705712509 -12.649592640736955 0 -12.649592640736955 81.583666945973164 0 0 0 0 -70.66080959834818 -26.711930496051082 0 -26.711930496051082 137.55119325523265 0 0 0 0 52.646355063909141 -89.456929240797308 0 -89.456929240797308 6.2003952486680873 0 0 0 0 -34.347248222053167 -371.78130093917821 0 -371.78130093917821 377.76930681422891 0 0 0 0 76.107109769025556 16.702818467396128 0 16.702818467396128 123.18434788766444 0 0 0 0 13.318396636761463 -29.388851041300768 0 -29.388851041300768 310.90883389067039 0 0 0 0 -5.530959222225647 8.0173173202729231 0 8.0173173202729231 -0.6635556628843915 0 0 0 0 -1.1207475943574536 -0.63788848579258683 0 -0.63788848579258683 3.5849993829106097 0 0 0 0 1.8232029130079894 -7.0902563940796313 0 -7.0902563940796313 -2.3175279729985241 0 0 0 0 0.12485915278921311 -6.6841289633453016 0 -6.6841289633453016 23.853967433861271 0 0 0 0 85.969835728486942 -192.09914481136593 0 -192.09914481136593 211.3974421686961 0 0 0 0 -1.7684264381874044 0.67864521401805078 0 0.67864521401805078 6.4888065413053972 0 0 0 0 18.492064200436744 -31.208079466972421 0 -31.208079466972421 134.68640826048249 0 0 0 0 37.83455803792458 -67.909985655775927 0 -67.909985655775927 101.8491048756116 0 0 0 0 -47.265560011138405 -23.341828439758643 0 -23.341828439758643 180.05067693885201 0 0 0 0 4.892900839053496 -6.8252244165361162 0 -6.8252244165361162 5.2920088464476853 0 0 0 0 -50.0470468639096 75.648827485225411 0 75.648827485225411 60.5271578963293 0 0 0 0 -54.154639922109709 27.56650651196469 0 27.56650651196469 99.506713618415233 0 0 0 0 -23.760202696966285 8.2151149041970193 0 8.2151149041970193 81.883379445806355 0 0 0 0 10.308170931563005 -17.066862381673936 0 -17.066862381673936 58.45252565621832 0 0 0 0 -34.342343035011254 18.927399539485577 0 18.927399539485577 90.565956060298049 0 0 0 0 -11.007870657127569 4.7816634851751587 0 4.7816634851751587 67.940608120770776 0 0 0 0 -29.176144429798192 7.0858458946222456 0 7.0858458946222456 15.943541178555904 0 0 0 0 -18.97422605835618 24.656473225042646 0 24.656473225042646 112.28048488284549 0 0 0 0 -23.91439869065016 -7.9600556715759012 0 -7.9600556715759012 192.66374706363422 0 0 0 0 20.558242866398359 0.22185991626611212 0 0.22185991626611212 93.744254791170533 0 0 0 0 -23.955348967107057 13.934090122125781 0 13.934090122125781 152.46138979914451 0 0 0 0 -10.636144313049044 3.2819766632801475 0 3.2819766632801475 40.869549034432566 0 0 0 0 -2.5171377186998143 -46.709847608513428 0 -46.709847608513428 132.27291409546615 0 0 0 0 -8.2961884128289967 -2.1783303673819319 0 -2.1783303673819319 75.029127942265404 0 0 0 0 25.540005158169151 -28.820669546172212 0 -28.820669546172212 28.700562235999314 0 0 0 0 5.9207743287025387 -2.7895196342226303 0 -2.7895196342226303 -2.6234912838440767 0 0 0 0 48.093574751970664 -11.935201154200968 0 -11.935201154200968 -19.481395194178276 0 0 0 0 63.058302090374127 -33.511941886412842 0 -33.511941886412842 24.701748558406052 0 0 0 0 -15.603239663923887 4.290753082183528 0 4.290753082183528 39.563069983350715 0 0 0 0 -3.0386868324985699 -10.895579240200391 0 -10.895579240200391 29.449220614340902 0 0 0 0 2.1265894239080438 -1.4942519835050483 0 -1.4942519835050483 3.7072203634291476 0 0 0 0 1.6621691314849159 -2.8957404428122118 0 -2.8957404428122118 12.422461038551319 0 0 0 0 0.016325745310542317 -8.3335922970477778 0 -8.3335922970477778 8.3275710903822642 0 0 0 0 -9.4966988602973288 -23.417679212762096 0 -23.417679212762096 34.46739340204897 0 0 0 0 -4.3232379595605224 -8.24542347467019 0 -8.24542347467019 1.5798052664409261 0 0 0 0 7.2443294820859592 -24.170182350759319 0 -24.170182350759319 5.278033225847139 0 0 0 0 -4.7351317896482215 -12.249658310918676 0 -12.249658310918676 9.24787345646223 0 0 0 0 15.669803795575717 -5.0276744079666287 0 -5.0276744079666287 -12.960195079973346 0 0 0 0 -0.90133967562724138 -14.10254271354097 0 -14.10254271354097 15.079057866108315 0 0 0 0 -1.3227873766666036 -7.5021621080496947 0 -7.5021621080496947 -1.1555557926292908 0 0 0 0 -8.0142602059204364 -25.829582420772113 0 -25.829582420772113 3.981876141392604 0 0 0 0 40.955883428354355 -58.76993692183305 0 -58.76993692183305 -36.3342939977274 0 0 0 0 -61.836878219473874 26.812403317007011 0 26.812403317007011 15.066302723478202 0 0 0 0 -1.8571836472315582 0.63063561854814232 0 0.63063561854814232 2.5150988789173185 0 0 0 0 -9.3849666225437431 -23.912536296816768 0 -23.912536296816768 13.071186961873536 0 0 0 0 -17.551203220828029 -28.181913836787317 0 -28.181913836787317 18.46788522186398 0 0 0 0 -15.814805815985892 -48.005666693952662 0 -48.005666693952662 2.3983504179650481 0 0 0 0 21.779337329127884 -32.857526329305074 0 -32.857526329305074 4.8347010896659413 0 0 0 0 21.025013637575967 -24.164173446738914 0 -24.164173446738914 -20.572857064476921 0 0 0 0 48.014398922685359 -48.815428691144007 0 -48.815428691144007 293.61227987954771 0 0 0 0 295.3614233793669 12.666749270236323 0 12.666749270236323 356.87453137546436 0 0 0 0 137.0917969869115 -181.09523660875129 0 -181.09523660875129 456.85655915275049 0 0 0 0 1.0672639752992836 -373.8670602117304 0 -373.8670602117304 547.1636541732878 0 0 0 0 93.656694076824351 -147.57936497787705 0 -147.57936497787705 107.51795302629762 0 0 0 0 32.554707073839381 -64.840393432486962 0 -64.840393432486962 7.1861879044517991 0 0 0 0 -78.484778458296205 -340.60134681153704 0 -340.60134681153704 562.2215066600711 0 0 0 0 -139.63314842264663 -7.1162748701790406 0 -7.1162748701790406 79.507535247848864 0 0 0 0 -159.42743894683372 -141.270742128856 0 -141.270742128856 229.66751605475656 0 0 0 0 128.17764245257422 -6.3139992319374869 0 -6.3139992319374869 404.04888433841734 0 0 0 0 174.68511955888243 -138.41312114649372 0 -138.41312114649372 737.06278360565557 0 0 0 0 -9.5875720707263099 -24.377106534720951 0 -24.377106534720951 443.76178007263866 0 0 0 0 -20.391212677448493 -20.021508974472454 0 -20.021508974472454 -8.8958566301363362 0 0 0 0 2.5426957292972681 -0.36263651713316136 0 -0.36263651713316136 0.097068699568350958 0 0 0 0 8.1756600394037378 12.111694454619283 0 12.111694454619283 -28.775960086939449 0 0 0 0 6.2506742472105543 6.4966611826002918 0 6.4966611826002918 -5.296695434940375 0 0 0 0 22.287490662492928 -5.2025844450854493 0 -5.2025844450854493 -45.445672815740181 0 0 0 0 -11.050158425561676 -22.264505754601487 0 -22.264505754601487 441.48226063906623 0 0 0 0 -8.9297516677106614 29.616530029190471 0 29.616530029190471 315.41894428047272 0 0 0 0 -9.7071692458157486 45.892372324658936 0 45.892372324658936 159.01980832186655 0 0 0 0 -14.979048063192749 -47.512296757112381 0 -47.512296757112381 246.78915497326943 0 0 0 0 32.920976023426192 -87.312607714048681 0 -87.312607714048681 230.47582697470307 0 0 0 0 -18.143403942900477 -47.161099704228945 0 -47.161099704228945 253.05621782295748 0 0 0 0 30.958458235697435 -71.267877255224221 0 -71.267877255224221 223.01486780386222 0 0 0 0 63.67492126282923 -105.48696196628362 0 -105.48696196628362 242.94757042740275 0 0 0 0 4.3103210257468163 -92.407681208609574 0 -92.407681208609574 330.00027103633215 0 0 0 0 -6.9350753758008068 -56.999697386746448 0 -56.999697386746448 208.11730759570673 0 0 0 0 11.68214499676651 -8.352268652922703 0 -8.352268652922703 421.00487232245723 0 0 0 0 48.435784682529629 2.7031958555589881 0 2.7031958555589881 74.549931069648665 0 0 0 0 146.93340127984084 -127.92250210829798 0 -127.92250210829798 257.91866670099262 0 0 0 0 179.48183920614611 -48.357732611120809 0 -48.357732611120809 154.17468253643801 0 0 0 0 56.011021137735952 -133.77340184315199 0 -133.77340184315199 344.84863647937163 0 0 0 0 68.307778795471677 -16.632558615876405 0 -16.632558615876405 116.1401035857416 0 0 0 0 85.851361247958266 -94.397017762929863 0 -94.397017762929863 175.70739806888832 0 0 0 0 5.1232821777666686 -14.486046000480201 0 -14.486046000480201 165.35827491148666 0 0 0 0 24.157274659653922 -47.825711528436841 0 -47.825711528436841 96.013539860772653 0 0 0 0 -25.165005025261053 -45.415908355421834 0 -45.415908355421834 143.05454920243574 0 0 0 0 2.4681025095051154 29.578114818813447 0 29.578114818813447 73.991638840450378 0 0 0 0 -123.40209165860324 -15.168672374929884 0 -15.168672374929884 124.53401437796492 0 0 0 0 35.245001723591486 -31.474085509194992 0 -31.474085509194992 140.27476429232411 0 0 0 0 22.302673448983114 32.916391458667931 0 32.916391458667931 114.93836607227558 0 0 0 0 15.14535289988271 -15.333619404081219 0 -15.333619404081219 101.10005473338606 0 0 0 0 16.355720313889833 -8.1799338825630912 0 -8.1799338825630912 168.32066040440804 0 0 0 0 26.056203037875093 4.2105518272023801 0 4.2105518272023801 177.51887026486838 0 0 0 0 46.551917141930971 -49.815886214074453 0 -49.815886214074453 198.41879472634719 0 0 0 0 42.878497290799714 -32.513467170504555 0 -32.513467170504555 133.82103977918723 0 0 0 0 -2.4444563807037412 -3.5935754308611649 0 -3.5935754308611649 229.30448970946509 0 0 0 0 -7.155077227911903 -49.68862102692119 0 -49.68862102692119 243.92761082987727 0 0 0 0 -26.760200484876805 -14.872377780167199 0 -14.872377780167199 177.66387773858514 0 0 0 0 -15.550980529462322 -65.015823116660613 0 -65.015823116660613 226.67254135236453 0 0 0 0 20.718441136630645 -101.29947729958349 0 -101.29947729958349 181.40077146293697 0 0 0 0 -1.839959636633921 -23.699350245981464 0 -23.699350245981464 247.34626435923747 0 0 0 0 4.9809566327749053 -29.36288049536779 0 -29.36288049536779 317.459351002787 0 0 0 0 75.637954428673766 -64.642390337234247 0 -64.642390337234247 263.81008359521365 0 0 0 0 3.7072334160161446 -3.7559990731144506 0 -3.7559990731144506 1.1556445566471654 0 0 0 0 66.875092848391432 -40.468760774770089 0 -40.468760774770089 -293.79958447445688 0 0 0 0 -73.143979767822657 198.36425096895687 0 198.36425096895687 358.32052213056977 0 0 0 0 120.60662553635848 -366.28785619765131 0 -366.28785619765131 555.92386101912371 0 0 0 0 -35.652110734879898 -198.03904175443404 0 -198.03904175443404 120.40324714547612 0 0 0 0 -37.066214006609698 -211.189211658555 0 -211.189211658555 190.02907838758983 0 0 0 0 0.1544120294364717 -5.0220805122025478 0 -5.0220805122025478 -1.4476962447219059 0 0 0 0 260.80595891933262 -387.58675780816066 0 -387.58675780816066 154.94149938215014 0 0 0 0 78.859752941034458 -63.906864658962149 0 -63.906864658962149 -262.7150980331819 0 0 0 0 -171.48824913687349 85.024264279722956 0 85.024264279722956 505.05339457484388 0 0 0 0 -79.375311254998451 -166.29310881596666 0 -166.29310881596666 272.82693163374643 0 0 0 0 -136.05177612201214 -24.512181532755562 0 -24.512181532755562 274.54274014970542 0 0 0 0 -102.0710131120577 59.324747702085915 0 59.324747702085915 209.94858561652472 0 0 0 0 -159.96980124633046 30.808659601488216 0 30.808659601488216 195.93227002011827 0 0 0 0 91.252343778396607 208.70748731955746 0 208.70748731955746 182.30148890336295 0 0 0 0 27.485746905937049 -0.24379091123182661 0 -0.24379091123182661 -26.436725120770461 0 0 0 0 -105.46000362581071 64.032462659683461 0 64.032462659683461 93.669169821333071 0 0 0 0 -67.611023152255257 129.02280070528241 0 129.02280070528241 51.379939201921388 0 0 0 0 -45.527987901710731 67.785800306165584 0 67.785800306165584 -55.821502951117964 0 0 0 0 -37.543090109701097 -110.38562384529268 0 -110.38562384529268 348.18092969487043 0 0 0 0 3.1916456106465958 3.137873206712066 0 3.137873206712066 4.3194668005759524 0 0 0 0 107.05610857680807 40.055765148306335 0 40.055765148306335 8.8921701268145625 0 0 0 0 1.7522508763158839 -4.7408926251396224 0 -4.7408926251396224 22.122769328218851 0 0 0 0 5.8131627947959572 10.348239790280083 0 10.348239790280083 14.601782096186184 0 0 0 0 -8.8760861024725273 6.0420138124211462 0 6.0420138124211462 23.053937280615173 0 0 0 0 11.617433717829044 30.262793685960787 0 30.262793685960787 23.282403156837063 0 0 0 0 -18.462685749544107 -16.486131708044923 0 -16.486131708044923 7.2116999991444573 0 0 0 0 -16.894564567729304 -0.91595250189776323 0 -0.91595250189776323 21.867256238508794 0 0 0 0 -9.0777074984935098 22.08319458807091 0 22.08319458807091 51.556353786960244 0 0 0 0 -16.266450750335625 -3.0400905878236486 0 -3.0400905878236486 22.736001519233085 0 0 0 0 -32.110650991875445 30.277080733582352 0 30.277080733582352 51.708291931512996 0 0 0 0 -20.838874833477576 -6.2682853768642417 0 -6.2682853768642417 4.3659596180586959 0 0 0 0 -29.849384387555006 -22.748723294458159 0 -22.748723294458159 21.484431714892708 0 0 0 0 -44.747117462221922 -8.0293113028712924 0 -8.0293113028712924 100.74821380622143 0 0 0 0 -2.5983258118516588 -1.0955454037511636 0 -1.0955454037511636 13.0571925119461 0 0 0 0 -117.15076973460236 64.490455523570972 0 64.490455523570972 118.04042376908001 0 0 0 0 -47.483317323101801 79.000984587155017 0 79.000984587155017 -32.673481345619507 0 0 0 0 -56.40704632800589 -29.662344758988638 0 -29.662344758988638 119.19359939404964 0 0 0 0 -53.412532027149609 -2.6379836608941787 0 -2.6379836608941787 54.704364920009539 0 0 0 0 -52.207844332830973 -23.632377070349889 0 -23.632377070349889 83.594144829347897 0 0 0 0 43.122688389479663 71.154599613923892 0 71.154599613923892 167.21351488414041 0 0 0 0 33.878609883309764 -126.88500287268198 0 -126.88500287268198 206.3006539247981 0 0 0 0 32.132030386336737 -78.69093098044641 0 -78.69093098044641 46.904302769992682 0 0 0 0 -15.740776757796311 -15.312251106024092 0 -15.312251106024092 -19.662737911828572 0 0 0 0 -15.801399191676605 -5.6311911620760284 0 -5.6311911620760284 22.948888076272311 0 0 0 0 -25.908306971967022 -50.252713502796098 0 -50.252713502796098 46.2856608934826 0 0 0 0 -43.034723768059848 12.175862066563241 0 12.175862066563241 30.228001905445126 0 0 0 0 -1.4718955815437873 1.087169774450004 0 1.087169774450004 7.3838228654812035 0 0 0 0 -11.458485438769788 -7.1402670678631619 0 -7.1402670678631619 3.4239537986917457 0 0 0 0 -9.2530952291563153 -6.9181385792412584 0 -6.9181385792412584 20.035389148331888 0 0 0 0 -6.4245402631286517 -6.0024970210613073 0 -6.0024970210613073 12.549784526309537 0 0 0 0 -16.796687798580933 -24.714666384666998 0 -24.714666384666998 15.116752608384559 0 0 0 0 -15.230119603774597 -13.25434945508573 0 -13.25434945508573 17.473457623320428 0 0 0 0 -27.135045133389212 -20.695223174656348 0 -20.695223174656348 21.126101381540366 0 0 0 0 -43.866547346926836 -29.029378882428318 0 -29.029378882428318 22.095502588588715 0 0 0 0 -22.601848923387479 -32.845059379001214 0 -32.845059379001214 7.4658013031785231 0 0 0 0 -11.485923373559217 -17.869530413428038 0 -17.869530413428038 15.336608059686114 0 0 0 0 7.6697887306672783 -12.138075497242426 0 -12.138075497242426 12.793227608384768 0 0 0 0 -6.7535124224996252 -21.604490476880528 0 -21.604490476880528 15.447249084638315 0 0 0 0 12.945389574496403 -12.807761668828789 0 -12.807761668828789 13.456414407784905 0 0 0 0 -14.58065645458737 -27.732267133864298 0 -27.732267133864298 34.4503446486342 0 0 0 0 -7.1330122023400691 -19.086088849594944 0 -19.086088849594944 33.582629208383878 0 0 0 0 -33.3187821926781 -40.3195280023333 0 -40.3195280023333 130.62464786156488 0 0 0 0 6.6706785447518087 -41.703364477295509 0 -41.703364477295509 64.389890628237481 0 0 0 0 3.283455776959272 -22.781598567940819 0 -22.781598567940819 60.448747083901253 0 0 0 0 -61.725545583758503 2.3209035448990107 0 2.3209035448990107 67.716280682463321 0 0 0 0 -56.493407849355208 5.3263647245657921 0 5.3263647245657921 33.743623906821085 0 0 0 0 -46.801389608801401 -33.003955356291044 0 -33.003955356291044 72.183008451792603 0 0 0 0 -55.394137481607231 -16.702303470133302 0 -16.702303470133302 44.080466404073377 0 0 0 0 -70.478967632111562 -23.145397029013111 0 -23.145397029013111 45.580589038005201 0 0 0 0 -30.859788876485254 -6.3954283901966846 0 -6.3954283901966846 7.7652035675558722 0 0 0 0 -31.948061860307462 -29.93011499365457 0 -29.93011499365457 14.743973420160728 0 0 0 0 -17.163600231679993 -5.9206407113906607 0 -5.9206407113906607 19.867061179299071 0 0 0 0 -14.866842363165233 2.8215005341462529 0 2.8215005341462529 24.936136584346968 0 0 0 0 3.7819960306186893 5.1888244301767319 0 5.1888244301767319 7.9289195746271055 0 0 0 0 -9.877914573874591 13.224255062172915 0 13.224255062172915 19.65512672513978 0 0 0 0 -58.913194484243832 -13.164256684142856 0 -13.164256684142856 50.910293933919093 0 0 0 0 -45.826403324037528 17.19796611894435 0 17.19796611894435 15.544704111989631 0 0 0 0 2.8188128985668115 3.4386817326255485 0 3.4386817326255485 3.5300004982212627 0 0 0 0 -79.953816902263497 53.705320981476689 0 53.705320981476689 1.2737079749990698 0 0 0 0 2.5039315787019873 -57.833120453523378 0 -57.833120453523378 201.77802808590241 0 0 0 0 2.7499289788825081 -76.738447540337802 0 -76.738447540337802 268.33166899534535 0 0 0 0 8.8230729123342826 -69.562874067245502 0 -69.562874067245502 240.87305577396637 0 0 0 0 8.2589433617804389 -63.499596589940666 0 -63.499596589940666 178.43955880258636 0 0 0 0 14.348617329713761 -28.847772445782539 0 -28.847772445782539 222.12178976346877 0 0 0 0 18.707278112201038 -187.41685011748814 0 -187.41685011748814 534.5549008924836 0 0 0 0 0.96235088307060934 1.1259891982769474 0 1.1259891982769474 1.4139884084910648 0 0 0 0 -89.592340917144611 120.33513130360643 0 120.33513130360643 291.21141330253886 0 0 0 0 -97.500884945839516 116.67282298064811 0 116.67282298064811 335.80562764228489 0 0 0 0 -32.308159345484 91.833278238006187 0 91.833278238006187 86.993461635533095 0 0 0 0 -43.099089942361843 69.897124554177481 0 69.897124554177481 261.23388010079907 0 0 0 0 -62.863689622179663 169.50462985362537 0 169.50462985362537 -92.070056662081697 0 0 0 0 -88.486360380150018 8.8013270162219897 0 8.8013270162219897 47.687161726917111 0 0 0 0 -72.067387407920705 154.40368983606186 0 154.40368983606186 228.63284468362144 0 0 0 0 -22.570133619617991 -171.07560800168358 0 -171.07560800168358 588.51361661005285 0 0 0 0 79.285318168168487 -253.31516653746166 0 -253.31516653746166 374.52326576717587 0 0 0 0 101.89259114677316 -220.88132574839119 0 -220.88132574839119 373.22248178687641 0 0 0 0 -22.632505041146942 -179.27410513141331 0 -179.27410513141331 396.86163415982082 0 0 0 0 22.388541358823204 -105.02456675102439 0 -105.02456675102439 446.71242492938291 0 0 0 0 -10.213393070620441 -22.069596648520019 0 -22.069596648520019 268.40876001778634 0 0 0 0 52.550242293845258 -51.357691625787083 0 -51.357691625787083 279.12292992634138 0 0 0 0 46.50563574113994 -25.094543551436232 0 -25.094543551436232 241.17732319877905 0 0 0 0 -18.910786586794529 -19.920942068411932 0 -19.920942068411932 285.28593583813858 0 0 0 0 264.72644587693776 -153.76902631469466 0 -153.76902631469466 287.69354456877954 0 0 0 0 18.927824845656687 -114.13410644215492 0 -114.13410644215492 281.31448777958849 0 0 0 0 65.295349322574111 35.32079165772484 0 35.32079165772484 521.514681338022 0 0 0 0 -43.494914396068452 -42.345988083911834 0 -42.345988083911834 355.37073827169525 0 0 0 0 -43.235719289698864 -46.734814056722826 0 -46.734814056722826 231.17300360570971 0 0 0 0 -5.5758893823776816 22.43795153611336 0 22.43795153611336 218.13759212215791 0 0 0 0 -9.0718790437722419 36.446145823640563 0 36.446145823640563 682.36621526038198 0 0 0 0 1.8693698317940761 -1.4453252970498589 0 -1.4453252970498589 1.2624437433183502 0 0 0 0 59.592634978492242 -130.73996832633111 0 -130.73996832633111 -0.12975214891048381 0 0 0 0 -9.6603539508009817 61.593940982791082 0 61.593940982791082 39.069348775283288 0 0 0 0 -63.80902618204118 -0.30997315748959409 0 -0.30997315748959409 15.066160381523332 0 0 0 0 8.6435584413320612 2.4142819362073169 0 2.4142819362073169 122.2407251537943 0 0 0 0 6.9020304947930526 -14.746736087172849 0 -14.746736087172849 170.4868431176983 0 0 0 0 2.6548378721607264 -3.4743969954930094 0 -3.4743969954930094 6.1137391655397941 0 0 0 0 -8.667976027354598 -7.5354271621727094 0 -7.5354271621727094 10.505074114716081 0 0 0 0 -6.3458821029800072 -1.6229518499950224 0 -1.6229518499950224 13.245374717362381 0 0 0 0 -6.8132752297282213 -0.47144953294022596 0 -0.47144953294022596 5.8747769593893224 0 0 0 0 -6.5883841777927046 5.9601832807766186 0 5.9601832807766186 12.42731777046879 0 0 0 0 -7.2915595214290079 -4.834710050628928 0 -4.834710050628928 10.062819194095937 0 0 0 0 -2.4137823814530748 10.213863406541122 0 10.213863406541122 -13.024846220052495 0 0 0 0 -0.61044973843956285 -0.18863567135787029 0 -0.18863567135787029 -0.16436572755256762 0 0 0 0 -70.24252163643996 6.0876550652201331 0 6.0876550652201331 9.2526479008156457 0 0 0 0 19.411256111694456 22.205658357418088 0 22.205658357418088 133.83129719637327 0 0 0 0 0.6231397990705414 -0.71267941174551197 0 -0.71267941174551197 -0.35634015699665156 0 0 0 0 55.641571027670579 30.029184141115365 0 30.029184141115365 -8.3489955094516972 0 0 0 0 9.4929818995656206 -131.37996358129431 0 -131.37996358129431 54.94746992279579 0 0 0 0 -47.646149375533696 -106.30077430502251 0 -106.30077430502251 436.80407965725408 0 0 0 0 6.0680870824235171 -2.1172110032011915 0 -2.1172110032011915 -0.55409674943530263 0 0 0 0 37.374582104671163 -26.599865996387052 0 -26.599865996387052 3.7562001880014577 0 0 0 0 -5.4466550402830762 52.796081893232895 0 52.796081893232895 24.919822090779235 0 0 0 0 -38.217253284039543 -24.087202982875624 0 -24.087202982875624 2.7781627052008844 0 0 0 0 -15.01403849412236 11.923353286237216 0 11.923353286237216 -37.357192872022097 0 0 0 0 -42.92448853615133 36.629294350809687 0 36.629294350809687 -6.9155527065165643 0 0 0 0 1.2056540621765635 -2.3409029747315344 0 -2.3409029747315344 1.7174603630592173 0 0 0 0 0.36859788231959101 -5.627542257553614 0 -5.627542257553614 -10.91624838941334 0 0 0 0 -0.70990347994335679 -0.43241802097357995 0 -0.43241802097357995 0.96465171413726125 0 0 0 0 24.275850684931356 7.1847651917710209 0 7.1847651917710209 -39.084038653953712 0 0 0 0 -12.02453345797403 -23.105942133359349 0 -23.105942133359349 -3.6645152912494723 0 0 0 0 -8.5128861761659209 -14.170912131699424 0 -14.170912131699424 13.64844764854297 0 0 0 0 -4.8167749146149212 -2.0028662755411801 0 -2.0028662755411801 0.42776734432792285 0 0 0 0 61.222122391017365 -0.51644058182318986 0 -0.51644058182318986 -106.37963511902581 0 0 0 0 -1.6491494857299145 -0.27531994739922716 0 -0.27531994739922716 -0.18621902790457856 0 0 0 0 -33.622822440126583 40.849268346667031 0 40.849268346667031 -6.9320432836348118 0 0 0 0 -55.359943527593259 32.133237139687708 0 32.133237139687708 6.7401267749901308 0 0 0 0 -7.4226568708995728 -7.1800569418642226 0 -7.1800569418642226 14.401103234073162 0 0 0 0 -6.8118807166038096 -6.2910358280032597 0 -6.2910358280032597 11.184769534770112 0 0 0 0 -4.8243351654309663 -6.6840585586191992 0 -6.6840585586191992 10.487702982277483 0 0 0 0 -0.17800906362835356 -4.1042644143261651 0 -4.1042644143261651 5.5759404586608596 0 0 0 0 -42.00786144929134 -32.287760051212445 0 -32.287760051212445 41.987945427404611 0 0 0 0 -1.3938572614429159 -0.3556814308719396 0 -0.3556814308719396 -0.55768270575577716 0 0 0 0 -21.182084645017312 -1.5213851763426192 0 -1.5213851763426192 35.762293565301661 0 0 0 0 -4.6763930263488156 -6.3530655197532147 0 -6.3530655197532147 -2.9125865751176434 0 0 0 0 20.696768629080907 34.707080554886033 0 34.707080554886033 -53.736199386446515 0 0 0 0 134.27605039288756 -34.084736440555389 0 -34.084736440555389 42.521964161171127 0 0 0 0 -4.1321629302874499 48.888875287337896 0 48.888875287337896 215.94750290216962 0 0 0 0 82.940449990062916 -130.21989546632267 0 -130.21989546632267 206.86494689440553 0 0 0 0 -16.222623250016568 6.8524901956286612 0 6.8524901956286612 96.371250828996381 0 0 0 0 5.4657126426582181 -55.625553162108645 0 -55.625553162108645 146.25061809287217 0 0 0 0 13.502867434377549 -89.315875444171979 0 -89.315875444171979 8.9900996474343629 0 0 0 0 -26.973043070904168 -40.560206091595091 0 -40.560206091595091 162.93294485295337 0 0 0 0 7.4537987175130063 -37.993732015294945 0 -37.993732015294945 19.697931300432245 0 0 0 0 1.3631907107828471 -9.6929036355599791 0 -9.6929036355599791 7.3167989316626496 0 0 0 0 0.087394211033736013 -36.324629110059995 0 -36.324629110059995 10.323494170001997 0 0 0 0 -45.547478692758887 13.833703899190823 0 13.833703899190823 237.93577416597645 0 0 0 0 9.4240467350464314 10.777719170953787 0 10.777719170953787 236.16609146892006 0 0 0 0 0.25374800568043199 0.65887750213277307 0 0.65887750213277307 12.635109712860901 0 0 0 0 -17.400869014580167 -109.89776435825661 0 -109.89776435825661 14.599834896673201 0 0 0 0 92.846598665386409 -3.6323333139798706 0 -3.6323333139798706 78.201226082479479 0 0 0 0 -39.150360980322148 38.189226020038404 0 38.189226020038404 63.600985172127366 0 0 0 0 16.967176307077807 -89.064717864169097 0 -89.064717864169097 127.52088687622745 0 0 0 0 -37.110316809869062 -39.120833452135024 0 -39.120833452135024 83.36444386007679 0 0 0 0 27.192746111561974 16.78190464036561 0 16.78190464036561 105.82444602090686 0 0 0 0 54.110036247376229 -181.00976981419444 0 -181.00976981419444 172.46978646150546 0 0 0 0 152.08548544407313 85.770698168581475 0 85.770698168581475 15.157541081298405 0 0 0 0 -8.0833637662653928 6.3612338494058349 0 6.3612338494058349 55.965254891489167 0 0 0 0 96.925494685750891 -22.746639586805031 0 -22.746639586805031 -45.087535254604518 0 0 0 0 -59.948018682869588 -14.728097428482215 0 -14.728097428482215 95.91792210683343 0 0 0 0 5.6093834138810053 -23.526617460796842 0 -23.526617460796842 37.441939048014319 0 0 0 0 -44.179960506564385 -49.245906437878148 0 -49.245906437878148 52.940789938673333 0 0 0 0 -6.662968462101162 46.465508264352422 0 46.465508264352422 140.83406042346178 0 0 0 0 -28.784665758350457 -8.6211992869612004 0 -8.6211992869612004 90.918060570744274 0 0 0 0 -47.72078344786496 -3.9786554110323777 0 -3.9786554110323777 152.04273068360635 0 0 0 0 -49.463942345239047 14.077120781759731 0 14.077120781759731 133.5222851610306 0 0 0 0 -39.471796799778531 -10.790358012643992 0 -10.790358012643992 152.30631149550027 0 0 0 0 -47.407137946094736 2.6125931897395276 0 2.6125931897395276 135.50759828167793 0 0 0 0 -31.405574238549889 -8.1003441668799496 0 -8.1003441668799496 124.39616591199592 0 0 0 0 -36.973782987570303 -3.1190576099033933 0 -3.1190576099033933 121.24716127237116 0 0 0 0 -18.800304331427469 -7.8629451114575204 0 -7.8629451114575204 98.847772962850286 0 0 0 0 -32.913298746514556 -4.4222071609638078 0 -4.4222071609638078 101.62554320005438 0 0 0 0 -31.015760542231874 -13.767616040689973 0 -13.767616040689973 81.58754583656264 0 0 0 0 -23.001314909091889 -6.1918455584163894 0 -6.1918455584163894 78.406111214877455 0 0 0 0 -19.27238397221663 -17.505210953033384 0 -17.505210953033384 100.96717286968487 0 0 0 0 -6.7165085990491207 -19.973981097362412 0 -19.973981097362412 88.948335354456503 0 0 0 0 -38.323568505980802 -23.610293208406802 0 -23.610293208406802 86.123755563305167 0 0 0 0 -53.064986308505468 6.5253914509376045 0 6.5253914509376045 96.251772197309037 0 0 0 0 -87.661354583808134 -17.09310163291957 0 -17.09310163291957 86.647075982316892 0 0 0 0 43.457204508118593 -80.419471509625509 0 -80.419471509625509 352.5614208449731 0 0 0 0 69.620866015383399 -11.528958471184524 0 -11.528958471184524 33.252440635344101 0 0 0 0 -20.179527256688743 71.190651927010549 0 71.190651927010549 240.55803656505668 0 0 0 0 -52.315150486232596 9.1124516733252676 0 9.1124516733252676 65.654171898895584 0 0 0 0 -65.659527450301539 58.035404899811738 0 58.035404899811738 179.5389409623931 0 0 0 0 -23.429766614732216 -3.3772853299014969 0 -3.3772853299014969 45.069682360466686 0 0 0 0 -2.5003444238827797 -33.022562366735656 0 -33.022562366735656 34.343866197363241 0 0 0 0 -5.3744913839181123 -34.241511986149405 0 -34.241511986149405 4.3407648685019495 0 0 0 0 -77.172379454877955 62.698353237643914 0 62.698353237643914 182.95291098730468 0 0 0 0 -12.512101889667974 -29.229061487392755 0 -29.229061487392755 65.78125974541399 0 0 0 0 -12.86689747000537 -28.040773478482606 0 -28.040773478482606 94.67082506539009 0 0 0 0 -6.785800233570626 -37.656198927885271 0 -37.656198927885271 80.089022904397098 0 0 0 0 -123.97837918881305 1.3475954724563053 0 1.3475954724563053 156.59368811463017 0 0 0 0 -11.259484572667134 8.7076532672635949 0 8.7076532672635949 156.46218529362886 0 0 0 0 20.310867889062138 -30.087589871885399 0 -30.087589871885399 19.012592426553439 0 0 0 0 -2.4821096648430512 -21.181938529019593 0 -21.181938529019593 8.0464997814043215 0 0 0 0 -2.3032673245616024 -86.80455514373898 0 -86.80455514373898 83.183442568260944 0 0 0 0 -10.938192666326358 -102.65289137808577 0 -102.65289137808577 146.54356607332011 0 0 0 0 -4.066596847207208 -12.744291055757962 0 -12.744291055757962 5.1374776454960127 0 0 0 0 -8.4490681450843113 -35.981384604325285 0 -35.981384604325285 145.59601837603145 0 0 0 0 -8.1527947322701948 -37.750241477618147 0 -37.750241477618147 133.51483304868088 0 0 0 0 -10.313401242545297 -29.631501997499072 0 -29.631501997499072 165.32551005395362 0 0 0 0 8.5494499800988706 -22.95883314709863 0 -22.95883314709863 104.22963840205921 0 0 0 0 -4.9172062767629541 -27.759538233491185 0 -27.759538233491185 109.12425229228393 0 0 0 0 -5.3524779729050351 -19.631523128373374 0 -19.631523128373374 104.47559500548959 0 0 0 0 6.9654540049982643 -37.505904631944986 0 -37.505904631944986 112.33731847882154 0 0 0 0 -16.614155701125128 -22.729104211026424 0 -22.729104211026424 122.43523733627262 0 0 0 0 -6.8792598638247 -30.4498299413317 0 -30.4498299413317 124.08692908778175 0 0 0 0 -14.790155015540222 -16.684735567094322 0 -16.684735567094322 118.21704402989781 0 0 0 0 -15.734169032963109 -16.091977594616765 0 -16.091977594616765 117.91701293262304 0 0 0 0 -12.411188696985846 -29.311027794927213 0 -29.311027794927213 132.62304930274695 0 0 0 0 -29.645489948245086 -12.319982436052669 0 -12.319982436052669 134.18451979276142 0 0 0 0 -29.193883069888216 -23.531272718689252 0 -23.531272718689252 141.18392414172558 0 0 0 0 -27.995067942145397 -20.275763868372451 0 -20.275763868372451 146.73436451989801 0 0 0 0 -36.188522849170113 -9.9607807083884836 0 -9.9607807083884836 133.77199380929233 0 0 0 0 -15.673290381795596 -33.073360071899515 0 -33.073360071899515 134.19004318996303 0 0 0 0 -11.66605184542459 -41.453824645746863 0 -41.453824645746863 144.19128478530183 0 0 0 0 -5.0052548759267665 -41.713386480196277 0 -41.713386480196277 135.01215811098155 0 0 0 0 -13.054306086161887 -37.17525521692005 0 -37.17525521692005 139.27591215031862 0 0 0 0 8.74950600779448 -54.379444142332432 0 -54.379444142332432 70.321305074721749 0 0 0 0 -3.3202014025901008 -34.066560143711285 0 -34.066560143711285 108.80577690816153 0 0 0 0 -8.8681070536567859 -67.380201651205425 0 -67.380201651205425 147.93918324246079 0 0 0 0 1.7953030581336407 -20.704484036301512 0 -20.704484036301512 -0.82836576597240719 0 0 0 0 -3.7536460718429225 -36.950402252083677 0 -36.950402252083677 58.366553272376677 0 0 0 0 -7.3267263566394831 -38.996305105762076 0 -38.996305105762076 131.97005319130039 0 0 0 0 1.6841469956558512 -30.657089797346355 0 -30.657089797346355 39.157167603375285 0 0 0 0 -0.83182172194005943 -44.008573240854332 0 -44.008573240854332 72.132732098421172 0 0 0 0 -16.457654830169304 -30.058700623605887 0 -30.058700623605887 87.142513679013064 0 0 0 0 -24.057049340126468 -40.804125457083728 0 -40.804125457083728 74.559803539563291 0 0 0 0 9.6055546181405589 -55.805591735408484 0 -55.805591735408484 82.271360571513469 0 0 0 0 0.19567186584390583 -66.074671156360182 0 -66.074671156360182 100.89084049209896 0 0 0 0 42.610812516426449 -67.515428717981649 0 -67.515428717981649 86.213695133247711 0 0 0 0 129.8933444565846 -82.037685977957153 0 -82.037685977957153 57.042251962100863 0 0 0 0 0.031562163489029516 0.56786371591836549 0 0.56786371591836549 12.501982226485479 0 0 0 0 -3.2028156707556263 -33.441652384324129 0 -33.441652384324129 45.89682742882087 0 0 0 0 61.592768059127593 -37.325306542618819 0 -37.325306542618819 -12.354592057951777 0 0 0 0 40.589129476992639 63.618374085931919 0 63.618374085931919 -144.77467496815188 0 0 0 0 -55.555148686949906 33.934295538568676 0 33.934295538568676 54.75636965343972 0 0 0 0 -1.9703799485009128 -2.7749787539431754 0 -2.7749787539431754 23.372949037519447 0 0 0 0 37.755448586834063 -27.605696157711833 0 -27.605696157711833 28.392271256610485 0 0 0 0 27.988933448090393 -60.448619696274974 0 -60.448619696274974 70.613940243027798 0 0 0 0 12.17684554603602 -29.195746415507013 0 -29.195746415507013 36.944057319077274 0 0 0 0 -9.813858168050956 -37.368083323371138 0 -37.368083323371138 8.5868811936579732 0 0 0 0 -27.271673960777527 -36.391548250517694 0 -36.391548250517694 12.603010217395079 0 0 0 0 -27.404680680075899 -57.052058018822436 0 -57.052058018822436 60.349161780508439 0 0 0 0 -7.3223826635997193 -9.1994413662715644 0 -9.1994413662715644 -1.5670285922931839 0 0 0 0 -9.7385719474167374 -12.986435207902563 0 -12.986435207902563 76.984798280324526 0 0 0 0 -119.76417234426799 -22.741642984646205 0 -22.741642984646205 139.32494236194179 0 0 0 0 -95.42512410051404 7.1788676147025399 0 7.1788676147025399 153.39847528978862 0 0 0 0 -3.0828423497805488 16.1008298144734 0 16.1008298144734 101.38129027374816 0 0 0 0 -161.12454689884089 57.221449702883774 0 57.221449702883774 87.071480206330307 0 0 0 0 -4.0033103659509521 -3.2768590160311177 0 -3.2768590160311177 7.2524205367267456 0 0 0 0 -47.343934381175131 0.49114104230466182 0 0.49114104230466182 31.309985132726069 0 0 0 0 -47.079403662171444 -8.9601462924838415 0 -8.9601462924838415 45.156879415963914 0 0 0 0 -41.688595404503516 -0.088636470011955737 0 -0.088636470011955737 21.764179124606176 0 0 0 0 -43.213149819776845 10.238302345420379 0 10.238302345420379 80.880210104391153 0 0 0 0 1.8390595700875565 -27.574934403079141 0 -27.574934403079141 75.146629257859203 0 0 0 0 -22.909599187710526 -9.8324808665762227 0 -9.8324808665762227 59.51431669154907 0 0 0 0 5.54798910244849 -23.235316896058237 0 -23.235316896058237 5.3516171115178297 0 0 0 0 1.2638408859256742 34.397575279118428 0 34.397575279118428 -10.112133085308415 0 0 0 0 46.364373551502922 -85.520001022817269 0 -85.520001022817269 71.695990580497892 0 0 0 0 -19.085182922268359 -53.472684546359233 0 -53.472684546359233 114.19467220459455 0 0 0 0 37.684894809286561 -35.318755104250158 0 -35.318755104250158 -11.690305243357216 0 0 0 0 -1.5796632318911179 -47.564495918017883 0 -47.564495918017883 115.6446712918405 0 0 0 0 1.8398726895738946 -26.786336564249901 0 -26.786336564249901 72.821226803927004 0 0 0 0 -22.163194212544113 -20.938127612566177 0 -20.938127612566177 72.563417604585737 0 0 0 0 -16.685858869260528 -6.4437887161215173 0 -6.4437887161215173 65.235464575754449 0 0 0 0 -43.477807566137926 -2.2709427827239779 0 -2.2709427827239779 82.997242403092969 0 0 0 0 -19.118989498402016 -32.423757768298401 0 -32.423757768298401 76.863926508420263 0 0 0 0 -63.819213194708936 4.6295584321660499 0 4.6295584321660499 71.362259014225856 0 0 0 0 -41.914232588896084 -4.4492948242950661 0 -4.4492948242950661 57.01443434175053 0 0 0 0 -32.226721268833671 -28.621444711619461 0 -28.621444711619461 74.645506604556431 0 0 0 0 -49.052062565151573 -23.387166143591458 0 -23.387166143591458 92.116381824664245 0 0 0 0 -46.27359476094216 -31.029788600230859 0 -31.029788600230859 104.96763125320103 0 0 0 0 -11.178929361602513 -13.264474813148809 0 -13.264474813148809 63.913897690741578 0 0 0 0 -17.150902457898155 -11.340942880859075 0 -11.340942880859075 92.962879955482208 0 0 0 0 76.845515747717855 -92.067462552558027 0 -92.067462552558027 46.054184664171771 0 0 0 0 23.756480164260665 -48.848737341671949 0 -48.848737341671949 15.317542159031291 0 0 0 0 -8.2039422082998499 -91.692474252454303 0 -91.692474252454303 124.71259753216509 0 0 0 0 -26.774449546715459 8.6695675947612472 0 8.6695675947612472 138.04325887087543 0 0 0 0 -0.82186284114841968 0.39645852182154684 0 0.39645852182154684 -0.1772366092957256 0 0 0 0 -74.003296332401305 -37.777813960149615 0 -37.777813960149615 83.777045603985243 0 0 0 0 -56.607454401827283 5.8247025822865908 0 5.8247025822865908 35.142242882811843 0 0 0 0 0.56667361402924143 -11.361495694782207 0 -11.361495694782207 23.553095840446986 0 0 0 0 -2.901472382220561 -20.38668006074181 0 -20.38668006074181 41.370848951370135 0 0 0 0 -2.2866068086991618 -82.518406580200462 0 -82.518406580200462 149.12970133359158 0 0 0 0 19.88522889140711 -26.910093922548867 0 -26.910093922548867 72.537320877512684 0 0 0 0 -10.607341418660781 -29.398320202197283 0 -29.398320202197283 118.96217735991195 0 0 0 0 -13.554352259758051 -6.1156069316812758 0 -6.1156069316812758 73.370441613403329 0 0 0 0 0.084495270448956994 -3.4521103554831143 0 -3.4521103554831143 10.114495660438941 0 0 0 0 20.329875472642016 -55.646173888293561 0 -55.646173888293561 100.93621236673062 0 0 0 0 -3.4836917954380286 -9.5201048734779405 0 -9.5201048734779405 55.673391088344701 0 0 0 0 -13.789875303407825 -11.598718295890649 0 -11.598718295890649 40.900725872126714 0 0 0 0 -8.4834400611708389 -17.667161520478459 0 -17.667161520478459 67.305544664592702 0 0 0 0 12.461056645000781 20.337807344576959 0 20.337807344576959 65.046359555861272 0 0 0 0 -7.7551545530359363 -10.11863064525096 0 -10.11863064525096 39.382014479190275 0 0 0 0 0.97843120921584159 41.241787121890866 0 41.241787121890866 65.213133541248681 0 0 0 0 2.6346432729900267 -2.1878128635415948 0 -2.1878128635415948 11.184196365055804 0 0 0 0 10.753697704061324 20.951700355572029 0 20.951700355572029 40.802347924429341 0 0 0 0 -2.2926438239451272 43.052352032545969 0 43.052352032545969 59.405880441021509 0 0 0 0 28.463695884946446 49.629654251227748 0 49.629654251227748 86.243320589581344 0 0 0 0 41.004776752773978 49.545118961923436 0 49.545118961923436 84.72397406345226 0 0 0 0 -4.9471891201110338 -0.77796459736237011 0 -0.77796459736237011 21.477721426043445 0 0 0 0 3.4207765983351885 -2.3687975829158923 0 -2.3687975829158923 1.3051479214786212 0 0 0 0 2.81607364798856 -28.702669888139781 0 -28.702669888139781 -34.905718614154466 0 0 0 0 5.1042181287675703 -16.745481874765574 0 -16.745481874765574 2.7192831043093975 0 0 0 0 0.86394812812605437 -0.76218908319827605 0 -0.76218908319827605 0.94049397984509397 0 0 0 0 43.04767413629952 17.014123580494925 0 17.014123580494925 -1.5256598634850889 0 0 0 0 38.091896626433481 68.891208338680372 0 68.891208338680372 195.68734080433023 0 0 0 0 49.730237108007998 -74.454054432559531 0 -74.454054432559531 -129.40326383027787 0 0 0 0 -93.963502070049344 -64.221657733295615 0 -64.221657733295615 2.2385596127260214 0 0 0 0 -31.12669625614808 -27.859624075976171 0 -27.859624075976171 12.781987670105082 0 0 0 0 30.807420798617841 -183.55110681807992 0 -183.55110681807992 192.00871464339707 0 0 0 0 7.3538901127440113 12.593968279082219 0 12.593968279082219 89.919767156231501 0 0 0 0 -0.32157752194175782 -1.3512507355445518 0 -1.3512507355445518 4.7138080248793131 0 0 0 0 386.1112593286598 -321.45312455303474 0 -321.45312455303474 179.02418255008251 0 0 0 0 46.647840220658509 -94.501551196351329 0 -94.501551196351329 104.7015071881624 0 0 0 0 118.70614629223292 -77.120384166993972 0 -77.120384166993972 101.63417039419346 0 0 0 0 -6.3863831028875211 -81.810399239418757 0 -81.810399239418757 141.79282219052493 0 0 0 0 -114.93437544603148 -42.489773109614362 0 -42.489773109614362 133.89559422769833 0 0 0 0 -46.846263935578463 -42.917848742961269 0 -42.917848742961269 107.3889999671652 0 0 0 0 -38.369653773779191 31.20455006396503 0 31.20455006396503 120.25598618753611 0 0 0 0 -37.122391263337704 -18.513561556332661 0 -18.513561556332661 81.637459281802421 0 0 0 0 -4.6857635583902351 3.1334423742580206 0 3.1334423742580206 14.886456291907642 0 0 0 0 -84.677687684663397 -44.117601214707065 0 -44.117601214707065 49.392352915759147 0 0 0 0 -85.878361353998116 15.849935081503645 0 15.849935081503645 56.066434318565371 0 0 0 0 -5.4660188702400774 -2.7308639173315896 0 -2.7308639173315896 57.800860695926985 0 0 0 0 -12.887755677761062 -1.2535277379692822 0 -1.2535277379692822 44.831949108238312 0 0 0 0 -91.862314412102478 -36.234898208946788 0 -36.234898208946788 114.68176072721508 0 0 0 0 -90.206760291774117 22.055386770814948 0 22.055386770814948 115.66665835238477 0 0 0 0 -206.75199991235513 156.79092897365035 0 156.79092897365035 -39.022828542450952 0 0 0 0 1.8025678469075501 -149.45050010057116 0 -149.45050010057116 -68.62980041814626 0 0 0 0 -28.871043936715068 -170.67196805614003 0 -170.67196805614003 -19.953597501894365 0 0 0 0 -3.0410303197669464 -0.7857129755354908 0 -0.7857129755354908 0.58907334919149967 0 0 0 0 -9.6343479630896969 7.9439567397733999 0 7.9439567397733999 75.159230100963214 0 0 0 0 -41.276942396761342 38.863679805038373 0 38.863679805038373 72.422686135230833 0 0 0 0 -104.19987415903415 -18.777050996806793 0 -18.777050996806793 127.2311057512361 0 0 0 0 -5.6773767282159682 -9.1220458464458005 0 -9.1220458464458005 19.117533247420269 0 0 0 0 -45.622883143721083 20.869175377636566 0 20.869175377636566 78.222313415139979 0 0 0 0 -357.11934154540268 -35.3352222016415 0 -35.3352222016415 129.50927191770097 0 0 0 0 -31.007691330958551 -36.260972886921991 0 -36.260972886921991 -67.012704179072287 0 0 0 0 48.062771762857665 220.93623835274502 0 220.93623835274502 252.03142916055094 0 0 0 0 -20.192848392764972 255.94906601553657 0 255.94906601553657 -2.9920521024396294 0 0 0 0 76.788951432724389 100.79338951505179 0 100.79338951505179 238.04854299025828 0 0 0 0 15.110211659467495 -155.02909154851204 0 -155.02909154851204 -15.514404719629965 0 0 0 0 -302.98157366525447 -29.099020493659737 0 -29.099020493659737 223.20941870399315 0 0 0 0 252.76465126551375 46.74661162564098 0 46.74661162564098 129.54701938083417 0 0 0 0 264.64243587863893 -142.16111276961965 0 -142.16111276961965 302.96215586071958 0 0 0 0 50.974504045786489 -28.524176835522667 0 -28.524176835522667 416.06718075648314 0 0 0 0 28.825234217244542 116.83519061861534 0 116.83519061861534 268.65633574783169 0 0 0 0 80.227764202134495 110.14467964013784 0 110.14467964013784 228.22261865966084 0 0 0 0 -10.109664152319965 92.738972490118613 0 92.738972490118613 -58.00609225665994 0 0 0 0 -0.80738444527150488 0.34176845973756009 0 0.34176845973756009 0.70334712393905363 0 0 0 0 -117.45733298693995 -32.436032435311063 0 -32.436032435311063 142.6709326547425 0 0 0 0 -34.631266132851579 4.7165359770124269 0 4.7165359770124269 28.455832505404032 0 0 0 0 -13.175739202285527 -2.8035027068916278 0 -2.8035027068916278 1.5778239904104616 0 0 0 0 -42.63123254691277 -4.3939621111103406 0 -4.3939621111103406 26.026072824803123 0 0 0 0 -2.8101737338622104 13.005753745550226 0 13.005753745550226 15.456986351826284 0 0 0 0 -68.759185529175738 135.44412556608131 0 135.44412556608131 33.772927661933863 0 0 0 0 60.522555938225196 75.094593624484332 0 75.094593624484332 -27.570020269315137 0 0 0 0 -183.38533126341918 48.441615885391229 0 48.441615885391229 69.319652529386985 0 0 0 0 -83.107167623584246 94.718444684666792 0 94.718444684666792 492.25300336962573 0 0 0 0 3.6024934730080425 4.0048761561199795 0 4.0048761561199795 2.0321286511099732 0 0 0 0 -6.3948340111928701 -205.75654891264639 0 -205.75654891264639 14.65870436010664 0 0 0 0 96.84401429799891 183.75490532064578 0 183.75490532064578 275.30647295826202 0 0 0 0 -481.86287805647225 226.81207897886179 0 226.81207897886179 733.20039324283971 0 0 0 0 160.90891252637175 -134.51340359402911 0 -134.51340359402911 -238.89809434878771 0 0 0 0 -70.029860841097616 50.205032421031319 0 50.205032421031319 74.234850645407278 0 0 0 0 -6.6643544220244362 8.560826794223475 0 8.560826794223475 77.325043757440426 0 0 0 0 -32.185898927742983 41.069547197382235 0 41.069547197382235 58.977150584179981 0 0 0 0 -56.129418978301373 16.71345833521309 0 16.71345833521309 76.128487885058348 0 0 0 0 -5.1673820392054264 11.174826463443427 0 11.174826463443427 0.94903405136458829 0 0 0 0 -6.5598824394598463 6.4903009041519901 0 6.4903009041519901 74.547945666648218 0 0 0 0 -79.783474243284445 49.198357331882107 0 49.198357331882107 75.619956526046735 0 0 0 0 -31.298604681771394 208.73648488065055 0 208.73648488065055 -247.90262232600728 0 0 0 0 -78.778679590833235 17.019934572448619 0 17.019934572448619 60.782058377366411 0 0 0 0 -158.26008268317401 38.688718876373969 0 38.688718876373969 76.311573039331051 0 0 0 0 -5.5717185633357511 9.2806256605429382 0 9.2806256605429382 27.379509053192002 0 0 0 0 25.663429220567195 29.010875042328735 0 29.010875042328735 51.330844934542256 0 0 0 0 -47.035760598842444 60.960224911135356 0 60.960224911135356 78.755496016441612 0 0 0 0 -15.70994258455994 -17.97486220798055 0 -17.97486220798055 40.340691613551826 0 0 0 0 41.27960708640876 64.776484771153264 0 64.776484771153264 148.19108092059105 0 0 0 0 -60.406943485554621 12.10184264034433 0 12.10184264034433 87.397638256853952 0 0 0 0 -31.535610039133644 14.007295755376617 0 14.007295755376617 2.2986869931837646 0 0 0 0 -79.367577881449733 56.662667135193715 0 56.662667135193715 16.552539600910677 0 0 0 0 -146.76787082004557 39.5665637757902 0 39.5665637757902 78.785647849787892 0 0 0 0 -9.2325939137451201 -3.2818442053428161 0 -3.2818442053428161 46.052399532232386 0 0 0 0 -45.306793199959429 34.051496757451901 0 34.051496757451901 16.006852404629853 0 0 0 0 -3.4987819867446666 17.261244564806535 0 17.261244564806535 23.964541957172955 0 0 0 0 -51.854945536531886 20.824569679972683 0 20.824569679972683 24.360077440658642 0 0 0 0 -64.064674723221287 10.756300162034222 0 10.756300162034222 45.611167894126993 0 0 0 0 -47.251296476229072 6.6046875726624421 0 6.6046875726624421 43.034834464764572 0 0 0 0 -43.167082391998292 4.299139400169679 0 4.299139400169679 42.987282785774369 0 0 0 0 -31.629123178993552 -0.47682238582044079 0 -0.47682238582044079 31.424444478088844 0 0 0 0 -31.280771791185799 6.6337832399747185 0 6.6337832399747185 5.1647539212099218 0 0 0 0 -31.786665033308054 -13.885490788835341 0 -13.885490788835341 16.413826040793538 0 0 0 0 -14.724764189937787 75.315072839237928 0 75.315072839237928 1.0514978833307396 0 0 0 0 -5.6621989804080339 0.014074870470386358 0 0.014074870470386358 41.193270590445223 0 0 0 0 -89.900530410382089 44.123719775991049 0 44.123719775991049 57.571143919421957 0 0 0 0 143.12862865736133 -41.016306503706801 0 -41.016306503706801 93.285567624516261 0 0 0 0 43.735193840255761 -45.44662815454285 0 -45.44662815454285 159.59652959037885 0 0 0 0 7.7313304225399406 -26.739770897967901 0 -26.739770897967901 150.68964628776303 0 0 0 0 -0.20350319841647835 -0.49430883073412524 0 -0.49430883073412524 1.8928828701145619 0 0 0 0 -166.96463344566428 120.87691269864081 0 120.87691269864081 258.20626050668943 0 0 0 0 36.160079879297427 -2.8279140192489649 0 -2.8279140192489649 141.07773557226574 0 0 0 0 36.37932801896963 -5.4791156993640016 0 -5.4791156993640016 96.205139880377828 0 0 0 0 16.46050249639984 -9.2355774518564431 0 -9.2355774518564431 172.45466254355779 0 0 0 0 39.476751207830603 -32.367459893785053 0 -32.367459893785053 115.45124956808468 0 0 0 0 40.323646012496738 -31.599851284800025 0 -31.599851284800025 92.470369560853214 0 0 0 0 35.630447715162745 -25.527992189510769 0 -25.527992189510769 111.16381934661331 0 0 0 0 36.972482398733518 -17.046187966850994 0 -17.046187966850994 107.69777848072226 0 0 0 0 21.607541603896607 4.0940178833261598 0 4.0940178833261598 116.31446259698805 0 0 0 0 -3.9106474470495414 11.830286178163078 0 11.830286178163078 63.505472861048474 0 0 0 0 6.0463260038334283 27.359142498904475 0 27.359142498904475 86.111956636817922 0 0 0 0 39.682468496100967 -4.3271703559241814 0 -4.3271703559241814 71.52889564180623 0 0 0 0 54.802749561604742 -8.373165194017929 0 -8.373165194017929 68.522048121235457 0 0 0 0 12.266229715959525 -7.0502151969285478 0 -7.0502151969285478 86.659950195786223 0 0 0 0 149.62010149004573 -74.313682046230497 0 -74.313682046230497 95.519613069604475 0 0 0 0 65.621274939264026 -52.281763965580581 0 -52.281763965580581 106.0015099389002 0 0 0 0 2.6645987571214391 -7.5602676293392506 0 -7.5602676293392506 125.92853924077917 0 0 0 0 16.308248506348718 -35.360281229099201 0 -35.360281229099201 145.1164945714263 0 0 0 0 -30.338328115566128 9.3744716288347263 0 9.3744716288347263 121.06375256524007 0 0 0 0 14.929622668191271 -12.303437312832671 0 -12.303437312832671 106.15526886478619 0 0 0 0 -26.911132926916366 27.698342834994492 0 27.698342834994492 99.91006967942667 0 0 0 0 5.2986090204649372 13.394057560742567 0 13.394057560742567 87.119428495381726 0 0 0 0 52.398483555004077 -31.517028704893164 0 -31.517028704893164 100.43284893365671 0 0 0 0 -0.88860964705963852 -2.482620304577722 0 -2.482620304577722 101.3543262650328 0 0 0 0 8.8596621281199077 11.219311033195481 0 11.219311033195481 79.472656392921635 0 0 0 0 -26.095845712637129 53.054140177076988 0 53.054140177076988 63.955144413876042 0 0 0 0 -67.840042665977535 17.580806344903976 0 17.580806344903976 134.34432214627486 0 0 0 0 0.87390448996393388 -8.8628721038703588 0 -8.8628721038703588 126.77422194277278 0 0 0 0 34.508784966677013 45.531208982496537 0 45.531208982496537 21.827928875529324 0 0 0 0 105.7614301587264 105.33619880968308 0 105.33619880968308 159.92821855404873 0 0 0 0 38.998913326726779 18.941434196281989 0 18.941434196281989 48.233748460803326 0 0 0 0 18.040757833276302 -51.833614900197063 0 -51.833614900197063 250.86220920436244 0 0 0 0 -16.62577805930573 -168.7078782957492 0 -168.7078782957492 20.604900516322232 0 0 0 0 0.0057814958560138408 -0.53288741873398315 0 -0.53288741873398315 2.7242801567745119 0 0 0 0 -27.00127396922403 60.506970480849759 0 60.506970480849759 -59.764962293635108 0 0 0 0 -13.04618702864127 20.368040081370054 0 20.368040081370054 25.789818031404138 0 0 0 0 -22.615258022097805 90.971836381491812 0 90.971836381491812 68.137637490828638 0 0 0 0 -10.54750936745495 3.6642144947491033 0 3.6642144947491033 141.58895228765243 0 0 0 0 -63.732858467112237 77.228621778062916 0 77.228621778062916 139.56460275089194 0 0 0 0 5.5831236902258752 164.11973566025335 0 164.11973566025335 4.305657433112259 0 0 0 0 120.59428466074905 -171.10915517347757 0 -171.10915517347757 12.971805970842979 0 0 0 0 0.10333345914583969 -1.6344306058126303 0 -1.6344306058126303 6.0417309551912126 0 0 0 0 115.15419979306262 34.190068967416664 0 34.190068967416664 14.067917346772447 0 0 0 0 34.873943539814718 55.834806697359454 0 55.834806697359454 42.766388192635077 0 0 0 0 -216.0286851568942 -106.71038267852782 0 -106.71038267852782 82.685026800911146 0 0 0 0 16.335649642738645 -9.0542261871610208 0 -9.0542261871610208 44.001135942253313 0 0 0 0 -52.748977835876758 55.470406163361986 0 55.470406163361986 55.804212075417126 0 0 0 0 -17.490590370420705 37.151239519425872 0 37.151239519425872 17.888985091500217 0 0 0 0 50.033488403158117 -51.420766001522679 0 -51.420766001522679 80.47003671672428 0 0 0 0 -139.43458061652564 46.259065678099432 0 46.259065678099432 161.05262419952487 0 0 0 0 -44.342261255448193 98.349819797059354 0 98.349819797059354 -22.609433136221924 0 0 0 0 -35.05527738783303 37.151064301466249 0 37.151064301466249 39.087062707745645 0 0 0 0 -29.41887868468848 29.124611663815813 0 29.124611663815813 5.5321331886604526 0 0 0 0 -35.428658771575101 37.358984521122238 0 37.358984521122238 40.240054760401108 0 0 0 0 -0.11234277434121509 0.035155037074035889 0 0.035155037074035889 -0.70696836687181985 0 0 0 0 37.862675692906578 52.399987843871713 0 52.399987843871713 59.45800459840757 0 0 0 0 -93.019939141895293 -28.370067242454297 0 -28.370067242454297 12.099678240665526 0 0 0 0 -97.042841311073516 -16.115305517280376 0 -16.115305517280376 100.10168342964062 0 0 0 0 -253.57426829787482 23.107324572899415 0 23.107324572899415 165.22429763698528 0 0 0 0 -4.1616740406092294 3.4182142423126072 0 3.4182142423126072 77.649005287555752 0 0 0 0 -74.059767496552922 -32.754732024470741 0 -32.754732024470741 99.310656302910502 0 0 0 0 -16.154839094999488 -5.8584862985931068 0 -5.8584862985931068 77.069130140505877 0 0 0 0 -66.77530647724052 -0.58965415573584323 0 -0.58965415573584323 76.528286569039665 0 0 0 0 -74.524640282279051 11.547450577717882 0 11.547450577717882 69.803149271621805 0 0 0 0 -45.987712568175994 -1.8179617001624138 0 -1.8179617001624138 64.171567385756134 0 0 0 0 -36.351093616476192 13.567730596171259 0 13.567730596171259 62.672469794051722 0 0 0 0 -53.455365045786039 0.74827158331572718 0 0.74827158331572718 55.744501967892575 0 0 0 0 -56.200168064646732 6.0398831796337618 0 6.0398831796337618 47.947347577235632 0 0 0 0 -61.508432478902023 8.8727608891795171 0 8.8727608891795171 59.829646898226201 0 0 0 0 -61.95998645198506 7.9359043840995582 0 7.9359043840995582 59.501119159052905 0 0 0 0 78.492569934204766 82.598903323551895 0 82.598903323551895 2.7548712679663367 0 0 0 0 -101.0565938780212 -0.63690123222022521 0 -0.63690123222022521 80.056134231308533 0 0 0 0 -78.866712449413171 23.42445680101082 0 23.42445680101082 52.721704100466013 0 0 0 0 -10.255123118108948 -10.332757839404909 0 -10.332757839404909 10.385950579449467 0 0 0 0 -183.54206679935564 -27.212862259180611 0 -27.212862259180611 116.70331338392498 0 0 0 0 25.167548756833639 -74.437674389771018 0 -74.437674389771018 -34.872458244522932 0 0 0 0 0.21763536791283167 -0.89575605085319498 0 -0.89575605085319498 15.821515890974283 0 0 0 0 -23.583630778884071 -149.2451793070295 0 -149.2451793070295 194.84679731147594 0 0 0 0 -19.66861945301298 -142.00380413025687 0 -142.00380413025687 140.63653048093329 0 0 0 0 -8.3233970981491439 -62.421316981753989 0 -62.421316981753989 82.560883068623298 0 0 0 0 250.22621957618554 377.66607995399363 0 377.66607995399363 100.03376821263373 0 0 0 0 0.034247768417166591 0.88567824701048004 0 0.88567824701048004 5.4671881718966446 0 0 0 0 -15.98635840684392 -53.82167566870703 0 -53.82167566870703 525.86758371911674 0 0 0 0 56.185872974617268 -176.20559618248444 0 -176.20559618248444 128.46612012035803 0 0 0 0 239.51632978680186 -445.0130709185413 0 -445.0130709185413 159.63170945536694 0 0 0 0 14.139978678857915 -20.710896880516884 0 -20.710896880516884 32.04186825081706 0 0 0 0 340.16948331980848 181.88506239636581 0 181.88506239636581 153.36265997304145 0 0 0 0 -14.32578324850283 16.004472139726204 0 16.004472139726204 213.47937754767372 0 0 0 0 37.845808529731585 102.60786548860415 0 102.60786548860415 33.841403339440149 0 0 0 0 1.2812993309589729 23.246769735005728 0 23.246769735005728 -38.780183673672582 0 0 0 0 14.449054435776816 63.298223413000414 0 63.298223413000414 82.074225710148312 0 0 0 0 76.367297340048935 -19.632217927853162 0 -19.632217927853162 -54.692757017483018 0 0 0 0 -52.074772892169563 12.38756564254561 0 12.38756564254561 122.54109079454611 0 0 0 0 -1.798772347077497 5.3831463174090182 0 5.3831463174090182 16.877818101505728 0 0 0 0 -288.47757001839364 -206.73959972780222 0 -206.73959972780222 170.63504579534856 0 0 0 0 -1.609042398035976 -2.0282793561510939 0 -2.0282793561510939 78.964255146532011 0 0 0 0 -26.811142795921569 71.301514952571779 0 71.301514952571779 244.51204605016937 0 0 0 0 1.5332033577142283 44.449067248212941 0 44.449067248212941 67.037324004504853 0 0 0 0 0.66707512895611298 0.12187995219155212 0 0.12187995219155212 -0.13382953656934404 0 0 0 0 -65.096581622715348 -84.100957659519736 0 -84.100957659519736 10.30000577738582 0 0 0 0 -43.865849836955476 -16.537838125947474 0 -16.537838125947474 75.322777708464855 0 0 0 0 7.2915855532660316 -9.056636310407157 0 -9.056636310407157 14.630431882968708 0 0 0 0 -20.007551894321523 35.048832810439308 0 35.048832810439308 141.876600700773 0 0 0 0 -6.8899436526187099 0.32132867822553735 0 0.32132867822553735 -0.31377353229899896 0 0 0 0 4.438440850356983 44.547203940780491 0 44.547203940780491 72.118554794652482 0 0 0 0 22.172149190313576 32.3047201671925 0 32.3047201671925 92.560031654867089 0 0 0 0 -29.625356057619229 41.601818462814663 0 41.601818462814663 92.974227258489918 0 0 0 0 -13.574427137868952 24.156569291841151 0 24.156569291841151 97.176855369209079 0 0 0 0 -7.6621389836577691 33.526813933098765 0 33.526813933098765 88.687155907808119 0 0 0 0 -55.11187132125815 -15.532541174770813 0 -15.532541174770813 114.51136927591597 0 0 0 0 -29.132756822486044 16.38037862560941 0 16.38037862560941 136.45538554980521 0 0 0 0 -19.919035623812306 20.06341183146651 0 20.06341183146651 77.121128123551898 0 0 0 0 -35.555806640978744 13.19301917276016 0 13.19301917276016 83.348336078119246 0 0 0 0 -35.70437614066941 34.537129480060685 0 34.537129480060685 91.286471457164907 0 0 0 0 -36.480212915746051 35.692410396360629 0 35.692410396360629 96.035560357040595 0 0 0 0 -48.078786763760036 43.816932592485045 0 43.816932592485045 98.434182421840887 0 0 0 0 -56.50380866804062 18.475976510427699 0 18.475976510427699 88.33791357888731 0 0 0 0 -48.506078469166823 24.979515721889584 0 24.979515721889584 93.172505099174714 0 0 0 0 -41.901184607685536 8.2272754917357815 0 8.2272754917357815 68.477458443316209 0 0 0 0 -42.02084914437728 12.243229777566739 0 12.243229777566739 76.966558663152227 0 0 0 0 -44.934036000467131 -0.46625527320793481 0 -0.46625527320793481 57.772632752240497 0 0 0 0 -37.960233509095588 10.186088317670965 0 10.186088317670965 66.872510341299858 0 0 0 0 -61.11530795171393 72.405293721179987 0 72.405293721179987 130.16781424657438 0 0 0 0 -79.341130337745199 33.774615184250251 0 33.774615184250251 108.17263033763584 0 0 0 0 -40.801900123643918 56.702229555414306 0 56.702229555414306 115.62511117695544 0 0 0 0 -38.44791774356645 59.508842500659739 0 59.508842500659739 110.63090964249022 0 0 0 0 -39.714338584890811 57.573948288159045 0 57.573948288159045 107.83407805889692 0 0 0 0 -11.429586508877492 47.760543671423875 0 47.760543671423875 110.34999346059885 0 0 0 0 -54.995280701337606 -15.662290191961574 0 -15.662290191961574 56.99687128036021 0 0 0 0 -94.42236121003134 59.900999991943536 0 59.900999991943536 108.70728583136543 0 0 0 0 -24.882965048213237 76.961706984856392 0 76.961706984856392 95.0732499885371 0 0 0 0 55.741065213274851 -38.821641009823907 0 -38.821641009823907 -23.576660901725063 0 0 0 0 -2.46075615893057 -0.22981626569932523 0 -0.22981626569932523 0.60601248167419541 0 0 0 0 -115.55247959629651 131.21900348893541 0 131.21900348893541 181.64242635917844 0 0 0 0 83.108195752459324 11.714117937794072 0 11.714117937794072 0.35626019185019686 0 0 0 0 101.02160959584671 74.902112085651424 0 74.902112085651424 42.769869603542247 0 0 0 0 -5.2550313321808062 -6.2154708080870478 0 -6.2154708080870478 72.487414251407245 0 0 0 0 -0.62421015845863081 -0.075155765307702183 0 -0.075155765307702183 -0.11990229489356352 0 0 0 0 -49.177836843471596 8.1665999884280609 0 8.1665999884280609 76.784636430245882 0 0 0 0 0.8395750203735588 -6.0256575813436939 0 -6.0256575813436939 6.6270692506977866 0 0 0 0 -9.1765920645648293 41.061863832319432 0 41.061863832319432 72.911182725850722 0 0 0 0 -36.542578619706546 1.3908287643607764 0 1.3908287643607764 80.417584144321154 0 0 0 0 69.475109662260365 90.985569738695631 0 90.985569738695631 86.166308302974358 0 0 0 0 40.425124706717725 70.495779219590077 0 70.495779219590077 77.47888266343125 0 0 0 0 57.115953472010005 58.725758239223069 0 58.725758239223069 82.469832842909454 0 0 0 0 43.332045048457076 37.889663991915768 0 37.889663991915768 51.461797372784986 0 0 0 0 36.900339063964566 35.719643448249371 0 35.719643448249371 80.730870146646339 0 0 0 0 -4.0305487018482538 -0.45739102800283149 0 -0.45739102800283149 9.991947845650671 0 0 0 0 -5.5128987752696048 0.86624214269977529 0 0.86624214269977529 26.973274396498709 0 0 0 0 -4.559745507444859 3.0945891343226322 0 3.0945891343226322 25.836978848446961 0 0 0 0 9.3014427800753765 -16.529746298539976 0 -16.529746298539976 35.160088385055133 0 0 0 0 -3.8055209153167926 -3.2224902983191193 0 -3.2224902983191193 14.686728735574299 0 0 0 0 -13.076714966831787 -15.969709232208515 0 -15.969709232208515 39.497914681840484 0 0 0 0 4.8793697235851141 22.173201328136201 0 22.173201328136201 25.606547608247638 0 0 0 0 44.298600215563056 17.97298403456989 0 17.97298403456989 23.008962862539192 0 0 0 0 15.897808951354818 30.181277885578766 0 30.181277885578766 78.971427097276319 0 0 0 0 0.79018017750058789 21.083017927152468 0 21.083017927152468 41.860218325439405 0 0 0 0 69.080601584479155 5.1116734326487858 0 5.1116734326487858 15.696343772076034 0 0 0 0 3.0003397685302886 -1.2347604607699516 0 -1.2347604607699516 5.2068509441774005 0 0 0 0 -5.0319544470048641 -6.7720268622006188 0 -6.7720268622006188 18.141694310470484 0 0 0 0 -3.1283511579366987 -2.2805318065233386 0 -2.2805318065233386 15.376515042261779 0 0 0 0 100.34576335590009 54.423414285834042 0 54.423414285834042 31.321468488931714 0 0 0 0 3.3910372233172281 -2.8684287056392961 0 -2.8684287056392961 2.4248217377321737 0 0 0 0 122.91180891039858 79.066360660746795 0 79.066360660746795 73.789242537697646 0 0 0 0 -77.243575076205161 -55.552487393641059 0 -55.552487393641059 -10.501481153900386 0 0 0 0 66.701119026600281 32.138688543611352 0 32.138688543611352 64.347372389491284 0 0 0 0 45.117112467856714 41.558426652933122 0 41.558426652933122 150.33876472870543 0 0 0 0 74.226010946120482 68.540220389764613 0 68.540220389764613 85.490304860782999 0 0 0 0 29.172017182975992 66.643598693642502 0 66.643598693642502 186.11813086286566 0 0 0 0 31.402849447536028 -26.639368345739967 0 -26.639368345739967 259.64428139207394 0 0 0 0 33.124540663268135 42.485436432398956 0 42.485436432398956 327.88338009988911 0 0 0 0 86.757038875881335 117.7112100879117 0 117.7112100879117 180.20007352876928 0 0 0 0 4.9971048582078765 28.091270087265457 0 28.091270087265457 83.758818927604807 0 0 0 0 32.484411524720599 33.385678000628104 0 33.385678000628104 103.94478992031077 0 0 0 0 35.15731537695774 52.702913456462738 0 52.702913456462738 101.6877602395507 0 0 0 0 46.7443912668341 57.869192353256039 0 57.869192353256039 107.87092267894059 0 0 0 0 46.238098315348907 43.952345697222881 0 43.952345697222881 87.832837478092188 0 0 0 0 64.76424081708592 2.898732609893159 0 2.898732609893159 145.87160408123157 0 0 0 0 28.790681062728254 46.724914451337099 0 46.724914451337099 149.6484736340426 0 0 0 0 -0.33762738893074129 59.753941801767724 0 59.753941801767724 121.36985547428776 0 0 0 0 34.257854997094 26.244068366314423 0 26.244068366314423 119.56833641951607 0 0 0 0 26.524351600017781 26.704189711378149 0 26.704189711378149 151.08514928481964 0 0 0 0 82.291923522139768 -20.613154224619393 0 -20.613154224619393 119.09405296919385 0 0 0 0 101.61175858397928 -100.82992805213689 0 -100.82992805213689 241.47521143125232 0 0 0 0 27.280483509575788 -8.1335126938920439 0 -8.1335126938920439 194.30548641704809 0 0 0 0 15.937389872241511 -49.646921109193499 0 -49.646921109193499 285.35348416067291 0 0 0 0 176.55416643820035 -179.16214846677758 0 -179.16214846677758 256.01092377772284 0 0 0 0 -18.699748603159605 -77.131604994977351 0 -77.131604994977351 309.45430487124099 0 0 0 0 32.760534192619161 -20.979429393075407 0 -20.979429393075407 312.00117247496041 0 0 0 0 20.856349424509062 -15.448745069860706 0 -15.448745069860706 314.00239350289849 0 0 0 0 11.695381886666837 -91.810065087264775 0 -91.810065087264775 307.52756638576102 0 0 0 0 8.8143978390506845 -70.946390819935232 0 -70.946390819935232 278.45691629928115 0 0 0 0 -12.433917642281813 -78.218424597793273 0 -78.218424597793273 276.12056772065034 0 0 0 0 -8.350828824063683 -62.381297574628661 0 -62.381297574628661 192.82036069897367 0 0 0 0 -80.199049338933037 -69.793146951634299 0 -69.793146951634299 312.00266922047194 0 0 0 0 22.805277341532474 -20.848632561469003 0 -20.848632561469003 321.61714406543979 0 0 0 0 -91.993336496076608 -83.013300169972354 0 -83.013300169972354 199.24925688795338 0 0 0 0 -68.97298683454801 -1.9937930838436841 0 -1.9937930838436841 148.31269314922974 0 0 0 0 0.066891586628571531 -0.41727289622240349 0 -0.41727289622240349 -1.4694635007208419 0 0 0 0 20.032057436954346 -63.411613192928598 0 -63.411613192928598 225.90262216886185 0 0 0 0 5.0333701704097216 -4.2327869130254285 0 -4.2327869130254285 0.64856406799528354 0 0 0 0 8.8492502534545565 -41.08911360696402 0 -41.08911360696402 232.66254089071845 0 0 0 0 115.1196186345328 -53.586370622701452 0 -53.586370622701452 -276.59449941468665 0 0 0 0 47.111530279072269 141.03686433739063 0 141.03686433739063 250.17525799266696 0 0 0 0 -59.861987552697428 -96.457814160680755 0 -96.457814160680755 19.507971124661708 0 0 0 0 77.288362669911521 -73.143140071028256 0 -73.143140071028256 28.131131668505986 0 0 0 0 -43.647951898927204 18.030710686820385 0 18.030710686820385 -30.870053405054932 0 0 0 0 133.10958010352351 -83.788327916691742 0 -83.788327916691742 -247.02481129140995 0 0 0 0 6.5854714801707814 -99.152124245809318 0 -99.152124245809318 521.50013946813033 0 0 0 0 2.2930792399596562 -1.2106276512676324 0 -1.2106276512676324 0.30524897047303678 0 0 0 0 5.2847374168133001 96.232842755376623 0 96.232842755376623 42.705571180702464 0 0 0 0 7.6423551164625678 -151.49060504708996 0 -151.49060504708996 122.07024410273243 0 0 0 0 162.73448993176805 -193.76965554583899 0 -193.76965554583899 133.51922170678245 0 0 0 0 -75.351180909715822 -176.77299098435969 0 -176.77299098435969 198.1712444514128 0 0 0 0 -15.822088354641892 -114.54181725181388 0 -114.54181725181388 125.05461819771654 0 0 0 0 -181.61562079467149 93.53568182660365 0 93.53568182660365 -60.712218082448089 0 0 0 0 44.959793792740584 -84.819625777709007 0 -84.819625777709007 138.82380881811332 0 0 0 0 -16.159927357616652 -168.62457072714824 0 -168.62457072714824 282.26265169894259 0 0 0 0 -87.364079461103756 17.79867844897035 0 17.79867844897035 109.12865884894575 0 0 0 0 120.71742074144868 -51.450609053903008 0 -51.450609053903008 99.347378701069829 0 0 0 0 -70.333398657927319 22.582267638577832 0 22.582267638577832 131.35138720327222 0 0 0 0 33.270533726352369 24.619440094118545 0 24.619440094118545 123.95793952266104 0 0 0 0 -6.0338814804669276 -2.4203491775583341 0 -2.4203491775583341 -1.176489952061079 0 0 0 0 -12.383554960915262 -2.6488448674435858 0 -2.6488448674435858 16.794381319507011 0 0 0 0 8.722826690889633 63.980545513903508 0 63.980545513903508 -153.44415696672058 0 0 0 0 -14.258933338934185 -19.126781269473213 0 -19.126781269473213 45.832077121134716 0 0 0 0 -11.593881806998525 -4.74873972275509 0 -4.74873972275509 27.705604348250745 0 0 0 0 -9.2641840450490491 -55.259471096703408 0 -55.259471096703408 3.2535850596013915 0 0 0 0 -26.500768087115375 -6.7679058182330323 0 -6.7679058182330323 29.833737233680949 0 0 0 0 -28.959885863101135 7.5365602658866919 0 7.5365602658866919 21.598425800415498 0 0 0 0 -52.311158847062416 -15.056727901289378 0 -15.056727901289378 44.510124640592949 0 0 0 0 -58.09897382975646 -2.7854131976098415 0 -2.7854131976098415 100.52169213915113 0 0 0 0 -150.17139124463984 -62.907125018226907 0 -62.907125018226907 61.346320497456873 0 0 0 0 -144.57733703937629 73.750389762915802 0 73.750389762915802 130.72934358641169 0 0 0 0 5.5533026095124569 71.380665985821452 0 71.380665985821452 106.32376273231057 0 0 0 0 126.86318416763288 24.681424485596153 0 24.681424485596153 -40.21288342436128 0 0 0 0 -2.033895369788258 -0.65641766294004533 0 -0.65641766294004533 -0.27011716506523697 0 0 0 0 -0.49582164145627416 0.35165484728895535 0 0.35165484728895535 -20.618851808874751 0 0 0 0 -0.54832150742861518 -3.8673101935564773 0 -3.8673101935564773 7.3939593287122989 0 0 0 0 0.22401232312775363 -0.7734361478054268 0 -0.7734361478054268 0.94175469081102392 0 0 0 0 8.1163220444982791 5.7813464017017395 0 5.7813464017017395 -55.380086462660984 0 0 0 0 -5.5737893989527176 -11.197799003784894 0 -11.197799003784894 3.0985669529638926 0 0 0 0 1.3999586411480816 -3.6233565331276623 0 -3.6233565331276623 3.1698656335965438 0 0 0 0 2.8804518443528564 -2.1526278690434992 0 -2.1526278690434992 -0.57436491982298321 0 0 0 0 0.14716050356488322 -0.63722193267241778 0 -0.63722193267241778 1.3496937129394162 0 0 0 0 -0.94797760646189977 -3.7520191175754007 0 -3.7520191175754007 13.892741984207532 0 0 0 0 0.012124624348943343 -2.246644596754777 0 -2.246644596754777 7.0866871235666622 0 0 0 0 2.0245195596904431 4.1691388437029673 0 4.1691388437029673 -1.3489058685081545 0 0 0 0 2.582580876080411 -5.1792374607248348 0 -5.1792374607248348 4.9302587067249988 0 0 0 0 -3.3622539059468464 1.8089662464446548 0 1.8089662464446548 5.3161392838742785 0 0 0 0 12.636901238527116 -10.673925609760772 0 -10.673925609760772 21.564051675857627 0 0 0 0 8.5279204767475676 -2.2804852234912687 0 -2.2804852234912687 6.3857148783718003 0 0 0 0 -7.7744531532865722 -16.120785168623115 0 -16.120785168623115 31.945396800874732 0 0 0 0 5.6607981093918625 -11.417577356332913 0 -11.417577356332913 15.341671938203035 0 0 0 0 -3.9971475496143967 -10.770641516617616 0 -10.770641516617616 5.4334577235131292 0 0 0 0 -3.9206765051561758 2.3995387751210018 0 2.3995387751210018 4.1735731784761612 0 0 0 0 -0.28357060578578519 -0.79522571929909702 0 -0.79522571929909702 0.56657599875486042 0 0 0 0 10.914664341945354 -12.756911257056345 0 -12.756911257056345 13.623367644264363 0 0 0 0 3.6445900681505217 -5.3787573175956567 0 -5.3787573175956567 1.538578185439647 0 0 0 0 -1.9141405093726007 -8.9038074335585407 0 -8.9038074335585407 27.867726308311831 0 0 0 0 -5.2137020439322441 -9.1806538761957199 0 -9.1806538761957199 18.138320789061254 0 0 0 0 -3.6616975894351813 -6.0312785774585009 0 -6.0312785774585009 13.738996882744146 0 0 0 0 15.746740077415097 -32.056616889034558 0 -32.056616889034558 -10.849241961579537 0 0 0 0 8.7799855645417892 -34.585479673783993 0 -34.585479673783993 1.003015412206878 0 0 0 0 2.9316889529524701 -3.867127449655527 0 -3.867127449655527 8.1820056170399766 0 0 0 0 -26.742592203134336 -16.21582099407533 0 -16.21582099407533 3.4790739124073298 0 0 0 0 -2.0735252699062592 -1.5341785724296813 0 -1.5341785724296813 3.427462072230071 0 0 0 0 7.3343963824248704 -8.991943532240839 0 -8.991943532240839 -9.4696512734681164 0 0 0 0 3.7310783190444861 -4.3203025225731722 0 -4.3203025225731722 -0.38658612251706614 0 0 0 0 2.4540648536089407 -13.511952887311054 0 -13.511952887311054 18.752515287589631 0 0 0 0 2.520808240672237 -11.754393103680854 0 -11.754393103680854 -8.9180309680086793 0 0 0 0 17.480044797429315 -20.421023093214899 0 -20.421023093214899 -16.01749812385242 0 0 0 0 15.157116520127346 -20.27197587831688 0 -20.27197587831688 -15.718035027035512 0 0 0 0 15.561231176755314 -21.56361405708958 0 -21.56361405708958 -15.401023227765108 0 0 0 0 11.013655937344481 -24.146917479745753 0 -24.146917479745753 -16.558291166453273 0 0 0 0 15.511320559389162 -22.374761461571325 0 -22.374761461571325 -13.754209453560179 0 0 0 0 4.442547114863487 -47.749323320269468 0 -47.749323320269468 -11.591700727556599 0 0 0 0 1.4629412204195686 -2.1441911529456732 0 -2.1441911529456732 1.3236714207079103 0 0 0 0 11.939074156337938 -7.8932499279380863 0 -7.8932499279380863 -6.2696482572500827 0 0 0 0 15.510668472413386 -25.640626512584276 0 -25.640626512584276 -33.437550140275562 0 0 0 0 -9.0934389502785962 -39.641782262391644 0 -39.641782262391644 -13.159166814453783 0 0 0 0 -6.4303210472141927 -33.838095509527193 0 -33.838095509527193 -28.694587704580044 0 0 0 0 0.31837209370735919 -0.026643361961532719 0 -0.026643361961532719 -0.13747079526038419 0 0 0 0 9.6894651984915185 -37.067868590183934 0 -37.067868590183934 -1.6553129695030293 0 0 0 0 5.8149781324968899 -32.094327747894567 0 -32.094327747894567 -43.461755789263407 0 0 0 0 20.909518093961537 -15.645126624669501 0 -15.645126624669501 -25.787200145264251 0 0 0 0 9.0263308993234119 -14.759642591761803 0 -14.759642591761803 24.911952956383175 0 0 0 0 12.037428382958936 -31.410279277231894 0 -31.410279277231894 27.307034066966025 0 0 0 0 20.984627541783311 -1.6632507187678129 0 -1.6632507187678129 -7.2774021236709814 0 0 0 0 1.7830438980268966 -20.141371782772694 0 -20.141371782772694 15.401720409201516 0 0 0 0 14.755765159905451 -20.391281210946545 0 -20.391281210946545 -10.365770036885806 0 0 0 0 14.150172701047751 -12.829567660835892 0 -12.829567660835892 -10.961086938022163 0 0 0 0 12.271631387412668 -19.94409419076419 0 -19.94409419076419 -25.843359973558108 0 0 0 0 -7.7633866254251513 -25.622509897839336 0 -25.622509897839336 -18.106747366509808 0 0 0 0 -0.033416124380674588 -9.7194398861192894 0 -9.7194398861192894 -53.326161372257047 0 0 0 0 6.4034811050040759 -23.171440698191873 0 -23.171440698191873 -48.682661900595122 0 0 0 0 5.4759032637191609 -10.23490199113985 0 -10.23490199113985 -20.289033625595039 0 0 0 0 2.6925801059413033 -25.278691833926132 0 -25.278691833926132 -5.7872149165850715 0 0 0 0 0.059321631607539282 -25.495244488487515 0 -25.495244488487515 20.915415055027552 0 0 0 0 0.07479749063568078 -12.86798115992724 0 -12.86798115992724 -1.4772707355004968 0 0 0 0 -4.1087833678676802 -21.528654002971962 0 -21.528654002971962 40.584371737619222 0 0 0 0 16.252322491103584 -16.108655707746948 0 -16.108655707746948 16.513383659803367 0 0 0 0 -29.516856901840981 -20.259217210803399 0 -20.259217210803399 123.8658894588807 0 0 0 0 36.379092529818266 45.781276392099244 0 45.781276392099244 140.77959280215146 0 0 0 0 -4.6945193060402381 45.026036892862976 0 45.026036892862976 167.11134596078045 0 0 0 0 0.25156371213248302 0.18060036404861535 0 0.18060036404861535 0.23891976445952423 0 0 0 0 43.030835410026341 16.560826572844235 0 16.560826572844235 54.053103519232536 0 0 0 0 0.019594422401421591 22.261799113779489 0 22.261799113779489 226.17683111036604 0 0 0 0 27.169883260963616 50.769903439242626 0 50.769903439242626 164.84777738305456 0 0 0 0 7.5495140975147876 38.625496636896969 0 38.625496636896969 226.96396140602155 0 0 0 0 10.656531867392445 81.32951544284515 0 81.32951544284515 263.99886800261811 0 0 0 0 -3.577914218789175 58.593157202452858 0 58.593157202452858 225.11084455457603 0 0 0 0 7.0467629403266017 76.579159123790305 0 76.579159123790305 292.52964309862 0 0 0 0 21.281430562700436 51.444549839518004 0 51.444549839518004 226.68271808735517 0 0 0 0 29.324849748962905 69.747935268806032 0 69.747935268806032 292.85398884939059 0 0 0 0 -17.127218655298819 68.59347849984988 0 68.59347849984988 392.43607359412636 0 0 0 0 0.023316053990871825 42.066791119761049 0 42.066791119761049 309.12457526676008 0 0 0 0 155.34128086610434 114.5965139724467 0 114.5965139724467 293.34733402655183 0 0 0 0 83.250850372571605 29.718687918916658 0 29.718687918916658 199.46859830560425 0 0 0 0 72.815896603575354 107.42482362176452 0 107.42482362176452 278.43799629959176 0 0 0 0 10.074041992077468 67.699205675377016 0 67.699205675377016 351.92497916923821 0 0 0 0 47.811556587234215 48.639845404337393 0 48.639845404337393 202.72233450169006 0 0 0 0 12.744283463688481 49.949585349688277 0 49.949585349688277 203.29750547657295 0 0 0 0 45.44472897482062 39.968358401662044 0 39.968358401662044 196.97486665814358 0 0 0 0 63.070049250750884 -13.401092213327502 0 -13.401092213327502 0.97765564702422125 0 0 0 0 65.578899296668467 28.956577161188761 0 28.956577161188761 85.400267334225646 0 0 0 0 23.811911638154356 9.7870047581782273 0 9.7870047581782273 87.087206562452138 0 0 0 0 0.52336603254134439 0.19335017695601664 0 0.19335017695601664 0.08802735524830041 0 0 0 0 51.887798692113591 -10.619704852737414 0 -10.619704852737414 -3.049707117042999 0 0 0 0 17.467100080428082 23.493963633733074 0 23.493963633733074 -5.917117670767766 0 0 0 0 7.8472342308043608 -28.349449026627553 0 -28.349449026627553 5.6222213457776888 0 0 0 0 32.983460779511404 -21.256914906222846 0 -21.256914906222846 -4.9267194544881932 0 0 0 0 3.6156608646188602 -16.708181423116912 0 -16.708181423116912 -15.786343409228721 0 0 0 0 -70.82049720391251 -69.585134692308202 0 -69.585134692308202 -9.8272597994346143 0 0 0 0 87.402810518923161 -38.316685718647932 0 -38.316685718647932 23.143300489267858 0 0 0 0 0.40584829269194689 -1.2865490572160923 0 -1.2865490572160923 2.4233347312774356 0 0 0 0 -147.9491691221898 -26.503002876344908 0 -26.503002876344908 110.34149571230955 0 0 0 0 0.30508991247087314 -0.53476952098745656 0 -0.53476952098745656 0.9918009317073313 0 0 0 0 362.9624652570995 -99.182168887500666 0 -99.182168887500666 -1.5311375038290862 0 0 0 0 14.918370732121502 -10.837180492730113 0 -10.837180492730113 -18.060343226519763 0 0 0 0 3.9061384740619474 -16.502331013871299 0 -16.502331013871299 65.593391289781721 0 0 0 0 102.63067732944108 13.588673245281825 0 13.588673245281825 60.744476970556207 0 0 0 0 7.6454240749021096 -95.431836119058062 0 -95.431836119058062 140.87553928916896 0 0 0 0 191.68772955993973 -23.618716462646262 0 -23.618716462646262 168.40457616850836 0 0 0 0 149.03020021632369 -83.970062897791649 0 -83.970062897791649 168.78608430792519 0 0 0 0 181.72891315135075 -17.78064604269457 0 -17.78064604269457 168.01262964930356 0 0 0 0 126.21917024451741 -36.761324168292958 0 -36.761324168292958 221.40304164905683 0 0 0 0 -40.154166755638471 -60.215438185105086 0 -60.215438185105086 215.26565757259596 0 0 0 0 106.28857574710298 -18.372604710701125 0 -18.372604710701125 88.824406312283827 0 0 0 0 -236.61078201762393 -116.45030702126678 0 -116.45030702126678 150.86278022697297 0 0 0 0 28.574685642019631 -131.38189377155504 0 -131.38189377155504 113.21824030460266 0 0 0 0 -59.639082724816717 -165.37673583584183 0 -165.37673583584183 85.919948289301828 0 0 0 0 -41.167322478665426 -26.096543104478997 0 -26.096543104478997 -141.65726904686016 0 0 0 0 37.516367220745451 -63.984890307252499 0 -63.984890307252499 -37.814894767216174 0 0 0 0 71.958391503994562 -165.88570246191375 0 -165.88570246191375 170.82430754535199 0 0 0 0 56.55149664401506 -58.242961074087361 0 -58.242961074087361 11.51628747164068 0 0 0 0 77.671667057090588 -125.577464590614 0 -125.577464590614 80.873641143312852 0 0 0 0 -53.700738606491598 -12.567306382158677 0 -12.567306382158677 317.61210385827144 0 0 0 0 -27.579757085001347 -74.703292673184478 0 -74.703292673184478 56.494124723212735 0 0 0 0 48.050264692700239 7.6278952175380255 0 7.6278952175380255 -59.870180268320837 0 0 0 0 33.379884394418241 -44.7628083201962 0 -44.7628083201962 34.073060583534243 0 0 0 0 -7.5027085785864074 -7.0588025196011586 0 -7.0588025196011586 -0.036975579663703684 0 0 0 0 -3.4037294586278222 -59.510530917236679 0 -59.510530917236679 -39.552712180367962 0 0 0 0 10.683132922918048 1.4940082190078101 0 1.4940082190078101 19.439621130171872 0 0 0 0 10.815792396344603 -4.7072782112431497 0 -4.7072782112431497 2.0558277536902452 0 0 0 0 31.668907400832268 -53.310263597664743 0 -53.310263597664743 59.375371471054677 0 0 0 0 12.919556631514411 -6.3009143939125352 0 -6.3009143939125352 9.6191409812381607 0 0 0 0 7.1841324438898937 -44.808574176611728 0 -44.808574176611728 -25.505120972480654 0 0 0 0 22.274860442285899 4.9937885086183087 0 4.9937885086183087 -2.5667048405157402 0 0 0 0 -26.234754606499791 -29.619180312747631 0 -29.619180312747631 -16.801493177918019 0 0 0 0 3.2162145640028084 -2.8974217073828328 0 -2.8974217073828328 2.2148116840657508 0 0 0 0 9.5038951165881826 -14.953588440839667 0 -14.953588440839667 17.331416766173788 0 0 0 0 1.8077299963762914 -2.8436210831751509 0 -2.8436210831751509 2.7029854367316375 0 0 0 0 18.217227102794595 -17.556692358921282 0 -17.556692358921282 -45.156330351094766 0 0 0 0 8.4037295584799665 1.7341718140341982 0 1.7341718140341982 19.534906215951196 0 0 0 0 -1.1629082025365278 -9.4474146196116635 0 -9.4474146196116635 3.7614931335410802 0 0 0 0 0.74221652191408793 -8.7521447491890285 0 -8.7521447491890285 -2.1634795452991966 0 0 0 0 9.7656553923998715 -8.9534170118535101 0 -8.9534170118535101 4.0015913875992339 0 0 0 0 -0.059600508948787656 -9.6152176793322681 0 -9.6152176793322681 4.9510645049391968 0 0 0 0 10.828599083205969 -14.95888951003343 0 -14.95888951003343 11.49190643282958 0 0 0 0 7.1396981998282172 -32.867820121595287 0 -32.867820121595287 25.276040934775665 0 0 0 0 15.649746864023683 -8.5866607299733246 0 -8.5866607299733246 3.9497090544273945 0 0 0 0 28.890378608504307 -12.319747153916978 0 -12.319747153916978 -7.6372787328073173 0 0 0 0 -7.1250191289955183 -47.574586951253877 0 -47.574586951253877 23.433720048649775 0 0 0 0 3.1922434469397558 -8.8978751799695601 0 -8.8978751799695601 9.0856462418450974 0 0 0 0 -7.3350439008312769 -3.2325732488426553 0 -3.2325732488426553 3.373097980687632 0 0 0 0 -2.1702914259640238 -15.609017568473064 0 -15.609017568473064 18.393134076832212 0 0 0 0 -1.0118354097439806 -7.4530961547716288 0 -7.4530961547716288 19.21033386613999 0 0 0 0 25.593719111297105 -11.171396531339269 0 -11.171396531339269 4.6354895117692649 0 0 0 0 44.649781738729871 -20.57645645051889 0 -20.57645645051889 -5.7432028069888474 0 0 0 0 2.058795439236206 -2.7032991613113815 0 -2.7032991613113815 1.8202345329205798 0 0 0 0 2.4513981259678985 0.303599830094754 0 0.303599830094754 20.631129393485026 0 0 0 0 9.664209596280914 -8.1648850214712638 0 -8.1648850214712638 6.2085254231499789 0 0 0 0 -60.524517059700884 9.2291736364277313 0 9.2291736364277313 80.364208866230911 0 0 0 0 -8.5793977891044051 -13.495013800889865 0 -13.495013800889865 18.077179473289107 0 0 0 0 -77.510716326372858 -123.27551542244328 0 -123.27551542244328 113.59748136269627 0 0 0 0 -5.4302556288030246 -7.447890026771347 0 -7.447890026771347 9.5714548516552895 0 0 0 0 1.1849163635196858 -2.7872354923551264 0 -2.7872354923551264 1.1660812890033299 0 0 0 0 10.802333311540679 -9.8601685497942526 0 -9.8601685497942526 20.428123559548112 0 0 0 0 6.3438408427832655 -6.9637687067224761 0 -6.9637687067224761 7.6683086585321689 0 0 0 0 0.048493325390154496 -5.4516389633827202 0 -5.4516389633827202 24.681641983996087 0 0 0 0 -5.234273872621964 -5.8144698012450604 0 -5.8144698012450604 12.946051145357245 0 0 0 0 -0.74410442670519572 -3.8258705714188785 0 -3.8258705714188785 8.6195880492893338 0 0 0 0 0.63986430009149942 -11.702784780752779 0 -11.702784780752779 20.681348154109575 0 0 0 0 737.00893733960766 82.327834645373514 0 82.327834645373514 -444.98987145285355 0 0 0 0 13.586933457356821 -10.750690434810494 0 -10.750690434810494 7.1700040805869438 0 0 0 0 4.8380211522598984 -12.833075184411427 0 -12.833075184411427 20.464766053562016 0 0 0 0 8.2939793170806198 -5.424555562114584 0 -5.424555562114584 0.27496248054648564 0 0 0 0 29.610916526748042 -13.528968642887776 0 -13.528968642887776 18.025931452430086 0 0 0 0 17.690175654215636 -5.7322186023611721 0 -5.7322186023611721 15.705535688597593 0 0 0 0 0.31660367609104867 -1.0672960444720943 0 -1.0672960444720943 3.2986645223755282 0 0 0 0 -0.85688822651536611 -22.661991625180235 0 -22.661991625180235 28.76667844804615 0 0 0 0 26.86796786017112 -8.9953926411362772 0 -8.9953926411362772 14.733834750426468 0 0 0 0 26.967424770445518 -17.644510830951219 0 -17.644510830951219 13.152438571982202 0 0 0 0 -7.2594441528517564 -9.5837994334715404 0 -9.5837994334715404 -1.1170911379667814 0 0 0 0 10.790460765517309 -11.459299782771268 0 -11.459299782771268 11.576319613284795 0 0 0 0 -6.8302047789811695 -2.6989063932542194 0 -2.6989063932542194 19.101747051150596 0 0 0 0 -30.895056351222593 -9.8909685522648942 0 -9.8909685522648942 17.56959685169204 0 0 0 0 -30.120965032044296 -13.656980971096345 0 -13.656980971096345 29.650935295110685 0 0 0 0 -3.4806549598247329 -39.447433896021721 0 -39.447433896021721 70.405633622169262 0 0 0 0 17.951302791230546 -15.473357929655322 0 -15.473357929655322 58.339434154018818 0 0 0 0 -1.2780330080922973 2.3259690184871289 0 2.3259690184871289 3.3580531175516626 0 0 0 0 -2.5461973266146742 3.9493042734575283 0 3.9493042734575283 29.377638542709519 0 0 0 0 0.78364953855364661 -5.1055526408570699 0 -5.1055526408570699 0.88647984888647802 0 0 0 0 8.9131459148466092 -15.720786365858658 0 -15.720786365858658 11.937102575553581 0 0 0 0 1.1459006242354635 1.4990715128045622 0 1.4990715128045622 -0.057583988237929873 0 0 0 0 27.346918887269339 -37.68790328310206 0 -37.68790328310206 -126.9456413572334 0 0 0 0 -67.237395114863148 -28.713225433772095 0 -28.713225433772095 314.05932308841875 0 0 0 0 36.131566988453869 -14.671456655869406 0 -14.671456655869406 124.4658572365297 0 0 0 0 -0.77273261100981472 -35.265293228381779 0 -35.265293228381779 147.35773677019461 0 0 0 0 3.6317129150893601 0.67729803488917639 0 0.67729803488917639 0.62600812779180437 0 0 0 0 29.89500311530179 -57.474077239114649 0 -57.474077239114649 83.011570609865885 0 0 0 0 -13.815231187924837 -22.73507450526813 0 -22.73507450526813 4.0499175780437326 0 0 0 0 -37.860122808154756 -21.118211177974445 0 -21.118211177974445 38.115067018487025 0 0 0 0 222.40952078490955 -91.462819038395537 0 -91.462819038395537 -211.64625947322929 0 0 0 0 -3.0832883807348477 -0.27854978392067409 0 -0.27854978392067409 2.5391608394523999 0 0 0 0 -333.91480755562134 145.57775754366594 0 145.57775754366594 121.94827918334158 0 0 0 0 -69.871310567763771 -110.31701515983514 0 -110.31701515983514 148.35930290616352 0 0 0 0 -6.0181498993017613 -42.618580110740368 0 -42.618580110740368 -149.83522364494274 0 0 0 0 -11.940879548582132 -39.983285455349687 0 -39.983285455349687 -117.1729119924712 0 0 0 0 2.7651137243037738 -0.18324110689718509 0 -0.18324110689718509 -189.09377369948197 0 0 0 0 0.83202535149369794 1.416418348408115 0 1.416418348408115 -128.47040583871421 0 0 0 0 -12.939956448261029 -37.556107755757694 0 -37.556107755757694 -21.754901470332697 0 0 0 0 -7.0305445756644076 -66.02010323929062 0 -66.02010323929062 -70.869774210255855 0 0 0 0 -11.934088303031956 -23.295212917102617 0 -23.295212917102617 25.624880319199292 0 0 0 0 -22.333159861110289 -113.27710424225188 0 -113.27710424225188 71.217093741921872 0 0 0 0 6.1052548625805549 -25.473460069391429 0 -25.473460069391429 55.99989164371371 0 0 0 0 -26.7751425445108 -69.983424766085591 0 -69.983424766085591 96.203297414556801 0 0 0 0 -1.5518400157600354 -13.098317749939056 0 -13.098317749939056 16.947589143666946 0 0 0 0 5.1470784446059952 -16.302412854200156 0 -16.302412854200156 71.101784360278543 0 0 0 0 -9.8258868923271621 -18.505629434434923 0 -18.505629434434923 71.565902783135243 0 0 0 0 -9.3406683548252971 -20.370549646584344 0 -20.370549646584344 0.13687303117120564 0 0 0 0 -20.892637352116935 51.423201418025201 0 51.423201418025201 27.157582755483872 0 0 0 0 -51.264266113628878 -112.84411826352334 0 -112.84411826352334 148.82264178637342 0 0 0 0 -0.52942713779119188 -15.576143066714941 0 -15.576143066714941 76.251193013801213 0 0 0 0 -40.37794256007578 -127.37025814268964 0 -127.37025814268964 84.001759343977028 0 0 0 0 -185.50060329950702 -77.11457192155649 0 -77.11457192155649 126.62246357094409 0 0 0 0 -25.829471207337519 -35.900015525403433 0 -35.900015525403433 42.210926371077221 0 0 0 0 107.2520631438033 -97.800109015726775 0 -97.800109015726775 21.898816078304662 0 0 0 0 135.54109318759492 -189.61927594644294 0 -189.61927594644294 105.16720287453063 0 0 0 0 -8.4333876934245655 -6.7012035503281169 0 -6.7012035503281169 -3.892313977456368 0 0 0 0 -311.83332690049178 18.481878168593539 0 18.481878168593539 44.157291505754984 0 0 0 0 -34.823841366804572 -282.24947847358817 0 -282.24947847358817 100.91953640863358 0 0 0 0 9.9327218462797191 -24.987255944997742 0 -24.987255944997742 -58.201372114912374 0 0 0 0 -38.255303518737946 -78.842603846042039 0 -78.842603846042039 13.21010873735213 0 0 0 0 -13.563854188615778 -72.859482368432509 0 -72.859482368432509 121.80483688285949 0 0 0 0 28.21824144375887 -75.661498440222203 0 -75.661498440222203 12.73441218361404 0 0 0 0 18.363356908099263 -92.434816147506353 0 -92.434816147506353 -23.389800404984271 0 0 0 0 39.525909287925515 -52.297397396563611 0 -52.297397396563611 -18.091296294449421 0 0 0 0 21.867616877895216 -59.293698607740225 0 -59.293698607740225 83.306717155376646 0 0 0 0 47.31529677323897 -125.50013872818454 0 -125.50013872818454 -72.77544006658718 0 0 0 0 116.22641306801779 -48.801188605662901 0 -48.801188605662901 -20.149384066080529 0 0 0 0 157.78244019482872 -4.0824251827871194 0 -4.0824251827871194 -72.717997815996569 0 0 0 0 4.0560293554090006 -1.3810337970903674 0 -1.3810337970903674 0.54456519224790867 0 0 0 0 241.0039389817548 -125.34331670277243 0 -125.34331670277243 -73.63746613004696 0 0 0 0 -97.26131922793752 407.20526096459434 0 407.20526096459434 15.337458385776927 0 0 0 0 -58.85803724469497 -188.85306436828978 0 -188.85306436828978 95.021561175250099 0 0 0 0 -4.661837112571428 -3.7477570727427292 0 -3.7477570727427292 0.69620996350805342 0 0 0 0 249.52416932630581 -114.63222671854419 0 -114.63222671854419 48.203410001369775 0 0 0 0 277.24942794524424 -220.15090338339814 0 -220.15090338339814 92.778806432477722 0 0 0 0 148.0891063807785 -113.95028593388997 0 -113.95028593388997 178.89721596431809 0 0 0 0 288.5764621843191 -319.01974071857694 0 -319.01974071857694 220.20569028976024 0 0 0 0 -390.84902906714291 178.77275565070977 0 178.77275565070977 -21.012633343118068 0 0 0 0 -0.97227442138586273 -0.80491804164834946 0 -0.80491804164834946 0.13996448157764974 0 0 0 0 85.511183181400611 -257.18839739383839 0 -257.18839739383839 277.94207230563006 0 0 0 0 83.031513667436684 -82.832959281360672 0 -82.832959281360672 188.94754751667824 0 0 0 0 266.25728922455681 -164.88397344319469 0 -164.88397344319469 169.58191368731786 0 0 0 0 57.638484885037542 -50.355617976043504 0 -50.355617976043504 293.44193750478007 0 0 0 0 121.28998678741073 255.06514070954654 0 255.06514070954654 362.10633888636585 0 0 0 0 -52.18352321381019 -131.95789086099012 0 -131.95789086099012 168.39525410225906 0 0 0 0 -191.75077745169528 161.42240039062926 0 161.42240039062926 170.11904014794709 0 0 0 0 -297.04125308200264 -41.728134239052451 0 -41.728134239052451 224.73251663402243 0 0 0 0 -4.1081382724250943 41.436365536577796 0 41.436365536577796 219.5696013064553 0 0 0 0 66.06685023798218 90.311626026057638 0 90.311626026057638 -39.230441680239892 0 0 0 0 -32.886179004678525 -193.86468186899947 0 -193.86468186899947 38.046624353896732 0 0 0 0 -107.25907438706781 -111.73587640803453 0 -111.73587640803453 122.48419958651812 0 0 0 0 -247.80651694887422 -52.321559028601769 0 -52.321559028601769 132.09792380014551 0 0 0 0 144.78281554758044 -72.598418774237643 0 -72.598418774237643 50.34066215952771 0 0 0 0 108.62511345114945 -178.12461318130227 0 -178.12461318130227 91.852488753567741 0 0 0 0 132.94979551099641 -80.474703251289611 0 -80.474703251289611 91.103070196084445 0 0 0 0 -3.1591542688266543 -81.803664127209345 0 -81.803664127209345 62.940124457643833 0 0 0 0 -4.4016457560824165 -118.89085723621247 0 -118.89085723621247 135.87811677369609 0 0 0 0 -219.88184785247904 -52.096699340545456 0 -52.096699340545456 132.5605007216509 0 0 0 0 -88.567512698072107 -84.660751735500298 0 -84.660751735500298 37.770069909296581 0 0 0 0 -89.873851940385066 -97.394845975748467 0 -97.394845975748467 140.13486103881587 0 0 0 0 -5.5736728501428221 3.603617152461851 0 3.603617152461851 18.15617262328584 0 0 0 0 -182.71948207192864 -32.637580933251684 0 -32.637580933251684 114.33678440873337 0 0 0 0 -227.50671317423837 -103.26300307341853 0 -103.26300307341853 24.598813122764113 0 0 0 0 -18.53423619602745 -18.558884744106763 0 -18.558884744106763 85.455004076659861 0 0 0 0 -30.50761022229517 -24.38498853177407 0 -24.38498853177407 83.258134304363921 0 0 0 0 -7.5562536866040162 -13.779090108856323 0 -13.779090108856323 40.292210708252611 0 0 0 0 -18.183200406223477 -20.927573615128495 0 -20.927573615128495 19.182883188143023 0 0 0 0 -213.40247441806707 29.665998405154824 0 29.665998405154824 56.399891171982745 0 0 0 0 -97.098625325148532 -20.083024729054159 0 -20.083024729054159 77.626121904057072 0 0 0 0 2.9018247594412578 -13.553217554791264 0 -13.553217554791264 22.754370032264944 0 0 0 0 -41.949674710669569 31.270204284006468 0 31.270204284006468 -22.11716311019336 0 0 0 0 -4.535991048679108 -1.7948444167682709 0 -1.7948444167682709 3.0595648500620465 0 0 0 0 -41.502724329342527 -89.262381250693579 0 -89.262381250693579 -76.54028891065559 0 0 0 0 -9.2891426218666311 -21.468759463041351 0 -21.468759463041351 19.190177619836447 0 0 0 0 -0.19740849666033 -10.287161373445068 0 -10.287161373445068 24.462633873775701 0 0 0 0 0.91363994142693628 -40.311866986246059 0 -40.311866986246059 116.45059624038549 0 0 0 0 0.43984277060974541 -2.7831887327175036 0 -2.7831887327175036 -1.9714052230493166 0 0 0 0 -20.198775598437351 14.429690227623723 0 14.429690227623723 131.98308848942543 0 0 0 0 -17.529623181229681 -100.61522608093128 0 -100.61522608093128 43.053488147255848 0 0 0 0 -0.87241615412381179 -43.207614221064432 0 -43.207614221064432 128.62333257185674 0 0 0 0 -152.57714526221071 -161.56533261560799 0 -161.56533261560799 32.132331747357966 0 0 0 0 -98.063998477977293 -82.098168218359206 0 -82.098168218359206 147.95327519227612 0 0 0 0 -25.59766543265323 11.572501446789829 0 11.572501446789829 258.44791993532635 0 0 0 0 -2.5269773199076333 -6.5692558044682343 0 -6.5692558044682343 -10.886279799009799 0 0 0 0 9.7568489615814542 -60.417643430243515 0 -60.417643430243515 149.15757865743944 0 0 0 0 -40.932138382783705 -52.756765791958969 0 -52.756765791958969 151.93468360824045 0 0 0 0 -27.648783180779901 -29.564517913206146 0 -29.564517913206146 122.02609937537636 0 0 0 0 -16.279529253957662 -10.432106005813694 0 -10.432106005813694 153.50128135525961 0 0 0 0 -6.4931861392765171 -13.749341284529578 0 -13.749341284529578 6.5859679243260301 0 0 0 0 -7.5481412641847783 -20.865866883439594 0 -20.865866883439594 16.213749289443513 0 0 0 0 -10.244188232269291 -22.171914310846496 0 -22.171914310846496 19.752525223471636 0 0 0 0 4.6393227706066682 -85.463404970774718 0 -85.463404970774718 9.884890526154777 0 0 0 0 -24.885275963292315 -21.488319279493226 0 -21.488319279493226 50.548004894697442 0 0 0 0 -22.622877621898397 -29.790128699047273 0 -29.790128699047273 63.333836809095374 0 0 0 0 -26.856654503692425 -51.454930366983717 0 -51.454930366983717 32.084503173751727 0 0 0 0 -26.653911549611166 -16.72529834177476 0 -16.72529834177476 59.08679234959618 0 0 0 0 -12.196161965819556 -44.7009477501324 0 -44.7009477501324 94.399884474853934 0 0 0 0 12.747369178570807 -8.1973601627178141 0 -8.1973601627178141 73.272401510987038 0 0 0 0 -0.13366745727439366 -0.57453843568896623 0 -0.57453843568896623 1.3270191221179459 0 0 0 0 -91.544617192801184 55.881391881842774 0 55.881391881842774 16.498739607410243 0 0 0 0 -41.610946530158799 21.931915342257525 0 21.931915342257525 54.425325107758908 0 0 0 0 -60.286877906816699 2.9939276663590135 0 2.9939276663590135 105.42196548793618 0 0 0 0 -45.727641346943528 -22.724522740087195 0 -22.724522740087195 122.10611712228638 0 0 0 0 -18.658952431650505 -5.8656312415896537 0 -5.8656312415896537 84.846675061447968 0 0 0 0 -42.756486406997453 -10.101331207672274 0 -10.101331207672274 86.844172737513873 0 0 0 0 -3.9680474150661666 -8.3480953652465359 0 -8.3480953652465359 76.446485820441012 0 0 0 0 -1.3200417893506762 -16.796545554513735 0 -16.796545554513735 74.189234898776732 0 0 0 0 -18.416855630350256 -5.9179653980399962 0 -5.9179653980399962 77.368877725712082 0 0 0 0 2.5506691347700325 -20.369112118871271 0 -20.369112118871271 61.604335174130028 0 0 0 0 -7.9507318658199893 -14.372895783993044 0 -14.372895783993044 62.116035509279754 0 0 0 0 5.8399822590772601 -22.110644414526178 0 -22.110644414526178 51.275765793950995 0 0 0 0 -5.0569696022935204 -14.996891401136054 0 -14.996891401136054 22.28862668875081 0 0 0 0 4.8873774504245375 -18.182578603626098 0 -18.182578603626098 62.228949977667071 0 0 0 0 6.4551763200661298 -30.309211422416411 0 -30.309211422416411 70.006657597701633 0 0 0 0 4.6623095518616537 -49.485426496359651 0 -49.485426496359651 90.837878593845289 0 0 0 0 -3.9881706733585816 -28.825346494470978 0 -28.825346494470978 84.755668578978657 0 0 0 0 0.45122001506751985 -48.177728901700902 0 -48.177728901700902 71.374337043956075 0 0 0 0 4.9501987666708374 -33.193692773649673 0 -33.193692773649673 87.311553129666208 0 0 0 0 -33.159511771852522 -31.52651873396735 0 -31.52651873396735 47.855221730744233 0 0 0 0 -1.4053238034870219 -27.496294459529167 0 -27.496294459529167 35.877009639898461 0 0 0 0 -17.911312424395874 -61.022490723489682 0 -61.022490723489682 81.307197955424272 0 0 0 0 -6.4614178321257896 -16.503512438086545 0 -16.503512438086545 -15.434653464511939 0 0 0 0 -135.46546030456511 12.444820731686377 0 12.444820731686377 37.111996809326229 0 0 0 0 -48.705082350531029 -40.460865869647023 0 -40.460865869647023 20.75658484496671 0 0 0 0 -0.34540152447362737 -0.83223272190901554 0 -0.83223272190901554 3.1818632171006058 0 0 0 0 -34.239767922826104 -11.401144198975089 0 -11.401144198975089 45.947720553675026 0 0 0 0 -59.272858986701976 -74.053309141141654 0 -74.053309141141654 -33.832302782220268 0 0 0 0 -79.226282772441664 -30.235065980351465 0 -30.235065980351465 233.89139927876022 0 0 0 0 -1.876081040405392 -0.26569416334383078 0 -0.26569416334383078 0.29744462169187313 0 0 0 0 -143.87256806791902 27.908906196585122 0 27.908906196585122 120.5322140077551 0 0 0 0 47.033915367476311 95.477997279617739 0 95.477997279617739 99.565380077779992 0 0 0 0 -124.74456714278585 -155.08867186901625 0 -155.08867186901625 255.40752784771212 0 0 0 0 -116.80589171454477 -58.288951797592972 0 -58.288951797592972 213.16336920980393 0 0 0 0 37.7194446262871 -141.192900941988 0 -141.192900941988 126.06728295973517 0 0 0 0 -11.743389441637191 -67.268980715038197 0 -67.268980715038197 15.93592413778606 0 0 0 0 -22.183554273480922 -92.835723637008414 0 -92.835723637008414 118.11640205640651 0 0 0 0 -43.734786699652659 -12.898360782726058 0 -12.898360782726058 207.20429748317838 0 0 0 0 8.86775017924856 -12.336176543424699 0 -12.336176543424699 114.08149817174763 0 0 0 0 -54.116165411706788 -42.648486204301662 0 -42.648486204301662 169.38331274326993 0 0 0 0 11.677379409135483 -41.598837408962027 0 -41.598837408962027 92.860363961503936 0 0 0 0 -0.55828877902285967 -12.175905393509311 0 -12.175905393509311 72.743076200975338 0 0 0 0 10.649753260425314 -48.865848086550614 0 -48.865848086550614 87.234491744524348 0 0 0 0 -3.5205234610016305 -14.058375628966587 0 -14.058375628966587 22.733093135429954 0 0 0 0 -5.2034265601316854 -0.43041216726366827 0 -0.43041216726366827 -0.75307669647325115 0 0 0 0 -3.0775656029495622 -31.846871794833532 0 -31.846871794833532 140.34323463409601 0 0 0 0 -21.520473147937309 -10.393316352844067 0 -10.393316352844067 46.57242219193904 0 0 0 0 -9.6359921393759578 -7.2317858724964026 0 -7.2317858724964026 42.670423273415508 0 0 0 0 -10.208478398954753 -18.415328740638643 0 -18.415328740638643 57.960479213863437 0 0 0 0 -14.716276368120589 -9.1366540716808231 0 -9.1366540716808231 63.045361216367382 0 0 0 0 -4.2284389087882914 -0.86660642081983497 0 -0.86660642081983497 51.005983726572595 0 0 0 0 -19.522275223280303 -7.1433129105462285 0 -7.1433129105462285 62.017596741383386 0 0 0 0 -21.669327690799946 22.195628645158649 0 22.195628645158649 92.935485390691611 0 0 0 0 -75.070837680453678 -13.445632685534292 0 -13.445632685534292 81.601775379174796 0 0 0 0 -16.144973930127207 -9.1809083401703901 0 -9.1809083401703901 26.607641091155529 0 0 0 0 8.3944630577327644 11.528143694831215 0 11.528143694831215 83.301511684901925 0 0 0 0 -32.29613392124611 27.375453047501651 0 27.375453047501651 89.985197526933916 0 0 0 0 -34.969952485478643 23.673220994181975 0 23.673220994181975 105.24591666838205 0 0 0 0 -30.307612163170234 13.098666958794638 0 13.098666958794638 83.680551327924263 0 0 0 0 -28.318248218927238 26.792517120922639 0 26.792517120922639 99.32763198223256 0 0 0 0 -26.994989741489803 21.504417667977123 0 21.504417667977123 94.205508014369116 0 0 0 0 -20.614494188704157 30.044401913897786 0 30.044401913897786 108.1375108752618 0 0 0 0 -22.29962368473889 20.55710266967435 0 20.55710266967435 90.367983093485236 0 0 0 0 -18.66645322300792 12.959260746038126 0 12.959260746038126 97.239080122253654 0 0 0 0 -12.741652582041752 31.645317906773926 0 31.645317906773926 94.259084912969229 0 0 0 0 -17.794977890005157 16.322348775977844 0 16.322348775977844 59.365238589318324 0 0 0 0 15.450964754835923 14.719864016875817 0 14.719864016875817 16.7699074195516 0 0 0 0 1.4454272068614955 23.751306812978328 0 23.751306812978328 49.742776418122958 0 0 0 0 -12.459845887789925 1.7041210189281628 0 1.7041210189281628 36.733041974674052 0 0 0 0 -7.9850734265723986 24.730799379445216 0 24.730799379445216 2.7668919008101511 0 0 0 0 -3.6131662738516752 9.7531010129332572 0 9.7531010129332572 17.778313507682469 0 0 0 0 -21.665423345712952 17.317504054579331 0 17.317504054579331 14.738053754103021 0 0 0 0 -5.535405282533894 6.8261382083495477 0 6.8261382083495477 15.072585374374405 0 0 0 0 -7.7520506014770945 7.1531646135808842 0 7.1531646135808842 26.429702843841369 0 0 0 0 0.097071677548317581 10.495741661398757 0 10.495741661398757 13.679211017042093 0 0 0 0 6.8526432624953486 21.994351198140976 0 21.994351198140976 -11.203546466660555 0 0 0 0 -31.843723908125071 11.614583947369738 0 11.614583947369738 15.282356665531552 0 0 0 0 4.543495286119196 17.640299919964491 0 17.640299919964491 16.116156270605643 0 0 0 0 -1.3666875800813481 3.9362162464158352 0 3.9362162464158352 2.0088349320667618 0 0 0 0 -21.640559876502408 37.522594950906296 0 37.522594950906296 66.43409215914653 0 0 0 0 -26.744714956922962 3.8642245757473574 0 3.8642245757473574 51.3491976748046 0 0 0 0 -20.286474058861586 23.275909102185324 0 23.275909102185324 40.858615367495076 0 0 0 0 0.68173234185623643 12.535579351542383 0 12.535579351542383 20.932858427508862 0 0 0 0 48.284956246883212 48.515869052342168 0 48.515869052342168 -19.219293100179129 0 0 0 0 -22.020878101444396 32.264995107909272 0 32.264995107909272 28.458600579095219 0 0 0 0 -0.31032816062102775 4.3633230305596236 0 4.3633230305596236 -0.49057385634864659 0 0 0 0 -2.1645656646641562 16.334319346064177 0 16.334319346064177 25.82083904103856 0 0 0 0 -30.934488693290206 38.567863767488689 0 38.567863767488689 34.998919499023032 0 0 0 0 -34.868610591712695 16.279066835615595 0 16.279066835615595 123.48290917343365 0 0 0 0 -15.842893014941865 -2.6567029970919975 0 -2.6567029970919975 87.385395896952105 0 0 0 0 36.430668102131222 19.572678977187024 0 19.572678977187024 74.771265353676426 0 0 0 0 7.6692100101049618 -31.093960736351164 0 -31.093960736351164 81.306791774386511 0 0 0 0 -15.421355400164657 -8.2791074542237766 0 -8.2791074542237766 69.258704133218089 0 0 0 0 -15.927405937143249 -5.642370610868511 0 -5.642370610868511 57.779977291043906 0 0 0 0 -11.446377843657501 0.29837126188795082 0 0.29837126188795082 58.561056395721607 0 0 0 0 -8.2426126162095077 10.152879832100734 0 10.152879832100734 25.088752501367594 0 0 0 0 -11.040691887881565 10.058479884979533 0 10.058479884979533 7.2278143800831458 0 0 0 0 -5.0600555758157952 19.322614724480445 0 19.322614724480445 -0.030453775582827802 0 0 0 0 -4.7897857067779297 15.020398922192769 0 15.020398922192769 20.691943395595025 0 0 0 0 0.13208598726532728 40.50314841418367 0 40.50314841418367 -4.3424863138207002 0 0 0 0 15.027798531414987 23.982948840142853 0 23.982948840142853 2.4355559976065706 0 0 0 0 3.3427892976642397 10.018678783493669 0 10.018678783493669 22.428629107696906 0 0 0 0 18.610682543480607 20.231441739841102 0 20.231441739841102 8.9263232362281997 0 0 0 0 0.46777211263441332 1.3414175723249517 0 1.3414175723249517 6.6466537034913102 0 0 0 0 89.965058946793988 81.273712695994618 0 81.273712695994618 66.016695078080375 0 0 0 0 0.47898205644804365 1.1564774709710264 0 1.1564774709710264 2.0510649460145913 0 0 0 0 88.821985325899448 -94.732238624077581 0 -94.732238624077581 122.10696370192454 0 0 0 0 -31.302893555196164 1.7895754702085469 0 1.7895754702085469 204.59948533124407 0 0 0 0 29.273090581455563 -99.649912077968111 0 -99.649912077968111 145.60461290076273 0 0 0 0 0.11970710894921721 0.35780590493535414 0 0.35780590493535414 0.93218419187695645 0 0 0 0 -54.480228223088943 33.633515089546563 0 33.633515089546563 99.73347941117936 0 0 0 0 -55.10136781309302 -18.904784597441903 0 -18.904784597441903 146.93523030947858 0 0 0 0 25.142555500440608 -10.086319954918508 0 -10.086319954918508 9.6140242592846334 0 0 0 0 -23.696968424980241 -22.578134611936548 0 -22.578134611936548 147.17756335972808 0 0 0 0 17.416791075090543 -4.7715674233359096 0 -4.7715674233359096 12.097687236237107 0 0 0 0 -61.472998419084433 49.839089590882395 0 49.839089590882395 13.209781681671302 0 0 0 0 -1.2218080885340328 -5.2189126901457712 0 -5.2189126901457712 -2.1438218996372598 0 0 0 0 -7.2632880803279249 1.0771673108401956 0 1.0771673108401956 4.9983705551421735 0 0 0 0 5.3800911304796273 4.9966238890847308 0 4.9966238890847308 7.8223327149353281 0 0 0 0 9.7799722624976084 -5.2292440310084203 0 -5.2292440310084203 9.1588268892428459 0 0 0 0 -0.77391799595629995 5.8923082112077303 0 5.8923082112077303 9.2889719178624972 0 0 0 0 -11.220474886575516 -7.7094169006286393 0 -7.7094169006286393 27.416523545043674 0 0 0 0 -9.0058563806446728 3.7927342420462082 0 3.7927342420462082 22.633635255238914 0 0 0 0 -7.8657705281759007 -1.5894965522880184 0 -1.5894965522880184 9.7358768446368344 0 0 0 0 19.532054394363968 -39.927913662806532 0 -39.927913662806532 42.772194691566256 0 0 0 0 -28.20533146185312 3.5640475548752875 0 3.5640475548752875 92.920463626185665 0 0 0 0 -3.6437159942114441 -2.2068343912990258 0 -2.2068343912990258 5.8132192275516985 0 0 0 0 16.208843411377529 -3.5047717664274387 0 -3.5047717664274387 169.11365263063271 0 0 0 0 25.041074601836044 -31.601381251493876 0 -31.601381251493876 84.6986172128818 0 0 0 0 -25.120988373932619 -1.2547631538564019 0 -1.2547631538564019 17.323624259293865 0 0 0 0 -20.24739029628654 25.590423291025218 0 25.590423291025218 72.872719446115298 0 0 0 0 17.454224664547837 6.0949078685662244 0 6.0949078685662244 66.067616077860293 0 0 0 0 -36.249500695747429 40.793359254423194 0 40.793359254423194 18.923587426779704 0 0 0 0 -16.562358612709431 -11.7476529368505 0 -11.7476529368505 91.318004223576281 0 0 0 0 0.25592245978500916 -5.7044861975956502 0 -5.7044861975956502 28.845569105921584 0 0 0 0 -34.914069038054663 11.887182657279482 0 11.887182657279482 68.036093517566769 0 0 0 0 -6.0151875071716177 -5.6768778504447255 0 -5.6768778504447255 23.965296164846222 0 0 0 0 -1.0402002957453118 -4.6005901648283256 0 -4.6005901648283256 23.162385768431463 0 0 0 0 -5.1788222736438927 2.910491983639357 0 2.910491983639357 41.392822511850667 0 0 0 0 3.2310782455094795 -0.07696573882640223 0 -0.07696573882640223 52.517113359957875 0 0 0 0 1.1175246921475264 -5.51539287009291 0 -5.51539287009291 63.06537344751996 0 0 0 0 -10.992826584452587 -21.534694864192716 0 -21.534694864192716 53.64957739024976 0 0 0 0 -6.564695777188569 9.922238931015201 0 9.922238931015201 8.2967534256702749 0 0 0 0 -27.190727449848737 -20.498519923137792 0 -20.498519923137792 6.0481166971003404 0 0 0 0 -5.9327994273539844 -5.0288638000374704 0 -5.0288638000374704 49.847868534921872 0 0 0 0 -5.889955429366637 -5.5890025414319098 0 -5.5890025414319098 56.635469470779753 0 0 0 0 -8.9747830353630889 -10.712425494861236 0 -10.712425494861236 51.119866734492462 0 0 0 0 -0.34146418769978482 -5.6299045109635699 0 -5.6299045109635699 49.061054356006935 0 0 0 0 -2.8519779681656701 -9.4643646816093678 0 -9.4643646816093678 43.951357385361916 0 0 0 0 -8.1603813638348406 -2.089756481844411 0 -2.089756481844411 7.6170835695451489 0 0 0 0 -6.7110035216910546 -23.46263802478461 0 -23.46263802478461 70.636693266336465 0 0 0 0 9.1254279562430156 -37.990500798302151 0 -37.990500798302151 37.726799978750932 0 0 0 0 -32.794700444451337 -12.536843382893494 0 -12.536843382893494 68.334688982035004 0 0 0 0 5.715550374543227 -39.031949093499861 0 -39.031949093499861 53.568223712667532 0 0 0 0 8.5942144923315098 -21.686621552993742 0 -21.686621552993742 46.992797493101875 0 0 0 0 -11.661582208060508 -3.1166476961807348 0 -3.1166476961807348 30.799545780211702 0 0 0 0 91.799501939429774 -91.822269346035682 0 -91.822269346035682 41.525580417575839 0 0 0 0 -3.5471853490482772 -9.8386311550493701 0 -9.8386311550493701 18.027032617668738 0 0 0 0 -0.47755039570225022 -1.9427930804453535 0 -1.9427930804453535 4.5060138551904885 0 0 0 0 -37.296185983453825 -18.831118095549755 0 -18.831118095549755 6.5921936064478359 0 0 0 0 -46.59843418579203 -15.119774405822682 0 -15.119774405822682 33.999365297422628 0 0 0 0 -43.437480510904834 -8.0666244941703553 0 -8.0666244941703553 27.791978433175245 0 0 0 0 -38.585370946563216 -28.924213502648854 0 -28.924213502648854 -14.302651630157925 0 0 0 0 -1.2118388829360489 1.0983278644817602 0 1.0983278644817602 3.2941807856977352 0 0 0 0 4.0676149735504623 18.540241327538752 0 18.540241327538752 -33.212355642725015 0 0 0 0 29.056879626348291 -14.273335645372754 0 -14.273335645372754 39.799921293437365 0 0 0 0 3.8248843134024102 -8.731784359546694 0 -8.731784359546694 21.798085206808736 0 0 0 0 25.647503577858515 -14.083520867810876 0 -14.083520867810876 1.7207530016094097 0 0 0 0 25.042206525146412 -65.726433173374971 0 -65.726433173374971 82.736313528042956 0 0 0 0 40.930939200160992 -27.08898739077631 0 -27.08898739077631 -59.195673755893949 0 0 0 0 -59.322122352428778 -25.047679618863185 0 -25.047679618863185 14.282026451503043 0 0 0 0 -53.303043570743739 11.704094145956333 0 11.704094145956333 30.019007985647477 0 0 0 0 -2.850404904809352 -5.2141017507392462 0 -5.2141017507392462 16.139555675581505 0 0 0 0 -4.1307548099082396 -12.204313769154851 0 -12.204313769154851 22.962056785945606 0 0 0 0 10.963666210257543 -15.827918532573676 0 -15.827918532573676 16.198466003868816 0 0 0 0 20.135597832029816 -10.596187897914206 0 -10.596187897914206 16.443733330786927 0 0 0 0 28.529086837453178 -32.847481427525054 0 -32.847481427525054 24.712373809286873 0 0 0 0 21.567573219501355 -11.871680937485507 0 -11.871680937485507 13.411916628312611 0 0 0 0 -2.4222623780327979 -0.37762780686322373 0 -0.37762780686322373 8.4740896902312528 0 0 0 0 7.3932715975782912 -13.846681840241217 0 -13.846681840241217 17.341357361845439 0 0 0 0 -7.8700255023461096 8.6283055671337934 0 8.6283055671337934 15.442379061481915 0 0 0 0 15.379115786198781 -16.831542772850298 0 -16.831542772850298 24.601414930890314 0 0 0 0 10.594990306435648 -14.993922626803396 0 -14.993922626803396 24.476509271869418 0 0 0 0 -11.775960779610891 -0.024177126485447786 0 -0.024177126485447786 19.981696518242856 0 0 0 0 -22.589895713623122 6.6597185080709096 0 6.6597185080709096 21.029822802054696 0 0 0 0 -3.2277252493044877 -1.8491368438740565 0 -1.8491368438740565 15.809678731913948 0 0 0 0 -14.851557958018823 -1.5724059839521942 0 -1.5724059839521942 22.9971488464289 0 0 0 0 -12.154600650719356 -1.3750909037278944 0 -1.3750909037278944 14.523468491653688 0 0 0 0 -22.109327363669308 -2.6096393310799613 0 -2.6096393310799613 24.714344727239222 0 0 0 0 -0.11163306457979072 0.46695203470530089 0 0.46695203470530089 6.2797557710363776 0 0 0 0 17.219117329575056 -36.119790936712889 0 -36.119790936712889 55.126825555125833 0 0 0 0 -33.619687519173112 18.695045566946646 0 18.695045566946646 4.0868234745139489 0 0 0 0 22.455401007885257 -13.899671612858583 0 -13.899671612858583 -4.0032091167013277 0 0 0 0 2.7869575832223745 -2.1742681156174513 0 -2.1742681156174513 15.051635761687066 0 0 0 0 -0.60181449591073033 -1.1643166295507399 0 -1.1643166295507399 -3.7786640980484663 0 0 0 0 -24.84774493700138 20.644224327646953 0 20.644224327646953 -2.4511587230663281 0 0 0 0 -2.9817270619411147 -7.5163526816868398 0 -7.5163526816868398 -4.5583588992412842 0 0 0 0 -7.9248526280514398 -1.6193165765762387 0 -1.6193165765762387 82.807051791591221 0 0 0 0 -0.021483640300623108 -39.733145892011635 0 -39.733145892011635 32.644556434912374 0 0 0 0 -9.9870099282739773 -12.040679221050596 0 -12.040679221050596 32.528577017699718 0 0 0 0 -15.815403784333071 3.7077887065725008 0 3.7077887065725008 85.333792760153301 0 0 0 0 -0.30285097248727277 0.12466693756298852 0 0.12466693756298852 2.2004373027885009 0 0 0 0 -2.8172729267504435 -3.2292854755106575 0 -3.2292854755106575 23.516241286081879 0 0 0 0 -13.612328655118745 -8.8970114692201605 0 -8.8970114692201605 68.056216954952106 0 0 0 0 -28.57742427715084 25.087032456453016 0 25.087032456453016 -199.22667748329695 0 0 0 0 -44.350668151237073 9.4360076911725628 0 9.4360076911725628 31.6199011655699 0 0 0 0 -1.3597428596608552 -0.29423814699839568 0 -0.29423814699839568 20.123422875272809 0 0 0 0 -4.9585359791362862 -17.79507730716432 0 -17.79507730716432 37.179553729898771 0 0 0 0 -221.55707362111298 103.38236828929257 0 103.38236828929257 437.68830722833809 0 0 0 0 -4.3598035582165089 -2.5116048962678974 0 -2.5116048962678974 4.716653683996725 0 0 0 0 -9.6705968556085509 -0.62059429736655147 0 -0.62059429736655147 24.18904426847439 0 0 0 0 -9.1034902527312624 -6.7897181034495588 0 -6.7897181034495588 23.184119014387761 0 0 0 0 -7.0020227339706089 -5.2678715515815213 0 -5.2678715515815213 7.737855190077056 0 0 0 0 -28.760535462889038 -5.3491520783791202 0 -5.3491520783791202 36.966154801177709 0 0 0 0 -12.654399099755437 2.8846488886447332 0 2.8846488886447332 23.190298035071464 0 0 0 0 -16.919276358902152 -0.28977751300408272 0 -0.28977751300408272 23.133261239909871 0 0 0 0 -22.306882078404215 11.848784227244323 0 11.848784227244323 15.704438992223004 0 0 0 0 -15.181462591845161 0.94952106502205424 0 0.94952106502205424 26.828175854650908 0 0 0 0 -5.0763525184227092 -17.222093626411606 0 -17.222093626411606 23.441117527603637 0 0 0 0 -11.979594242063845 3.6119719879602314 0 3.6119719879602314 9.6077272918331005 0 0 0 0 -10.410209211310303 1.6488894472058746 0 1.6488894472058746 16.814188060531706 0 0 0 0 -7.9685855532267169 4.8480927602395241 0 4.8480927602395241 22.138874033735192 0 0 0 0 -11.496540681617034 -80.778611532677132 0 -80.778611532677132 132.51742090799235 0 0 0 0 -10.142489119458697 5.8245111675891081 0 5.8245111675891081 12.690050795315365 0 0 0 0 -94.166925652705686 -27.002490134318577 0 -27.002490134318577 143.17510637608939 0 0 0 0 -7.1936944695840053 -7.7257569168573212 0 -7.7257569168573212 10.144641103869859 0 0 0 0 -2.828674532533455 -4.1693689793319209 0 -4.1693689793319209 29.380853314873093 0 0 0 0 -10.461126219311069 -3.355714339371616 0 -3.355714339371616 19.596217743339366 0 0 0 0 -13.268107857915766 -6.0872963005258498 0 -6.0872963005258498 16.977322597849707 0 0 0 0 -1.0450371565847139 1.7396243862051861 0 1.7396243862051861 6.1871786818703924 0 0 0 0 0.80272937881970563 -25.138179742602006 0 -25.138179742602006 25.572997712268261 0 0 0 0 -14.996673765605237 7.5170462433361536 0 7.5170462433361536 17.130094268175526 0 0 0 0 -1.2731426924763198 -5.6490170356496492 0 -5.6490170356496492 21.888604617612145 0 0 0 0 -10.487386847572452 -5.8957695860699459 0 -5.8957695860699459 37.600983634205477 0 0 0 0 -9.0476709442910419 -10.014740168488061 0 -10.014740168488061 7.5298176720825722 0 0 0 0 -42.332432990099051 8.9882606332939758 0 8.9882606332939758 9.3344845121473554 0 0 0 0 0.83716257712024555 1.3399707016753446 0 1.3399707016753446 2.341730643079643 0 0 0 0 42.235054291960978 -49.129846538526181 0 -49.129846538526181 35.840689358148666 0 0 0 0 -26.460550452211237 -6.8559530042366532 0 -6.8559530042366532 67.424990383839031 0 0 0 0 -45.583088698040001 4.8892389384764101 0 4.8892389384764101 26.390696262536949 0 0 0 0 -3.6175458393084341 -6.1419423073839425 0 -6.1419423073839425 -12.710189970544889 0 0 0 0 -47.998966348360739 -60.856013054532923 0 -60.856013054532923 67.264857005564409 0 0 0 0 -9.3627964456543395 45.262710816776234 0 45.262710816776234 -17.202441888487783 0 0 0 0 0.051904320716067431 -0.23822635676245341 0 -0.23822635676245341 1.0375653969808809 0 0 0 0 13.955616407576315 -32.401986941063569 0 -32.401986941063569 80.032503151196579 0 0 0 0 0.39688518359357683 -0.77417463165908629 0 -0.77417463165908629 0.46449758204636282 0 0 0 0 50.28880292764552 -38.179934974332355 0 -38.179934974332355 49.867988603611593 0 0 0 0 40.632986535265218 60.134478261617915 0 60.134478261617915 61.554361953225452 0 0 0 0 -32.104485488198407 38.049469260853584 0 38.049469260853584 32.14749992130055 0 0 0 0 -0.66276625559043445 0.27488458919199754 0 0.27488458919199754 21.912965364698096 0 0 0 0 -7.9925087918786062 3.4046725654025067 0 3.4046725654025067 28.463968867930816 0 0 0 0 -5.2730963697242146 -2.2316236716505955 0 -2.2316236716505955 25.140707073460362 0 0 0 0 2.2254811398165657 4.8682433223148109 0 4.8682433223148109 14.540039904895821 0 0 0 0 1.2861720187306673 10.185657158726826 0 10.185657158726826 18.875203255927772 0 0 0 0 -0.63679313982789898 1.8871798968572051 0 1.8871798968572051 6.1360345278903097 0 0 0 0 33.463206636554105 36.184857749442017 0 36.184857749442017 13.40083232766483 0 0 0 0 -6.8440244789262579 -2.669607510073547 0 -2.669607510073547 5.1651559723177343 0 0 0 0 1.3022767366458652 9.7447446703388323 0 9.7447446703388323 21.882559965015389 0 0 0 0 -0.23275862376590339 -32.02742851513176 0 -32.02742851513176 14.081931438428001 0 0 0 0 31.467471129993555 -12.852228320778522 0 -12.852228320778522 16.020006856153486 0 0 0 0 3.1318060463363508 0.16550546960206702 0 0.16550546960206702 32.252826155730872 0 0 0 0 -25.143926457205225 -34.939232047385303 0 -34.939232047385303 25.011269624257693 0 0 0 0 -1.5648787305780569 0.1949153544565192 0 0.1949153544565192 3.3821356118361621 0 0 0 0 -9.5457238361461805 0.75250311161289574 0 0.75250311161289574 18.660286568803713 0 0 0 0 -0.86584733859576191 -1.4825090999063644 0 -1.4825090999063644 9.360595295151839 0 0 0 0 -0.29134818053671552 -3.767595144938241 0 -3.767595144938241 12.10377686470747 0 0 0 0 -1.4413328887983405 -0.30306622480848233 0 -0.30306622480848233 17.676915151554198 0 0 0 0 -29.174068529964529 -29.160941596956036 0 -29.160941596956036 28.212691764943884 0 0 0 0 2.5055976761354941 -18.911428462233744 0 -18.911428462233744 23.863518917343754 0 0 0 0 -18.078185756842913 -22.496397781353153 0 -22.496397781353153 23.241211393307822 0 0 0 0 -0.32528215924731807 -3.4363334814737456 0 -3.4363334814737456 2.2677444097435284 0 0 0 0 -1.11319993865609 0.82360041817496032 0 0.82360041817496032 18.5479965080238 0 0 0 0 1.3365948408038548 4.4297825903740886 0 4.4297825903740886 18.503271935256635 0 0 0 0 -14.232535511725132 0.022496385838167043 0 0.022496385838167043 16.914611076383153 0 0 0 0 -4.9439520815436842 -4.7028231863935517 0 -4.7028231863935517 19.541043886595972 0 0 0 0 -3.0061654331875438 2.798046952952518 0 2.798046952952518 21.422785183647648 0 0 0 0 -9.7114124017955419 -5.9901778499588545 0 -5.9901778499588545 20.600168077120543 0 0 0 0 -7.1074576451210874 -0.44249480438156752 0 -0.44249480438156752 9.4630189152376261 0 0 0 0 7.4532288810911211 -6.5224145843239967 0 -6.5224145843239967 4.4791059807985221 0 0 0 0 0.56323052047922317 0.39569525447086562 0 0.39569525447086562 7.1963193556657643 0 0 0 0 0.59216678872918438 1.8516913234715986 0 1.8516913234715986 7.7402619741734924 0 0 0 0 -2.2729486346406702e-05 -1.5768457356120962 0 -1.5768457356120962 8.9216843889589654 0 0 0 0 0.68048183404879903 -0.47145843143118427 0 -0.47145843143118427 6.1017445737137734 0 0 0 0 1.0124086282073534 -2.5218878870826842 0 -2.5218878870826842 5.4056227159604191 0 0 0 0 -1.0807027170420158 -2.9726366726392222 0 -2.9726366726392222 10.235270331801814 0 0 0 0 -2.5840771212191695 -1.9055558495749114 0 -1.9055558495749114 17.300797293816103 0 0 0 0 -0.10885370658695592 -4.2229940122215339 0 -4.2229940122215339 12.685690008001984 0 0 0 0 -25.1401940755905 -7.5142146661382867 0 -7.5142146661382867 30.645514405136055 0 0 0 0 -5.6019267338501777 -3.9228357177780708 0 -3.9228357177780708 16.144463696124149 0 0 0 0 16.744595522839177 -10.319347985430795 0 -10.319347985430795 -16.915392261944362 0 0 0 0 0.54102502958357945 -4.5501543305290397 0 -4.5501543305290397 14.255601308395853 0 0 0 0 0.095259319941808807 -4.991975543077686 0 -4.991975543077686 15.71611906892101 0 0 0 0 -6.5867322111734214 0.01534599339971976 0 0.01534599339971976 12.927339191692631 0 0 0 0 9.9973518127226271 -12.406395693333252 0 -12.406395693333252 -40.721156365973002 0 0 0 0 11.01440193869437 10.9787942228877 0 10.9787942228877 26.416777818056289 0 0 0 0 0.49464857693935449 -2.4837786983868675 0 -2.4837786983868675 -0.20003965268870161 0 0 0 0 11.48496537562994 5.1771675575873815 0 5.1771675575873815 6.6190553042906686 0 0 0 0 11.484965375627553 5.1771675575873815 0 5.1771675575873815 6.6190553043707041 0 0 0 0 11.484965375641082 5.1771675575582776 0 5.1771675575582776 6.6190553042906686 0 0 0 0 0.33048985714852536 -10.318204993039091 0 -10.318204993039091 14.724443929283154 0 0 0 0 -0.44266228296763188 1.3173859323724173 0 1.3173859323724173 39.918939886825683 0 0 0 0 0.35149279374096221 -5.2961650283214112 0 -5.2961650283214112 20.6707519310512 0 0 0 0 4.5716388472518474 -5.6295498246399802 0 -5.6295498246399802 17.847740450706624 0 0 0 0 -0.095345012473302404 -4.1239201474818401 0 -4.1239201474818401 17.757748246163828 0 0 0 0 8.3041145666292451 -4.1312935952046246 0 -4.1312935952046246 5.6227371497298009 0 0 0 0 -0.3299370370754815 2.4238670825307054 0 2.4238670825307054 7.7933806001965422 0 0 0 0 2.3488248695712741 1.4678221417743771 0 1.4678221417743771 4.9911098928021147 0 0 0 0 1.6850196505672557 2.983884077501898 0 2.983884077501898 1.9775526802477543 0 0 0 0 0.63093197295290793 0.3193532847762981 0 0.3193532847762981 9.0787477036428754 0 0 0 0 0.63567477065697098 0.30788518349197602 0 0.30788518349197602 0.38106960534751977 0 0 0 0 5.7548947933954082 2.8985803529212717 0 2.8985803529212717 5.0333099663444045 0 0 0 0 -2.2109426376692625 -2.362861586650979 0 -2.362861586650979 19.1634738139619 0 0 0 0 -0.19312987683424154 0.54055323586726445 0 0.54055323586726445 9.9013706838450162 0 0 0 0 0.10719976917884869 -0.36335340434595764 0 -0.36335340434595764 0.93129291771342082 0 0 0 0 0.93875789388242126 5.3378685584048071 0 5.3378685584048071 21.001970910801901 0 0 0 0 0.8352558937507979 6.378173957218678 0 6.378173957218678 21.847996212254657 0 0 0 0 2.6449644672483856 11.2315868602509 0 11.2315868602509 34.102115802314074 0 0 0 0 -1.4132698495606633 -1.0299990172316029 0 -1.0299990172316029 26.731981765884484 0 0 0 0 -1.4298375279265656 3.550074497325113 0 3.550074497325113 28.459475264549837 0 0 0 0 -1.6169417258362273 2.3391879740302102 0 2.3391879740302102 20.623159466504148 0 0 0 0 -0.093935812659301426 1.41151266286397 0 1.41151266286397 70.400447436055401 0 0 0 0 -0.14011083475829142 0.24414547251699759 0 0.24414547251699759 0.29196567866213741 0 0 0 0 2.80511132858773 -13.716569116804749 0 -13.716569116804749 63.035796332340396 0 0 0 0 -0.049792454489870394 0.046089016480905798 0 0.046089016480905798 0.46792297321098886 0 0 0 0 -6.9685169966426699 -3.9598967548154178 0 -3.9598967548154178 34.284799739394543 0 0 0 0 -9.4449864190552404 0.59974728155066259 0 0.59974728155066259 60.0764260656033 0 0 0 0 17.876298965641706 36.728656612620398 0 36.728656612620398 53.7468672209734 0 0 0 0 1.7430100600551157 12.908982511098657 0 12.908982511098657 31.013268818009237 0 0 0 0 -0.12559956538909575 0.62710828111066519 0 0.62710828111066519 -0.42185310992323366 0 0 0 0 -3.782138505681246 2.5573811943286273 0 2.5573811943286273 3.8569564825957059 0 0 0 0 0.056587950775566297 -0.41559780450582195 0 -0.41559780450582195 1.7944052988997612 0 0 0 0 -1.5969464073077819 -2.6115688922382105 0 -2.6115688922382105 -0.28175698988343356 0 0 0 0 -0.0081821071422956849 -1.2454865564905049 0 -1.2454865564905049 0.027366217986127594 0 0 0 0 -3.2546821013617899 -2.1162897892500041 0 -2.1162897892500041 -0.3870933404605239 0 0 0 0 0.3226717439177591 -1.7143961841247801 0 -1.7143961841247801 2.1003906758196536 0 0 0 0 0.10452731210523726 -0.39570237545543918 0 -0.39570237545543918 1.2786962977862117 0 0 0 0 -7.8021249986700774 -4.4741997571909451 0 -4.4741997571909451 3.5678680325436289 0 0 0 0 -9.7103342127765586 -3.2462896565666597 0 -3.2462896565666597 7.7069918666747981 0 0 0 0 0.011986966034748074 -4.6206994432177453 0 -4.6206994432177453 0.35756944587046746 0 0 0 0 -4.6116091434515756 -5.9381077565594751 0 -5.9381077565594751 3.7328424710576655 0 0 0 0 5.7107122955811143 8.9655978262744611 0 8.9655978262744611 5.6313633501195 0 0 0 0 -4.2751924613958723 -6.5695954323327896 0 -6.5695954323327896 39.293059835432359 0 0 0 0 -0.012782248085090825 -3.9063804942379647 0 -3.9063804942379647 40.348439564109867 0 0 0 0 -1.2520267361472133 -18.243505052378168 0 -18.243505052378168 72.311136046500906 0 0 0 0 -4.0471342214395634 14.196794727282395 0 14.196794727282395 42.569023715484946 0 0 0 0 0.063334626950233314 -0.17065336829007549 0 -0.17065336829007549 0.50536779474114724 0 0 0 0 27.700804036932922 -22.042683395955464 0 -22.042683395955464 5.1419507501341286 0 0 0 0 8.5975476827013253 -30.145114353477766 0 -30.145114353477766 41.261221157001273 0 0 0 0 -5.3552871198462668 -17.911154264671495 0 -17.911154264671495 37.650102957305876 0 0 0 0 3.1623148771581526 -18.573403065038292 0 -18.573403065038292 18.495822835627223 0 0 0 0 -4.4823279138965972 -18.210090453494558 0 -18.210090453494558 37.643175415243604 0 0 0 0 -2.6728442473708611 -18.528547022040073 0 -18.528547022040073 33.689513833916862 0 0 0 0 -8.2403756719596259 1.0087032826559152 0 1.0087032826559152 18.435556096461369 0 0 0 0 -4.0011532844957713 -22.79242133117441 0 -22.79242133117441 55.055977246480325 0 0 0 0 -1.4959260725142016 2.9659644566490897 0 2.9659644566490897 56.199187126083643 0 0 0 0 13.323081682755014 11.377073277100862 0 11.377073277100862 37.880408917419118 0 0 0 0 11.116460976915889 4.2440168127868674 0 4.2440168127868674 20.405766101182962 0 0 0 0 -5.771928489006342 -7.7017724711877236 0 -7.7017724711877236 38.310201705164218 0 0 0 0 -8.1206871906102993 -0.29487101638360969 0 -0.29487101638360969 19.421847655379679 0 0 0 0 0.074611105288242996 10.454373295218829 0 10.454373295218829 3.8323122532165144 0 0 0 0 4.5855285894699964 -6.6504920870788737 0 -6.6504920870788737 8.9145939185182215 0 0 0 0 5.258931012691594 -0.91046969825401902 0 -0.91046969825401902 19.577073089440091 0 0 0 0 9.1874164582969033 -13.107835351482208 0 -13.107835351482208 17.787972695907229 0 0 0 0 -0.0041176105926520002 -7.3465428598289977 0 -7.3465428598289977 38.703380144215771 0 0 0 0 28.936465795242984 -15.52829845940505 0 -15.52829845940505 27.497477322380291 0 0 0 0 -3.9789943018615639 -3.7156034927338624 0 -3.7156034927338624 4.8600495412392775 0 0 0 0 -3.4248042538748997 3.6036881492691464 0 3.6036881492691464 9.8834518590047082 0 0 0 0 -0.16014251415531386 0.21408195151524723 0 0.21408195151524723 1.0816497825762212 0 0 0 0 2.3671986267739875 -7.4761819654049759 0 -7.4761819654049759 -8.1995528569968883 0 0 0 0 -2.9780844592349665 2.3099038346408634 0 2.3099038346408634 9.3035640530579258 0 0 0 0 0.0022981286367976706 -4.7741019238892477 0 -4.7741019238892477 -4.8327280346093175 0 0 0 0 2.3805296552103874 8.5550446924462449 0 8.5550446924462449 15.344473387875041 0 0 0 0 0.03610098806177179 -0.011396380148028129 0 -0.011396380148028129 -0.023744884458537285 0 0 0 0 -1.3276436524506607 1.081482826059073 0 1.081482826059073 7.4045142983413825 0 0 0 0 2.8291502136177087 23.07462149919229 0 23.07462149919229 9.6230686715280171 0 0 0 0 -13.906695149901225 8.9520234377123415 0 8.9520234377123415 163.37633103161352 0 0 0 0 49.280417385955161 -9.6234874147121445 0 -9.6234874147121445 -112.97342217162077 0 0 0 0 -0.80423336609811713 1.8631035554135451 0 1.8631035554135451 5.4651563450170215 0 0 0 0 -2.084313479946494 -1.6252340291422271 0 -1.6252340291422271 11.566945399240367 0 0 0 0 -6.9973681447388572 -4.7302648289296485 0 -4.7302648289296485 13.125624613661785 0 0 0 0 0.083648270802969271 -0.90111019136914805 0 -0.90111019136914805 0.421675652383243 0 0 0 0 -15.233906235602262 -38.955705219930678 0 -38.955705219930678 82.051615461456095 0 0 0 0 -6.8075954328260195 -14.360180463958386 0 -14.360180463958386 -10.258573317030823 0 0 0 0 -5.5214849149056136 27.377418086362013 0 27.377418086362013 18.286067711524083 0 0 0 0 -18.32835512379171 22.965568014427845 0 22.965568014427845 17.083677688271564 0 0 0 0 -28.724068933835042 -9.0419572933642485 0 -9.0419572933642485 17.849102204399969 0 0 0 0 -20.069426367895943 18.095323926588208 0 18.095323926588208 29.474380454768834 0 0 0 0 -20.998874133491995 -1.5875022830196031 0 -1.5875022830196031 36.049334761861246 0 0 0 0 -5.3315996671542507 14.613520346982114 0 14.613520346982114 6.5883405036584008 0 0 0 0 -17.614585610714471 -3.206381224672441 0 -3.206381224672441 4.1079390924714971 0 0 0 0 -13.380074850070855 -13.640270949770638 0 -13.640270949770638 19.77209037666762 0 0 0 0 12.70884950035952 -10.402415720382123 0 -10.402415720382123 -2.1597935007303022 0 0 0 0 0.60942703953894972 -2.6531921195814085 0 -2.6531921195814085 1.3713790503883843 0 0 0 0 -2.340289920234909 -2.4902445924381027 0 -2.4902445924381027 5.0799515738326591 0 0 0 0 0.047685818949704778 -0.99186630008106569 0 -0.99186630008106569 6.9399992685486609 0 0 0 0 -4.9114853810284558 1.2667597687086527 0 1.2667597687086527 44.209657125764352 0 0 0 0 -0.63643937174508691 -2.985921551724033 0 -2.985921551724033 9.751884175861818 0 0 0 0 -0.48198718597115908 -0.94036730411557556 0 -0.94036730411557556 7.8120771381713325 0 0 0 0 6.3862023851473388 -2.2965618770940637 0 -2.2965618770940637 -1.1206077114584332 0 0 0 0 0.59589167545196675 -1.6536174440043396 0 -1.6536174440043396 0.45213665314872742 0 0 0 0 16.413417209573883 -13.344591477369249 0 -13.344591477369249 -0.83482873163666227 0 0 0 0 2.9736463684461332 -4.756686052312844 0 -4.756686052312844 8.9977735647378552 0 0 0 0 -17.796526921662476 -18.370965479381425 0 -18.370965479381425 31.245584982214496 0 0 0 0 4.3075053299010904 -5.5971829321351834 0 -5.5971829321351834 9.2081680105766281 0 0 0 0 -17.733472925546394 -19.978657136118272 0 -19.978657136118272 -6.189943126977596 0 0 0 0 -0.10767692921301042 0.65487602442972559 0 0.65487602442972559 1.664902654021617 0 0 0 0 27.286013328102285 -29.012429502705345 0 -29.012429502705345 -11.094652598410903 0 0 0 0 -7.4368750941791859 2.4252380143698247 0 2.4252380143698247 19.074810051308305 0 0 0 0 34.440802808019612 7.6230375657905824 0 7.6230375657905824 -0.68550199417950353 0 0 0 0 1.089567397972323 0.41997219586789925 0 0.41997219586789925 1.7008614897413601 0 0 0 0 -1.0991283713447757 -29.992159272948356 0 -29.992159272948356 4.0692402434215182 0 0 0 0 95.279427382198946 -25.513822589116899 0 -25.513822589116899 -4.8725897183612688 0 0 0 0 -13.671332830929998 -12.864206088441051 0 -12.864206088441051 33.762002918469079 0 0 0 0 32.106861740635189 7.5493872460792772 0 7.5493872460792772 -15.619087329920148 0 0 0 0 0.4308548672659539 -2.7504638420728997 0 -2.7504638420728997 9.5565489412264242 0 0 0 0 36.718988633269902 11.062632591339934 0 11.062632591339934 5.293522760106498 0 0 0 0 -0.22117180934222141 0.069989997490608857 0 0.069989997490608857 1.3853009394657469 0 0 0 0 -17.909394992078223 -11.332131312607089 0 -11.332131312607089 51.144477391368127 0 0 0 0 -15.139677739551946 -8.8670549130038125 0 -8.8670549130038125 47.963410500553437 0 0 0 0 2.0305403724765263 9.4216871021308179 0 9.4216871021308179 6.814648189698346 0 0 0 0 -18.919090632261799 -7.5714372142829234 0 -7.5714372142829234 88.276416774519021 0 0 0 0 105.76309700044249 -100.96423986725858 0 -100.96423986725858 34.612294656362792 0 0 0 0 5.887124072841659 11.783661710443084 0 11.783661710443084 23.519267933035735 0 0 0 0 -7.703330937403976 -12.623284380504629 0 -12.623284380504629 83.383496346883476 0 0 0 0 -8.7192909826400466 14.021729239524575 0 14.021729239524575 66.856682906211063 0 0 0 0 0.089229976006590953 -0.48747154472678567 0 -0.48747154472678567 0.8470753298115028 0 0 0 0 -8.8418266363594213 9.5010539231952862 0 9.5010539231952862 49.857572306006659 0 0 0 0 -11.054644681635175 0.12285082060043351 0 0.12285082060043351 27.828284638017067 0 0 0 0 0.70171483515884248 9.7416367243404238 0 9.7416367243404238 19.737034763078555 0 0 0 0 3.3054760958678173 3.2003804344785749 0 3.2003804344785749 1.1412103886978002 0 0 0 0 -8.0945770590419652 -4.8679663861184963 0 -4.8679663861184963 35.053730652034574 0 0 0 0 -0.0074854570037402859 -6.7773624752244359 0 -6.7773624752244359 17.895465949113714 0 0 0 0 -4.2235621011516127 20.871078652369761 0 20.871078652369761 48.57962482675066 0 0 0 0 -13.082937491807991 -13.620355559429299 0 -13.620355559429299 29.886546970228665 0 0 0 0 0.098596069255402125 0.04818866700856006 0 0.04818866700856006 -0.050243484529659099 0 0 0 0 -18.595765041188066 12.094173231078457 0 12.094173231078457 87.841384743194794 0 0 0 0 0.003362945946445308 4.0360561408312829 0 4.0360561408312829 82.48709769269044 0 0 0 0 -10.822375131592308 26.72562391073734 0 26.72562391073734 100.19425536833296 0 0 0 0 -17.559511831906335 8.2167634021789127 0 8.2167634021789127 102.12245045949294 0 0 0 0 -0.045673712682915556 -3.757493009645259 0 -3.757493009645259 99.957581963120901 0 0 0 0 -0.0047771817742424255 -11.411316095338407 0 -11.411316095338407 31.326368474612536 0 0 0 0 -16.079793527853049 -44.000391802925151 0 -44.000391802925151 62.289457787865103 0 0 0 0 -24.980678863578941 -34.690754415316405 0 -34.690754415316405 46.104045717802364 0 0 0 0 -3.6057556563342659 -20.298333678028939 0 -20.298333678028939 47.714487930061296 0 0 0 0 -0.032024875884832729 0.041847126647297728 0 0.041847126647297728 0.019727883489369324 0 0 0 0 28.306399749283553 2.9370739359201252 0 2.9370739359201252 19.693044086976442 0 0 0 0 2.7787825919454376 -42.021069609196275 0 -42.021069609196275 -30.234636390021478 0 0 0 0 -2.5792846363781758 0.78805625939448021 0 0.78805625939448021 5.1180035916066506 0 0 0 0 19.581060524365967 13.111911233980209 0 13.111911233980209 -61.100743275364493 0 0 0 0 -8.4303711337272489 56.865122463714215 0 56.865122463714215 -55.733512564875127 0 0 0 0 -3.2916087093568365 -0.16661428189581784 0 -0.16661428189581784 27.269538851312973 0 0 0 0 -0.71978471365155305 0.31604026613499059 0 0.31604026613499059 -0.54392234639020032 0 0 0 0 69.412376122484631 -8.7995079628781241 0 -8.7995079628781241 -111.0984628821553 0 0 0 0 -1.5639244910024956 -1.3581951127853245 0 -1.3581951127853245 26.084034104798775 0 0 0 0 199.55951828783469 -24.751076381246094 0 -24.751076381246094 -12.808855807012492 0 0 0 0 -0.30771157607304644 -6.5555455917165091 0 -6.5555455917165091 -12.045076612928824 0 0 0 0 46.849608415497272 80.659737929971016 0 80.659737929971016 -47.806756032630801 0 0 0 0 -35.514684447950231 73.30476393790741 0 73.30476393790741 14.514411543219467 0 0 0 0 -56.479957831171305 32.560573304683203 0 32.560573304683203 20.181804479345374 0 0 0 0 69.823791437460784 124.47497684180235 0 124.47497684180235 87.063511915781419 0 0 0 0 -35.686630546744482 -17.171499165982823 0 -17.171499165982823 219.5068353364004 0 0 0 0 24.524167442927503 -96.098602666777879 0 -96.098602666777879 186.03784524326329 0 0 0 0 -17.062876623194278 43.464153629831344 0 43.464153629831344 198.63362606559895 0 0 0 0 57.002615289740405 69.163363487883544 0 69.163363487883544 85.44348521468055 0 0 0 0 0.22884622726998921 -0.48449522849871407 0 -0.48449522849871407 2.9425945390713935 0 0 0 0 137.12974674567482 -111.27423482479799 0 -111.27423482479799 96.569971488344891 0 0 0 0 65.677347236682408 -147.45629601359542 0 -147.45629601359542 116.385472202448 0 0 0 0 -169.52441730315616 -17.007947994945425 0 -17.007947994945425 111.67510027510434 0 0 0 0 -10.248871492797491 37.433350510532819 0 37.433350510532819 77.74484948040481 0 0 0 0 -0.98207062304804982 1.9373305638818259 0 1.9373305638818259 22.798672686394724 0 0 0 0 -63.329490665021694 156.24599740102713 0 156.24599740102713 72.789574715610684 0 0 0 0 42.197094851168345 -45.72774100260358 0 -45.72774100260358 37.810243519910728 0 0 0 0 -54.830181205533108 -175.73351769606234 0 -175.73351769606234 88.522803478462265 0 0 0 0 -24.134735267570363 49.203548861678428 0 49.203548861678428 -44.451181556592928 0 0 0 0 -184.22747898229591 66.83382272021845 0 66.83382272021845 5.1223638812080026 0 0 0 0 -61.15005832765479 19.280758343627895 0 19.280758343627895 -15.701328317605658 0 0 0 0 -0.82443342041031298 1.5473625014779557 0 1.5473625014779557 25.881156098814159 0 0 0 0 -154.6198331925068 118.95841951922921 0 118.95841951922921 67.794189048563567 0 0 0 0 -124.6877307056954 5.3071143642719107 0 5.3071143642719107 95.207894951250637 0 0 0 0 -114.3992685741523 87.47448967047967 0 87.47448967047967 -24.013018021185417 0 0 0 0 -35.549494716049338 60.011423361066086 0 60.011423361066086 -58.203684135514777 0 0 0 0 -0.7162049140795993 4.9220455734823876 0 4.9220455734823876 0.84680910654793706 0 0 0 0 -6.0289347543941858 20.166599141164625 0 20.166599141164625 -3.069197309014271 0 0 0 0 0.06449124594544875 -0.050036500101432679 0 -0.050036500101432679 2.5867379070252809 0 0 0 0 140.12788181345411 -75.78047097138915 0 -75.78047097138915 -2.2267302828622633 0 0 0 0 25.079232010568376 26.736722763376747 0 26.736722763376747 33.592991073586745 0 0 0 0 23.787495711013435 8.7468188150705828 0 8.7468188150705828 -8.0853317689716278 0 0 0 0 -1.3474730003254081 36.899811994109768 0 36.899811994109768 36.325595684320433 0 0 0 0 -26.117517141148483 -21.301977334376716 0 -21.301977334376716 53.905557885518647 0 0 0 0 -10.903243356120413 -5.4135586420188702 0 -5.4135586420188702 6.6552769197151065 0 0 0 0 21.751496740586731 -13.892970699733269 0 -13.892970699733269 10.573842603902449 0 0 0 0 0.017050898968154593 1.2925610692761387 0 1.2925610692761387 7.6376353963884327 0 0 0 0 -1.5159371929564713 -11.2471666581514 0 -11.2471666581514 -4.7300036567467032 0 0 0 0 -5.134970167443953 -37.697702215875324 0 -37.697702215875324 11.408527699910337 0 0 0 0 -3.102461022950056 0.75617786111365604 0 0.75617786111365604 27.897636999128736 0 0 0 0 -0.080190836632710649 0.74455907560317058 0 0.74455907560317058 7.0556418164560917 0 0 0 0 -1.5204602884996761 -4.7248581293016336 0 -4.7248581293016336 2.9201701614463786 0 0 0 0 -50.964522070385556 -64.043710539801395 0 -64.043710539801395 41.942319285015401 0 0 0 0 -35.029189545241252 53.234134726808406 0 53.234134726808406 -15.150378949081642 0 0 0 0 -33.922729351103357 -40.740311309218669 0 -40.740311309218669 -9.6143862129392801 0 0 0 0 -26.723737574720417 -33.905975703666627 0 -33.905975703666627 -3.2860462286861321 0 0 0 0 -1.7061354108596409 -0.088754458090667399 0 -0.088754458090667399 25.403359263052465 0 0 0 0 -52.325417001737151 85.092198985748837 0 85.092198985748837 34.717549435819819 0 0 0 0 -0.64214662256599331 0.3745290727798789 0 0.3745290727798789 2.1576642567549271 0 0 0 0 7.4131946932634492 13.651638566145266 0 13.651638566145266 0.2836241107324895 0 0 0 0 -39.836958698418272 -9.5572985813146261 0 -9.5572985813146261 -33.175557127106003 0 0 0 0 1.0407589243529931 3.9267234088839942 0 3.9267234088839942 3.5426377934742916 0 0 0 0 6.3051729632534261 7.3054240412893705 0 7.3054240412893705 8.6835513169353362 0 0 0 0 7.7678680516248733 5.9841423613906954 0 5.9841423613906954 5.1900603577669244 0 0 0 0 10.103566454823294 -1.3009521431704343 0 -1.3009521431704343 0.29459449062051135 0 0 0 0 12.919281670539021 4.2228579866205109 0 4.2228579866205109 5.6364288349213894 0 0 0 0 4.8301927928204123 16.695749782997154 0 16.695749782997154 39.4652642859146 0 0 0 0 12.875826362403814 14.153452767070121 0 14.153452767070121 11.947725670215732 0 0 0 0 12.265870366771765 16.239321363067575 0 16.239321363067575 28.26003929640865 0 0 0 0 16.865946628511438 25.411857274841168 0 25.411857274841168 30.158382323643309 0 0 0 0 -2.2989037034842568 21.23985641665422 0 21.23985641665422 81.331034446928243 0 0 0 0 -2.5478168468312106 8.3738076635127072 0 8.3738076635127072 45.154541712065111 0 0 0 0 -2.7625503569581724 17.184889378546359 0 17.184889378546359 58.963287043538003 0 0 0 0 -5.6237084000691198 10.966131861800022 0 10.966131861800022 55.840320141971461 0 0 0 0 5.1607834295471093 0.3305057175894035 0 0.3305057175894035 9.8115722757684125 0 0 0 0 -3.7265529865869667 4.9772410204386688 0 4.9772410204386688 37.898847548980712 0 0 0 0 -2.7483597258099053 -1.5728259411080217 0 -1.5728259411080217 38.081941043230472 0 0 0 0 -3.6056543251810353 0.68239355100740795 0 0.68239355100740795 52.797943552097422 0 0 0 0 -8.3968572723736088 -1.6210464933901676 0 -1.6210464933901676 53.563692240597447 0 0 0 0 -13.617416484450132 -1.7492924598773243 0 -1.7492924598773243 66.674949354008277 0 0 0 0 -11.828962420501057 2.5636542889478733 0 2.5636542889478733 64.099482977770094 0 0 0 0 -12.445283302346525 4.2421783569734544 0 4.2421783569734544 59.745749238118151 0 0 0 0 -14.561545883522399 -8.1737117894481344 0 -8.1737117894481344 82.095150552027917 0 0 0 0 -13.84234755146889 -4.9994293345262122 0 -4.9994293345262122 60.946109646924015 0 0 0 0 18.279308616397657 37.646484999297172 0 37.646484999297172 77.5127858852793 0 0 0 0 -1.9581768982241101 35.84987342473687 0 35.84987342473687 111.89954992616549 0 0 0 0 -12.429805288895295 13.078332696026337 0 13.078332696026337 80.270854463451542 0 0 0 0 -8.4909801863848315 -11.97357449224728 0 -11.97357449224728 64.39306967164157 0 0 0 0 -4.8719460728648301 -29.726470078316197 0 -29.726470078316197 137.74225438388203 0 0 0 0 38.29987156149059 -25.329899893289621 0 -25.329899893289621 -0.77430497876048321 0 0 0 0 -1.0056663943662443 -22.473105446781119 0 -22.473105446781119 68.489769671603426 0 0 0 0 -11.950207337893062 -2.9184003095178923 0 -2.9184003095178923 59.79521238659072 0 0 0 0 -2.0088301179785049 -12.539245552456123 0 -12.539245552456123 29.606670099885378 0 0 0 0 -3.4034766570018746 -5.7925767281685694 0 -5.7925767281685694 28.695629914553365 0 0 0 0 -3.9030999006918137 23.105220994772026 0 23.105220994772026 64.839424636644253 0 0 0 0 -6.8626851863871199 15.478523188701729 0 15.478523188701729 45.18837079055811 0 0 0 0 5.4715286651771748 24.395946763714164 0 24.395946763714164 28.120651693960099 0 0 0 0 -4.4630836747891713 2.132034197732672 0 2.132034197732672 1.3628825801591162 0 0 0 0 -15.471350655111223 19.54800743793021 0 19.54800743793021 -5.2316848297014076 0 0 0 0 20.382382545496228 9.3990533887772472 0 9.3990533887772472 -20.749521440640819 0 0 0 0 -8.1604602268796498 -88.223748877004255 0 -88.223748877004255 37.902838977643114 0 0 0 0 -1.7731746093351819 0.06301068879388616 0 0.06301068879388616 16.650129165451901 0 0 0 0 31.124815875126842 -104.89787089733727 0 -104.89787089733727 39.588490735850428 0 0 0 0 24.77279075280012 -69.47865395907138 0 -69.47865395907138 1.9322938671466545 0 0 0 0 86.143606515187685 -90.091921521030599 0 -90.091921521030599 8.3926210635399912 0 0 0 0 24.708037735728567 -58.805738356149959 0 -58.805738356149959 19.840550679095031 0 0 0 0 23.833583183950793 -68.234977632202572 0 -68.234977632202572 24.351321258116513 0 0 0 0 17.996628681217771 -62.842011810796976 0 -62.842011810796976 27.273013163359792 0 0 0 0 18.245996185523836 -62.046042526999372 0 -62.046042526999372 29.809246085489576 0 0 0 0 -26.781159769754709 -31.031492423255258 0 -31.031492423255258 32.441555547389726 0 0 0 0 22.816246832091224 -79.526072023460074 0 -79.526072023460074 67.580956244128174 0 0 0 0 32.345177400919738 -53.26092730981145 0 -53.26092730981145 55.329474601283437 0 0 0 0 134.33958092364446 -63.58129098387144 0 -63.58129098387144 56.091759009625093 0 0 0 0 133.95639675678285 -63.146847710304428 0 -63.146847710304428 67.765304973261664 0 0 0 0 120.9341833652561 -42.519847962801578 0 -42.519847962801578 -10.486848858432495 0 0 0 0 -1.096846093063168 -0.48381696646600858 0 -0.48381696646600858 2.9542882296831152 0 0 0 0 190.42809386792283 -145.10967916952541 0 -145.10967916952541 111.20201609929791 0 0 0 0 -0.78860574642159698 1.7160390427060772 0 1.7160390427060772 4.0791599891212087 0 0 0 0 170.39916796328816 -83.769467127905955 0 -83.769467127905955 60.465272407542216 0 0 0 0 136.73697703889184 -112.67509016800614 0 -112.67509016800614 108.8292492107139 0 0 0 0 41.69628732186959 -68.029255124018164 0 -68.029255124018164 60.139549405736034 0 0 0 0 39.427912016272785 -70.103172826493392 0 -70.103172826493392 92.421092192133074 0 0 0 0 -7.4258846518542896 -26.223375214962289 0 -26.223375214962289 111.75698641833151 0 0 0 0 5.3462338601661941 -86.52685390356055 0 -86.52685390356055 172.88519762383658 0 0 0 0 94.686470805198041 -140.8699727321582 0 -140.8699727321582 205.86074184133031 0 0 0 0 126.54073582357341 627.89721229126735 0 627.89721229126735 425.57450469244213 0 0 0 0 -0.90111602101080734 -35.811985714339244 0 -35.811985714339244 63.694423239256139 0 0 0 0 -15.03469557022629 -27.50254232185398 0 -27.50254232185398 60.888324868050404 0 0 0 0 -38.135795889462997 10.855529519292759 0 10.855529519292759 70.165432077779315 0 0 0 0 -24.103011854346732 25.883479779906338 0 25.883479779906338 17.24461972354402 0 0 0 0 98.560058104044401 -9.2218469835679571 0 -9.2218469835679571 -129.58769299103733 0 0 0 0 7.2391392025586736 -11.877712712995013 0 -11.877712712995013 6.8609223300032482 0 0 0 0 153.02608122822232 32.963642173081098 0 32.963642173081098 -122.28612303852879 0 0 0 0 -109.90225421923492 55.148181231665149 0 55.148181231665149 87.809725747591074 0 0 0 0 10.068148079620016 -13.931280045134933 0 -13.931280045134933 9.1373029362778198 0 0 0 0 -59.305053066255823 -123.17250142933335 0 -123.17250142933335 8.2452141896683315 0 0 0 0 101.88770180424353 71.195628365276207 0 71.195628365276207 50.095011718814931 0 0 0 0 -336.92192204114963 -120.00177595450077 0 -120.00177595450077 946.19918263176805 0 0 0 0 -126.82414176916586 34.449722466566527 0 34.449722466566527 579.25434997229786 0 0 0 0 145.53542204552809 -202.7981808081895 0 -202.7981808081895 30.698387089572861 0 0 0 0 6.6076451311077893 -12.825249300548741 0 -12.825249300548741 8.0420862192872988 0 0 0 0 -33.703312509632724 -16.442883273564803 0 -16.442883273564803 639.97978951253481 0 0 0 0 51.562045375703747 -312.77118956179766 0 -312.77118956179766 682.59189256910213 0 0 0 0 -98.560686360348882 -76.917630079984519 0 -76.917630079984519 399.36422488804965 0 0 0 0 -48.430999899120252 -134.40466845733317 0 -134.40466845733317 415.63312788337862 0 0 0 0 -70.41356267644278 -41.754289684169635 0 -41.754289684169635 390.46300893008265 0 0 0 0 -3.7197549462903226 12.927675610892038 0 12.927675610892038 192.0841416713738 0 0 0 0 -103.57342367192223 -49.509196205301123 0 -49.509196205301123 327.862043656678 0 0 0 0 -48.311006493338027 -83.648386518329062 0 -83.648386518329062 177.08272910657979 0 0 0 0 -36.978289721787405 -20.256607578405237 0 -20.256607578405237 175.02051733035228 0 0 0 0 31.799394845152165 -3.636370674270438 0 -3.636370674270438 15.824488028767519 0 0 0 0 -26.563316184002517 148.67691876399158 0 148.67691876399158 -39.868185312203423 0 0 0 0 23.718992335966504 98.46084801755751 0 98.46084801755751 -118.97529858493363 0 0 0 0 -4.6694522335428701 -75.989774087149272 0 -75.989774087149272 -94.669835538625193 0 0 0 0 -45.421017933396342 69.286330325972813 0 69.286330325972813 89.246006567649601 0 0 0 0 5.7536756380045517 -60.282995415054756 0 -60.282995415054756 110.77581475937041 0 0 0 0 171.54420037742079 46.35463482891646 0 46.35463482891646 -100.78779713825134 0 0 0 0 110.52852233973772 189.56306578301883 0 189.56306578301883 190.80570006138623 0 0 0 0 6.3353252792103376 14.217595750047622 0 14.217595750047622 41.863704607239924 0 0 0 0 -14.778173529244718 -42.306011951459482 0 -42.306011951459482 -127.59396802053379 0 0 0 0 1.4008809297556217 -8.2619253634272809 0 -8.2619253634272809 9.6436242512199328 0 0 0 0 1.7768587730228129 2.4877510586156788 0 2.4877510586156788 6.8991134076401295 0 0 0 0 62.195504505840745 22.304513851497177 0 22.304513851497177 21.39808408277986 0 0 0 0 33.823448257837981 5.6439421121831401 0 5.6439421121831401 15.717658580582793 0 0 0 0 0.53594561687822573 1.7599435970336614 0 1.7599435970336614 4.8030420989695344 0 0 0 0 3.2841953979703362 12.032412829830719 0 12.032412829830719 21.791985250321886 0 0 0 0 6.8973216787327942 7.6093459307676312 0 7.6093459307676312 19.219293249167094 0 0 0 0 3.2463069146938648 8.2748989172996268 0 8.2748989172996268 20.858676446514991 0 0 0 0 1.4650066047623795 0.93018210893023934 0 0.93018210893023934 34.06109211310104 0 0 0 0 4.0244354514807128 12.925086121267668 0 12.925086121267668 23.287148856439671 0 0 0 0 12.518803964631616 2.3026999533121852 0 2.3026999533121852 20.225101151836498 0 0 0 0 2.4233075910435673 11.736065427136054 0 11.736065427136054 31.563550373983162 0 0 0 0 16.709565687739357 -3.9913422280051236 0 -3.9913422280051236 42.693605487966124 0 0 0 0 -5.6885542860932077 11.119057163774414 0 11.119057163774414 57.368586040214723 0 0 0 0 1.6969171455279479 -10.990921810076543 0 -10.990921810076543 2.3670165962284955 0 0 0 0 -0.066117708423572452 -0.48927047351127584 0 -0.48927047351127584 -0.14598130470808712 0 0 0 0 5.2290695495082105 6.6384874413743091 0 6.6384874413743091 37.241435032312438 0 0 0 0 -4.7407154473780793 12.608767265668575 0 12.608767265668575 29.767407547271432 0 0 0 0 -10.376273213792999 10.631492211310615 0 10.631492211310615 59.084457808334264 0 0 0 0 -10.931132531641325 -6.2795707478048826 0 -6.2795707478048826 51.794897196312377 0 0 0 0 3.7275137784944059 -1.784130335873698 0 -1.784130335873698 4.1511752222915064 0 0 0 0 11.597812091522812 -11.530972851415754 0 -11.530972851415754 25.67776382989905 0 0 0 0 45.146931427854554 26.916730426612048 0 26.916730426612048 45.808092077128094 0 0 0 0 15.01947352303176 -4.106517803396855 0 -4.106517803396855 89.686042548368277 0 0 0 0 6.8906694503724886 -14.700341994084738 0 -14.700341994084738 77.288612889489741 0 0 0 0 -1.2501564438918678 -1.7884812162087655 0 -1.7884812162087655 69.7110388186411 0 0 0 0 -3.7160706373636003 -11.258558691952203 0 -11.258558691952203 95.485134081580327 0 0 0 0 0.2058477001353971 -4.5885418562938867 0 -4.5885418562938867 105.19322562653542 0 0 0 0 -7.5549346787611285 1.4920636515016668 0 1.4920636515016668 60.735417718242388 0 0 0 0 -7.001932725466645 -8.9081687544639863 0 -8.9081687544639863 61.457066843302982 0 0 0 0 0.25382784867804276 -19.982026257181133 0 -19.982026257181133 83.135083694389323 0 0 0 0 -7.9970667400152706 -7.6366792027729389 0 -7.6366792027729389 67.854820825057686 0 0 0 0 -13.142571577146512 -3.4716993371102944 0 -3.4716993371102944 67.057967021144577 0 0 0 0 -6.9786864970585611 -6.0014215699993656 0 -6.0014215699993656 63.0029129836621 0 0 0 0 8.3757471422600247 -14.204116265860648 0 -14.204116265860648 41.037280639713572 0 0 0 0 2.7370639657529554 2.4125924830645786 0 2.4125924830645786 1.2889326324859169 0 0 0 0 -28.236216116107698 0.015424644407175947 0 0.015424644407175947 18.581864119310922 0 0 0 0 0.12353493598803311 2.5323989809967316 0 2.5323989809967316 35.585151616513031 0 0 0 0 -0.1831558941606648 1.5533738339062921 0 1.5533738339062921 2.1935079325751659 0 0 0 0 3.6779032420383828 -1.3548054464026791 0 -1.3548054464026791 34.399208212547819 0 0 0 0 -7.9530840845225157 -3.516768930327089 0 -3.516768930327089 60.861493341086316 0 0 0 0 16.036228550031069 -25.597623286688759 0 -25.597623286688759 57.253293665791716 0 0 0 0 17.864711366751976 -34.652419228070357 0 -34.652419228070357 69.308409577657585 0 0 0 0 73.751319971181942 137.13509093580069 0 137.13509093580069 -219.39581155438646 0 0 0 0 -41.668951888703077 -3.2184639557672199 0 -3.2184639557672199 30.791005142764334 0 0 0 0 4.1871008691435136 -37.47158492986091 0 -37.47158492986091 100.30287012540066 0 0 0 0 1.5303174650778757 1.0626707488376255 0 1.0626707488376255 0.20796813055067531 0 0 0 0 1.8013191541012787 1.3617839577855904 0 1.3617839577855904 1.2058073446699353 0 0 0 0 41.664777435353756 14.13478988546558 0 14.13478988546558 -19.16956294130614 0 0 0 0 -16.61173014546273 -30.200485019048756 0 -30.200485019048756 -102.89247609727317 0 0 0 0 -30.660862048223038 -66.755660097594955 0 -66.755660097594955 215.15050132587203 0 0 0 0 -117.90736374984306 86.406509490948338 0 86.406509490948338 6.5940462588259834 0 0 0 0 1.4240521861579509 120.59340925338984 0 120.59340925338984 -138.45948921220042 0 0 0 0 38.449068838184076 -8.9526809102389961 0 -8.9526809102389961 21.854000443352561 0 0 0 0 -8.54576813363974 83.276967278874508 0 83.276967278874508 -16.590800311336352 0 0 0 0 10.98464328404134 -5.7871361446341325 0 -5.7871361446341325 -89.043171854478715 0 0 0 0 -26.855947872792285 13.064203177804302 0 13.064203177804302 123.21733640076854 0 0 0 0 21.330729041550967 -66.746783216145559 0 -66.746783216145559 23.547461980320804 0 0 0 0 23.120458349414719 -99.335168861194688 0 -99.335168861194688 161.44139244121288 0 0 0 0 45.614894351512817 126.90426633348761 0 126.90426633348761 100.93741372279328 0 0 0 0 200.86422996168235 -12.076189627716303 0 -12.076189627716303 -49.333331296576944 0 0 0 0 -74.405755332419659 46.07667549040525 0 46.07667549040525 -46.573412818550423 0 0 0 0 31.618759706879644 -64.477230056521876 0 -64.477230056521876 -109.42581918954966 0 0 0 0 -3.9480563619797522 -23.264383855246706 0 -23.264383855246706 -2.6527271825107164 0 0 0 0 1.1895365600941861 -0.0079048208182470603 0 -0.0079048208182470603 -0.24790231921851102 0 0 0 0 45.827258190355224 36.268213965471659 0 36.268213965471659 -178.46291290250701 0 0 0 0 -145.83938230377589 45.57472107760259 0 45.57472107760259 199.87515993620036 0 0 0 0 90.591325266628246 75.187415359527222 0 75.187415359527222 73.197469073471439 0 0 0 0 60.595560753379971 20.180296508839092 0 20.180296508839092 -27.511180258577951 0 0 0 0 0.94222268012994581 0.26523498751797803 0 0.26523498751797803 0.1764703765065363 0 0 0 0 27.529537833902964 -109.41253720405484 0 -109.41253720405484 205.22300225786603 0 0 0 0 -113.09856882907911 2.2815973666311038 0 2.2815973666311038 218.28230821137549 0 0 0 0 3.9567981246003203 6.3366140188612547 0 6.3366140188612547 17.556736561855701 0 0 0 0 247.10356721363951 -18.220571886165999 0 -18.220571886165999 113.87245455014636 0 0 0 0 0.0032717458374804664 3.1197802525321094 0 3.1197802525321094 29.774772703538474 0 0 0 0 0.86749538303771612 -8.4088152267551308 0 -8.4088152267551308 9.684480122581931 0 0 0 0 -0.94704891516528278 1.2629511312989052 0 1.2629511312989052 28.648795231119948 0 0 0 0 10.145594006232557 12.252231499889604 0 12.252231499889604 39.631850772904727 0 0 0 0 0.230492062473175 8.3577525126140699 0 8.3577525126140699 39.116926544091257 0 0 0 0 13.834511983607399 13.925571329058585 0 13.925571329058585 31.792069244917002 0 0 0 0 21.663936281103474 27.972636372520356 0 27.972636372520356 47.302132751565068 0 0 0 0 0.37739121224012706 13.180573373254447 0 13.180573373254447 46.057805762845419 0 0 0 0 20.824767790880827 32.086202633836365 0 32.086202633836365 54.211251779925078 0 0 0 0 3.4870657664647524 -19.381626614122069 0 -19.381626614122069 12.110107122185582 0 0 0 0 3.4825154229440045 20.494992347722473 0 20.494992347722473 60.614047863957239 0 0 0 0 -6.6946387851891132 -4.3985215293068904 0 -4.3985215293068904 9.3807853784819599 0 0 0 0 -14.407945086001973 -8.1523001932619081 0 -8.1523001932619081 35.879161272820966 0 0 0 0 149.61596593721879 -6.9316631702240556 0 -6.9316631702240556 63.214004613968427 0 0 0 0 -3.5692077942556866 -7.4728720396815618 0 -7.4728720396815618 7.7737279584521275 0 0 0 0 2.2259877701508231 44.910235890070908 0 44.910235890070908 45.469796975103236 0 0 0 0 15.095529472368298 46.815103043421914 0 46.815103043421914 -40.057320764499309 0 0 0 0 7.1764084689650645 -30.235151258733822 0 -30.235151258733822 -34.608887767432179 0 0 0 0 -13.680962079381061 2.1392286197697103 0 2.1392286197697103 22.259688254307548 0 0 0 0 -7.7236277463619354 -3.9386816689337749 0 -3.9386816689337749 8.6016425453831715 0 0 0 0 -14.352524630488688 7.5835388027535373 0 7.5835388027535373 24.859509051952045 0 0 0 0 -18.978387296747314 16.492514442265019 0 16.492514442265019 7.7669274878644501 0 0 0 0 -10.822777076076363 -1.3164645263786952 0 -1.3164645263786952 12.472990301038408 0 0 0 0 -14.783050613795922 1.0339136235415936 0 1.0339136235415936 29.667473319430428 0 0 0 0 -16.670777068147572 7.6448359300793527 0 7.6448359300793527 24.683510616749118 0 0 0 0 -2.77456161703617 -15.494865646924154 0 -15.494865646924154 37.438347183029691 0 0 0 0 -18.254224539039825 3.8854974122709791 0 3.8854974122709791 39.751783388099284 0 0 0 0 -3.8865403402785432 12.279057630698844 0 12.279057630698844 15.606394275797356 0 0 0 0 -7.5046455458445962 15.533451123239502 0 15.533451123239502 20.853819422471133 0 0 0 0 -7.5664257370440726 6.2766099060647491 0 6.2766099060647491 12.771237250894814 0 0 0 0 -2.0888387240120778 9.2743228189958593 0 9.2743228189958593 7.7264509812061419 0 0 0 0 -0.52482925279823134 5.7510546627840906 0 5.7510546627840906 18.525572321311827 0 0 0 0 -7.3940963893883236 16.624953291469865 0 16.624953291469865 16.174993240066442 0 0 0 0 -7.4542588624895245 7.6026134947201172 0 7.6026134947201172 15.430423952711863 0 0 0 0 -16.807953238680284 9.8378736220256542 0 9.8378736220256542 17.027221296564676 0 0 0 0 -3.3800562731526407 -1.6089952355400499 0 -1.6089952355400499 0.83397653471541844 0 0 0 0 -24.352081302686855 -7.5661619256679842 0 -7.5661619256679842 17.455595312159858 0 0 0 0 -1.981891550402338 0.84909638938916032 0 0.84909638938916032 4.3509881833924737 0 0 0 0 -0.76027158965245467 1.4308573380473568 0 1.4308573380473568 1.0765187987841784 0 0 0 0 -3.7250995230471768 5.2757240730987434 0 5.2757240730987434 4.3333622031171686 0 0 0 0 -9.7895937234257815 37.332891859172378 0 37.332891859172378 25.713663884587731 0 0 0 0 -6.5834897620259349 9.2761376447762984 0 9.2761376447762984 0.54292787839817436 0 0 0 0 18.25778176618303 6.5177113298268523 0 6.5177113298268523 -6.9053863953104155 0 0 0 0 24.194288294322021 37.379670335982155 0 37.379670335982155 27.869089050444018 0 0 0 0 9.79409820546703 28.367902516733011 0 28.367902516733011 66.642092235197197 0 0 0 0 1.2174743172619964 0.2148763348185625 0 0.2148763348185625 -0.60071875985128287 0 0 0 0 25.624818801672745 17.599057694773364 0 17.599057694773364 66.341327671398176 0 0 0 0 35.178678109100645 78.894629172064015 0 78.894629172064015 99.391034172964282 0 0 0 0 22.201209446675136 46.065451429116365 0 46.065451429116365 97.851115868223133 0 0 0 0 16.66994857273356 53.528502027156719 0 53.528502027156719 88.013469051365973 0 0 0 0 11.995120011088005 43.753327170583361 0 43.753327170583361 80.025613810605137 0 0 0 0 17.486174603297052 40.010918905689323 0 40.010918905689323 59.67702847570763 0 0 0 0 14.4006634000351 48.748797122592805 0 48.748797122592805 73.587660147750285 0 0 0 0 11.306834200290467 53.479181572183734 0 53.479181572183734 94.075712146150181 0 0 0 0 16.814132431745492 24.895382313925438 0 24.895382313925438 31.002817939821398 0 0 0 0 3.2303107807109086 47.47772721711226 0 47.47772721711226 54.201030882821215 0 0 0 0 16.061370196688358 47.54099874466192 0 47.54099874466192 53.766533472124138 0 0 0 0 6.6473416835402759 50.358359141740948 0 50.358359141740948 67.794713168157614 0 0 0 0 13.48590583718655 42.905277366226073 0 42.905277366226073 65.012772466259776 0 0 0 0 16.3138570158806 52.692086217313772 0 52.692086217313772 69.35625104191422 0 0 0 0 11.750633207749217 50.790795845845423 0 50.790795845845423 73.139884667558363 0 0 0 0 16.754736924424336 51.55284657129846 0 51.55284657129846 71.623801899753744 0 0 0 0 22.29264080771884 58.984619974915404 0 58.984619974915404 76.913596258731559 0 0 0 0 16.359829063960333 49.622605448104878 0 49.622605448104878 78.115274499781663 0 0 0 0 16.724164978601085 58.981359271951078 0 58.981359271951078 83.244454047264298 0 0 0 0 14.004354749375633 46.408080909608543 0 46.408080909608543 69.728468567074742 0 0 0 0 14.132075333678927 53.652509490071679 0 53.652509490071679 71.952501157604274 0 0 0 0 17.377691435596518 48.419528896389238 0 48.419528896389238 81.707095689431299 0 0 0 0 18.764996797249523 47.145024404846481 0 47.145024404846481 80.689789645548444 0 0 0 0 30.052711732745763 53.573740570762311 0 53.573740570762311 77.418921591790422 0 0 0 0 28.786053087566067 67.313787370165301 0 67.313787370165301 85.406683166773291 0 0 0 0 19.045129827129877 67.77917282267299 0 67.77917282267299 93.161760740440513 0 0 0 0 20.536040901529056 62.917985390853573 0 62.917985390853573 90.857984253612813 0 0 0 0 26.553700258761978 72.762215086455399 0 72.762215086455399 101.12217824473919 0 0 0 0 18.382228103138388 64.890411129890708 0 64.890411129890708 89.190651891673042 0 0 0 0 18.394351761627021 58.932084168249276 0 58.932084168249276 81.077707001357339 0 0 0 0 16.580048585147768 56.89525284340948 0 56.89525284340948 83.045875078358222 0 0 0 0 34.477558736600997 51.880049321014667 0 51.880049321014667 39.084258629460237 0 0 0 0 16.215980124756243 43.639912954968167 0 43.639912954968167 50.784707447477558 0 0 0 0 28.754261298116276 48.587611007233136 0 48.587611007233136 47.235466741316486 0 0 0 0 31.361227675144278 40.118638991596526 0 40.118638991596526 13.038194685272174 0 0 0 0 32.713969301356315 31.175394819940266 0 31.175394819940266 5.0527721413454856 0 0 0 0 -2.7669539349213039 32.698605720794149 0 32.698605720794149 53.562661921343533 0 0 0 0 14.457467816749499 23.878547125641489 0 23.878547125641489 18.650010726982146 0 0 0 0 10.59821801976085 49.598024216960766 0 49.598024216960766 69.649121105365339 0 0 0 0 11.191359961717808 42.068839924075291 0 42.068839924075291 49.88253669623009 0 0 0 0 9.6612560492084754 49.644685274404765 0 49.644685274404765 80.029561815303168 0 0 0 0 14.321091991613514 42.975861963706848 0 42.975861963706848 73.205350726668257 0 0 0 0 13.939364184281544 46.439281751358067 0 46.439281751358067 82.600898503820645 0 0 0 0 14.348738511100805 41.459995200471894 0 41.459995200471894 89.691871651171823 0 0 0 0 16.87611690429469 41.597726027106546 0 41.597726027106546 81.84684790490428 0 0 0 0 19.390442130290069 53.856366250154679 0 53.856366250154679 78.030266891524661 0 0 0 0 36.381573940457528 62.171844395653807 0 62.171844395653807 76.860692789574387 0 0 0 0 17.412396489893553 46.529280317012308 0 46.529280317012308 104.17944267480925 0 0 0 0 -0.29336659848963942 -0.27897136208095574 0 -0.27897136208095574 0.10873613181659891 0 0 0 0 33.024363264770898 34.419695991204208 0 34.419695991204208 67.268778394925903 0 0 0 0 0.72501214879240727 0.14607708665248254 0 0.14607708665248254 -0.57039398142043751 0 0 0 0 22.817582108638021 26.070224666400463 0 26.070224666400463 101.39967457013972 0 0 0 0 31.513469209843151 17.176387573841566 0 17.176387573841566 68.336211865062069 0 0 0 0 30.064134713265688 39.608490209411684 0 39.608490209411684 67.801778916953481 0 0 0 0 20.180102056807996 33.459026598940909 0 33.459026598940909 83.14981825457653 0 0 0 0 30.825697635700806 40.239318897689373 0 40.239318897689373 54.0354204844989 0 0 0 0 4.1650640292505727 4.361657886381181 0 4.361657886381181 4.2634493741643382 0 0 0 0 2.1624223435868828 2.970576124091167 0 2.970576124091167 3.9677468060326646 0 0 0 0 46.126533910474862 77.646853028283658 0 77.646853028283658 85.634376854533912 0 0 0 0 44.448323137678841 51.580191887056571 0 51.580191887056571 77.316956850903807 0 0 0 0 -0.82426885904302094 0.089089650825577849 0 0.089089650825577849 2.9373630088388296 0 0 0 0 -69.178651840829701 -25.843471104888522 0 -25.843471104888522 54.853005823511921 0 0 0 0 -0.51868849850689003 2.092718632058677 0 2.092718632058677 5.5918199556472246 0 0 0 0 -38.790571298663622 -31.787627254678227 0 -31.787627254678227 50.852698575364229 0 0 0 0 11.610976738213594 74.432713562520803 0 74.432713562520803 74.263803324298351 0 0 0 0 2.4930765343628423 2.8319201975391479 0 2.8319201975391479 2.5914309001454967 0 0 0 0 34.021348967952122 37.547337490170321 0 37.547337490170321 41.271031123098737 0 0 0 0 0.50437450405618534 0.17148024105051718 0 0.17148024105051718 -0.46990981063419213 0 0 0 0 23.290714037356338 30.368172990682069 0 30.368172990682069 41.12077403015428 0 0 0 0 16.306571936090222 21.294537835685333 0 21.294537835685333 36.113316709885112 0 0 0 0 29.973904527910292 21.12281390993121 0 21.12281390993121 28.137533191176772 0 0 0 0 44.483063135697307 53.309445497114211 0 53.309445497114211 45.357886177785076 0 0 0 0 25.879318946180206 -29.504749575156893 0 -29.504749575156893 -41.614990242305794 0 0 0 0 0.22880611425671971 0.09556701371909071 0 0.09556701371909071 -0.23244365601528472 0 0 0 0 19.208305525753104 41.231382268643301 0 41.231382268643301 49.010700835904572 0 0 0 0 -3.1771101658610803 15.70906135574387 0 15.70906135574387 -3.8684285553463269 0 0 0 0 2.7666153481602578 7.7266021479426854 0 7.7266021479426854 -19.723812848802481 0 0 0 0 48.98299093626062 31.688013827402756 0 31.688013827402756 -47.309570804864052 0 0 0 0 -7.5101695356257494 44.903755801929947 0 44.903755801929947 -27.669564627474756 0 0 0 0 35.551358809503427 12.463307292431637 0 12.463307292431637 -24.155741347865842 0 0 0 0 35.189949949117818 7.3755020006174163 0 7.3755020006174163 -31.303083462655195 0 0 0 0 86.090480898900296 -17.742590713402024 0 -17.742590713402024 -26.780969853202805 0 0 0 0 45.160322396168567 3.8946382601279765 0 3.8946382601279765 -23.578178784657212 0 0 0 0 54.024865335080221 -12.540975259460538 0 -12.540975259460538 -44.244534621597268 0 0 0 0 42.894647520399076 -26.334255623274657 0 -26.334255623274657 -15.855185793305282 0 0 0 0 42.909630662514473 -36.054456190300698 0 -36.054456190300698 16.167385766178995 0 0 0 0 35.257942124730789 -3.7338202888859087 0 -3.7338202888859087 3.6502403057529591 0 0 0 0 -64.910550621357572 -52.783834837517588 0 -52.783834837517588 307.89431534800678 0 0 0 0 166.91956246482039 -12.769113034115435 0 -12.769113034115435 12.509137702400039 0 0 0 0 0.55660831097076757 1.2330449921869011 0 1.2330449921869011 2.6403912197718853 0 0 0 0 -78.650005704810383 -120.24504554378109 0 -120.24504554378109 170.24704639121046 0 0 0 0 -36.417150995394422 -4.2920272343690158 0 -4.2920272343690158 368.2256895055325 0 0 0 0 -42.776446399298038 -75.657605048967525 0 -75.657605048967525 329.65140079291405 0 0 0 0 -69.785159530619694 -66.037887407215749 0 -66.037887407215749 370.52772583176557 0 0 0 0 126.89069962093004 119.08315801217395 0 119.08315801217395 152.53289622301963 0 0 0 0 -189.38150084906266 -70.842431118831882 0 -70.842431118831882 190.78170774623868 0 0 0 0 -7.0036009956401131 -34.690476277717607 0 -34.690476277717607 -21.416329205738293 0 0 0 0 -0.14657885918416635 0.093998255628278571 0 0.093998255628278571 1.1596729102462717 0 0 0 0 199.51314912927199 275.78797230305645 0 275.78797230305645 205.80248287025461 0 0 0 0 51.930979496879729 71.643471049157597 0 71.643471049157597 103.88674768583496 0 0 0 0 6.2107088287746421 102.97147113745086 0 102.97147113745086 108.74267141375094 0 0 0 0 -1.2365216866704145 66.838415018813976 0 66.838415018813976 105.100628811364 0 0 0 0 -41.267987983413263 17.159596615840201 0 17.159596615840201 -2.091642186338504 0 0 0 0 -0.78548055493076663 0.23444282732797461 0 0.23444282732797461 2.8445748589970634 0 0 0 0 1.186872005932561 -1.302695887991554 0 -1.302695887991554 1.4163289226508198 0 0 0 0 156.58631045053471 23.5138464990996 0 23.5138464990996 -94.959549343024264 0 0 0 0 136.10286720558076 -312.11942207608263 0 -312.11942207608263 -3.3123449324107241 0 0 0 0 21.297430883616499 60.152185243132976 0 60.152185243132976 145.05202685893164 0 0 0 0 -151.68698426313802 -83.434550210936777 0 -83.434550210936777 99.836242004057567 0 0 0 0 0.97486682920864776 -2.2079972215718584 0 -2.2079972215718584 3.5885179298795578 0 0 0 0 -3.5629642649965945 27.30101740216196 0 27.30101740216196 59.768606771940085 0 0 0 0 -96.262727215769843 150.74925914195228 0 150.74925914195228 159.28840527143984 0 0 0 0 -39.217393722070881 35.15119974065783 0 35.15119974065783 375.09542728945235 0 0 0 0 220.45340412349788 -59.206225009056652 0 -59.206225009056652 242.84996509314806 0 0 0 0 217.50361259174105 -91.992735087105757 0 -91.992735087105757 79.14705409184171 0 0 0 0 -141.49707202153527 88.307673381719724 0 88.307673381719724 465.57045352019486 0 0 0 0 240.15209872154742 -115.4232585911268 0 -115.4232585911268 322.83532981734425 0 0 0 0 -36.984398655669793 -97.145955880234396 0 -97.145955880234396 392.57169953365519 0 0 0 0 23.167205469672808 -63.868620691908291 0 -63.868620691908291 369.93465381108217 0 0 0 0 2.665199113696417 -2.8409363205355476 0 -2.8409363205355476 367.36896809099198 0 0 0 0 209.5288624349771 -9.9768046990429866 0 -9.9768046990429866 332.42025099997772 0 0 0 0 25.676299410757565 -101.92474057511572 0 -101.92474057511572 392.56679462134343 0 0 0 0 58.329491631983501 -97.423848673930479 0 -97.423848673930479 314.90841816471584 0 0 0 0 91.018333795940634 -126.94732757360362 0 -126.94732757360362 318.05846312336507 0 0 0 0 235.63168744579158 -192.21317690044287 0 -192.21317690044287 294.84462913200696 0 0 0 0 24.161497273676559 -162.40662447190698 0 -162.40662447190698 341.65768078023575 0 0 0 0 45.18732541717327 -177.94174088523141 0 -177.94174088523141 352.3293092906024 0 0 0 0 -5.7818654424725082 -88.131795632016292 0 -88.131795632016292 301.41283427151211 0 0 0 0 145.74354529405804 -251.77545424238087 0 -251.77545424238087 368.16667847068311 0 0 0 0 235.47333982577879 -130.87349071022916 0 -130.87349071022916 184.08833903029881 0 0 0 0 264.06789448957375 -199.39687250284624 0 -199.39687250284624 391.35295691867032 0 0 0 0 -0.52213522995578177 -0.40012571098442606 0 -0.40012571098442606 2.4504174516023198 0 0 0 0 364.34428841823836 -240.67978992578719 0 -240.67978992578719 101.19839718681033 0 0 0 0 12.473589803021255 47.52286845574281 0 47.52286845574281 14.698215332828113 0 0 0 0 -13.753933093375565 37.714907826418312 0 37.714907826418312 61.643487999899662 0 0 0 0 80.67320742123411 8.6380720057513827 0 8.6380720057513827 -16.223489592710393 0 0 0 0 -5.7657351154512071 -23.691371906686982 0 -23.691371906686982 253.80269893854711 0 0 0 0 14.409617235186756 -21.741743684083417 0 -21.741743684083417 -5.7999322882133129 0 0 0 0 0.0070239374215930184 1.4205790098944853 0 1.4205790098944853 3.7763313661376259 0 0 0 0 -29.035811887604325 1.352943428776598 0 1.352943428776598 -17.15996380620345 0 0 0 0 -9.9511078398649033 0.34227137000016228 0 0.34227137000016228 1.8436698239602265 0 0 0 0 -2.5819099239454317 -16.790216626664915 0 -16.790216626664915 -7.1693802593908913 0 0 0 0 -0.7057413345168686 -0.074350634723092668 0 -0.074350634723092668 4.5543746969961774 0 0 0 0 179.71463378711087 -102.30284863867746 0 -102.30284863867746 42.250322261295878 0 0 0 0 290.37601154223444 -131.13415276513842 0 -131.13415276513842 21.522260447029112 0 0 0 0 121.6843585523269 -185.05155416465823 0 -185.05155416465823 240.52762746268854 0 0 0 0 20.717344882658978 18.890685691561885 0 18.890685691561885 474.18857608555845 0 0 0 0 203.92295038051094 -301.00184948824608 0 -301.00184948824608 337.57716591568897 0 0 0 0 15.102950116777038 -92.644286721642857 0 -92.644286721642857 236.68130247704721 0 0 0 0 91.206615688360785 -131.73730510428868 0 -131.73730510428868 125.40870128736788 0 0 0 0 98.589761983698196 -129.54247878293972 0 -129.54247878293972 123.21293157502441 0 0 0 0 154.42599025369327 -153.80238648484374 0 -153.80238648484374 79.061945033710799 0 0 0 0 66.409210862429916 -97.56890557699262 0 -97.56890557699262 85.067943092719361 0 0 0 0 -152.28639420963259 -265.97677395144274 0 -265.97677395144274 1498.6163782321237 0 0 0 0 108.72283711980802 -135.36699885933831 0 -135.36699885933831 68.146139942044101 0 0 0 0 112.99123788476862 -125.86366966637706 0 -125.86366966637706 63.314701889146818 0 0 0 0 126.32918797470791 -126.73180188667538 0 -126.73180188667538 57.73610969560832 0 0 0 0 184.66773985207152 -107.35079548636804 0 -107.35079548636804 43.320716389800509 0 0 0 0 127.82797464085991 -89.709543792436307 0 -89.709543792436307 37.849847166795371 0 0 0 0 58.888113641131213 -73.798861293869777 0 -73.798861293869777 79.928427691418619 0 0 0 0 -0.60807076465960108 -0.44611623352466268 0 -0.44611623352466268 7.8535559149313485 0 0 0 0 -1.4059523809548202 -0.3672069798738562 0 -0.3672069798738562 5.5975020915808784 0 0 0 0 103.81449808695564 -150.23609466043399 0 -150.23609466043399 36.818578304315452 0 0 0 0 -0.53980004575119955 -0.029965251577756646 0 -0.029965251577756646 0.99701011226852643 0 0 0 0 69.670560454774943 -108.29030819838772 0 -108.29030819838772 169.98839657753706 0 0 0 0 104.15597136596607 -143.69268915532666 0 -143.69268915532666 87.037712838240623 0 0 0 0 59.509303138597339 -319.52212098665223 0 -319.52212098665223 383.42727781798385 0 0 0 0 -153.01214189882899 379.58062706714446 0 379.58062706714446 604.24251796288809 0 0 0 0 -86.027501135686094 -64.368757980200826 0 -64.368757980200826 -43.027416093957072 0 0 0 0 -0.37867264739326567 0.91088342401713973 0 0.91088342401713973 4.5565307278543443 0 0 0 0 -0.60934420594648242 -1.6682666563424462 0 -1.6682666563424462 -0.039404592199559829 0 0 0 0 -120.04803086227861 6.2790177559763833 0 6.2790177559763833 49.242916795643396 0 0 0 0 -16.364872201785978 -303.93636337833777 0 -303.93636337833777 1052.7620491125854 0 0 0 0 -6.5506655793646473 4.0074789971858991 0 4.0074789971858991 -15.476716088349349 0 0 0 0 -1.4424959442884306 -3.0020674849270463 0 -3.0020674849270463 4.4797422441008159 0 0 0 0 -149.29281546042398 -65.111733567257033 0 -65.111733567257033 1396.0110741167882 0 0 0 0 -27.876249667344027 -91.002719624408201 0 -91.002719624408201 1384.148324310343 0 0 0 0 184.53364347558761 -244.08433050176336 0 -244.08433050176336 1743.2229974959737 0 0 0 0 451.60092637331184 -438.31514511520072 0 -438.31514511520072 1634.3665321485532 0 0 0 0 -89.802274713091975 309.82931509690388 0 309.82931509690388 1237.679468686787 0 0 0 0 47.081960139197975 414.43646102688763 0 414.43646102688763 236.04551670028741 0 0 0 0 -5.1385341379937204 -2.4398153968026079 0 -2.4398153968026079 5.2360971720908509 0 0 0 0 311.3077476129364 -122.29142726680948 0 -122.29142726680948 -153.45941841720196 0 0 0 0 -13.925090770705083 2.8508382069958316 0 2.8508382069958316 14.236708513604754 0 0 0 0 -62.581526166968956 75.588667546329816 0 75.588667546329816 599.27630217900878 0 0 0 0 9.2840894493408452 -383.20635984754745 0 -383.20635984754745 445.43276493710437 0 0 0 0 154.91465565467195 -528.04487348374278 0 -528.04487348374278 1711.7132201636123 0 0 0 0 -0.27973218352055307 -0.59819070131682395 0 -0.59819070131682395 6.2120970529763042 0 0 0 0 -9.7000541876909665 -5.0709736923113269 0 -5.0709736923113269 11.059823385563504 0 0 0 0 -6.2411374433901674 -4.1156902704328644 0 -4.1156902704328644 14.969794827690464 0 0 0 0 -11.327238800010491 2.2266361366082492 0 2.2266361366082492 13.097940046107396 0 0 0 0 -15.092479753837551 2.3420698839545366 0 2.3420698839545366 14.016088830707304 0 0 0 0 -0.041820352599784671 1.2470193000958183 0 1.2470193000958183 5.8366280537349553 0 0 0 0 -1.0647261585538104 -6.7530391041808571 0 -6.7530391041808571 13.69044082522305 0 0 0 0 -15.193186467443866 -0.080693258365499787 0 -0.080693258365499787 11.788194761989871 0 0 0 0 9.9939043269387184 -12.577773855940904 0 -12.577773855940904 -6.0526720675625256 0 0 0 0 7.8275526717036428 8.0227619938050339 0 8.0227619938050339 4.22278489679411 0 0 0 0 0.3404461103347538 1.8376832056071528 0 1.8376832056071528 4.1191600415039034 0 0 0 0 -35.135873260486278 24.06155125366422 0 24.06155125366422 11.197972086920345 0 0 0 0 -9.3487030068711192 -5.4764744667481864 0 -5.4764744667481864 5.8321650212965324 0 0 0 0 -19.492418170825204 9.3659890617382189 0 9.3659890617382189 19.787969580787831 0 0 0 0 -13.08814114540246 9.0898542003887997 0 9.0898542003887997 -6.8052118371961114 0 0 0 0 -7.5560283665672054 -1.7601791694856601 0 -1.7601791694856601 17.225429964952866 0 0 0 0 -216.44957307922368 71.170793349301675 0 71.170793349301675 70.807272357247712 0 0 0 0 -167.19737647451632 110.97581650495704 0 110.97581650495704 102.97108277481675 0 0 0 0 -6.5052724438537552 1.2445095373113872 0 1.2445095373113872 21.713706954615191 0 0 0 0 -27.451157610737937 19.848106286139227 0 19.848106286139227 38.212336990192853 0 0 0 0 -1.3656895256408834 -0.7503900659495315 0 -0.7503900659495315 3.1620039296649054 0 0 0 0 -130.91939856346519 28.610731088043394 0 28.610731088043394 -11.296676224068506 0 0 0 0 -127.73522870251884 10.913701889265212 0 10.913701889265212 -118.06360065058107 0 0 0 0 -7.0011778243369918 71.194823816502321 0 71.194823816502321 -4.3126624284595891 0 0 0 0 -88.855009995012722 -17.551327542125364 0 -17.551327542125364 235.67865393671673 0 0 0 0 -150.75789165302672 85.334846586567437 0 85.334846586567437 56.783219953344997 0 0 0 0 -80.618758097858461 134.8911944676147 0 134.8911944676147 -94.009190073298669 0 0 0 0 -24.808789713080671 -74.991499948151613 0 -74.991499948151613 77.673920569327493 0 0 0 0 113.82259957241264 -449.74225920858635 0 -449.74225920858635 478.75032760387694 0 0 0 0 148.57793777522326 -148.58315809391024 0 -148.58315809391024 46.182661269580876 0 0 0 0 130.34872900702305 -420.18850822564673 0 -420.18850822564673 1500.4780683311637 0 0 0 0 55.574392722093883 -492.76283456608689 0 -492.76283456608689 1556.8056712580401 0 0 0 0 -12.545335676439986 -27.978285427647279 0 -27.978285427647279 -1.3757758094689052 0 0 0 0 125.34145780709427 -451.51828089914125 0 -451.51828089914125 1580.5145062781194 0 0 0 0 3.685056186899029 -2.6055731751372946 0 -2.6055731751372946 3.641859828233887 0 0 0 0 -208.53920116618016 -337.56152417985504 0 -337.56152417985504 1161.7685838906004 0 0 0 0 -257.51916854443033 -309.10498271734082 0 -309.10498271734082 1183.0786530601072 0 0 0 0 -212.59240519072094 -182.39850657375064 0 -182.39850657375064 1202.0367976935995 0 0 0 0 -289.51178021833016 -181.78941057649263 0 -181.78941057649263 1161.3942093688165 0 0 0 0 -193.30481454209897 -221.95280523620931 0 -221.95280523620931 520.87462870722084 0 0 0 0 -40.623654738929901 -137.21658392862264 0 -137.21658392862264 189.82100009653368 0 0 0 0 -205.49557354096441 -118.08751396246953 0 -118.08751396246953 536.70454890457495 0 0 0 0 -205.96244232003249 -93.712833263032735 0 -93.712833263032735 267.07697498310881 0 0 0 0 -169.60497075553405 -35.631543333491209 0 -35.631543333491209 358.1988366328369 0 0 0 0 -274.36724650255951 79.680972720720092 0 79.680972720720092 107.72189249733492 0 0 0 0 -140.66878641891878 -24.911061703875021 0 -24.911061703875021 79.648759864496242 0 0 0 0 -196.62123175533293 -8.8192872641484428 0 -8.8192872641484428 265.27128543587907 0 0 0 0 -359.15527493908007 125.22083768680386 0 125.22083768680386 74.755652986917994 0 0 0 0 -174.66734428406983 75.604732191768562 0 75.604732191768562 -15.817277824677149 0 0 0 0 -152.80903611114701 98.400980451873693 0 98.400980451873693 -178.47407536356332 0 0 0 0 -325.63136916956842 313.19371362063248 0 313.19371362063248 -136.63913668384566 0 0 0 0 -4.9735458625432223 -0.13128095417091856 0 -0.13128095417091856 2.6766934133733287 0 0 0 0 -239.66378356294427 41.436903883630293 0 41.436903883630293 6.9998610181173717 0 0 0 0 -214.32787255290293 6.1061330168231507 0 6.1061330168231507 194.67579786907879 0 0 0 0 -95.981807961474544 28.876654944819165 0 28.876654944819165 -8.1950499288141145 0 0 0 0 -50.184822957320648 -34.580225821748172 0 -34.580225821748172 55.336498376724194 0 0 0 0 -8.7562013564658159 -3.7119584982038845 0 -3.7119584982038845 4.8689684580373154 0 0 0 0 -150.21921089258842 192.50403175059546 0 192.50403175059546 -107.4944629090096 0 0 0 0 -226.44306250468941 152.38708528185452 0 152.38708528185452 -17.133849834825014 0 0 0 0 -82.218634387866018 74.082254737390031 0 74.082254737390031 -50.555669156834483 0 0 0 0 -25.559150389938168 41.443307202269352 0 41.443307202269352 -12.111638423564955 0 0 0 0 -0.4071038154231279 5.5191632719746835 0 5.5191632719746835 13.513790134649867 0 0 0 0 -26.24792072339477 23.615009544215354 0 23.615009544215354 -17.627982202648127 0 0 0 0 -32.704462802137186 25.954009055894858 0 25.954009055894858 -15.623064075836737 0 0 0 0 -24.991076723896185 31.114417782948294 0 31.114417782948294 -15.253567080610082 0 0 0 0 -9.9505257596283627 -2.1983550343211391 0 -2.1983550343211391 44.719516687415307 0 0 0 0 -71.694029045249181 101.1926688413223 0 101.1926688413223 -175.75150149682304 0 0 0 0 -56.062702931989406 25.439661458096452 0 25.439661458096452 -18.30005730240282 0 0 0 0 -31.724248947738374 21.002139176053788 0 21.002139176053788 -17.527961383559159 0 0 0 0 45.000638963225811 -135.80220864386138 0 -135.80220864386138 124.59486688147081 0 0 0 0 -41.255454970323171 82.148478308603444 0 82.148478308603444 12.244816450544022 0 0 0 0 -18.182438547420361 150.86199223747099 0 150.86199223747099 72.588253522728337 0 0 0 0 0.68165609490826551 3.3859766151589277 0 3.3859766151589277 11.650270328223314 0 0 0 0 276.9597392363803 -213.62528672782355 0 -213.62528672782355 36.35952654432549 0 0 0 0 239.65422532622688 -161.29047764094139 0 -161.29047764094139 278.34807875077968 0 0 0 0 40.427373204225205 -107.00014376934269 0 -107.00014376934269 279.76320443402074 0 0 0 0 26.682300880053845 -147.68250235253799 0 -147.68250235253799 262.76510257912014 0 0 0 0 -0.37449549229881995 0.41431008228658328 0 0.41431008228658328 2.1067448365531902 0 0 0 0 129.63186976655743 -122.64479532204132 0 -122.64479532204132 265.15961687745585 0 0 0 0 36.269752412629714 -135.51787540188161 0 -135.51787540188161 336.03296947490162 0 0 0 0 32.313023559194335 -148.0192292925276 0 -148.0192292925276 355.51956237261766 0 0 0 0 13.103213293650697 -112.93983048689552 0 -112.93983048689552 322.1370095057755 0 0 0 0 3.2304615746388663 -137.6251911881991 0 -137.6251911881991 370.62766037332767 0 0 0 0 30.584960703271463 -176.135335202649 0 -176.135335202649 412.76070847841038 0 0 0 0 107.9344847031598 -185.44829192477846 0 -185.44829192477846 358.50156722478278 0 0 0 0 22.881887729894061 -196.71928725578437 0 -196.71928725578437 358.66110934006429 0 0 0 0 -18.671367999071549 -130.2385820626414 0 -130.2385820626414 412.30425355647458 0 0 0 0 -49.490596895990166 -142.0040600733264 0 -142.0040600733264 439.82737784850542 0 0 0 0 -14.601999671863723 -113.62830695592493 0 -113.62830695592493 395.63136322783976 0 0 0 0 257.35731720120293 -438.11819046745404 0 -438.11819046745404 480.88247796252108 0 0 0 0 207.07552886941994 -314.77988208898387 0 -314.77988208898387 223.47964721369499 0 0 0 0 -43.259391054186381 -177.90639873733835 0 -177.90639873733835 491.40807782727643 0 0 0 0 107.22774565215332 -314.30150836602479 0 -314.30150836602479 510.82106664498133 0 0 0 0 0.18679642997575652 1.155547614505064 0 1.155547614505064 5.2597808322677224 0 0 0 0 -108.54740399468892 193.62241289012491 0 193.62241289012491 188.80284305942769 0 0 0 0 -83.920571965595627 92.041010572407231 0 92.041010572407231 556.70046748114328 0 0 0 0 83.464089056331431 -133.72402781484561 0 -133.72402781484561 408.82634199001768 0 0 0 0 -1.2592512124366717 0.31904623367233853 0 0.31904623367233853 1.2890906048662032 0 0 0 0 -237.43823026469818 402.87077701323869 0 402.87077701323869 -365.17810398382062 0 0 0 0 -37.108250081810127 -87.822069301440109 0 -87.822069301440109 14.074002972636663 0 0 0 0 38.375047430106861 19.388081319666526 0 19.388081319666526 -27.764290983854153 0 0 0 0 -138.27500501245811 189.86877392890256 0 189.86877392890256 195.80677914807893 0 0 0 0 98.258125593475143 221.01009068241729 0 221.01009068241729 115.06350498117536 0 0 0 0 -281.76533765310569 357.4098408392274 0 357.4098408392274 192.2589525338808 0 0 0 0 54.327503665791426 173.36343467555798 0 173.36343467555798 172.44028245914888 0 0 0 0 -17.427104713900036 30.588064456351731 0 30.588064456351731 40.979596086264792 0 0 0 0 108.31194640876504 -215.45269922522061 0 -215.45269922522061 734.29766248361557 0 0 0 0 793.17212377903354 62.580308975819207 0 62.580308975819207 25.962990926624116 0 0 0 0 143.74838703347021 399.80238286615077 0 399.80238286615077 755.63194063794799 0 0 0 0 28.738990151713324 -193.70674278439037 0 -193.70674278439037 687.83440285260599 0 0 0 0 574.1812314071758 1086.78688387273 0 1086.78688387273 738.69064772152342 0 0 0 0 146.48966891796749 595.87772782543107 0 595.87772782543107 1238.6868263274882 0 0 0 0 0.42111149115157698 -1.6911741437835381 0 -1.6911741437835381 10.577844867565958 0 0 0 0 309.31805408391853 -237.45160077224955 0 -237.45160077224955 85.755767077222117 0 0 0 0 21.912869593061345 -134.56417696960307 0 -134.56417696960307 200.50561711620321 0 0 0 0 -117.07911228112823 21.72898099498525 0 21.72898099498525 534.87210435534325 0 0 0 0 -110.36134387585764 -5.2606114475147479 0 -5.2606114475147479 21.538570670498302 0 0 0 0 -232.27796451348502 32.867575399684938 0 32.867575399684938 185.86737674077449 0 0 0 0 -134.03820785613829 -104.6166593607195 0 -104.6166593607195 203.7897303519967 0 0 0 0 -7.497024311841642 -35.864896018008949 0 -35.864896018008949 225.40769963815183 0 0 0 0 -325.8290559477731 -125.17762327168657 0 -125.17762327168657 1499.7065388496439 0 0 0 0 -13.313935728513343 -141.83982450471012 0 -141.83982450471012 205.44606944369207 0 0 0 0 71.314450429448584 -113.83125548412499 0 -113.83125548412499 167.65251129039098 0 0 0 0 -83.189832093820286 57.935382399002265 0 57.935382399002265 827.9791267479377 0 0 0 0 -2.8264002399038839 2.0998446155217394 0 2.0998446155217394 0.78966455408718694 0 0 0 0 -107.34228305015768 -179.88685351111235 0 -179.88685351111235 881.94756367280206 0 0 0 0 -67.481710472228272 -87.186512173290794 0 -87.186512173290794 1096.9596488894458 0 0 0 0 -1.2905132790453133 0.59705376754705242 0 0.59705376754705242 1.2030054140190103 0 0 0 0 -169.44136545641777 77.032172184217416 0 77.032172184217416 1186.258577595574 0 0 0 0 -210.56432182667106 193.36101271620191 0 193.36101271620191 1781.7088184240711 0 0 0 0 -153.82791115568921 69.847015073722105 0 69.847015073722105 1083.6376515268748 0 0 0 0 143.56158101312874 170.11776610927518 0 170.11776610927518 413.53924795597777 0 0 0 0 -127.01704469814408 76.591837844602196 0 76.591837844602196 1083.6858180727943 0 0 0 0 17.443810462913007 0.86948839450269588 0 0.86948839450269588 104.4371066977817 0 0 0 0 0.5009731157954721 -7.3147578363321628 0 -7.3147578363321628 24.366930090031246 0 0 0 0 -4.8074857449850894 1.7761632850559295 0 1.7761632850559295 6.4138620849474908 0 0 0 0 5.3042044730825637 -24.714933131104772 0 -24.714933131104772 61.057906867867132 0 0 0 0 -224.92482023583057 -517.41995890856742 0 -517.41995890856742 1164.2272667606594 0 0 0 0 601.90369860573219 575.30087620509221 0 575.30087620509221 -418.88962535703195 0 0 0 0 378.53029381735286 -2.7448942863684351 0 -2.7448942863684351 1499.5972273902944 0 0 0 0 -0.61392268207215217 -0.58285974185895384 0 -0.58285974185895384 8.4987936735494838 0 0 0 0 218.41658598322223 -96.616694904110773 0 -96.616694904110773 -99.620624897819653 0 0 0 0 0.51912302409094346 1.3009073053950146 0 1.3009073053950146 0.65742579523242028 0 0 0 0 -179.51879904260682 359.3012049622921 0 359.3012049622921 701.04191798451484 0 0 0 0 -240.95757587955757 266.6368233470439 0 266.6368233470439 1053.6827121209644 0 0 0 0 -22.046917447832584 134.00533851077125 0 134.00533851077125 282.12755168055446 0 0 0 0 0.50341867685287145 -5.240181868929632 0 -5.240181868929632 18.823319450460929 0 0 0 0 29.415474299470588 103.89104765486263 0 103.89104765486263 574.38957820503856 0 0 0 0 -70.363395467381451 21.19169645452348 0 21.19169645452348 22.228914747603994 0 0 0 0 1.4063696499845779 -2.1487073401502172 0 -2.1487073401502172 7.3427660906260144 0 0 0 0 513.41293510123819 936.85312846562374 0 936.85312846562374 992.70477593918804 0 0 0 0 550.18368984074732 -361.98357336720801 0 -361.98357336720801 7.1349078528382961 0 0 0 0 208.38691563545399 -668.30042973708441 0 -668.30042973708441 993.41781929127319 0 0 0 0 -0.39552246861242646 7.3544856600019557 0 7.3544856600019557 1034.6014239704309 0 0 0 0 -130.92205738747461 -127.70705740369522 0 -127.70705740369522 1674.1315735472672 0 0 0 0 108.50915917139591 -3.3846844955987763 0 -3.3846844955987763 453.74123545696239 0 0 0 0 191.90057808217981 -190.91702296930634 0 -190.91702296930634 735.51227838766863 0 0 0 0 -30.842877539167972 48.756631169830143 0 48.756631169830143 590.59284387920343 0 0 0 0 0.20481790061449939 71.396824291439771 0 71.396824291439771 362.89012241539604 0 0 0 0 41.023028429665402 36.141800540882286 0 36.141800540882286 50.448441334956442 0 0 0 0 -14.154311655246374 60.313985416381911 0 60.313985416381911 83.14203765316779 0 0 0 0 -1.3289806689633963 33.731673963051435 0 33.731673963051435 410.52959893355728 0 0 0 0 70.756645285037678 19.825731443370387 0 19.825731443370387 44.272415349616494 0 0 0 0 61.738084902399862 51.03027227300845 0 51.03027227300845 406.11302104570495 0 0 0 0 -27.537761293100175 -82.384337757470348 0 -82.384337757470348 440.75279473707997 0 0 0 0 57.237988579126451 206.72001602259394 0 206.72001602259394 691.42304530421825 0 0 0 0 1.36088094089863 4.0441907140839231 0 4.0441907140839231 13.597227834211509 0 0 0 0 272.34515510664528 624.23429093859522 0 624.23429093859522 128.4928206666591 0 0 0 0 -35.203573544284154 -169.91107428041323 0 -169.91107428041323 728.24477615072101 0 0 0 0 123.95354386253939 768.13985275010691 0 768.13985275010691 443.87885063481372 0 0 0 0 170.399991093225 447.2077558165247 0 447.2077558165247 -69.073615943510958 0 0 0 0 -8.971512244665405 -67.293198506811677 0 -67.293198506811677 107.95036466703459 0 0 0 0 -40.34488998890685 22.871923702155073 0 22.871923702155073 29.86808047638624 0 0 0 0 63.872027878405959 76.640281501953723 0 76.640281501953723 -48.363930608589726 0 0 0 0 -36.243520100734372 23.453800515879266 0 23.453800515879266 32.653956182330148 0 0 0 0 -1.1116170755799817 7.584002177038057 0 7.584002177038057 33.755912152964243 0 0 0 0 -0.042136075281959839 0.58192396162852944 0 0.58192396162852944 -0.4749578868683102 0 0 0 0 123.2091581706571 -383.40554982587082 0 -383.40554982587082 3.3456533595381188 0 0 0 0 -476.3109037664351 -105.15946341967901 0 -105.15946341967901 127.97428514048806 0 0 0 0 126.08355581977025 -174.28290760892969 0 -174.28290760892969 -144.10901137250403 0 0 0 0 -3.9506148623369137 -6.5048409631073341 0 -6.5048409631073341 10.660141937453155 0 0 0 0 -1.5524352970337854 0.77779043632585143 0 0.77779043632585143 9.5268796345643239 0 0 0 0 -8.0218861441593852 0.79651982642508301 0 0.79651982642508301 16.779936517690658 0 0 0 0 -3.3357314902041031 8.7805813388811913 0 8.7805813388811913 11.590407839950387 0 0 0 0 -7.1256979658458119 1.0299642359973404 0 1.0299642359973404 9.700188944771071 0 0 0 0 -0.93414236710974619 1.3245354219077541 0 1.3245354219077541 1.0703925132380405 0 0 0 0 -1.953333804822297 -1.1576953349758696 0 -1.1576953349758696 3.903441184105759 0 0 0 0 0.019776607132210508 -2.0022405367767071 0 -2.0022405367767071 2.7247012939988053 0 0 0 0 -2.6625746909378334 0.29702770478616003 0 0.29702770478616003 12.200442340987138 0 0 0 0 16.961202659167043 -40.648359927210549 0 -40.648359927210549 -28.680531264544697 0 0 0 0 -0.29031363520488823 0.24473705754607522 0 0.24473705754607522 -0.22883058632484676 0 0 0 0 16.885147979616931 -2.613150151733862 0 -2.613150151733862 -60.384301553247496 0 0 0 0 45.387763275581932 33.853919183718972 0 33.853919183718972 -15.6827588656015 0 0 0 0 -4.2425788845778243 9.3221807464933875 0 9.3221807464933875 48.110674053962782 0 0 0 0 -5.8228752801924202 7.5466498229939134 0 7.5466498229939134 53.403758671107468 0 0 0 0 -10.234572219826532 11.231446849444609 0 11.231446849444609 56.775745487862309 0 0 0 0 -8.9352648494448204 7.2153490739924564 0 7.2153490739924564 61.256330219094707 0 0 0 0 -2.8745165057007398 7.8988322862101086 0 7.8988322862101086 53.100559187244471 0 0 0 0 -3.2723781729823713 5.096819685170658 0 5.096819685170658 54.582628818980425 0 0 0 0 5.7259842965878534 11.680359325010841 0 11.680359325010841 34.101125272990657 0 0 0 0 4.3956773673039606 5.4699351174108415 0 5.4699351174108415 40.334433019023209 0 0 0 0 -5.6599609123237968 7.3712075716202889 0 7.3712075716202889 48.029538475590925 0 0 0 0 -6.1210087581039438 -1.5146961594807102 0 -1.5146961594807102 44.987729465561188 0 0 0 0 3.1842867273149977 0.61584110730723296 0 0.61584110730723296 51.244369586422408 0 0 0 0 -2.4153780979293442 4.2530042708723599 0 4.2530042708723599 10.76148147463639 0 0 0 0 3.551745605492016 23.995580371220683 0 23.995580371220683 68.437159417442103 0 0 0 0 4.6517326017982086 18.191036991187463 0 18.191036991187463 24.328982768441762 0 0 0 0 2.9865188621811996 18.065943687009174 0 18.065943687009174 31.988363392768179 0 0 0 0 -0.92015317481377679 1.4707994869396224 0 1.4707994869396224 50.635755321570116 0 0 0 0 -3.913830890389363 7.1971797500908679 0 7.1971797500908679 52.846577119693052 0 0 0 0 -3.2432419230701726 10.399065430842768 0 10.399065430842768 64.11218848722217 0 0 0 0 15.775856859766691 16.844885753324888 0 16.844885753324888 47.697931806088718 0 0 0 0 3.3422216274575476 19.396063217595099 0 19.396063217595099 75.838184996957466 0 0 0 0 0.7804835617171193 2.1354193633425638 0 2.1354193633425638 40.037895681124041 0 0 0 0 4.4288783109441283 17.613717013853602 0 17.613717013853602 55.508523711534508 0 0 0 0 -0.62454758254473663 12.730853528616507 0 12.730853528616507 11.161905885588206 0 0 0 0 -0.18843470573981946 0.43873454295411385 0 0.43873454295411385 6.6807643587299417 0 0 0 0 3.3634879831049602 7.0162951117147259 0 7.0162951117147259 32.943074983579891 0 0 0 0 -3.0164831837425936 7.057927798212404 0 7.057927798212404 57.0513059216687 0 0 0 0 -3.6692096125522369 1.072316618677732 0 1.072316618677732 7.9015558632569771 0 0 0 0 -5.5994712020217774 -1.3467135914529038 0 -1.3467135914529038 23.119850016529796 0 0 0 0 1.040569060106888 9.0165772687639638 0 9.0165772687639638 15.095911484559981 0 0 0 0 2.1642335771895489 9.9719723479465756 0 9.9719723479465756 21.25388883924029 0 0 0 0 -1.4570214957918211 18.272623606618708 0 18.272623606618708 48.974602101152414 0 0 0 0 7.9399318492758653 -5.3520938386820944 0 -5.3520938386820944 28.441410738663762 0 0 0 0 5.0841060782304339 8.3689565120221232 0 8.3689565120221232 54.277197666295251 0 0 0 0 20.36589959715252 34.473827434747363 0 34.473827434747363 55.643516084426665 0 0 0 0 18.853550393705746 4.5708281952183825 0 4.5708281952183825 -69.041490979032005 0 0 0 0 -0.37729306248759209 0.69883729806187667 0 0.69883729806187667 2.1288856865497578 0 0 0 0 7.8724756651743064 45.847579635465536 0 45.847579635465536 -62.74719434388544 0 0 0 0 6.468204790049457 -11.743666054129143 0 -11.743666054129143 1.0187948796592536 0 0 0 0 -2.6112166286410696 11.469059421976702 0 11.469059421976702 16.3931887479606 0 0 0 0 -194.89557428645071 24.242840262023492 0 24.242840262023492 22.582029031877482 0 0 0 0 -1.0213539363174959 6.5759079070422786 0 6.5759079070422786 37.840139438198435 0 0 0 0 -3.2196669878660336 -4.0916333320327594 0 -4.0916333320327594 9.6707940648015303 0 0 0 0 -2.6439945749150828 2.7148193038973618 0 2.7148193038973618 5.5128011825926011 0 0 0 0 -5.0563472134290031 -2.5738596893769286 0 -2.5738596893769286 2.8861704400040962 0 0 0 0 -3.4604192039135868 2.2822888020262564 0 2.2822888020262564 1.062865392010643 0 0 0 0 -2.7735716693101722 11.905382890896476 0 11.905382890896476 41.708730330718595 0 0 0 0 7.0592433818674181 14.12492989475686 0 14.12492989475686 111.4273609352158 0 0 0 0 -0.4800858252085618 10.053999897377139 0 10.053999897377139 23.616546382953857 0 0 0 0 -1.2211914314996335 5.0720198860422698 0 5.0720198860422698 29.481116552206231 0 0 0 0 143.60113072342529 142.64740666066427 0 142.64740666066427 -36.513453869945806 0 0 0 0 -3.3385142876229565 6.5048948509038951 0 6.5048948509038951 26.713114276282674 0 0 0 0 -3.5755986346573536 8.2516213027560354 0 8.2516213027560354 19.78934035147995 0 0 0 0 -10.97582589620356 1.2414195335895784 0 1.2414195335895784 23.933363962384909 0 0 0 0 -2.6064649488507712 9.6341452540259525 0 9.6341452540259525 24.873109047930384 0 0 0 0 -7.9823178477083729 6.9505907487828722 0 6.9505907487828722 33.517666731352847 0 0 0 0 -0.75347241994040814 10.358684538563011 0 10.358684538563011 27.106393870382448 0 0 0 0 -5.4251240581436377 10.554707443619407 0 10.554707443619407 39.910238191909002 0 0 0 0 -151.45257528327875 -124.89592569778961 0 -124.89592569778961 56.098316247883304 0 0 0 0 -2.1534904430805835 -0.19706044202741335 0 -0.19706044202741335 2.3910955701491154 0 0 0 0 56.40528048330458 62.901257356544875 0 62.901257356544875 4.8856522260020938 0 0 0 0 -54.121288829399418 -0.0083890724454249721 0 -0.0083890724454249721 81.473280957605311 0 0 0 0 -4.5808754354132439 3.8973569619999218 0 3.8973569619999218 24.661860162986713 0 0 0 0 -18.535217191370975 -16.631930588525393 0 -16.631930588525393 65.700396422762879 0 0 0 0 -0.91635054527682946 0.018024771308242649 0 0.018024771308242649 1.4755839267971069 0 0 0 0 59.699833133751127 144.48583827785149 0 144.48583827785149 120.57897375618086 0 0 0 0 72.16468378215086 38.863512899612033 0 38.863512899612033 41.808680940874183 0 0 0 0 -26.618409113255723 -5.8693993134622815 0 -5.8693993134622815 144.71524208187657 0 0 0 0 -7.7689820290131593 -21.400230777167053 0 -21.400230777167053 -37.980290822673851 0 0 0 0 -61.10615209478533 36.317746675918897 0 36.317746675918897 115.65923755113909 0 0 0 0 -0.163837707100015 17.691014870972936 0 17.691014870972936 58.385840178333638 0 0 0 0 13.125971828630099 21.891508224816789 0 21.891508224816789 28.970826988203044 0 0 0 0 1.7573799353585464 4.9119663554243118 0 4.9119663554243118 7.0480867562411458 0 0 0 0 -15.767973766822406 5.2841570330636678 0 5.2841570330636678 22.716844248564499 0 0 0 0 -45.758643958702635 -38.896986771372099 0 -38.896986771372099 -56.477454863492312 0 0 0 0 -0.92404668724793737 14.191230779512466 0 14.191230779512466 24.116057771022952 0 0 0 0 -7.6058518988815749 4.657027191607308 0 4.657027191607308 18.672863463128976 0 0 0 0 -64.227836565585676 -28.006593667040761 0 -28.006593667040761 4.1596519994845949 0 0 0 0 -12.115798909762077 11.284555153749693 0 11.284555153749693 29.732870962414381 0 0 0 0 -9.6701186948915918 3.2856154116158898 0 3.2856154116158898 6.6495800756737129 0 0 0 0 -2.0163081527518898 3.7388646572931066 0 3.7388646572931066 14.549164307421961 0 0 0 0 3.7364782606528024 9.1852393088347526 0 9.1852393088347526 91.857815464335545 0 0 0 0 -3.9520599208968861 41.287544143884702 0 41.287544143884702 80.87461448434351 0 0 0 0 -1.5231009389653991 18.390990631149236 0 18.390990631149236 53.240491858436144 0 0 0 0 -8.0591030297164039 -1.8602305760212339 0 -1.8602305760212339 1.6933972117230649 0 0 0 0 -4.5285006967585701 1.409837984054104 0 1.409837984054104 -0.71883939444914624 0 0 0 0 -9.5837218009958072 2.3193107796114378 0 2.3193107796114378 6.9190109352377842 0 0 0 0 -4.0631744065835429 3.9869158247769074 0 3.9869158247769074 4.906361969527028 0 0 0 0 -5.8349002249888144 33.965650326034847 0 33.965650326034847 55.272338555915894 0 0 0 0 1.6829103147528031 25.442174203931984 0 25.442174203931984 17.667204782726003 0 0 0 0 -2.5235041067871862 26.962185270230748 0 26.962185270230748 42.71699019170444 0 0 0 0 -25.858416508683604 19.762113785535803 0 19.762113785535803 57.120850526676122 0 0 0 0 -9.2668485634549143 4.4068096327141575 0 4.4068096327141575 12.089461096692958 0 0 0 0 6.6080703640109277 21.285124530019402 0 21.285124530019402 15.389582195944058 0 0 0 0 -8.1401515081408888 14.376897088078266 0 14.376897088078266 23.784565775239571 0 0 0 0 -1.0500762375813792 12.014879561894759 0 12.014879561894759 8.2985306816271986 0 0 0 0 5.4061431033951521 16.92646468223893 0 16.92646468223893 23.635426738991555 0 0 0 0 -19.180927124031768 12.671710988106042 0 12.671710988106042 31.58405118253404 0 0 0 0 -19.029702565221214 4.0817039251235201 0 4.0817039251235201 22.582738249204795 0 0 0 0 -18.72666008692886 0.29559885320395551 0 0.29559885320395551 16.16024391699375 0 0 0 0 -14.716627795445675 6.0155884794833128 0 6.0155884794833128 14.397155979734634 0 0 0 0 -3.8055778795451261 4.9383342107375938 0 4.9383342107375938 13.554364078340768 0 0 0 0 -7.1051842544734667 5.1502173536642681 0 5.1502173536642681 12.960013575593164 0 0 0 0 11.774540391056689 20.044289938386555 0 20.044289938386555 20.065795616247669 0 0 0 0 8.5509948310582331 18.054024198587285 0 18.054024198587285 20.310041263005132 0 0 0 0 -2.9976573030937348 8.8027073627794721 0 8.8027073627794721 12.311739141941636 0 0 0 0 23.900734259128512 22.539892243054055 0 22.539892243054055 17.463212056904013 0 0 0 0 5.3876778611338949 14.721711143449397 0 14.721711143449397 32.619065494953247 0 0 0 0 2.8406809109237656 9.8264001655506945 0 9.8264001655506945 17.952779595555512 0 0 0 0 6.8025588609962142 20.106164752910445 0 20.106164752910445 36.174708107299921 0 0 0 0 0.30245737146210416 1.9941389869747823 0 1.9941389869747823 6.6083319904177991 0 0 0 0 6.6854804879094445 14.411559334202593 0 14.411559334202593 30.130525068057977 0 0 0 0 6.8965755535064091 16.677533144938025 0 16.677533144938025 31.609296641607216 0 0 0 0 5.2311677686666371 15.91952800076524 0 15.91952800076524 35.474488641128801 0 0 0 0 -2.6074816066311826 7.4172125728509073 0 7.4172125728509073 19.654183344909768 0 0 0 0 -7.703326661349081 10.243318519932018 0 10.243318519932018 15.993664265452026 0 0 0 0 -12.992291786472833 -8.9781027464032377 0 -8.9781027464032377 42.542677149529482 0 0 0 0 -3.2312958304003061 8.941054618016441 0 8.941054618016441 18.550663812173383 0 0 0 0 5.9187102608348141 15.372340703886266 0 15.372340703886266 31.968300897560766 0 0 0 0 -2.7655088837655057 22.184499196837351 0 22.184499196837351 39.124651091053238 0 0 0 0 -5.7832590089120153 2.1576421913622452 0 2.1576421913622452 5.9671937912140436 0 0 0 0 9.709251617139671 18.663425082282629 0 18.663425082282629 28.351875813817969 0 0 0 0 -6.9527555698941796 4.1280162743496476 0 4.1280162743496476 11.771606675640214 0 0 0 0 -0.58504015915369223 8.5593810004482673 0 8.5593810004482673 18.79995689317898 0 0 0 0 -5.3257727584752184 3.5432811978833421 0 3.5432811978833421 20.404418517978357 0 0 0 0 0.6483134111522304 11.20594536311819 0 11.20594536311819 29.975402223590208 0 0 0 0 -6.3088145554037247 -0.20236750444068008 0 -0.20236750444068008 11.935653662572868 0 0 0 0 -3.8397345510611558 -13.993227833983838 0 -13.993227833983838 24.31059636397913 0 0 0 0 -0.68260070424639707 8.1405100932970527 0 8.1405100932970527 31.026813400421815 0 0 0 0 1.2323227900797065 8.245789186012189 0 8.245789186012189 25.40837223062772 0 0 0 0 -18.778027421264255 8.6651328485554586 0 8.6651328485554586 23.616751900135569 0 0 0 0 3.0026960862378473 9.2054063018076704 0 9.2054063018076704 23.427761413680855 0 0 0 0 3.0554929186000663 10.706465392777318 0 10.706465392777318 24.893920858361525 0 0 0 0 0.068704137463257098 8.7675188775124298 0 8.7675188775124298 11.674809126200905 0 0 0 0 1.9761327369851642 7.9147118963483081 0 7.9147118963483081 21.821326201461488 0 0 0 0 1.1425611694439795 6.6329153148644764 0 6.6329153148644764 21.915309933297976 0 0 0 0 -0.017133270728663774 8.0957644812187937 0 8.0957644812187937 25.262919407250592 0 0 0 0 0.89221242770872777 9.5198021025389608 0 9.5198021025389608 26.362593129098968 0 0 0 0 1.6564735518338836 7.0143059061379214 0 7.0143059061379214 13.105547337025454 0 0 0 0 0.57777867950426298 4.6357157722959528 0 4.6357157722959528 19.256833412177002 0 0 0 0 2.099306822870858 10.204417415087846 0 10.204417415087846 18.177195595009835 0 0 0 0 2.1201165186030266 7.5455146312028774 0 7.5455146312028774 22.767200589249114 0 0 0 0 1.5431832879730791 17.808228134659657 0 17.808228134659657 47.351343846283271 0 0 0 0 -0.79892593650401977 1.5959228129781877 0 1.5959228129781877 17.531203293701765 0 0 0 0 -0.86090594883430782 -0.65983394834895037 0 -0.65983394834895037 13.948058334650622 0 0 0 0 7.1647355512932336 4.9972108699421369 0 4.9972108699421369 22.901726997966762 0 0 0 0 6.8165792759828037 12.752505780634237 0 12.752505780634237 51.671469787157548 0 0 0 0 -1.2105730161596533 0.97818406443423278 0 0.97818406443423278 3.3521380371018346 0 0 0 0 -0.35875431350041254 3.0629201540723443 0 3.0629201540723443 27.170492355688111 0 0 0 0 -1.3604501717996271 5.1826316094029323 0 5.1826316094029323 7.8458677144815905 0 0 0 0 -3.3770633417774469 -6.5404826541385006 0 -6.5404826541385006 17.605586757474587 0 0 0 0 0.080411031645326148 2.8076472389629998 0 2.8076472389629998 17.115158491236798 0 0 0 0 -1.3719659758189664 1.4623528391985019 0 1.4623528391985019 20.59799000682915 0 0 0 0 -2.8427516096689942 4.778602728369151 0 4.778602728369151 27.647708841602253 0 0 0 0 -4.4897912728481906 4.9579414404885682 0 4.9579414404885682 10.048176815074498 0 0 0 0 -0.71371828081919375 6.7605740177195912 0 6.7605740177195912 29.226232974935556 0 0 0 0 -13.049454552829047 9.8744589182333584 0 9.8744589182333584 12.092370077381929 0 0 0 0 -3.3334922679437113 -2.3357588555732036 0 -2.3357588555732036 27.399641038914524 0 0 0 0 -43.286398107709374 -12.710685755916074 0 -12.710685755916074 22.390052433755955 0 0 0 0 2.4587305342226955 9.0657581198665866 0 9.0657581198665866 18.776146897565013 0 0 0 0 -1.2551112249683172 1.7356606143213629 0 1.7356606143213629 2.9287097253465966 0 0 0 0 1.7426155599232516 9.5171756800154981 0 9.5171756800154981 18.755713531986743 0 0 0 0 -24.168493649409356 6.3288868722920597 0 6.3288868722920597 12.306320938094359 0 0 0 0 -29.665186733872588 -1.9538029051245758 0 -1.9538029051245758 27.490391850649758 0 0 0 0 -0.72382178162145649 0.32347134456939486 0 0.32347134456939486 5.3129572274601617 0 0 0 0 -30.361629764156532 -0.15241738559234363 0 -0.15241738559234363 43.442747886932921 0 0 0 0 -0.42488321291966713 6.8543744815169703 0 6.8543744815169703 47.825406870866573 0 0 0 0 -38.436002400147117 21.628515098711432 0 21.628515098711432 22.330130282594837 0 0 0 0 -0.65613440589899774 -0.78598296976193982 0 -0.78598296976193982 2.291077266878272 0 0 0 0 -23.551602375388029 8.9211905920692516 0 8.9211905920692516 52.859549538794454 0 0 0 0 -43.215181795969329 20.854899688158184 0 20.854899688158184 53.183997906191507 0 0 0 0 7.9190212604789849 15.811994366702493 0 15.811994366702493 17.538822945331049 0 0 0 0 28.583135928809497 -5.9524987925778987 0 -5.9524987925778987 37.192897235547207 0 0 0 0 37.728439653043552 29.555331207536938 0 29.555331207536938 23.38471795561054 0 0 0 0 -16.405662441002278 -3.463660116209212 0 -3.463660116209212 24.615646256022956 0 0 0 0 0.046269541884157661 25.913450983172652 0 25.913450983172652 42.844307200277399 0 0 0 0 -3.5221877331330749 1.0275943472419264 0 1.0275943472419264 0.34386454700688418 0 0 0 0 8.8006853486610908 47.356262844563844 0 47.356262844563844 78.529213936787528 0 0 0 0 -48.962995287429294 19.533086445764638 0 19.533086445764638 129.17062397596419 0 0 0 0 -32.341581275823728 25.970969597252861 0 25.970969597252861 41.424578791654312 0 0 0 0 25.248267789733404 53.587619924164528 0 53.587619924164528 52.132717584122474 0 0 0 0 -19.215478925352272 51.654891388662691 0 51.654891388662691 82.936051798142216 0 0 0 0 -3.651171324372176 0.67652983823055557 0 0.67652983823055557 0.53036668246962648 0 0 0 0 4.8289979820425515 20.992142247584923 0 20.992142247584923 30.359259543834014 0 0 0 0 13.291905513653091 2.5400750169883395 0 2.5400750169883395 52.435267128757459 0 0 0 0 -19.919924222094281 24.953585368875792 0 24.953585368875792 1.2077191708885948 0 0 0 0 -3.6378960906699831 4.9097375248379649 0 4.9097375248379649 21.333105996697668 0 0 0 0 2.1358072429276831 28.997056185977328 0 28.997056185977328 4.1143483238774934 0 0 0 0 -7.7191299938795055 15.686525682335514 0 15.686525682335514 -4.4272259489504222 0 0 0 0 1.1160350014847609 20.596676510403768 0 20.596676510403768 -33.790134637381243 0 0 0 0 -0.47376643984807565 -1.0941146535019195 0 -1.0941146535019195 -0.28515152424772694 0 0 0 0 23.619462807039724 38.656369303392921 0 38.656369303392921 29.053313016393076 0 0 0 0 -1.1431109895261351 2.0426374073958264 0 2.0426374073958264 2.9707317369054991 0 0 0 0 -1.2551898410958628 -0.41733534988478382 0 -0.41733534988478382 2.3072282121018368 0 0 0 0 -8.4690447881694482 5.8386433529325785 0 5.8386433529325785 5.2147223740330446 0 0 0 0 -5.4950205412817468 8.0712384058745101 0 8.0712384058745101 6.4483029213176479 0 0 0 0 -0.90917523947503653 0.40188370792458628 0 0.40188370792458628 0.78500131505133552 0 0 0 0 -44.572917270985272 -1.7968114709947258 0 -1.7968114709947258 11.171028756541318 0 0 0 0 34.403048962507157 43.152218576620726 0 43.152218576620726 20.276241168503475 0 0 0 0 14.918627101434652 36.619498308536549 0 36.619498308536549 31.982890539103437 0 0 0 0 62.601578321087118 27.190925547528423 0 27.190925547528423 16.869368555976735 0 0 0 0 -33.795907652698091 -8.2785491954550707 0 -8.2785491954550707 50.878536605610861 0 0 0 0 4.7134453799162657 -6.3112551395215633 0 -6.3112551395215633 50.061249988446434 0 0 0 0 -1.9840195204619118 -0.2376605794921236 0 -0.2376605794921236 0.84313005500521498 0 0 0 0 58.20718690710396 65.521630623904912 0 65.521630623904912 78.644039860691919 0 0 0 0 -22.729797266429159 59.246684873211052 0 59.246684873211052 129.18571513840106 0 0 0 0 29.2363694976234 32.598740967041067 0 32.598740967041067 65.662488750767807 0 0 0 0 -44.667533045274837 -21.709513526822775 0 -21.709513526822775 72.794611691555474 0 0 0 0 -2.1014298533963824 -24.349237865447776 0 -24.349237865447776 20.498827498267019 0 0 0 0 -22.303001998799118 3.9032799749752485 0 3.9032799749752485 48.772735870275028 0 0 0 0 -10.634275620674202 2.830773988051039 0 2.830773988051039 6.4723356620257277 0 0 0 0 -19.971859541144589 15.846612691541054 0 15.846612691541054 60.960167668473332 0 0 0 0 -26.486403219426961 18.720014784201794 0 18.720014784201794 65.166612996905315 0 0 0 0 -65.46811601964356 17.554366760988614 0 17.554366760988614 61.953685475123621 0 0 0 0 -26.830782908971173 53.408111113832092 0 53.408111113832092 6.3340069861005759 0 0 0 0 20.696966485496887 23.973295523790057 0 23.973295523790057 49.366193198474321 0 0 0 0 -11.572588325309169 5.7064834204809074 0 5.7064834204809074 24.518141732685763 0 0 0 0 -2.9034889451007508 7.6099134385466192 0 7.6099134385466192 30.169616793334431 0 0 0 0 -9.9665355166239351 20.27309525097462 0 20.27309525097462 58.068536218107056 0 0 0 0 -0.70545267072067164 5.5144956081923073 0 5.5144956081923073 27.499611339693303 0 0 0 0 -20.535637269576455 16.351081866986533 0 16.351081866986533 88.765786906944186 0 0 0 0 -5.6316168546627488 2.6193358223485683 0 2.6193358223485683 35.200147539926782 0 0 0 0 -5.1649381694701333 -1.0659302685571674 0 -1.0659302685571674 37.940637864533528 0 0 0 0 -5.2516751770199335 -0.50001818150303734 0 -0.50001818150303734 38.823879971834685 0 0 0 0 -3.5899130565025481 -4.9208085194816942 0 -4.9208085194816942 37.663734981527256 0 0 0 0 -5.0173199213897988 -0.61750127509981212 0 -0.61750127509981212 38.536099905733863 0 0 0 0 -3.4378832629962517 -0.20416240114673201 0 -0.20416240114673201 21.271027220653195 0 0 0 0 -37.030648795306206 -5.5195796378648083 0 -5.5195796378648083 25.326394455536501 0 0 0 0 0.28987802807478147 -29.799471585311039 0 -29.799471585311039 -55.773351926142368 0 0 0 0 -3.8885442975837226 -6.6517685584465305 0 -6.6517685584465305 41.408556959044304 0 0 0 0 -2.6044752855597091 -4.0021195272975429 0 -4.0021195272975429 4.249204914141103 0 0 0 0 -5.2117162120155047 -4.6969058073932004 0 -4.6969058073932004 12.224415048554107 0 0 0 0 -4.0333160466806088 -2.4944862610535861 0 -2.4944862610535861 26.964526389959207 0 0 0 0 -5.4911760949726158 -1.0975658078205015 0 -1.0975658078205015 38.909177193825599 0 0 0 0 -20.435668658486975 -9.2510310346442566 0 -9.2510310346442566 17.887206837733174 0 0 0 0 -19.141786394511655 -14.005133858227055 0 -14.005133858227055 19.851821923761236 0 0 0 0 -7.6516176886671019 -0.23602649203712645 0 -0.23602649203712645 20.876133800047683 0 0 0 0 -20.772614847648015 -9.9123066038248453 0 -9.9123066038248453 38.600058584197541 0 0 0 0 7.2860476572877815 -21.919739926728653 0 -21.919739926728653 18.276296879823349 0 0 0 0 -1.4769275066728369 -10.718071612219319 0 -10.718071612219319 0.73226474614239123 0 0 0 0 -17.165832960738044 -7.1977602725983161 0 -7.1977602725983161 8.4415490832270734 0 0 0 0 -9.0605039693692877 -0.13222523464942348 0 -0.13222523464942348 10.54550772038926 0 0 0 0 0.36734301113514789 15.732451123383271 0 15.732451123383271 29.515673026644436 0 0 0 0 -23.082875777962727 -6.517397817257006 0 -6.517397817257006 10.467911884339628 0 0 0 0 -21.234934537874778 -22.169603891215502 0 -22.169603891215502 -7.1542998595105018 0 0 0 0 1.1919697089846064 2.305650799342903 0 2.305650799342903 2.2318390025366774 0 0 0 0 0.41989093632344066 15.144549091234694 0 15.144549091234694 33.397013689798769 0 0 0 0 -3.584397359489484 2.4259315136579183 0 2.4259315136579183 11.373856337707945 0 0 0 0 -4.5599896629746581 12.470099158990706 0 12.470099158990706 36.42555463233748 0 0 0 0 -3.4005136127169635 10.394104538399006 0 10.394104538399006 40.11807263999799 0 0 0 0 -1.2903894831978278 13.722842782566659 0 13.722842782566659 36.827048269278748 0 0 0 0 -2.4597998656558957 16.625153896748088 0 16.625153896748088 34.821668140744805 0 0 0 0 -10.193770846833786 15.957602865505578 0 15.957602865505578 42.95645728984482 0 0 0 0 -6.1604985443619853 21.546405579962993 0 21.546405579962993 31.564832150397706 0 0 0 0 0.88775905753846018 18.624468821124537 0 18.624468821124537 29.599945526865667 0 0 0 0 0.2383102491040745 18.055503588400825 0 18.055503588400825 31.010988395490131 0 0 0 0 -6.9484828090394331 22.419608154064917 0 22.419608154064917 33.252189028957218 0 0 0 0 -6.9356557186359993 19.414211240704503 0 19.414211240704503 13.926212587095506 0 0 0 0 0.85882470785630005 17.923862138559798 0 17.923862138559798 28.84411495258064 0 0 0 0 0.50783523890993365 18.595923882208808 0 18.595923882208808 30.507078051177814 0 0 0 0 -1.1860214568289393 18.323567411624026 0 18.323567411624026 30.877131550309059 0 0 0 0 1.4430224030686531 16.360252096628756 0 16.360252096628756 31.613776358299219 0 0 0 0 -2.331728237979803 17.214474720209182 0 17.214474720209182 40.23025053190031 0 0 0 0 -3.280654260454412 20.61316106007871 0 20.61316106007871 32.904173328734032 0 0 0 0 -2.1551132784488973 8.1325354490024431 0 8.1325354490024431 6.2374187025431951 0 0 0 0 -3.3921483439371514 21.374506620676584 0 21.374506620676584 39.396591025555153 0 0 0 0 -8.4280540627878686 14.951840137396438 0 14.951840137396438 28.61636007488816 0 0 0 0 6.5411006960803206 44.870724407879607 0 44.870724407879607 -20.340384465644092 0 0 0 0 -50.279612749961643 -4.4050944816153788 0 -4.4050944816153788 60.886963220938924 0 0 0 0 -36.089550886914139 -6.8775847657577742 0 -6.8775847657577742 37.351862361589156 0 0 0 0 -33.488030104665086 21.40183513120428 0 21.40183513120428 90.637453463590646 0 0 0 0 11.397757362480661 13.101096290889473 0 13.101096290889473 32.707875582183988 0 0 0 0 -11.885886074704558 18.976586137750928 0 18.976586137750928 69.261702679363225 0 0 0 0 10.58670540257026 26.486895667259887 0 26.486895667259887 30.531707974179881 0 0 0 0 24.992638959061821 -12.341012776422531 0 -12.341012776422531 60.0010931088691 0 0 0 0 -3.7040495963613438 11.597965222157487 0 11.597965222157487 2.0483560270878414 0 0 0 0 -43.240675256683062 20.940433006253443 0 20.940433006253443 50.726122164163826 0 0 0 0 -42.001770202710759 -27.244441765500596 0 -27.244441765500596 -16.939459245462785 0 0 0 0 -4.5261036918722652 7.4847850474943698 0 7.4847850474943698 26.565568596088269 0 0 0 0 -2.0733256369353512 8.1790065018230962 0 8.1790065018230962 26.556632022067333 0 0 0 0 1.8409457628951031 7.2268212837052488 0 7.2268212837052488 24.077051536425643 0 0 0 0 -1.4379226641679028 2.8551321862296133 0 2.8551321862296133 26.618818158287375 0 0 0 0 -1.0951008729347222 4.78756180110895 0 4.78756180110895 23.161299584467088 0 0 0 0 2.8264821546767962 0.5393507504199988 0 0.5393507504199988 48.507351931543667 0 0 0 0 1.8507256210772685 9.6599902371370128 0 9.6599902371370128 21.19992589345042 0 0 0 0 -7.5904783400137887 14.486345780935835 0 14.486345780935835 32.339094023732741 0 0 0 0 -67.236854779078101 -2.1057754120511163 0 -2.1057754120511163 51.687695306379283 0 0 0 0 -19.711872187243458 62.133747991075325 0 62.133747991075325 26.124464297600753 0 0 0 0 32.609207634664017 1.5954468945383269 0 1.5954468945383269 -29.2584926784657 0 0 0 0 39.908836838858633 -24.622716560057142 0 -24.622716560057142 13.809322415595489 0 0 0 0 -13.923261202716006 12.938727890445477 0 12.938727890445477 22.727400776542709 0 0 0 0 0.26630785566702331 9.226729668914734 0 9.226729668914734 26.69276767808806 0 0 0 0 -0.072708004714090557 5.7512109717250572 0 5.7512109717250572 28.582442160287282 0 0 0 0 -18.178664328301466 24.077516247911262 0 24.077516247911262 34.826204854247408 0 0 0 0 -26.918379011873014 52.956691353963834 0 52.956691353963834 26.023241125265486 0 0 0 0 -9.7347968072075375 11.964610411495336 0 11.964610411495336 22.110338914668709 0 0 0 0 -12.247103272723393 61.999486281569261 0 61.999486281569261 0.73398692623595707 0 0 0 0 -2.898831643686151 4.7756690814803733 0 4.7756690814803733 28.280431917001152 0 0 0 0 26.723821327844689 28.729993614699197 0 28.729993614699197 36.693892386963853 0 0 0 0 36.760309453520222 45.490868327564385 0 45.490868327564385 48.192880243972468 0 0 0 0 3.5237611725749503 35.7112043664456 0 35.7112043664456 61.026063165154483 0 0 0 0 -34.778611693014341 59.803398124884552 0 59.803398124884552 92.82712306061876 0 0 0 0 -21.286532233815933 54.09744350026449 0 54.09744350026449 52.56985675971373 0 0 0 0 -11.27398596682724 -1.8658550385971466 0 -1.8658550385971466 21.792312244898312 0 0 0 0 -4.0369844375363755 17.660147080079696 0 17.660147080079696 5.9306614678789629 0 0 0 0 15.322444791495855 1.662063957837745 0 1.662063957837745 28.378331314819661 0 0 0 0 -32.340959594055221 92.50511864375585 0 92.50511864375585 -49.159132499436964 0 0 0 0 -2.3273401861661238 0.7423440267412964 0 0.7423440267412964 6.8113831249717904 0 0 0 0 -2.7910057888189579 1.5734880417303456 0 1.5734880417303456 10.743296639936979 0 0 0 0 -123.40575098838917 2.0975746095073191 0 2.0975746095073191 34.204464367452601 0 0 0 0 -4.8725903148570069 33.101234455278245 0 33.101234455278245 -40.778995604962347 0 0 0 0 -41.060422731770586 28.310055655747419 0 28.310055655747419 5.9681649252161151 0 0 0 0 -85.558217392385814 38.223908210624359 0 38.223908210624359 12.355334703090193 0 0 0 0 -8.0287579333609074 8.4694541613720915 0 8.4694541613720915 8.618862126668958 0 0 0 0 -57.924767989590691 30.259593301776476 0 30.259593301776476 49.056180486659287 0 0 0 0 -19.612875534203681 47.661790951866351 0 47.661790951866351 12.911695235787192 0 0 0 0 -50.068203785264814 84.651031028206489 0 84.651031028206489 -0.23710694460896775 0 0 0 0 -53.68439529126681 27.820996189737343 0 27.820996189737343 44.077147703341325 0 0 0 0 -48.463529260193354 32.552475412732747 0 32.552475412732747 45.003887234124704 0 0 0 0 -55.179784038795106 34.363736686686025 0 34.363736686686025 54.752277621300891 0 0 0 0 -45.447888706470792 26.020815256958713 0 26.020815256958713 34.589049970978522 0 0 0 0 -38.016378005719162 21.031010022990813 0 21.031010022990813 18.443009828134564 0 0 0 0 -12.687898843022223 15.111258044614647 0 15.111258044614647 21.777396962850716 0 0 0 0 -22.900912625502315 36.280352198265973 0 36.280352198265973 12.973461586336271 0 0 0 0 -1.4688188563823132 35.135684395407225 0 35.135684395407225 4.2380459179221361 0 0 0 0 -114.88576856602867 69.903262246603163 0 69.903262246603163 45.691822148961364 0 0 0 0 90.967047863079188 28.73417009789182 0 28.73417009789182 -31.686617342507816 0 0 0 0 0.37710007992718797 1.112821183615269 0 1.112821183615269 2.3553259667548616 0 0 0 0 29.120099182872764 -32.822875348637353 0 -32.822875348637353 43.60694360852176 0 0 0 0 14.674050930237627 -6.0762064476598425 0 -6.0762064476598425 2.2654907274700236 0 0 0 0 -7.4258958822101704 -0.19703200135336374 0 -0.19703200135336374 3.1709224726382672 0 0 0 0 -24.819936398570007 31.372544357790503 0 31.372544357790503 1.6751093352977477 0 0 0 0 -4.1916313007676536 15.739602857853356 0 15.739602857853356 15.87541347867591 0 0 0 0 -21.597904713012213 23.74487114630756 0 23.74487114630756 14.26362354580715 0 0 0 0 -3.0986963677108621 -0.5978132748182805 0 -0.5978132748182805 8.0347916322985142 0 0 0 0 -16.874656376492339 31.790174684814701 0 31.790174684814701 7.5754285319981136 0 0 0 0 -17.836226180637333 11.59097494975456 0 11.59097494975456 25.196382965690269 0 0 0 0 -41.404503683138046 32.893601006441259 0 32.893601006441259 1.5516923315299209 0 0 0 0 -1.1990572795313224 19.583426720837224 0 19.583426720837224 13.997659744384769 0 0 0 0 -30.567129413404018 26.567709781447775 0 26.567709781447775 13.351404639555767 0 0 0 0 -51.839332464733275 46.710165852968203 0 46.710165852968203 24.008213763019739 0 0 0 0 3.5515185777728675 19.322511262484113 0 19.322511262484113 18.211637990834788 0 0 0 0 -9.7031103776720329 30.60302361930917 0 30.60302361930917 11.220330267453392 0 0 0 0 -19.660801459147478 21.017076999343772 0 21.017076999343772 3.5003944011659769 0 0 0 0 -22.126556864204304 20.843953809353479 0 20.843953809353479 7.2110916514575365 0 0 0 0 -58.062688899698855 9.7808299254938902 0 9.7808299254938902 14.854607729801501 0 0 0 0 -40.642986100057897 0.67097178236872423 0 0.67097178236872423 17.437477837054757 0 0 0 0 -70.049653800768283 6.7538662076985929 0 6.7538662076985929 66.482416943024873 0 0 0 0 -61.280046053760088 17.878696350733662 0 17.878696350733662 72.198344756659935 0 0 0 0 -31.466999488522106 -0.13954386440400413 0 -0.13954386440400413 -8.7268408907475532 0 0 0 0 -52.524440289166137 -15.761875616040925 0 -15.761875616040925 -5.1420452220700099 0 0 0 0 -36.961510407042965 2.7731480140337226 0 2.7731480140337226 0.79018011715379544 0 0 0 0 0.528169484051773 8.2752997811903697 0 8.2752997811903697 -5.3202025176360621 0 0 0 0 -33.705498898123778 5.24852908531102 0 5.24852908531102 2.2900091109258938 0 0 0 0 -26.760117800799208 -5.2942957603681862 0 -5.2942957603681862 7.6015350279340055 0 0 0 0 -33.160037724264839 1.8526830602786504 0 1.8526830602786504 -0.37880727973833928 0 0 0 0 -59.089500708428432 -12.571117372834124 0 -12.571117372834124 -1.4171202137531509 0 0 0 0 -0.7036749127709061 0.16387212532746176 0 0.16387212532746176 2.0686694002936576 0 0 0 0 -55.478633032341236 -19.00344039963602 0 -19.00344039963602 -8.0858587278344203 0 0 0 0 -81.150078810433399 -53.599133387830079 0 -53.599133387830079 -5.5094056279194774 0 0 0 0 -46.219483912133882 -28.255376622054428 0 -28.255376622054428 -6.8203683091123821 0 0 0 0 -83.973295629074073 -31.149401763243077 0 -31.149401763243077 -0.87615524030843517 0 0 0 0 -45.712411463272019 -23.900568601853593 0 -23.900568601853593 -1.7115319643999101 0 0 0 0 -46.102995895062804 -58.76425353157174 0 -58.76425353157174 -29.65163556276093 0 0 0 0 53.363220882694804 70.014452976640314 0 70.014452976640314 103.63474553858396 0 0 0 0 27.778699914618414 68.400368414673721 0 68.400368414673721 114.25796361075481 0 0 0 0 100.3077171579032 79.193046400512685 0 79.193046400512685 98.672208091382345 0 0 0 0 -86.228010915750588 -27.384579743422364 0 -27.384579743422364 -5.8615061113378033 0 0 0 0 -93.738159575078953 -16.585945752784028 0 -16.585945752784028 -3.2643602039315738 0 0 0 0 -93.346226231378296 -34.927667171214125 0 -34.927667171214125 -17.182886362628778 0 0 0 0 -62.910139887690434 -5.6378613668748585 0 -5.6378613668748585 -5.5727773319667904 0 0 0 0 -82.235268064144066 -20.896336981822969 0 -20.896336981822969 -32.175856373462011 0 0 0 0 -80.456973375295433 -34.323960395682661 0 -34.323960395682661 -55.800565842568176 0 0 0 0 -119.95401944981791 -97.113839181220101 0 -97.113839181220101 -63.362119123134107 0 0 0 0 67.374738143294735 128.14290631908807 0 128.14290631908807 246.98880119403475 0 0 0 0 0.091831855734252232 0.062258956144034983 0 0.062258956144034983 0.096629885277138783 0 0 0 0 0.37510204045548512 0.27687954463955577 0 0.27687954463955577 0.13117856161996144 0 0 0 0 41.806832350325749 143.63860562389891 0 143.63860562389891 237.81685720136738 0 0 0 0 98.918536815122593 92.565004963762476 0 92.565004963762476 153.11025182175217 0 0 0 0 -116.86606725694651 -45.908754667419998 0 -45.908754667419998 39.323347212863155 0 0 0 0 -65.512777946492406 9.4193732842832105 0 9.4193732842832105 95.084611353158834 0 0 0 0 35.840308154743752 65.421563557581976 0 65.421563557581976 88.328085013912641 0 0 0 0 43.635047291368664 34.821090566088969 0 34.821090566088969 113.68408507286222 0 0 0 0 -26.01775744266638 82.72278643946629 0 82.72278643946629 209.68807472126355 0 0 0 0 43.451441788529905 21.024623446290207 0 21.024623446290207 89.250590193434618 0 0 0 0 17.751193621694085 29.655096983311523 0 29.655096983311523 94.93195935570111 0 0 0 0 39.07769479868557 53.229802346650104 0 53.229802346650104 125.02614545390679 0 0 0 0 41.873998860938855 26.171324776289111 0 26.171324776289111 89.838247464474989 0 0 0 0 24.850835106684059 56.495707026853779 0 56.495707026853779 125.83588108117692 0 0 0 0 43.938367314539619 65.352532789343968 0 65.352532789343968 108.2996273132303 0 0 0 0 43.474455973537601 79.394372719587409 0 79.394372719587409 161.04259031268884 0 0 0 0 194.21658962126253 175.68060716742184 0 175.68060716742184 191.24436039468856 0 0 0 0 76.935572696702707 36.177594552664232 0 36.177594552664232 124.36477124036173 0 0 0 0 64.590169406117866 53.784734992819722 0 53.784734992819722 197.46941217721906 0 0 0 0 24.663779192951495 0.019287252727735904 0 0.019287252727735904 26.23666052410772 0 0 0 0 -43.443129881389893 11.841943922308019 0 11.841943922308019 -27.487219781352906 0 0 0 0 -46.04259830450161 -1.5583187012307462 0 -1.5583187012307462 49.729514377671876 0 0 0 0 -4.7898631070177089 -16.06665501831958 0 -16.06665501831958 -21.632723088045168 0 0 0 0 -1.4086352157183626 55.76825779534056 0 55.76825779534056 97.908054312378226 0 0 0 0 -15.752988767123952 18.890416001933772 0 18.890416001933772 17.857381463531055 0 0 0 0 19.822157341646061 -1.3443139294540742 0 -1.3443139294540742 29.294243432384974 0 0 0 0 -15.759196097362747 4.2133162391000951 0 4.2133162391000951 183.32446186722154 0 0 0 0 -3.474751264196243 47.584539704708732 0 47.584539704708732 105.17225394803609 0 0 0 0 33.741554481334447 11.432003534750947 0 11.432003534750947 70.78765191871571 0 0 0 0 -1.9622337192086547 40.874060245794226 0 40.874060245794226 57.362857274179987 0 0 0 0 -8.3502740707994576 45.141787635956462 0 45.141787635956462 25.337010325951269 0 0 0 0 -21.409748137886481 10.113931568768749 0 10.113931568768749 57.963442710943127 0 0 0 0 -23.507135092967502 24.08910062435325 0 24.08910062435325 2.8948299714684254 0 0 0 0 -67.010507125489312 18.485140857892475 0 18.485140857892475 146.68360161697274 0 0 0 0 -71.171337778131601 -1.6264512217039737 0 -1.6264512217039737 146.45620157294616 0 0 0 0 -87.151408781186092 17.666418317090574 0 17.666418317090574 125.03120291265805 0 0 0 0 -23.373260378713894 56.037367443033872 0 56.037367443033872 133.78751938846108 0 0 0 0 -40.344586691054019 11.528433039493393 0 11.528433039493393 29.186112049668736 0 0 0 0 -3.3606869084371738 -51.226859095855616 0 -51.226859095855616 50.283629574172664 0 0 0 0 -49.819771222433246 -42.795916948442027 0 -42.795916948442027 57.880788499254777 0 0 0 0 -28.740460773021823 -23.132011547677394 0 -23.132011547677394 22.443473336640636 0 0 0 0 -34.624286817765892 -22.417324658354119 0 -22.417324658354119 40.108043893200374 0 0 0 0 -62.097609111735665 -2.0940387208465836 0 -2.0940387208465836 49.992089514704276 0 0 0 0 -88.966666168667871 -34.341723890407593 0 -34.341723890407593 79.005522440424102 0 0 0 0 -74.076319096126099 -3.4970621051979833 0 -3.4970621051979833 133.42483640939463 0 0 0 0 95.881355800700192 179.4711808006723 0 179.4711808006723 210.12874299800478 0 0 0 0 -94.681520475166764 -78.121033184661428 0 -78.121033184661428 -18.182062022529863 0 0 0 0 0.21801533821116847 -0.37599688893225647 0 -0.37599688893225647 0.86973800208630792 0 0 0 0 -56.314339802665359 3.2058416573272552 0 3.2058416573272552 37.3485862489797 0 0 0 0 0.23394201080476185 -1.303467459543576 0 -1.303467459543576 2.813369995082823 0 0 0 0 -61.742368378609285 -17.71470171809051 0 -17.71470171809051 25.247869130318577 0 0 0 0 -2.327132060819622 91.338616180935787 0 91.338616180935787 136.62337441901946 0 0 0 0 9.7551689158260615 53.9741772412508 0 53.9741772412508 131.39670364574704 0 0 0 0 -9.549114945642259 1.5035736415270549 0 1.5035736415270549 38.170786735150614 0 0 0 0 -20.379014195841137 -6.5492501743146931 0 -6.5492501743146931 45.816400841942595 0 0 0 0 3.8688571590671472 20.657791391022329 0 20.657791391022329 55.675224124071974 0 0 0 0 17.685293760327227 -19.401682901374443 0 -19.401682901374443 48.267142145110483 0 0 0 0 -5.615972402994025 7.3776713176739968 0 7.3776713176739968 10.887764451689542 0 0 0 0 -1.4235762542066368 -10.056675887169149 0 -10.056675887169149 43.070495491332622 0 0 0 0 -4.1187521136493661 15.50046871830078 0 15.50046871830078 44.347929758366718 0 0 0 0 3.9450636704785325 -6.452565800008756 0 -6.452565800008756 45.171049241441324 0 0 0 0 -3.1088406005751876 -0.99499134996173222 0 -0.99499134996173222 24.820691345058332 0 0 0 0 13.440116110088297 21.563776499961023 0 21.563776499961023 11.16177617622634 0 0 0 0 1.2232669110986283 11.268000008936061 0 11.268000008936061 8.42689206385087 0 0 0 0 3.2737424572433413 2.5669348983571814 0 2.5669348983571814 -3.5890546727180741 0 0 0 0 1.1788771808378442 -0.13648324219132135 0 -0.13648324219132135 9.1164301449350162 0 0 0 0 -4.0103433841522929 -3.1051230058810688 0 -3.1051230058810688 43.981128769904672 0 0 0 0 -2.5898903281340013 4.0998303746341964 0 4.0998303746341964 16.297348955847493 0 0 0 0 -7.5122917106219971 12.88998480038741 0 12.88998480038741 30.509500633708878 0 0 0 0 -5.0860837129778247 12.944183272497867 0 12.944183272497867 22.166754955635042 0 0 0 0 -46.976627488904342 -21.744879843565286 0 -21.744879843565286 17.225889815992559 0 0 0 0 0.058573624273622116 2.7181955373006907 0 2.7181955373006907 6.8371416078451919 0 0 0 0 -3.0368434897718561 3.7907312674665938 0 3.7907312674665938 27.012834837632788 0 0 0 0 -8.390407392693227 0.29066918269943898 0 0.29066918269943898 22.81782951033982 0 0 0 0 11.907183487965028 13.341347042699681 0 13.341347042699681 29.189619536395185 0 0 0 0 -123.8032922327061 12.542255366392055 0 12.542255366392055 129.11342829024943 0 0 0 0 -18.14652775952402 -80.810917570171114 0 -80.810917570171114 163.95525518850263 0 0 0 0 -33.538561731031223 -43.04809883517737 0 -43.04809883517737 76.252435123922623 0 0 0 0 46.590150492389057 -79.983079623711092 0 -79.983079623711092 -349.28597107149835 0 0 0 0 0.32277239181702999 -0.26236856390359442 0 -0.26236856390359442 3.5459299935478583 0 0 0 0 -38.655148876355497 18.56959252679917 0 18.56959252679917 60.994382392171246 0 0 0 0 -1.7660792595635815 5.2186889534331149 0 5.2186889534331149 32.250529684810594 0 0 0 0 0.013332028849956767 0.17751468551463034 0 0.17751468551463034 17.750891108251892 0 0 0 0 64.700849175551866 22.576555591780561 0 22.576555591780561 -53.177498844459478 0 0 0 0 -139.63352498250674 14.822870407617302 0 14.822870407617302 667.53030370964552 0 0 0 0 -0.40917693477649664 103.07438507729239 0 103.07438507729239 -128.88099608898153 0 0 0 0 -107.94449321904085 -9.1325135267970836 0 -9.1325135267970836 284.09995145830908 0 0 0 0 -71.334939777724685 234.47909499690286 0 234.47909499690286 163.43221048342821 0 0 0 0 6.6414006287573102 -81.097541511731833 0 -81.097541511731833 -135.93703993468159 0 0 0 0 -70.80948283183352 -124.06604178594716 0 -124.06604178594716 80.04741897565691 0 0 0 0 -0.053751914323792671 0.56209401571515372 0 0.56209401571515372 6.4590447404806355 0 0 0 0 -107.63664775386974 3.8742085377380135 0 3.8742085377380135 152.47534437640206 0 0 0 0 233.24368876345579 177.17457720631228 0 177.17457720631228 -144.69211439299033 0 0 0 0 -1.2879837678699688 2.3176408642299791 0 2.3176408642299791 33.851082462833283 0 0 0 0 5.3183947919951606 9.5808200370520353 0 9.5808200370520353 27.273248352106748 0 0 0 0 -0.61520362054727684 6.8113052716162201 0 6.8113052716162201 35.929917072004173 0 0 0 0 0.50375659547071905 1.8561507278428415 0 1.8561507278428415 9.6989517051166949 0 0 0 0 -4.1893210466458308 -1.8368404205229005 0 -1.8368404205229005 14.119617686664462 0 0 0 0 -13.213278107351954 13.801873931655564 0 13.801873931655564 38.750571350296013 0 0 0 0 -0.93402070416050265 16.150993970739364 0 16.150993970739364 53.910669623760668 0 0 0 0 -1.0640372821001165 5.0415008555346503 0 5.0415008555346503 25.240823330595958 0 0 0 0 10.97891476707764 8.3305427295545087 0 8.3305427295545087 48.428860866360992 0 0 0 0 7.130428439383536 17.563729241608598 0 17.563729241608598 36.100495168774614 0 0 0 0 15.273051525323012 11.810531791964422 0 11.810531791964422 34.590922670728105 0 0 0 0 -3.5923778736333594 -4.8968325999412965 0 -4.8968325999412965 11.886643727120273 0 0 0 0 11.270107445217491 18.292668660253184 0 18.292668660253184 28.513442178919831 0 0 0 0 -1.1426649905990871 17.352406222851187 0 17.352406222851187 49.44736302687852 0 0 0 0 6.4081079968606076 3.5835854487709646 0 3.5835854487709646 3.6466867845146052 0 0 0 0 -4.2574571634320471 -3.6579164185064386 0 -3.6579164185064386 17.106928433024628 0 0 0 0 14.695048267444349 -71.443147043883528 0 -71.443147043883528 -59.095909713970286 0 0 0 0 -91.413192734756592 131.88643033630638 0 131.88643033630638 57.550873813249382 0 0 0 0 0.42921725274630029 -0.79774840813675851 0 -0.79774840813675851 0.68015480435025566 0 0 0 0 -172.5615357283645 -150.42149314538301 0 -150.42149314538301 436.21922865681518 0 0 0 0 124.01908352951216 -186.91179609122378 0 -186.91179609122378 123.02876552077396 0 0 0 0 424.08228590185888 -186.37675942976784 0 -186.37675942976784 240.76249866185822 0 0 0 0 -0.022149178869146691 0.061900950599033777 0 0.061900950599033777 2.6079966784961677 0 0 0 0 86.336057945096627 -352.63327610548731 0 -352.63327610548731 92.594761585216474 0 0 0 0 10.316155682833369 35.887612879570042 0 35.887612879570042 101.36850956382659 0 0 0 0 269.7308377235845 289.36378900018371 0 289.36378900018371 180.63126525685993 0 0 0 0 -21.354770799253401 10.090656036639302 0 10.090656036639302 51.363046655946164 0 0 0 0 0.70161489317733938 -8.3078631782593675 0 -8.3078631782593675 23.181375438866361 0 0 0 0 37.706758856661509 -9.1961465770764335 0 -9.1961465770764335 9.336669657510356 0 0 0 0 1.9148945924580403 5.5934155541635846 0 5.5934155541635846 24.13185505837464 0 0 0 0 8.3129560610232147 12.557140654782415 0 12.557140654782415 40.471185631897242 0 0 0 0 -1.3945289503217144 3.9903108097282676 0 3.9903108097282676 26.062091819669156 0 0 0 0 -442.15477593634978 -52.576539761203094 0 -52.576539761203094 500.65321795495038 0 0 0 0 168.24351313335046 -263.36478436455218 0 -263.36478436455218 -216.39862327637093 0 0 0 0 -3.3931523834011221 -0.51913958825152662 0 -0.51913958825152662 19.86434691190415 0 0 0 0 -76.896502789066687 -59.002961589495044 0 -59.002961589495044 132.0359148489224 0 0 0 0 -66.760147019426768 3.0778616221250559 0 3.0778616221250559 361.18615793038043 0 0 0 0 199.56256106318551 244.25754181440425 0 244.25754181440425 217.62660363123723 0 0 0 0 38.259511162903436 61.272537664572155 0 61.272537664572155 15.657714083557948 0 0 0 0 339.41135491485466 30.304696695317034 0 30.304696695317034 -115.08894136136223 0 0 0 0 -65.604138257363047 26.64610780991643 0 26.64610780991643 237.97469510221708 0 0 0 0 44.000235623424942 86.866543602765887 0 86.866543602765887 77.62158110710152 0 0 0 0 -12.2079199082782 -67.48351991083473 0 -67.48351991083473 -53.135774225756904 0 0 0 0 -18.407270559677386 9.8372959155203716 0 9.8372959155203716 8.8087048013694584 0 0 0 0 57.480967999697896 10.691453455121518 0 10.691453455121518 -24.813732610353327 0 0 0 0 16.654843928612536 -43.203966281340399 0 -43.203966281340399 -85.452078737524062 0 0 0 0 166.54554649177862 62.261916109753656 0 62.261916109753656 -58.209769566630712 0 0 0 0 106.79936338925017 -120.74287769262446 0 -120.74287769262446 -188.2278180411231 0 0 0 0 23.860479107005176 -54.291788386348344 0 -54.291788386348344 -68.440567639147048 0 0 0 0 14.505854460180217 -50.622432245138043 0 -50.622432245138043 -59.163438083327492 0 0 0 0 -59.324508044925096 -70.500527085452632 0 -70.500527085452632 -63.867757756577703 0 0 0 0 -29.238708879553997 -43.013228494259238 0 -43.013228494259238 -36.193300202465252 0 0 0 0 -220.06290415222611 64.974164068371465 0 64.974164068371465 31.278482311172866 0 0 0 0 24.34769858345453 34.21914567404292 0 34.21914567404292 27.427465374494659 0 0 0 0 -2.1740822820960699 -11.18885564146191 0 -11.18885564146191 32.970897044783278 0 0 0 0 -1.584017190652137 3.9845787007374582 0 3.9845787007374582 9.3053968666243492 0 0 0 0 -206.05857251110228 -429.11134635693452 0 -429.11134635693452 -162.94432421952843 0 0 0 0 -158.92073618617815 -124.4592276707117 0 -124.4592276707117 -70.8102649574721 0 0 0 0 -7.80654035926284 71.968795740390306 0 71.968795740390306 93.643090627578204 0 0 0 0 -0.63457556872383147 -20.772407376879123 0 -20.772407376879123 40.094849164506151 0 0 0 0 -126.41390503001639 -156.24595970098017 0 -156.24595970098017 170.1778937628078 0 0 0 0 31.339892001515182 43.929751035800109 0 43.929751035800109 70.753877800271994 0 0 0 0 -45.17222265290367 65.491834349035599 0 65.491834349035599 91.452577489750183 0 0 0 0 -47.815553585647194 -74.684991902857291 0 -74.684991902857291 -37.119394879744505 0 0 0 0 -5.2744362641978952 -16.125826935821468 0 -16.125826935821468 39.418170134203208 0 0 0 0 -50.750474026474791 -11.040301797236197 0 -11.040301797236197 67.336298864611308 0 0 0 0 1.5898361612808003 11.82607329345683 0 11.82607329345683 67.463047163594638 0 0 0 0 -11.45731234232062 3.8830585645191604 0 3.8830585645191604 63.148426610203387 0 0 0 0 21.825285372612598 11.584208146494348 0 11.584208146494348 52.428799982715645 0 0 0 0 24.394914800741844 62.842739012460697 0 62.842739012460697 76.226716284243821 0 0 0 0 5.8209027892389962 -1.6766849063731613 0 -1.6766849063731613 0.31031651526802762 0 0 0 0 -1.0041729106675503 1.6443162428528728 0 1.6443162428528728 13.66166375195337 0 0 0 0 -31.946582725728604 4.3119081081163131 0 4.3119081081163131 25.889837232485661 0 0 0 0 12.620827350828449 11.829097114034084 0 11.829097114034084 18.271077439931105 0 0 0 0 12.240147579455055 13.993808103989068 0 13.993808103989068 11.553063619332534 0 0 0 0 -21.310011713862608 10.946295129267583 0 10.946295129267583 59.355768620660456 0 0 0 0 38.682263651868652 37.334409628354024 0 37.334409628354024 19.226742824354915 0 0 0 0 -11.913374616431838 1.4870419250610212 0 1.4870419250610212 8.2001098387154343 0 0 0 0 -21.420665097195808 -6.732173728473299 0 -6.732173728473299 36.060262924327617 0 0 0 0 -14.356047880781205 -13.891491300319103 0 -13.891491300319103 41.762531591436982 0 0 0 0 -45.90216059696229 -21.411353202084683 0 -21.411353202084683 37.134896584677335 0 0 0 0 0.75950001300272141 0.77175704352359809 0 0.77175704352359809 7.9049635753593748 0 0 0 0 116.41477747635361 121.94355154126606 0 121.94355154126606 96.676687516805032 0 0 0 0 -31.665804146557036 41.865966135401322 0 41.865966135401322 78.658038517451132 0 0 0 0 3.6946811467224734 1.1352866575471126 0 1.1352866575471126 65.171616362803434 0 0 0 0 -22.031581729970412 1.3843293702830124 0 1.3843293702830124 23.453807971578499 0 0 0 0 -52.962051484399126 23.898759661545228 0 23.898759661545228 68.184480543990503 0 0 0 0 -70.369449610350671 2.4797900127050525 0 2.4797900127050525 44.368761397183334 0 0 0 0 -75.586328518306686 18.711728245261838 0 18.711728245261838 72.368484249087487 0 0 0 0 -74.466985801836245 13.89517812030499 0 13.89517812030499 67.543860379237231 0 0 0 0 -83.865483404234041 19.341662213469704 0 19.341662213469704 64.738981335460267 0 0 0 0 -70.992937158604406 2.2534353062956143 0 2.2534353062956143 75.904182348625909 0 0 0 0 -80.437532251930406 14.429772795663666 0 14.429772795663666 71.688717874822032 0 0 0 0 -49.901485612693477 -28.773296940164983 0 -28.773296940164983 103.79061280041788 0 0 0 0 -70.876361173890928 -1.6482928108052874 0 -1.6482928108052874 91.12849938893487 0 0 0 0 -69.807159057645549 15.855669858861802 0 15.855669858861802 108.6507822538224 0 0 0 0 -11.668267130139839 35.961492100855594 0 35.961492100855594 48.188973010474001 0 0 0 0 -72.239184898690837 3.50199702529153 0 3.50199702529153 65.86340800972539 0 0 0 0 -81.907890095098992 -8.9129249508587236 0 -8.9129249508587236 35.212251351484156 0 0 0 0 -59.392374514256062 17.310839855119411 0 17.310839855119411 64.723158944914985 0 0 0 0 -62.72796051228579 -10.167619251398719 0 -10.167619251398719 24.524093583060676 0 0 0 0 -9.1528067248780189 -16.670590329214974 0 -16.670590329214974 -10.920257541496539 0 0 0 0 -81.437876206908413 -33.666715939181813 0 -33.666715939181813 -14.026085815978149 0 0 0 0 -58.150700558001063 -39.224507656952483 0 -39.224507656952483 -6.6227619694618625 0 0 0 0 -69.483040146154963 -42.807243022078183 0 -42.807243022078183 -3.551630634007779 0 0 0 0 -83.948171980837742 -16.192901355296272 0 -16.192901355296272 37.829300121040433 0 0 0 0 -90.243093391194634 -41.667555564905342 0 -41.667555564905342 -2.8056730525822786 0 0 0 0 -47.115919899379151 -74.184908860952419 0 -74.184908860952419 -47.973192255740287 0 0 0 0 -134.52946871158383 -61.305686049294309 0 -61.305686049294309 -10.389867024932755 0 0 0 0 -1.4442122726339537 -8.4552817248304954 0 -8.4552817248304954 0.96422551494802633 0 0 0 0 -9.4703143421897948 44.044439305884225 0 44.044439305884225 58.932190825249563 0 0 0 0 -2.2877861245422029 3.5531513595989983 0 3.5531513595989983 45.296409797590357 0 0 0 0 -0.52425832617209611 3.1340879032403564 0 3.1340879032403564 4.9466216201104558 0 0 0 0 -186.34467513751247 -39.648192041391667 0 -39.648192041391667 75.544902681329404 0 0 0 0 -150.91257502437179 -116.55895872911424 0 -116.55895872911424 -34.900225705795492 0 0 0 0 -89.768982683743388 -27.846717121550682 0 -27.846717121550682 14.460084518295844 0 0 0 0 -111.39780428033103 -13.628714345483786 0 -13.628714345483786 63.103839484825585 0 0 0 0 -99.17499402972453 -43.262526832859294 0 -43.262526832859294 1.7754237777189701 0 0 0 0 -32.375825942669167 -31.500470245158795 0 -31.500470245158795 92.192723082538578 0 0 0 0 -83.192502691235859 19.1270155782031 0 19.1270155782031 48.938329367832921 0 0 0 0 -48.337261226663259 -74.418407779832705 0 -74.418407779832705 59.907403159091473 0 0 0 0 60.399951420032949 -107.91171537628725 0 -107.91171537628725 83.216175925070274 0 0 0 0 9.7936151282590345 -82.806126171901269 0 -82.806126171901269 74.942249988489493 0 0 0 0 -26.348044057251457 -20.289783773032468 0 -20.289783773032468 113.04168939466581 0 0 0 0 127.52270917306657 -154.5702315575636 0 -154.5702315575636 22.901223093809676 0 0 0 0 143.01624910804338 -73.784062577580698 0 -73.784062577580698 20.664421937324732 0 0 0 0 84.044075511457834 -116.90852385279868 0 -116.90852385279868 62.920636915083378 0 0 0 0 83.286398908048284 -121.52655202936148 0 -121.52655202936148 47.613201742584351 0 0 0 0 -1.2202548582239956 -39.320941858266224 0 -39.320941858266224 43.918570875735895 0 0 0 0 56.02033418056061 -73.95701114872918 0 -73.95701114872918 11.118972033869795 0 0 0 0 37.097032140865622 -92.05899534404125 0 -92.05899534404125 30.775813164676947 0 0 0 0 0.61560936471448713 -21.886756044037611 0 -21.886756044037611 52.500334999727784 0 0 0 0 -78.754501909066903 -11.335602794099032 0 -11.335602794099032 74.023307257226406 0 0 0 0 -76.17865941912396 -50.691676054864729 0 -50.691676054864729 118.95865419089751 0 0 0 0 -81.426998205479549 -30.2675259262287 0 -30.2675259262287 78.705015264167741 0 0 0 0 -134.82869696302055 -19.870390052448784 0 -19.870390052448784 82.216489714881391 0 0 0 0 -107.5667540711886 13.786658834074842 0 13.786658834074842 63.781061816844158 0 0 0 0 -89.626496472272265 15.064578339341097 0 15.064578339341097 -42.085780692868866 0 0 0 0 -94.47996159125637 -69.796521573927748 0 -69.796521573927748 57.687609875094495 0 0 0 0 -69.389787352650274 22.955185333081317 0 22.955185333081317 57.076085856122518 0 0 0 0 3.3376314675830483 4.8021617825636911 0 4.8021617825636911 34.894116419277175 0 0 0 0 -29.440690995470504 9.3540712843823712 0 9.3540712843823712 39.023493453671108 0 0 0 0 -54.378457463501945 -0.080445185736607527 0 -0.080445185736607527 49.810419936227845 0 0 0 0 -0.10847619551274867 2.5702222173313203 0 2.5702222173313203 7.5493747618320626 0 0 0 0 -75.066762217868018 -40.748895408392855 0 -40.748895408392855 31.442706231564443 0 0 0 0 -32.308762121130229 -36.085582710339963 0 -36.085582710339963 -87.171741969981667 0 0 0 0 11.027559389653904 -7.3474402817792752 0 -7.3474402817792752 33.487440200121625 0 0 0 0 327.39012643084266 -130.76576667051631 0 -130.76576667051631 43.885646558199369 0 0 0 0 -90.476669248748294 -128.14707033436571 0 -128.14707033436571 58.218634733726503 0 0 0 0 6.6955246366560353 -7.6527894361761071 0 -7.6527894361761071 13.501797586438947 0 0 0 0 11.661398342341018 -2.5212025250180545 0 -2.5212025250180545 43.885646558204826 0 0 0 0 2.6497877550173357 -0.76327424880051742 0 -0.76327424880051742 13.376857949303201 0 0 0 0 -224.40436343843623 -172.11616720360144 0 -172.11616720360144 1498.1456037941116 0 0 0 0 179.98048517421196 -513.22068750599556 0 -513.22068750599556 765.30233537886124 0 0 0 0 -76.994722181821061 210.33875363190236 0 210.33875363190236 776.72891497342243 0 0 0 0 -234.50395731427488 -73.292850767594246 0 -73.292850767594246 131.09250605951092 0 0 0 0 139.66917588784065 -105.7747744065482 0 -105.7747744065482 61.600164341587515 0 0 0 0 108.55022015590487 16.531349026416137 0 16.531349026416137 48.957822241160102 0 0 0 0 -113.5808596059469 100.05820063029887 0 100.05820063029887 42.087605096410698 0 0 0 0 3.4306571305157862 -3.8383225099166651 0 -3.8383225099166651 4.8417395065054691 0 0 0 0 293.67747919676788 -208.91546492087946 0 -208.91546492087946 -98.420392157494462 0 0 0 0 -70.229384418699382 289.8382522167135 0 289.8382522167135 1498.2866641766814 0 0 0 0 414.45930119276329 -536.95781808447009 0 -536.95781808447009 416.08221700488866 0 0 0 0 -68.156853704804021 -568.22781893487445 0 -568.22781893487445 1266.3515605199482 0 0 0 0 165.78107283561775 -56.07744845144407 0 -56.07744845144407 127.56389354285602 0 0 0 0 243.59983567979128 -112.10795766003412 0 -112.10795766003412 36.925985618829145 0 0 0 0 -8.2264008845025245 44.081969351273528 0 44.081969351273528 -19.206818025064422 0 0 0 0 43.282064234386027 -14.484938418496313 0 -14.484938418496313 -41.506868987834423 0 0 0 0 10.157615038863618 -23.534137248952902 0 -23.534137248952902 20.198680035200596 0 0 0 0 -52.310643794203365 4.3469390761099476 0 4.3469390761099476 28.680927291877197 0 0 0 0 61.574458590344477 -1.1946181045386766 0 -1.1946181045386766 -1.9118183233276795 0 0 0 0 1.9565758343004553 10.073902675759996 0 10.073902675759996 -0.82166744346250198 0 0 0 0 0.17502754488867178 4.319641246330618 0 4.319641246330618 16.69374826213803 0 0 0 0 0.2789126424040802 2.5814230862969794 0 2.5814230862969794 14.50893362786519 0 0 0 0 -0.21061427229873986 3.2721640994310555 0 3.2721640994310555 -1.8624226526325671 0 0 0 0 -30.899621178350571 4.8270140199842899 0 4.8270140199842899 22.100802855599795 0 0 0 0 -1.5075954888635994 -1.5371183165630278 0 -1.5371183165630278 1.2579386835853938 0 0 0 0 11.775574193103303 23.608951336139853 0 23.608951336139853 5.0634525666537229 0 0 0 0 -0.22878830568026842 17.90261988315433 0 17.90261988315433 6.0276228422194436 0 0 0 0 -25.700056229496681 16.291212114512746 0 16.291212114512746 24.379109577081181 0 0 0 0 2.4214756714683148 27.582713556718318 0 27.582713556718318 37.283759270492737 0 0 0 0 13.78143595481535 26.068245279594237 0 26.068245279594237 50.905793363846897 0 0 0 0 9.1842151435695065 -3.2833324328194387 0 -3.2833324328194387 6.8487882071984103 0 0 0 0 56.028924741528954 -13.340911306695489 0 -13.340911306695489 60.475882358354283 0 0 0 0 9.8672158200834019 3.4106390945535168 0 3.4106390945535168 47.748101867804507 0 0 0 0 68.569430837663575 -23.70595997069347 0 -23.70595997069347 6.0212724450138921 0 0 0 0 67.244530548216801 -36.125115188176096 0 -36.125115188176096 1.1230012303349213 0 0 0 0 -3.1498924166905451 1.1463125014832904 0 1.1463125014832904 8.0729080019324755 0 0 0 0 4.4287348009877121 31.509494836937733 0 31.509494836937733 25.479578706854227 0 0 0 0 31.935634501000948 17.771856612246665 0 17.771856612246665 141.87610752334149 0 0 0 0 -0.034408617067256009 0.22320002470435618 0 0.22320002470435618 -1.1126090663871437 0 0 0 0 8.2612959333833942 -37.511306062269796 0 -37.511306062269796 9.4033490416139784 0 0 0 0 20.188036574032679 -9.6818466511094812 0 -9.6818466511094812 50.904234271007226 0 0 0 0 1.3175787069392584 24.566807315552069 0 24.566807315552069 3.9073126903349475 0 0 0 0 26.649019147738301 -11.918946915156994 0 -11.918946915156994 48.652591574073995 0 0 0 0 -147.11413904129171 103.3387440438446 0 103.3387440438446 679.78179216089848 0 0 0 0 162.1713572898675 97.890416622247358 0 97.890416622247358 129.30133246441073 0 0 0 0 -18.46500472369911 14.171595759950151 0 14.171595759950151 66.369894278541324 0 0 0 0 85.030868414045543 -65.153478613916377 0 -65.153478613916377 118.21001873335445 0 0 0 0 0.55062254623311935 0.91591997278848614 0 0.91591997278848614 5.7618416239972916 0 0 0 0 447.64960303123092 563.21442335456163 0 563.21442335456163 475.86866572165127 0 0 0 0 -235.63345242506864 307.72623788913825 0 307.72623788913825 1498.0347333230238 0 0 0 0 -222.73728003987003 -48.696843180498036 0 -48.696843180498036 698.11401828016642 0 0 0 0 368.78686884427145 -632.93182534218977 0 -632.93182534218977 636.84017028637345 0 0 0 0 -218.42075339743343 -232.2949970190059 0 -232.2949970190059 1498.075084100501 0 0 0 0 -75.28514458254385 27.936598801177752 0 27.936598801177752 179.68285137724342 0 0 0 0 0.79252355374240668 3.4004549968368964 0 3.4004549968368964 13.642567566380173 0 0 0 0 78.735350418074631 -90.43425608130201 0 -90.43425608130201 207.39014184014377 0 0 0 0 53.437407222561767 76.440094357289126 0 76.440094357289126 188.37940855777924 0 0 0 0 64.477682279490409 -82.300454567664019 0 -82.300454567664019 77.92342137135779 0 0 0 0 340.40332426408759 383.05731040773708 0 383.05731040773708 201.26336940682813 0 0 0 0 0.76437906889063889 0.96036237791132884 0 0.96036237791132884 6.1716109086605968 0 0 0 0 -65.273899275866853 247.23881740263187 0 247.23881740263187 1498.0415967717656 0 0 0 0 -111.16579834651503 -59.693098270156042 0 -59.693098270156042 281.90267916748599 0 0 0 0 -193.67813115051655 -430.6376102437157 0 -430.6376102437157 1495.8345684203534 0 0 0 0 -0.027348979865235618 0.82233463009033159 0 0.82233463009033159 5.4787264038711818 0 0 0 0 140.6465754274696 157.6267518724826 0 157.6267518724826 158.44491999283969 0 0 0 0 -185.60288695058696 285.74732934475833 0 285.74732934475833 1497.6945713271557 0 0 0 0 -103.5644167042359 -74.694658577342807 0 -74.694658577342807 1465.0573799500735 0 0 0 0 433.64071616084988 732.2538120562117 0 732.2538120562117 1685.3968510372815 0 0 0 0 82.226393813067858 558.37555457066082 0 558.37555457066082 479.96394332824912 0 0 0 0 -135.34009417804893 368.9038181692149 0 368.9038181692149 1409.5862206300981 0 0 0 0 152.9103056205895 -184.28403840923602 0 -184.28403840923602 -7.7072221942025863 0 0 0 0 141.51504654685829 74.886407775027692 0 74.886407775027692 300.70796286297809 0 0 0 0 111.76152197676151 -2.6139186730570145 0 -2.6139186730570145 356.8821311858801 0 0 0 0 56.636323751699678 -13.555250286728551 0 -13.555250286728551 -62.138419592418813 0 0 0 0 169.62154681215571 -100.06922708980508 0 -100.06922708980508 0.91268308248891117 0 0 0 0 74.166254478890167 -69.172417406534976 0 -69.172417406534976 -34.415562531583419 0 0 0 0 -260.40805787997408 -91.276049834893911 0 -91.276049834893911 71.71140582559201 0 0 0 0 13.211096433165018 -65.468087701800869 0 -65.468087701800869 -28.956169678923743 0 0 0 0 5.6976587488514951 -24.736181406750802 0 -24.736181406750802 -0.56012408273682013 0 0 0 0 3.5348483225387213 -6.6959802395581391 0 -6.6959802395581391 -14.163099424025859 0 0 0 0 57.929924679297756 48.379343297020569 0 48.379343297020569 2.5366115359765899 0 0 0 0 -81.147081612973466 3.6093281271541855 0 3.6093281271541855 58.972718632718625 0 0 0 0 -0.15891240940255824 1.0527164615836657 0 1.0527164615836657 9.9029680209086699 0 0 0 0 -42.785853778150873 -32.714310913408497 0 -32.714310913408497 10.907726565648773 0 0 0 0 -0.038531534757584376 0.54756400237746794 0 0.54756400237746794 6.8927641491349583 0 0 0 0 -39.211340823233598 29.758749382094265 0 29.758749382094265 9.6845726710348572 0 0 0 0 42.613673952984684 16.316693855620315 0 16.316693855620315 1.7375943639472098 0 0 0 0 -15.037740699759212 10.182724616728592 0 10.182724616728592 255.16592312310695 0 0 0 0 0.11692301248895809 0.19901861404018728 0 0.19901861404018728 2.480201886028965 0 0 0 0 58.293934717785135 87.096787714431684 0 87.096787714431684 57.433258100524654 0 0 0 0 112.15343679815733 -106.95351543742936 0 -106.95351543742936 96.591608554816048 0 0 0 0 18.097355837631284 -45.151767178287628 0 -45.151767178287628 22.564701670820796 0 0 0 0 15.647962774065398 -83.237107342024956 0 -83.237107342024956 92.613977307270034 0 0 0 0 49.368197778847076 -32.273591010300152 0 -32.273591010300152 9.5790336607735753 0 0 0 0 -9.3482441540421917 -34.247917840300147 0 -34.247917840300147 39.525861128942779 0 0 0 0 -13.912408255416551 -22.866856211443519 0 -22.866856211443519 30.892020326165039 0 0 0 0 -10.351343731851074 -38.532834508764608 0 -38.532834508764608 21.831026905045405 0 0 0 0 -50.18121570468486 -18.725216325459769 0 -18.725216325459769 64.538027255872294 0 0 0 0 -56.369286555640258 12.14117562349611 0 12.14117562349611 48.407733925341745 0 0 0 0 -30.614918947653464 -19.584295820522129 0 -19.584295820522129 85.112399722366717 0 0 0 0 -2.6457504136010854 -61.754367995127268 0 -61.754367995127268 236.8170049372884 0 0 0 0 -18.703150725437538 -7.2963812322514059 0 -7.2963812322514059 91.482674839910061 0 0 0 0 -25.645454775552771 42.11590805898436 0 42.11590805898436 115.22670221504359 0 0 0 0 -14.56295573142404 73.663603278979281 0 73.663603278979281 205.01774579253924 0 0 0 0 -13.248819408877324 -2.0448664913465109 0 -2.0448664913465109 95.683558125764193 0 0 0 0 -76.079026173468179 56.343364723062223 0 56.343364723062223 116.20313484863027 0 0 0 0 -84.061269986191348 96.144428896355066 0 96.144428896355066 1.8925710600215098 0 0 0 0 18.08201210523363 79.702757731147813 0 79.702757731147813 -66.536760421620784 0 0 0 0 -3.169914501730013 10.919677389082688 0 10.919677389082688 15.500138185822497 0 0 0 0 6.9582033142864077 -17.945760217197403 0 -17.945760217197403 -38.74922366888859 0 0 0 0 -4.8194535645366354 62.468605648646644 0 62.468605648646644 26.406692720873252 0 0 0 0 43.502590640446755 34.404807883858666 0 34.404807883858666 23.575020635465989 0 0 0 0 0.43363968394167274 -0.10126770297130783 0 -0.10126770297130783 0.067031719711067694 0 0 0 0 25.573932377879771 42.595399963960517 0 42.595399963960517 25.879214809785481 0 0 0 0 30.639752634687746 56.826136399424286 0 56.826136399424286 22.976764064844247 0 0 0 0 -21.625525017728513 30.581879354854664 0 30.581879354854664 65.642070446090656 0 0 0 0 1.1313332102680675 -0.56342682431221647 0 -0.56342682431221647 0.31459184988414002 0 0 0 0 81.713994961879706 -25.154941338038952 0 -25.154941338038952 -16.011747062279937 0 0 0 0 -9.7826486697637165 28.524316561706655 0 28.524316561706655 27.258898119463993 0 0 0 0 9.6521852252707419 22.738905845939371 0 22.738905845939371 7.2598718014032784 0 0 0 0 -168.41803069138612 57.934605942901271 0 57.934605942901271 101.39781965138855 0 0 0 0 -5.0748746846169297 -87.24355468265594 0 -87.24355468265594 227.15586129532403 0 0 0 0 158.72684062650654 61.536963608643873 0 61.536963608643873 56.545736468301584 0 0 0 0 -14.858403161932983 8.2988746762903247 0 8.2988746762903247 66.358661490382474 0 0 0 0 -20.602024405553493 26.67482276866258 0 26.67482276866258 24.954111503762761 0 0 0 0 35.588594952808762 39.132552212987321 0 39.132552212987321 41.732299262882862 0 0 0 0 119.99421369428279 138.22396526020862 0 138.22396526020862 13.763933362939952 0 0 0 0 128.53367757367687 117.27823543452178 0 117.27823543452178 56.724196814619063 0 0 0 0 10.050888642115751 96.268544081079199 0 96.268544081079199 86.724823890111111 0 0 0 0 -29.471543281513732 52.620922189216799 0 52.620922189216799 65.048903470993537 0 0 0 0 -27.047552373029248 77.974039842089041 0 77.974039842089041 42.023812793849856 0 0 0 0 -1.0089432850134017 67.017332152628796 0 67.017332152628796 40.686924964351419 0 0 0 0 -0.41064863909209048 3.9591957788691703 0 3.9591957788691703 6.3784134830528529 0 0 0 0 -18.508337756101128 24.513786509732881 0 24.513786509732881 53.294076565101022 0 0 0 0 -74.732530297839247 -17.215761348786145 0 -17.215761348786145 44.199150809017738 0 0 0 0 -66.91281184103218 69.57992881831251 0 69.57992881831251 61.925596443200448 0 0 0 0 -16.511743822333756 4.3318276470433545 0 4.3318276470433545 24.258831262783701 0 0 0 0 -4.0393339344522792 5.1657220415002252 0 5.1657220415002252 21.553831724743436 0 0 0 0 -13.323721502802073 4.7737409728176203 0 4.7737409728176203 14.142219912040218 0 0 0 0 -12.130127028493007 7.9815123547080873 0 7.9815123547080873 20.195153503322501 0 0 0 0 -6.9897924902547883 9.6936425927106455 0 9.6936425927106455 17.808392270685928 0 0 0 0 -37.881823627468634 80.934872277146042 0 80.934872277146042 30.774939291271949 0 0 0 0 -102.40864268634965 45.596290297033647 0 45.596290297033647 187.11260743957791 0 0 0 0 -48.548791916658274 -65.345920053912778 0 -65.345920053912778 209.39503396050554 0 0 0 0 -4.3917169884529699 -18.958033189171374 0 -18.958033189171374 15.616334855954847 0 0 0 0 -3.4022427982555428 -34.46028238423014 0 -34.46028238423014 81.711931630547042 0 0 0 0 53.706852423849 -132.21947701324734 0 -132.21947701324734 148.7066817229861 0 0 0 0 0.76465790630073305 0.33643571980873332 0 0.33643571980873332 0.086616809772092296 0 0 0 0 -21.158402710590963 26.645145040967691 0 26.645145040967691 26.150752599294719 0 0 0 0 -8.9634992054183886 10.417455349961278 0 10.417455349961278 25.701894707675336 0 0 0 0 -13.365764654792429 9.8024135419400409 0 9.8024135419400409 18.210619564116314 0 0 0 0 -9.5303611046282981 8.8029902381924821 0 8.8029902381924821 42.475179486593177 0 0 0 0 -4.9178652615736205 19.337478855703811 0 19.337478855703811 22.927787311756916 0 0 0 0 -2.6053389315196331 4.8402546304685448 0 4.8402546304685448 9.4161657278901139 0 0 0 0 -45.461441382392195 -66.953662402478585 0 -66.953662402478585 59.704711569577739 0 0 0 0 14.31503440274696 30.390464974922452 0 30.390464974922452 1.1566903523262226 0 0 0 0 -8.8839816030440488 12.555736432201229 0 12.555736432201229 62.450927560332275 0 0 0 0 -5.3803150476800425 -0.42341146369760629 0 -0.42341146369760629 13.292172059839462 0 0 0 0 -2.0930102242543018 1.9033846069983138 0 1.9033846069983138 41.92397187778392 0 0 0 0 -17.40942795748856 -5.066162140168899 0 -5.066162140168899 55.850920386040343 0 0 0 0 -20.537774577257267 -7.6530385239620955 0 -7.6530385239620955 102.67315717191741 0 0 0 0 0.21100127752606568 -9.0326921847477024 0 -9.0326921847477024 42.764097487358413 0 0 0 0 -51.002108236938852 7.7415486231539035 0 7.7415486231539035 32.180485087688339 0 0 0 0 -42.112165092716168 2.0317361093184445 0 2.0317361093184445 6.5897723351815785 0 0 0 0 -60.625930480568528 -0.99130070169519513 0 -0.99130070169519513 33.204300752184281 0 0 0 0 -7.0798481911533599 6.5099430907894202 0 6.5099430907894202 61.476920231099939 0 0 0 0 -2.3666572508314463 -1.9685164583643147 0 -1.9685164583643147 10.166844845704029 0 0 0 0 -58.749705937838485 9.9316765733483408 0 9.9316765733483408 33.429706145023374 0 0 0 0 -40.347689375186405 -0.78451657715413603 0 -0.78451657715413603 31.549440286395111 0 0 0 0 -31.065145423503282 1.9215423743253268 0 1.9215423743253268 33.642208075124927 0 0 0 0 6.2222755275207131 4.4576168970580081 0 4.4576168970580081 11.56729864682627 0 0 0 0 -5.6736647257307595 -29.149196450755625 0 -29.149196450755625 1.5709255129842177 0 0 0 0 0.9487385608586778 -1.1364280156728359 0 -1.1364280156728359 27.331202688256123 0 0 0 0 42.551321476551493 41.840912958777608 0 41.840912958777608 35.783493963060209 0 0 0 0 52.506016363568335 -14.700463345942723 0 -14.700463345942723 56.897283814221737 0 0 0 0 46.041674579317942 60.216961853113958 0 60.216961853113958 54.356578803178309 0 0 0 0 187.06991014461767 -3.3410102487263202 0 -3.3410102487263202 14.554169228283627 0 0 0 0 11.731605196110195 -3.5163678777837504 0 -3.5163678777837504 42.51569926294269 0 0 0 0 312.29210777773858 198.93902720847314 0 198.93902720847314 30.609239221453208 0 0 0 0 427.29943570419977 504.33406379409274 0 504.33406379409274 702.05413738362995 0 0 0 0 590.78897033957219 40.268024566792292 0 40.268024566792292 -24.902303913419473 0 0 0 0 -31.072443677183458 110.58322034422292 0 110.58322034422292 708.31789001546076 0 0 0 0 4.3545381438597168 2.8152968534429292 0 2.8152968534429292 1.0137415750872458 0 0 0 0 416.02412989215674 586.62337293174267 0 586.62337293174267 606.21749382009102 0 0 0 0 469.62900523152604 421.50283795972763 0 421.50283795972763 938.34037431754018 0 0 0 0 221.75491156106185 67.186062776137476 0 67.186062776137476 719.27783570522865 0 0 0 0 2.5176095119953033 1.6578778158601608 0 1.6578778158601608 13.90851888938414 0 0 0 0 -27.65479239960294 -1.4274642463428791 0 -1.4274642463428791 13.819739976053825 0 0 0 0 159.65234920296564 -45.895209187862349 0 -45.895209187862349 -7.179573239027377 0 0 0 0 195.14655264971884 173.84238016972461 0 173.84238016972461 345.59468096579491 0 0 0 0 0.3399939988873939 183.2372517999485 0 183.2372517999485 409.25364778626601 0 0 0 0 -0.61087184641112291 -1.3479991837530334 0 -1.3479991837530334 22.200285821406176 0 0 0 0 -109.29885648288717 44.770248724824341 0 44.770248724824341 9.4578603285949612 0 0 0 0 146.13306967457737 97.515198165031222 0 97.515198165031222 -154.36505199131716 0 0 0 0 -50.421764174325631 -258.34270947497544 0 -258.34270947497544 437.45272738613085 0 0 0 0 766.82087216211585 1052.1243914809213 0 1052.1243914809213 1139.0170980227354 0 0 0 0 0.14173910132885847 0.25161383207369514 0 0.25161383207369514 9.7977235566844492 0 0 0 0 676.81791507081152 804.35239226322778 0 804.35239226322778 607.95599998917919 0 0 0 0 215.98446534098593 458.77123587659349 0 458.77123587659349 1142.1172117287997 0 0 0 0 281.02807460720931 662.92556226303941 0 662.92556226303941 1728.2341455984915 0 0 0 0 970.43869518859526 431.77894976561765 0 431.77894976561765 1500.9284887702152 0 0 0 0 43.210472229345037 330.4849657232034 0 330.4849657232034 937.64270169990448 0 0 0 0 91.874009627104897 584.80112990369446 0 584.80112990369446 1499.306274715568 0 0 0 0 74.156617582538402 228.52192315430935 0 228.52192315430935 1150.6561289691974 0 0 0 0 -213.04060910396899 118.41094371976953 0 118.41094371976953 1499.8741004393114 0 0 0 0 -87.39890895043311 13.500042604967575 0 13.500042604967575 937.92401517377095 0 0 0 0 -244.295507155488 -169.02262307239477 0 -169.02262307239477 765.05296294516893 0 0 0 0 -118.73615680517952 51.508507623178389 0 51.508507623178389 1082.1387284968168 0 0 0 0 -323.12918495411878 -86.357969053069837 0 -86.357969053069837 1121.0597357657198 0 0 0 0 -356.39256861322679 -243.81694182203205 0 -243.81694182203205 1120.752421982329 0 0 0 0 -445.53798991437208 -113.70494603605607 0 -113.70494603605607 1499.6702116253532 0 0 0 0 -352.10331120244427 -198.05760798961828 0 -198.05760798961828 1146.7808900403952 0 0 0 0 68.567610139143099 -170.21033799273459 0 -170.21033799273459 713.27346630438842 0 0 0 0 -401.99184992808597 -226.43455001490048 0 -226.43455001490048 1146.0596714053363 0 0 0 0 -397.56025989324581 -272.61772623165689 0 -272.61772623165689 1115.33183988676 0 0 0 0 -258.82509634221293 -3.4809660214946234 0 -3.4809660214946234 603.01026172938509 0 0 0 0 -437.88020740118259 27.155836494778669 0 27.155836494778669 670.63213733666112 0 0 0 0 -325.11911687941296 105.97584867487456 0 105.97584867487456 -11.546474744741317 0 0 0 0 -5.0827566587890729 -2.2290347584700294 0 -2.2290347584700294 4.011598553338608 0 0 0 0 0.11503661446161084 2.2986726900033401 0 2.2986726900033401 6.9303764748279546 0 0 0 0 -113.98610560792895 -24.959919546704441 0 -24.959919546704441 188.76087854322719 0 0 0 0 -31.862705470410674 -80.069125181978279 0 -80.069125181978279 197.86668137947208 0 0 0 0 -126.2911038813659 -45.838297715722092 0 -45.838297715722092 122.14542058169468 0 0 0 0 11.793403740763495 129.61592426367338 0 129.61592426367338 740.71659641026008 0 0 0 0 320.11895876592769 251.50864995957113 0 251.50864995957113 158.5756570018566 0 0 0 0 124.11578347773235 191.64439711133133 0 191.64439711133133 744.11168641105087 0 0 0 0 8.4577472616544753 194.59434844736813 0 194.59434844736813 519.87563174837032 0 0 0 0 686.18088454427607 1232.5649683822267 0 1232.5649683822267 1495.9222419283733 0 0 0 0 8.1081410242600249 5.6396051636724032 0 5.6396051636724032 7.3322313642752874 0 0 0 0 1288.7280831348348 576.9689776004775 0 576.9689776004775 75.662072033408549 0 0 0 0 932.57372911204948 -15.227959616484895 0 -15.227959616484895 -53.350483564452588 0 0 0 0 454.23127351249605 206.90875937372039 0 206.90875937372039 40.338248251498385 0 0 0 0 42.750797214799604 -165.90189781634581 0 -165.90189781634581 98.755517117175259 0 0 0 0 -145.21646271396003 106.54981418300849 0 106.54981418300849 74.128702161306137 0 0 0 0 -178.43292173182704 51.972381785271864 0 51.972381785271864 169.41830735483018 0 0 0 0 391.43522175552687 -827.10607401005791 0 -827.10607401005791 1498.930193057643 0 0 0 0 218.14211039732092 -485.58388652491158 0 -485.58388652491158 899.85801740185934 0 0 0 0 -194.14549693632321 -441.41098008026711 0 -441.41098008026711 1499.8744895035429 0 0 0 0 67.420123710882777 -283.26528040812877 0 -283.26528040812877 866.20020958952875 0 0 0 0 13.682473302538014 18.565153965246822 0 18.565153965246822 22.898406687649903 0 0 0 0 -20.81969259183461 3.3487384037351831 0 3.3487384037351831 102.00217219466185 0 0 0 0 -10.043288050547289 -13.016452986130901 0 -13.016452986130901 126.81036713970934 0 0 0 0 -42.778679576237664 17.240661462530625 0 17.240661462530625 145.21807443803732 0 0 0 0 -22.596708849882816 18.629165051350128 0 18.629165051350128 114.96110244418105 0 0 0 0 -40.116555414377217 32.812364269771024 0 32.812364269771024 104.17895334658806 0 0 0 0 -20.18035320514241 18.536709479904289 0 18.536709479904289 93.031808254971111 0 0 0 0 -29.698399301022569 -15.666111756649951 0 -15.666111756649951 17.438108867615519 0 0 0 0 -75.080584475346768 19.312673028985955 0 19.312673028985955 40.170587056665681 0 0 0 0 -0.39838037965864714 -66.846279188052904 0 -66.846279188052904 126.72631036452731 0 0 0 0 501.18710531584429 27.266769063830907 0 27.266769063830907 -11.058431312905668 0 0 0 0 55.661495683661428 110.31572124172226 0 110.31572124172226 145.30359867857987 0 0 0 0 -2.6091406775094583 -50.652856830930432 0 -50.652856830930432 30.677560615225048 0 0 0 0 -24.388853527871618 -16.057567881293679 0 -16.057567881293679 20.863057967427551 0 0 0 0 -16.29888728436481 15.83391415677238 0 15.83391415677238 92.054625839853998 0 0 0 0 -3.6321552237448089 -2.5194081163824524 0 -2.5194081163824524 -1.6445028741217698 0 0 0 0 -15.883125135982482 8.1062836915834851 0 8.1062836915834851 87.701196125147362 0 0 0 0 -19.662440002528456 0.87418069738578197 0 0.87418069738578197 75.057147970308506 0 0 0 0 2.798183692052338 2.5919066511587978 0 2.5919066511587978 7.7562832604630536 0 0 0 0 -17.673422715317209 -5.4394923446325265 0 -5.4394923446325265 38.907162950932104 0 0 0 0 51.066530754771065 1.6368655003134336 0 1.6368655003134336 54.51321337743866 0 0 0 0 15.618345515624242 17.034325459084357 0 17.034325459084357 56.733598324615741 0 0 0 0 -18.336552066743025 -2.3068436867052924 0 -2.3068436867052924 62.813515885183733 0 0 0 0 400.90327579407449 605.27710368160297 0 605.27710368160297 704.38342047193873 0 0 0 0 413.12764743784254 520.67977865985972 0 520.67977865985972 583.20004109117144 0 0 0 0 665.48902823804156 431.05462671112127 0 431.05462671112127 223.32291114148757 0 0 0 0 502.58087066261305 646.7187724090636 0 646.7187724090636 225.85027424272994 0 0 0 0 646.25818960251218 562.93240125839122 0 562.93240125839122 158.91146414491232 0 0 0 0 400.15782194701865 367.77814735050561 0 367.77814735050561 232.14352672966925 0 0 0 0 -1.2345606033092622 15.909038654664243 0 15.909038654664243 47.342063508194769 0 0 0 0 -1.4930259471639147 25.45344246488321 0 25.45344246488321 79.215582659562642 0 0 0 0 -2.2872278935222994 24.38609197322927 0 24.38609197322927 75.303072203541888 0 0 0 0 -3.291832524628262 15.824006645524605 0 15.824006645524605 64.289075932873402 0 0 0 0 -0.4782826365544679 27.418483253226896 0 27.418483253226896 70.588946954434505 0 0 0 0 -17.056128918370632 6.4541027959912753 0 6.4541027959912753 64.467491715275173 0 0 0 0 -13.246568941226542 17.964313873129413 0 17.964313873129413 70.220171838327587 0 0 0 0 -15.430526303325223 13.4109806153308 0 13.4109806153308 58.466636371167624 0 0 0 0 -16.067301765878256 13.216833426824223 0 13.216833426824223 72.349799981820979 0 0 0 0 -10.714266254003633 12.24531323570136 0 12.24531323570136 73.689376133139376 0 0 0 0 -10.193079077656876 13.190820875446661 0 13.190820875446661 69.610922084811136 0 0 0 0 -7.9761760557221351 18.492850506642185 0 18.492850506642185 74.459226990116804 0 0 0 0 -9.4237045458467037 12.385019697315329 0 12.385019697315329 67.763200461531596 0 0 0 0 -2.6479155811521196 17.150305006958661 0 17.150305006958661 70.855068460592975 0 0 0 0 -1.5136704629226188 23.393001205947826 0 23.393001205947826 79.139024455045728 0 0 0 0 -6.4683773829765414 19.83029340667963 0 19.83029340667963 76.726850871356874 0 0 0 0 -7.0464217783137428 18.009930439606251 0 18.009930439606251 81.805595424088096 0 0 0 0 -6.0384778901421896 28.750646465637345 0 28.750646465637345 79.781105530723835 0 0 0 0 2.7288150243393829 23.703698752908622 0 23.703698752908622 74.768208358667835 0 0 0 0 7.9760927844861271 33.805785978233644 0 33.805785978233644 79.620437884837884 0 0 0 0 4.3173425177828904 31.520263077442451 0 31.520263077442451 81.873000349984522 0 0 0 0 5.6460840652034676 24.658838239119177 0 24.658838239119177 69.515692633987783 0 0 0 0 22.346446496353565 27.096465193785662 0 27.096465193785662 77.838807391683076 0 0 0 0 8.0394359782881111 60.375372708020905 0 60.375372708020905 128.85603056499531 0 0 0 0 33.472488593566595 55.586329003538594 0 55.586329003538594 88.855418417835153 0 0 0 0 9.5417978178315934 56.118081430947768 0 56.118081430947768 87.136822989721622 0 0 0 0 4.9134358150731714 34.545995712582226 0 34.545995712582226 97.242127404228086 0 0 0 0 4.9384266293481005 54.882696748862259 0 54.882696748862259 83.801654379217325 0 0 0 0 -12.307558812428397 53.560719938312104 0 53.560719938312104 90.91856018717408 0 0 0 0 0.1174815891754406 38.46976243389463 0 38.46976243389463 80.730301989094187 0 0 0 0 -14.596920804005094 29.902427456002897 0 29.902427456002897 91.893154397460648 0 0 0 0 -17.147748908715585 35.540304183009198 0 35.540304183009198 102.48508944674177 0 0 0 0 -41.263050811769062 50.586725463101175 0 50.586725463101175 93.402576205468904 0 0 0 0 -40.912309200206494 47.28078852716655 0 47.28078852716655 111.74525122587238 0 0 0 0 -83.88357452574337 46.5555074048184 0 46.5555074048184 124.48660737823548 0 0 0 0 -90.989475151130364 59.073725620205096 0 59.073725620205096 109.62756447041193 0 0 0 0 33.418290765962411 71.751785201818166 0 71.751785201818166 73.502395686830823 0 0 0 0 -19.881102593525611 88.922911953034031 0 88.922911953034031 68.311576578120366 0 0 0 0 -101.25164598737319 36.64279267376628 0 36.64279267376628 32.526937645678117 0 0 0 0 10.736763425015159 5.2922671567031347 0 5.2922671567031347 6.1584048587239169 0 0 0 0 1.4132726837093914 5.6519189830868601 0 5.6519189830868601 6.5795185485740504 0 0 0 0 206.69513235226782 287.19392392608506 0 287.19392392608506 -12.344892846013863 0 0 0 0 176.83847363013626 353.04330400483605 0 353.04330400483605 224.80215318834234 0 0 0 0 2.6527599225602407 -8.652987635188353 0 -8.652987635188353 32.761774680975257 0 0 0 0 158.41054362261627 -413.10860544674813 0 -413.10860544674813 179.25603635725383 0 0 0 0 -62.515727507651718 21.40709317461733 0 21.40709317461733 58.439065827349623 0 0 0 0 49.801662153078269 4.923865450104131 0 4.923865450104131 50.82019183477496 0 0 0 0 16.774147935626388 10.937974467953609 0 10.937974467953609 24.652561078793951 0 0 0 0 28.972747149168185 31.02652534075969 0 31.02652534075969 48.822453658842278 0 0 0 0 8.9397713836101698 19.653301283723312 0 19.653301283723312 9.4469646540414338 0 0 0 0 0.1435845999667027 0.80340440877414387 0 0.80340440877414387 3.9802873719516452 0 0 0 0 1.5506866308239751 21.973155351067135 0 21.973155351067135 66.338597998161276 0 0 0 0 1.3945281479510641 18.381573655297416 0 18.381573655297416 157.25699005665592 0 0 0 0 2.0362312732002135 -1.5096086724736519 0 -1.5096086724736519 -7.3652456721084469 0 0 0 0 5.1912775595838223 19.098879028485761 0 19.098879028485761 -5.3182537650784347 0 0 0 0 -55.554395084518092 50.960556653069034 0 50.960556653069034 98.240006785279547 0 0 0 0 35.830176371473499 60.207640063251347 0 60.207640063251347 56.461626685797455 0 0 0 0 5.5007851173995732 37.429161630875569 0 37.429161630875569 91.910174355044546 0 0 0 0 -51.68711027419431 81.782793672799016 0 81.782793672799016 8.2436600771088706 0 0 0 0 1.22480579366038 10.336631532991305 0 10.336631532991305 67.940258271562925 0 0 0 0 26.391774565676315 51.500288011089651 0 51.500288011089651 -94.501844202815846 0 0 0 0 39.078224503755337 52.005342891352484 0 52.005342891352484 -8.3521085878728627 0 0 0 0 13.887085206192296 59.901717846007159 0 59.901717846007159 37.40117325322899 0 0 0 0 18.61039985228399 50.150747304876859 0 50.150747304876859 -4.6399862761572876 0 0 0 0 -0.2313481019655228 38.356835712333805 0 38.356835712333805 81.675562067600367 0 0 0 0 5.8136510917192368 23.089752298490918 0 23.089752298490918 -4.4205903165630538 0 0 0 0 5.9461431012496178 38.329405966896957 0 38.329405966896957 71.340441319018737 0 0 0 0 66.170071429091081 208.29442828559422 0 208.29442828559422 84.521575524088121 0 0 0 0 157.40548351825188 219.1287665492805 0 219.1287665492805 155.24604586317218 0 0 0 0 168.75243933503805 211.02316501717985 0 211.02316501717985 79.824079773885842 0 0 0 0 -266.13758661242889 74.696323267448861 0 74.696323267448861 180.29696135820768 0 0 0 0 -101.31804445077421 276.69410313327216 0 276.69410313327216 278.05317579048574 0 0 0 0 -111.98726719319416 89.530567579155104 0 89.530567579155104 66.708133460912904 0 0 0 0 -116.70442024685985 101.72798742743953 0 101.72798742743953 185.17525598703685 0 0 0 0 22.778079130679941 134.24490740165879 0 134.24490740165879 19.123509781090434 0 0 0 0 -90.491490131015027 51.489208297746814 0 51.489208297746814 -9.2282118456187163 0 0 0 0 -61.601054050441462 124.71194367440785 0 124.71194367440785 -29.435936677782593 0 0 0 0 -143.99823951201753 54.50547596684828 0 54.50547596684828 521.50346824959524 0 0 0 0 -49.006639449853083 52.95830110641964 0 52.95830110641964 178.46103154921502 0 0 0 0 173.64488357146308 196.42661874702253 0 196.42661874702253 -241.82594323692956 0 0 0 0 -136.54171336339925 105.51951346691067 0 105.51951346691067 792.47989207720502 0 0 0 0 4.5125324615553719 2.4193072096544732 0 2.4193072096544732 0.69487629712086552 0 0 0 0 218.91388372624976 328.87264815249773 0 328.87264815249773 64.142634715668464 0 0 0 0 197.01129438287617 205.82982671618174 0 205.82982671618174 8.9371808261525985 0 0 0 0 -34.433232133746593 152.71887558481535 0 152.71887558481535 324.888096908232 0 0 0 0 -42.956624170594893 57.707090348540987 0 57.707090348540987 4.7216925063657982 0 0 0 0 94.573602988470839 -99.607537738061183 0 -99.607537738061183 184.65733955580163 0 0 0 0 298.57449186640423 111.37361495781533 0 111.37361495781533 62.118340014585556 0 0 0 0 156.75263635346278 280.23762995516176 0 280.23762995516176 426.31698382106333 0 0 0 0 135.83674540265241 70.151039415446576 0 70.151039415446576 23.336291579104 0 0 0 0 41.497001604323884 -56.361365339453187 0 -56.361365339453187 76.897244727401528 0 0 0 0 -79.345092444366287 -201.80354772033752 0 -201.80354772033752 -35.727260715026773 0 0 0 0 9.3287753632501165 -8.5957846620053715 0 -8.5957846620053715 6.0143754209257168 0 0 0 0 4.6955257470989977 0.51850583514396931 0 0.51850583514396931 10.055276716651861 0 0 0 0 30.878332589040497 34.355024762681978 0 34.355024762681978 -81.193007365087396 0 0 0 0 2.7478459217845161 8.6414937809634296 0 8.6414937809634296 11.233837342814738 0 0 0 0 -4.9461865600974306 9.7409824099595426 0 9.7409824099595426 2.5464044881255177 0 0 0 0 6.6942769838474163 11.714524213927561 0 11.714524213927561 9.2951246387248361 0 0 0 0 0.29587087803432466 12.012805434695991 0 12.012805434695991 26.313996504649154 0 0 0 0 -5.5646872216246237 -0.78282632103033478 0 -0.78282632103033478 5.2607566047420846 0 0 0 0 36.648449879838665 -21.515996015830751 0 -21.515996015830751 -48.857463753184675 0 0 0 0 -5.8953973967741149 10.280352608583598 0 10.280352608583598 29.738534738520684 0 0 0 0 -66.551970825355056 -11.642879972893752 0 -11.642879972893752 73.529947799771435 0 0 0 0 -60.49089066265924 24.548869065865802 0 24.548869065865802 33.443378766831302 0 0 0 0 -31.944044261551426 46.717111321362609 0 46.717111321362609 44.775338342260511 0 0 0 0 -11.350622966800984 22.363065783931233 0 22.363065783931233 6.0425864708868176 0 0 0 0 -20.923684678490389 9.6945198610228545 0 9.6945198610228545 4.3168285885758451 0 0 0 0 -96.126822198747504 78.215820157220151 0 78.215820157220151 -17.810883172915965 0 0 0 0 14.555366507959013 13.937762403883227 0 13.937762403883227 12.16415428257562 0 0 0 0 -3.1478321358622665 -0.68640426748761385 0 -0.68640426748761385 2.7664210521973409 0 0 0 0 48.199277728042944 46.005165902526642 0 46.005165902526642 30.733238095075649 0 0 0 0 5.0721375260946502 145.68422228598865 0 145.68422228598865 20.550648902979447 0 0 0 0 -46.049354194758962 91.090819289323917 0 91.090819289323917 -80.304265298329483 0 0 0 0 -77.219490010958509 6.7162897809753304 0 6.7162897809753304 20.263600453581603 0 0 0 0 1.7700295325920923 -1.0942955094270843 0 -1.0942955094270843 -2.4854140097313788 0 0 0 0 -214.79352141747131 189.10683463588248 0 189.10683463588248 -57.045637322720722 0 0 0 0 -263.81960760555694 -203.34238867045315 0 -203.34238867045315 42.943480252644804 0 0 0 0 2.509461429568546 131.79720201529199 0 131.79720201529199 1.0510214806054137 0 0 0 0 67.167164743966509 59.534400194540467 0 59.534400194540467 6.2539128074478185 0 0 0 0 36.103254371378569 38.627894016280607 0 38.627894016280607 170.54113388075893 0 0 0 0 -82.449161310710736 -46.821272729970133 0 -46.821272729970133 445.29150771279637 0 0 0 0 -97.120300677295063 -84.690142298751539 0 -84.690142298751539 746.29753000344135 0 0 0 0 1.1003551792114195 255.51362918376572 0 255.51362918376572 723.29854464503296 0 0 0 0 5.6646192143082228 5.0512392310440895 0 5.0512392310440895 5.0879503865043674 0 0 0 0 397.58876585072835 352.29003718291005 0 352.29003718291005 28.599751331148582 0 0 0 0 374.86197452759268 546.57429169606621 0 546.57429169606621 222.38745762160033 0 0 0 0 36.873846172641038 571.34118589628633 0 571.34118589628633 512.3316343703741 0 0 0 0 -85.358332553075115 413.56718751938661 0 413.56718751938661 369.5744127665821 0 0 0 0 148.95531416136586 357.21125298803781 0 357.21125298803781 72.49826615065831 0 0 0 0 150.48512685783305 389.79711877597811 0 389.79711877597811 269.46850100869779 0 0 0 0 112.23332009579553 336.09423454593525 0 336.09423454593525 208.93339749082588 0 0 0 0 190.88459680350024 282.9246160591556 0 282.9246160591556 155.98209762128681 0 0 0 0 238.00331203555561 186.93317453056079 0 186.93317453056079 10.98993491620422 0 0 0 0 139.19626435715236 144.61777665491718 0 144.61777665491718 -73.538647357978334 0 0 0 0 -77.042059017813699 -30.361636907073262 0 -30.361636907073262 -120.12243926976407 0 0 0 0 70.221561901320683 151.56378149398915 0 151.56378149398915 55.512481101985031 0 0 0 0 197.20279389993539 136.98311099752755 0 136.98311099752755 -183.20321077925473 0 0 0 0 148.76151758197227 221.47994500999675 0 221.47994500999675 38.784320654445764 0 0 0 0 24.696659618754893 1.3771362145871535 0 1.3771362145871535 -54.470406417738559 0 0 0 0 24.868755585330291 22.322518574186915 0 22.322518574186915 -50.674182393493538 0 0 0 0 18.886384027714485 10.829820700291748 0 10.829820700291748 -37.031268897049813 0 0 0 0 0.57321820525702716 -9.7106234110104452 0 -9.7106234110104452 27.011989541612742 0 0 0 0 21.169842185734524 -3.7206882772370591 0 -3.7206882772370591 -91.283264787113808 0 0 0 0 -446.84779030726622 -211.57186145017295 0 -211.57186145017295 475.89475728872276 0 0 0 0 -62.08991036980197 239.46450841018975 0 239.46450841018975 321.15145812053015 0 0 0 0 173.04594062526439 200.56949519991576 0 200.56949519991576 309.62763913292292 0 0 0 0 163.85456106140282 -151.59047297812867 0 -151.59047297812867 -232.03408577265509 0 0 0 0 -169.37994542871957 656.28528424786191 0 656.28528424786191 621.44850973153734 0 0 0 0 2.5791161403728289 -0.60080392813473082 0 -0.60080392813473082 0.65895734273658135 0 0 0 0 654.3553151842259 770.60646031614328 0 770.60646031614328 544.28978286448546 0 0 0 0 -221.00033418172643 -470.25679369153841 0 -470.25679369153841 156.0095508599552 0 0 0 0 0.93827306485957518 -3.592645086074068 0 -3.592645086074068 11.204336710516216 0 0 0 0 200.3766497092779 147.53716928548056 0 147.53716928548056 425.9254229505932 0 0 0 0 566.35641223319294 244.29461130681943 0 244.29461130681943 271.00372865125973 0 0 0 0 124.92758747613561 304.03873826858035 0 304.03873826858035 473.82128548125547 0 0 0 0 166.37176154711244 209.00397881846447 0 209.00397881846447 283.32283246080988 0 0 0 0 67.929711007865251 -9.4836825024794962 0 -9.4836825024794962 -51.019201542138035 0 0 0 0 79.480400097552092 209.37206580153543 0 209.37206580153543 417.33089474102235 0 0 0 0 -24.649527004959964 -150.58676848580944 0 -150.58676848580944 385.31558899375887 0 0 0 0 111.54341602036175 -172.73412039040886 0 -172.73412039040886 -134.72752787875288 0 0 0 0 101.01794917609465 624.08852962953972 0 624.08852962953972 954.85848181821711 0 0 0 0 -273.46410827929844 -171.76898359872121 0 -171.76898359872121 985.63932587822273 0 0 0 0 31.901164097911987 63.288944420791267 0 63.288944420791267 62.182506787268721 0 0 0 0 -86.294706585007134 -5.0593928441116987 0 -5.0593928441116987 43.424011326784239 0 0 0 0 29.177359367727377 45.642408551364497 0 45.642408551364497 225.20080098851213 0 0 0 0 112.10817859718236 182.09676123129429 0 182.09676123129429 72.659058047012877 0 0 0 0 93.818807662494862 214.90976004274853 0 214.90976004274853 339.97815965779591 0 0 0 0 -43.271836622656281 58.587956357126131 0 58.587956357126131 389.1441736697634 0 0 0 0 42.618509078649822 23.340364212398526 0 23.340364212398526 170.77195793173814 0 0 0 0 -163.3747786024914 -54.554040937629907 0 -54.554040937629907 226.64337117667674 0 0 0 0 -1.1327973065738917 0.55592975064039507 0 0.55592975064039507 1.6505382941451714 0 0 0 0 99.909685207164657 -60.070747570094682 0 -60.070747570094682 43.214305208675796 0 0 0 0 -51.036324874691218 -26.478225760027271 0 -26.478225760027271 143.08292022390197 0 0 0 0 -6.7091625381958089 -9.007050883350189 0 -9.007050883350189 23.376546920089822 0 0 0 0 -0.29097135017800113 -6.6480023915531419 0 -6.6480023915531419 6.8057557045815571 0 0 0 0 16.281594954024939 14.978378286248244 0 14.978378286248244 11.681757563754218 0 0 0 0 12.798038732800563 -9.6036682208414277 0 -9.6036682208414277 18.694264523908714 0 0 0 0 4.040845442005673 4.244322658659879 0 4.244322658659879 4.0861275775046124 0 0 0 0 -6.1248741542142966 8.0634261918185075 0 8.0634261918185075 15.223197578235158 0 0 0 0 5.5960920019478326 4.5092489614105844 0 4.5092489614105844 9.7553271333940685 0 0 0 0 -3.1502193132836753 4.978333998539398 0 4.978333998539398 7.4047706547373551 0 0 0 0 -5.6673878478103461 -13.418061316165222 0 -13.418061316165222 40.881178569495205 0 0 0 0 -6.0944126726610861 7.617534375368507 0 7.617534375368507 18.368027996573801 0 0 0 0 -6.4472253682822327 8.4236655936624203 0 8.4236655936624203 8.787633278608471 0 0 0 0 -4.9698029572309679 25.427682521136376 0 25.427682521136376 9.0563459319600952 0 0 0 0 26.473909468222701 62.326526976888999 0 62.326526976888999 4.0263611372174637 0 0 0 0 124.70507725173729 21.680949473835426 0 21.680949473835426 -281.37706467272164 0 0 0 0 30.844546920424435 16.651202006313966 0 16.651202006313966 8.0643594486835113 0 0 0 0 -60.299208661334205 -89.701168842295374 0 -89.701168842295374 -52.254411420657277 0 0 0 0 15.263281543869198 10.632185746595496 0 10.632185746595496 26.560115907283034 0 0 0 0 -5.817450224774527 7.1294535703055342 0 7.1294535703055342 14.975359644403625 0 0 0 0 2.7282531815526454 6.1170094518529368 0 6.1170094518529368 16.247343243212526 0 0 0 0 -6.4402228811660018 0.54810995986143496 0 0.54810995986143496 8.8242790074463642 0 0 0 0 -9.0731383487713249 1.5350169067200241 0 1.5350169067200241 5.6644713494022447 0 0 0 0 -5.8077232094192368 6.5338888012702228 0 6.5338888012702228 18.955260787261068 0 0 0 0 5.9323869931431545 73.911230227204214 0 73.911230227204214 75.641510433706571 0 0 0 0 46.517998003037974 60.611591796050561 0 60.611591796050561 24.306311953572731 0 0 0 0 -3.1860243874652951 1.3296303774695843 0 1.3296303774695843 10.999923108181974 0 0 0 0 -4.9683327240540036 2.7773944715397025 0 2.7773944715397025 12.213059777574685 0 0 0 0 -10.068318604804517 -0.871450247544999 0 -0.871450247544999 11.522973689314767 0 0 0 0 -6.5194662328330963 8.7872316712755492 0 8.7872316712755492 17.734227982833545 0 0 0 0 -1.9456041880656301 8.4264300685226772 0 8.4264300685226772 17.457575298092706 0 0 0 0 1.4767910906077759 12.397516934277519 0 12.397516934277519 21.169636769376666 0 0 0 0 -6.1030743905731129 6.1747565974546887 0 6.1747565974546887 20.682322445154568 0 0 0 0 -4.2570146458674571 8.7908570991803572 0 8.7908570991803572 22.386647736445411 0 0 0 0 -1.8453614024777742 9.3637053661169674 0 9.3637053661169674 13.246104363857903 0 0 0 0 3.2723538872573954 20.614897463679881 0 20.614897463679881 77.039591880657099 0 0 0 0 0.4912100024601358 1.6399573736238757 0 1.6399573736238757 1.1240850610208781 0 0 0 0 -8.4059235464663402 7.9092309739462507 0 7.9092309739462507 18.677303059705082 0 0 0 0 -6.2602189345176953 7.4099173754702861 0 7.4099173754702861 14.900858274693746 0 0 0 0 -7.2461570671434856 8.8345326629259944 0 8.8345326629259944 15.313219918632058 0 0 0 0 -6.2926836878207633 8.8905664795361794 0 8.8905664795361794 7.5273825373629499 0 0 0 0 -7.3492043667204143 4.8522309787185804 0 4.8522309787185804 23.691377647191985 0 0 0 0 -6.1111241168657671 4.8618157704950136 0 4.8618157704950136 18.088568938848766 0 0 0 0 -6.5085815896807162 4.9463490600701334 0 4.9463490600701334 17.212202464594156 0 0 0 0 -3.5571589935696011 6.4898849424434957 0 6.4898849424434957 17.987613635094021 0 0 0 0 -7.8887730412667816 1.0824531847612633 0 1.0824531847612633 0.5919989957819709 0 0 0 0 -11.343546253696331 13.523151652212619 0 13.523151652212619 26.850008137338591 0 0 0 0 -6.9875983918549487 0.24940753019464523 0 0.24940753019464523 5.6250968321220789 0 0 0 0 -3.5940028279954874 4.3495390403934557 0 4.3495390403934557 16.495927525827113 0 0 0 0 -10.318606584622103 6.0663793953726781 0 6.0663793953726781 21.994417634931779 0 0 0 0 -14.758154899592228 9.6114274196806946 0 9.6114274196806946 23.341827360578463 0 0 0 0 -8.1175957005161763 5.9698332598982233 0 5.9698332598982233 16.742272054041678 0 0 0 0 3.2922531819135656 23.684998442024153 0 23.684998442024153 28.177018154878169 0 0 0 0 -6.0827761115231169 -13.546991944386718 0 -13.546991944386718 27.831597722699371 0 0 0 0 -2.2472527849428312 -0.74458895860326324 0 -0.74458895860326324 0.51888160015771945 0 0 0 0 0.82691799193344195 5.4520913706510328 0 5.4520913706510328 29.742500502732582 0 0 0 0 -13.115544115661153 5.4956052728845872 0 5.4956052728845872 18.731014085051847 0 0 0 0 -14.501982210842471 -1.1899962416555354 0 -1.1899962416555354 -2.6514544300916896 0 0 0 0 -7.4982277043872969 4.5519488153078669 0 4.5519488153078669 16.514109922268506 0 0 0 0 -8.2033798287168338 2.9428780986345373 0 2.9428780986345373 13.83865839655482 0 0 0 0 -7.386921829400042 6.7755639572199868 0 6.7755639572199868 13.097520637469653 0 0 0 0 -6.4978628130984868 9.8455660347836123 0 9.8455660347836123 8.299395278564571 0 0 0 0 -4.1610738368303828 18.869984681366986 0 18.869984681366986 33.357987590876292 0 0 0 0 -4.8452385150108057 4.3703415510269679 0 4.3703415510269679 27.644530465431671 0 0 0 0 -16.753622930922802 7.9444928302982589 0 7.9444928302982589 34.774402257239672 0 0 0 0 -12.610798154990562 18.300659196623201 0 18.300659196623201 58.590455289446254 0 0 0 0 -21.026792190106789 34.38756968542657 0 34.38756968542657 42.443837406634998 0 0 0 0 4.4491360271476879 -10.71197782143463 0 -10.71197782143463 21.622603748108304 0 0 0 0 -3.9498674361689154 9.4730943362837934 0 9.4730943362837934 10.177084390453729 0 0 0 0 -7.2269609754666746 5.9900170384941589 0 5.9900170384941589 12.536623341165772 0 0 0 0 -7.5562617191899335 8.260864916648643 0 8.260864916648643 14.213421993688826 0 0 0 0 -2.2186523988836937 7.9062893232270106 0 7.9062893232270106 12.141555450118403 0 0 0 0 -10.3110261209751 0.35916725384345227 0 0.35916725384345227 6.8066998881658947 0 0 0 0 -17.933196929147641 17.742245461085986 0 17.742245461085986 6.1067286154338944 0 0 0 0 -22.715807491294985 2.8654628489710774 0 2.8654628489710774 6.5975324260939558 0 0 0 0 -19.343738104327166 8.9886731711094399 0 8.9886731711094399 28.50137285922392 0 0 0 0 -7.1441664154137925 -9.4221349309972311 0 -9.4221349309972311 65.612086337894652 0 0 0 0 -11.830461474161636 -3.0587926644062549 0 -3.0587926644062549 2.5469468782346461 0 0 0 0 -10.638635580726358 -8.5862660346610937 0 -8.5862660346610937 15.266957803151854 0 0 0 0 -16.654147074714373 -5.5371635119099665 0 -5.5371635119099665 47.998882152909573 0 0 0 0 2.6903667725493321 8.6578954904045986 0 8.6578954904045986 28.504648195190384 0 0 0 0 -4.8334619641631562 0.025112071166404348 0 0.025112071166404348 29.207026054495145 0 0 0 0 236.01272549608865 57.971079983461266 0 57.971079983461266 240.12736027539722 0 0 0 0 369.7086080855679 64.884254517744921 0 64.884254517744921 216.16225293546267 0 0 0 0 232.84105346297611 129.69666332386623 0 129.69666332386623 132.9364038584099 0 0 0 0 157.27993552370071 116.31240282704493 0 116.31240282704493 233.4058661733543 0 0 0 0 215.75719634605412 199.30474125241199 0 199.30474125241199 187.98125351497765 0 0 0 0 202.66691017763526 76.364555029507756 0 76.364555029507756 229.99859987479795 0 0 0 0 272.2713494564839 -94.956101807745654 0 -94.956101807745654 448.6456858877209 0 0 0 0 480.41020906178301 -111.2219884148235 0 -111.2219884148235 142.52159922458304 0 0 0 0 355.99586857451834 45.343859635253466 0 45.343859635253466 142.22859605947122 0 0 0 0 347.76973459060019 19.586440430423409 0 19.586440430423409 213.94626887141931 0 0 0 0 259.67496159372229 195.92485292762103 0 195.92485292762103 217.85355177708135 0 0 0 0 380.27493783169086 65.418306308692991 0 65.418306308692991 16.046178383279766 0 0 0 0 193.41435178577308 416.6040912586941 0 416.6040912586941 257.42484438000974 0 0 0 0 299.32568934435039 232.38851945489387 0 232.38851945489387 202.87728294277986 0 0 0 0 287.92529566900009 85.71261978835264 0 85.71261978835264 559.39599760634519 0 0 0 0 377.72757335664801 407.17947770014143 0 407.17947770014143 380.18352805684754 0 0 0 0 50.070664893755065 -168.80526801587439 0 -168.80526801587439 311.3714847430856 0 0 0 0 388.90947415039955 41.022562718748304 0 41.022562718748304 235.17713552898385 0 0 0 0 124.95929454173347 55.226197474672517 0 55.226197474672517 236.10336173735777 0 0 0 0 302.61389072657869 200.06955133415113 0 200.06955133415113 345.76211503076411 0 0 0 0 39.405068727730622 -2.2889294690603492 0 -2.2889294690603492 325.51438521428645 0 0 0 0 -25.251687545391178 91.991125202966941 0 91.991125202966941 575.37648507847916 0 0 0 0 10.500024948327336 11.714490877209755 0 11.714490877209755 319.14070471568084 0 0 0 0 7.2792519927063495 -9.6226878435509207 0 -9.6226878435509207 332.12304149152624 0 0 0 0 -2.2402160344972799 3.1164566928782733 0 3.1164566928782733 337.42302097640822 0 0 0 0 35.544995701301559 34.303683094747612 0 34.303683094747612 234.06878984488139 0 0 0 0 25.199213601163137 47.457505314687296 0 47.457505314687296 339.81140061858605 0 0 0 0 5.8116454004867357 -4.458794557166847 0 -4.458794557166847 3.4700868092623978 0 0 0 0 -108.21007823080845 137.09080782404089 0 137.09080782404089 882.30477165645243 0 0 0 0 -8.5998905722790369 -0.22294221953779925 0 -0.22294221953779925 409.17067326766846 0 0 0 0 16.367839164774978 -72.478621275760815 0 -72.478621275760815 368.70514600762544 0 0 0 0 -15.443073308491876 -66.714454924464007 0 -66.714454924464007 434.55651721371396 0 0 0 0 65.589188630008266 -89.858052842444522 0 -89.858052842444522 139.56767172490072 0 0 0 0 45.494145499256774 3.7294681998118904 0 3.7294681998118904 195.24903617386008 0 0 0 0 56.43891487095334 45.441771435496776 0 45.441771435496776 351.32684613265144 0 0 0 0 4.1396569271146291 -7.2329234935332352 0 -7.2329234935332352 353.89801717885348 0 0 0 0 -202.60212141466855 -192.06759170839905 0 -192.06759170839905 267.15915180486809 0 0 0 0 -200.26779281687959 -203.98832934793427 0 -203.98832934793427 70.510970742255267 0 0 0 0 -208.35785045936791 -394.84466845837596 0 -394.84466845837596 624.04604068888875 0 0 0 0 102.60167776099843 125.9137201857211 0 125.9137201857211 -646.4555485319579 0 0 0 0 2.0918173775171454 -226.00351972475255 0 -226.00351972475255 -188.91628921472875 0 0 0 0 -33.74315943687543 -6.9047062027602806 0 -6.9047062027602806 42.025573941558832 0 0 0 0 -47.819856595349847 147.4486250813934 0 147.4486250813934 -52.752005057758652 0 0 0 0 -217.05800177813944 297.85515173642489 0 297.85515173642489 -153.39351387008719 0 0 0 0 23.946264872787651 38.402999757141515 0 38.402999757141515 -256.07990425544267 0 0 0 0 -90.843603005416298 307.45047152654297 0 307.45047152654297 -886.67862576167681 0 0 0 0 -354.22934905690272 173.48390336890589 0 173.48390336890589 115.08560308782035 0 0 0 0 -783.08221940141084 436.82518940742011 0 436.82518940742011 86.827346304514322 0 0 0 0 -331.61158780490587 174.35808874263603 0 174.35808874263603 77.62386775118739 0 0 0 0 -380.31540726823732 -158.81471553443407 0 -158.81471553443407 290.43678793084837 0 0 0 0 -672.32517679901412 30.628345186036313 0 30.628345186036313 432.04582541716809 0 0 0 0 -1.45017256783321 0.40193859383818875 0 0.40193859383818875 1.7721574271552853 0 0 0 0 31.55326315113598 -441.63758195704577 0 -441.63758195704577 -67.028581879465492 0 0 0 0 -88.558768467344635 -430.1905896135795 0 -430.1905896135795 489.13455652880657 0 0 0 0 -80.800302277077208 252.32815170086542 0 252.32815170086542 -124.66767859062293 0 0 0 0 -6.7177659350534213 4.279875260427616 0 4.279875260427616 13.565155374039023 0 0 0 0 -4.7784836815234257 6.3719965821362621 0 6.3719965821362621 14.08436004581381 0 0 0 0 -3.3263315550033443 4.674963754592234 0 4.674963754592234 7.8301657492721972 0 0 0 0 -6.0373934920064105 -3.3189143281597993 0 -3.3189143281597993 3.319171333732406 0 0 0 0 -64.6480682360434 408.52332750880305 0 408.52332750880305 442.49882562500443 0 0 0 0 -54.654967303073136 87.507647833190276 0 87.507647833190276 175.72609381334223 0 0 0 0 -14.235224660413223 15.556403721526294 0 15.556403721526294 104.90836998285158 0 0 0 0 -100.84571468137983 70.416323474852106 0 70.416323474852106 91.273379101930914 0 0 0 0 10.355130087713405 67.36142572441895 0 67.36142572441895 59.923692569194827 0 0 0 0 -76.407490821049578 44.290962108992971 0 44.290962108992971 67.813807012131292 0 0 0 0 -32.045466406132618 65.790797960866257 0 65.790797960866257 -13.249147002286918 0 0 0 0 -144.45111889409327 91.596198637082125 0 91.596198637082125 67.751328713362454 0 0 0 0 -104.97798068297016 57.803183217209153 0 57.803183217209153 89.178426649450557 0 0 0 0 -246.46152892105965 40.782156080549612 0 40.782156080549612 115.14019452291541 0 0 0 0 -28.133508038598848 -49.184150467865038 0 -49.184150467865038 99.895951317244908 0 0 0 0 -183.72913045325913 109.68152061318688 0 109.68152061318688 92.155727203338756 0 0 0 0 -207.03413943040141 146.43829216424274 0 146.43829216424274 70.120088360228692 0 0 0 0 -65.173925981422144 136.74156548627434 0 136.74156548627434 14.57499561473378 0 0 0 0 -110.25762260549755 97.476141172467578 0 97.476141172467578 91.217052623891504 0 0 0 0 -120.07836057565146 120.03081410576488 0 120.03081410576488 77.973862466275023 0 0 0 0 -94.799003406370048 132.35547468672576 0 132.35547468672576 55.082146427106636 0 0 0 0 -54.665415028699499 56.657722798710893 0 56.657722798710893 -92.271684941992135 0 0 0 0 -88.17634111729194 129.79661356757424 0 129.79661356757424 -15.607481238461332 0 0 0 0 -91.315940637212407 69.891496083113452 0 69.891496083113452 38.256890808781463 0 0 0 0 -52.514097610258432 72.925193401455545 0 72.925193401455545 -8.4878346699133544 0 0 0 0 29.353493778641528 16.385300384416396 0 16.385300384416396 7.5731300828095982 0 0 0 0 8.3443909216885004 77.864696571943568 0 77.864696571943568 -95.23688950379983 0 0 0 0 94.960086148666051 24.741148744045859 0 24.741148744045859 107.25157959116041 0 0 0 0 27.32815375150949 109.26218433975919 0 109.26218433975919 94.460693068012915 0 0 0 0 42.381345852278173 -5.8425854693796282 0 -5.8425854693796282 188.20036236666783 0 0 0 0 -13.523355789160632 58.185994939409284 0 58.185994939409284 159.80179571326016 0 0 0 0 17.746484249581044 66.226146400003927 0 66.226146400003927 16.235448979532521 0 0 0 0 -123.08531878374561 175.23222480632467 0 175.23222480632467 -31.059018208981797 0 0 0 0 -21.350169078961244 53.578655935568349 0 53.578655935568349 31.914189579161757 0 0 0 0 223.45897843062676 170.53275329719327 0 170.53275329719327 -7.1313254413016693 0 0 0 0 40.146369546461756 28.385979146555655 0 28.385979146555655 -115.53606609944836 0 0 0 0 399.20673804962553 355.73089779057773 0 355.73089779057773 -341.21482026091508 0 0 0 0 -50.074448715742619 139.31092956525208 0 139.31092956525208 529.94214870817086 0 0 0 0 -163.64631931320218 -92.369559349992414 0 -92.369559349992414 1315.6860043418192 0 0 0 0 -2.6090762891519708 0.50654511103440569 0 0.50654511103440569 0.092977343678146696 0 0 0 0 956.21027128538481 293.25598919699223 0 293.25598919699223 112.58807428845466 0 0 0 0 6.4928007803719137 4.3902200148136217 0 4.3902200148136217 2.9301935111878521 0 0 0 0 -244.42109880961357 -142.91180827581957 0 -142.91180827581957 562.69760969649724 0 0 0 0 635.64521950395738 547.15671281768118 0 547.15671281768118 -244.68738717747146 0 0 0 0 -238.58733110400181 94.771009940750446 0 94.771009940750446 559.95675480853424 0 0 0 0 18.884563000359108 12.706585859907193 0 12.706585859907193 6.9845511281359265 0 0 0 0 -35.161936003757091 204.32984916680562 0 204.32984916680562 -228.4215128455071 0 0 0 0 -23.699371215408519 130.35736524006461 0 130.35736524006461 490.83399756090148 0 0 0 0 0.10131922696086804 165.76611591950677 0 165.76611591950677 511.63456995512115 0 0 0 0 -8.2626096478452382 11.478974623420072 0 11.478974623420072 404.97428193485757 0 0 0 0 -213.55909979335092 -221.50106023147418 0 -221.50106023147418 437.47636095942653 0 0 0 0 126.20030376039995 -31.843886124104756 0 -31.843886124104756 215.4282303865366 0 0 0 0 188.05591748532461 141.17978953986631 0 141.17978953986631 361.79713732742675 0 0 0 0 35.923914459128582 153.9981198297628 0 153.9981198297628 672.47258812897417 0 0 0 0 11.872517765695452 2.866540812936023 0 2.866540812936023 -1.7711844424612764 0 0 0 0 -38.231804668446102 165.38520998685999 0 165.38520998685999 558.61432462319135 0 0 0 0 -9.8386971984059173 4.3563864171175695 0 4.3563864171175695 1.3134491099986292 0 0 0 0 17.581707529635423 37.884399563750776 0 37.884399563750776 32.142643991094701 0 0 0 0 -3.2835647412798608 26.777367926591978 0 26.777367926591978 9.0927392383382539 0 0 0 0 -0.67391641839844851 35.132729436181762 0 35.132729436181762 34.90365327895779 0 0 0 0 19.538080343085312 35.725889265740989 0 35.725889265740989 -1.9836833529479918 0 0 0 0 34.857764602986208 17.544763504145521 0 17.544763504145521 -17.797386067513798 0 0 0 0 -5.2198120732403126 15.008661448420391 0 15.008661448420391 2.1529725524548979 0 0 0 0 21.264013123537552 37.792114182223258 0 37.792114182223258 0.16534941161808092 0 0 0 0 11.686351146149264 4.6539811067605115 0 4.6539811067605115 -14.205767894960445 0 0 0 0 107.38686645998678 175.90046154310585 0 175.90046154310585 186.84447911662028 0 0 0 0 46.256096901519868 54.235820317568141 0 54.235820317568141 83.955383279402668 0 0 0 0 33.501260652946939 22.526550016925285 0 22.526550016925285 36.066166698583402 0 0 0 0 93.420257334632424 59.499419457039039 0 59.499419457039039 -30.842348485653929 0 0 0 0 21.07030267673963 44.375019279767002 0 44.375019279767002 43.747183512320589 0 0 0 0 94.903557529604768 92.973296312260572 0 92.973296312260572 58.43911278914311 0 0 0 0 101.95742432760699 69.27623559800486 0 69.27623559800486 25.195535737449973 0 0 0 0 159.88865777875617 115.23758371778968 0 115.23758371778968 111.55696126259909 0 0 0 0 221.81763865782796 184.13354508194243 0 184.13354508194243 87.704513536092236 0 0 0 0 8.9229022656097143 -8.4736294794330362 0 -8.4736294794330362 8.3393469554514468 0 0 0 0 101.00002310844286 -55.710935695919616 0 -55.710935695919616 -61.8477308682086 0 0 0 0 156.12583739480556 157.80641724617635 0 157.80641724617635 160.13116197020645 0 0 0 0 153.82431194447622 155.69475953331312 0 155.69475953331312 160.66134446171054 0 0 0 0 155.95245641048473 156.90203718633165 0 156.90203718633165 158.02089316031197 0 0 0 0 144.87959064074289 119.95868367318144 0 119.95868367318144 136.40895180884763 0 0 0 0 154.32417939162065 156.38671749828791 0 156.38671749828791 161.56907588664035 0 0 0 0 332.75326472611187 90.526448328921106 0 90.526448328921106 -111.88579448222117 0 0 0 0 -125.86255074024575 -41.87285154530764 0 -41.87285154530764 168.98741787444305 0 0 0 0 -61.245327188878491 107.97648433538234 0 107.97648433538234 515.16977374360795 0 0 0 0 -221.06384120189978 133.44275145036227 0 133.44275145036227 983.98288734640664 0 0 0 0 -35.36249896791 -30.84978302507136 0 -30.84978302507136 71.46112304442795 0 0 0 0 6.2006327522769791 -6.5930951817374286 0 -6.5930951817374286 7.6685877527880066 0 0 0 0 132.3511598706491 175.46076513059415 0 175.46076513059415 329.21406413570912 0 0 0 0 79.181836300242253 233.54649242386949 0 233.54649242386949 270.78642818923981 0 0 0 0 111.13591151383662 318.58767507912489 0 318.58767507912489 157.92622299963477 0 0 0 0 294.91400286349653 656.94505461443987 0 656.94505461443987 776.59744649568165 0 0 0 0 139.84256519466766 274.10571734825157 0 274.10571734825157 118.19744551433178 0 0 0 0 368.77317324401531 -123.09259169332131 0 -123.09259169332131 204.49576126762622 0 0 0 0 437.6136840505103 94.265783698568157 0 94.265783698568157 102.69801271182223 0 0 0 0 69.526853967945385 91.735547579030026 0 91.735547579030026 426.20748790594553 0 0 0 0 2.0162607428095054 -2.3010512910706105 0 -2.3010512910706105 3.7691455970798984 0 0 0 0 175.18792982736068 124.41230690502198 0 124.41230690502198 132.71287130401834 0 0 0 0 202.047714159436 103.67032055700668 0 103.67032055700668 148.36522864940343 0 0 0 0 144.73782394135412 117.121286959602 0 117.121286959602 165.45348266891597 0 0 0 0 165.96345812874415 98.745700426212352 0 98.745700426212352 180.19624497263067 0 0 0 0 130.89809474133563 167.15517342659587 0 167.15517342659587 216.47762193460585 0 0 0 0 101.43174826905647 119.71453418695091 0 119.71453418695091 181.38511084653533 0 0 0 0 66.635641639825053 116.57818308263086 0 116.57818308263086 215.24949088285575 0 0 0 0 76.195575623381956 95.688122030791419 0 95.688122030791419 153.43944774912597 0 0 0 0 36.70730773404955 74.114476539481984 0 74.114476539481984 256.69622717738821 0 0 0 0 52.154611430616114 84.997650529856401 0 84.997650529856401 194.09960608692199 0 0 0 0 -8.9605146635778965 6.9426471251372277 0 6.9426471251372277 157.89856675051487 0 0 0 0 -45.859370503225648 12.140569845790424 0 12.140569845790424 280.85569320087961 0 0 0 0 -51.434514629890828 8.4302876298206684 0 8.4302876298206684 278.42235448279098 0 0 0 0 -41.877799337977649 58.569878367752608 0 58.569878367752608 402.4717911195512 0 0 0 0 -27.435514070716863 45.245131265437522 0 45.245131265437522 325.22695916369412 0 0 0 0 88.936100973866814 175.8486826036733 0 175.8486826036733 300.4578224965062 0 0 0 0 67.886121662232199 126.40504352472499 0 126.40504352472499 241.63476639328292 0 0 0 0 158.31728974153225 188.62977558534294 0 188.62977558534294 217.14399913348461 0 0 0 0 222.8794024620081 247.23904410373325 0 247.23904410373325 208.91985349946822 0 0 0 0 239.5918727656514 135.81742615780763 0 135.81742615780763 243.72687621725345 0 0 0 0 126.65633527893669 205.25130698135035 0 205.25130698135035 409.04307756186245 0 0 0 0 127.85462106384182 360.1679146849674 0 360.1679146849674 944.39335109492094 0 0 0 0 90.099710331434153 195.21114638449217 0 195.21114638449217 406.28902716439188 0 0 0 0 55.59098545431948 -139.53733844659837 0 -139.53733844659837 417.79011874513162 0 0 0 0 -5.5877085711903192 107.801395545584 0 107.801395545584 643.43335265905262 0 0 0 0 34.953920093216823 -142.05676170142806 0 -142.05676170142806 1059.6209634369879 0 0 0 0 1.7129350804509658 3.4189726209301803 0 3.4189726209301803 3.2957238351750675 0 0 0 0 58.437707542124372 -82.342360389355235 0 -82.342360389355235 -209.59584035635635 0 0 0 0 237.7540411979403 606.82530585238237 0 606.82530585238237 -636.47683611147113 0 0 0 0 0.17907715217616271 6.6297260189462506 0 6.6297260189462506 7.8447920580458685 0 0 0 0 2.0732828924187743 -50.880122896687681 0 -50.880122896687681 248.71356366678947 0 0 0 0 43.68737904447903 -37.737010226552229 0 -37.737010226552229 250.0470030055003 0 0 0 0 -4.2373914717798016 -69.301905528873249 0 -69.301905528873249 312.40598635068454 0 0 0 0 -41.983022720913141 -21.765005676385044 0 -21.765005676385044 260.96846231081508 0 0 0 0 -84.533261309957652 -27.988724002734671 0 -27.988724002734671 295.03148560144473 0 0 0 0 -54.346305837948762 -56.239751146774324 0 -56.239751146774324 215.89566253482189 0 0 0 0 -24.844924759131573 -93.975024798153754 0 -93.975024798153754 64.144108690976282 0 0 0 0 -28.33484653071946 -94.496818542087567 0 -94.496818542087567 191.55239700012316 0 0 0 0 -71.252127690037923 -33.466014362231363 0 -33.466014362231363 203.70450133201666 0 0 0 0 -61.490225735107288 21.805803366325563 0 21.805803366325563 103.97238868915701 0 0 0 0 -86.489889040444041 -16.880482123999172 0 -16.880482123999172 214.34681339348754 0 0 0 0 -63.029573082493243 -52.384054957336048 0 -52.384054957336048 127.33076655568038 0 0 0 0 -79.60578313118117 6.7413801236998552 0 6.7413801236998552 185.22373738282477 0 0 0 0 -87.814070137509134 21.334076344348432 0 21.334076344348432 168.38794976970894 0 0 0 0 -77.539991594649564 -28.324085864864173 0 -28.324085864864173 192.81016940324844 0 0 0 0 -84.922482557817489 -38.962351252705048 0 -38.962351252705048 251.12973748780496 0 0 0 0 -93.631273696106746 -18.124117676055903 0 -18.124117676055903 242.92669757351541 0 0 0 0 -95.659844479253479 -28.566172174891108 0 -28.566172174891108 283.36662826872634 0 0 0 0 -79.443950256696553 -44.567787767631671 0 -44.567787767631671 230.60253885817474 0 0 0 0 -72.55955943173285 -23.373475195170613 0 -23.373475195170613 281.8533791176751 0 0 0 0 -88.451305069850378 -27.789025030851917 0 -27.789025030851917 297.1565829595711 0 0 0 0 -58.671186543868089 1.0932289215852506 0 1.0932289215852506 302.26427755504847 0 0 0 0 -80.75649815258862 -17.1482213251129 0 -17.1482213251129 323.41893716008053 0 0 0 0 -25.590095991482428 31.303643753123652 0 31.303643753123652 361.463481876679 0 0 0 0 -49.556603861089116 4.5987030326286913 0 4.5987030326286913 392.98754576944702 0 0 0 0 -51.96758205590595 -20.124146644120628 0 -20.124146644120628 289.93616810504136 0 0 0 0 -31.913990838949303 26.153921722486302 0 26.153921722486302 79.733734686496973 0 0 0 0 8.3031566302370265 40.308344132424736 0 40.308344132424736 65.996026101033749 0 0 0 0 -7.3685962775624798 17.488883927277957 0 17.488883927277957 50.807264106500121 0 0 0 0 21.73990720175334 34.651407513332742 0 34.651407513332742 3.0379445517955901 0 0 0 0 -3.6512707841623415 19.676998290047404 0 19.676998290047404 7.1335347374470359 0 0 0 0 10.744606763166303 39.114733080385122 0 39.114733080385122 4.5552935445521143 0 0 0 0 2.3927707088608123 6.9032933273227073 0 6.9032933273227073 7.6241087517804402 0 0 0 0 22.530936488670704 30.562570509124271 0 30.562570509124271 9.3816307322840657 0 0 0 0 -2.4887110031859265 19.527152589984325 0 19.527152589984325 0.052616812888345521 0 0 0 0 68.598754007913158 111.86222893783633 0 111.86222893783633 91.463675731860349 0 0 0 0 -21.398747018188487 48.729503214492979 0 48.729503214492979 136.21431367452533 0 0 0 0 36.971074247849174 22.986145598066287 0 22.986145598066287 27.638427772603791 0 0 0 0 7.5808026806352631 -7.2573323530261149 0 -7.2573323530261149 6.2175115313354326 0 0 0 0 118.47447502286165 140.75965524022098 0 140.75965524022098 304.22704279808386 0 0 0 0 129.60634500310732 291.15413772652209 0 291.15413772652209 318.88678530832658 0 0 0 0 147.21193280627631 81.455566177186483 0 81.455566177186483 99.27063666142385 0 0 0 0 50.667183731453406 4.9624307267995391 0 4.9624307267995391 -84.451689745208569 0 0 0 0 -0.51493774937456038 -1.1198532965955295 0 -1.1198532965955295 0.25905405565071149 0 0 0 0 175.90692278822053 23.948539959688787 0 23.948539959688787 150.4366131954921 0 0 0 0 140.29089145017315 110.83289287618391 0 110.83289287618391 14.453797053836752 0 0 0 0 140.37215794094823 213.90051303455584 0 213.90051303455584 183.81893749535084 0 0 0 0 9.1052505488559348 -8.2458010817202165 0 -8.2458010817202165 8.2186343072821444 0 0 0 0 498.88858837949442 391.86904802449862 0 391.86904802449862 317.94748705775783 0 0 0 0 196.82224595836692 238.06450168623815 0 238.06450168623815 407.74937593380673 0 0 0 0 393.03385073826394 163.80660254966642 0 163.80660254966642 58.174022381575924 0 0 0 0 307.95415991883806 108.50709657675179 0 108.50709657675179 505.89852623060506 0 0 0 0 136.06755650219645 402.67734768694572 0 402.67734768694572 576.5902900432302 0 0 0 0 247.23300071985841 422.26310721517621 0 422.26310721517621 119.37855846014281 0 0 0 0 225.90708576851921 58.295302102593269 0 58.295302102593269 216.40300611374278 0 0 0 0 93.499124363298279 530.46502895009326 0 530.46502895009326 323.76363111101091 0 0 0 0 250.91293355822131 390.047201589834 0 390.047201589834 457.67760371569966 0 0 0 0 269.05120048337574 344.27397935371482 0 344.27397935371482 365.2493067950345 0 0 0 0 278.23488166467735 326.98769394494957 0 326.98769394494957 238.60199303727131 0 0 0 0 164.49750274830694 377.60055096334145 0 377.60055096334145 360.09112230503706 0 0 0 0 68.767337265038364 -2.5490808977470536 0 -2.5490808977470536 51.800862035830505 0 0 0 0 264.16792596360943 392.08240655806912 0 392.08240655806912 364.00652366274699 0 0 0 0 261.33481871500669 307.65341113101567 0 307.65341113101567 467.03571377673325 0 0 0 0 -25.624607820349866 10.800581432793933 0 10.800581432793933 70.192691648270738 0 0 0 0 312.87604766147757 226.65542951432963 0 226.65542951432963 330.80486825378466 0 0 0 0 520.83965355833516 460.51171405891364 0 460.51171405891364 256.89357465756621 0 0 0 0 7.9289688494671449 -1.3145327582402224 0 -1.3145327582402224 7.9898879256391595 0 0 0 0 -9.2783057690768906 10.724302291707371 0 10.724302291707371 50.170794925331975 0 0 0 0 0.79184825446569285 -4.5416728838937193 0 -4.5416728838937193 -1.7117897691077104 0 0 0 0 -421.12495914229407 -96.983116251183674 0 -96.983116251183674 -25.292366829118691 0 0 0 0 148.79244796162311 330.00574503625103 0 330.00574503625103 211.19100309455825 0 0 0 0 20.026869938805703 58.209411723406447 0 58.209411723406447 67.303810713372513 0 0 0 0 463.72877037740818 669.38255183642286 0 669.38255183642286 559.1375696175528 0 0 0 0 471.60660412398306 632.0929533534395 0 632.0929533534395 648.3477746745084 0 0 0 0 474.71717544102648 536.90367166365832 0 536.90367166365832 600.53589383999315 0 0 0 0 509.81385980324831 565.53552658195258 0 565.53552658195258 143.58504172804714 0 0 0 0 444.08161723694047 329.73785661656439 0 329.73785661656439 86.43007991968625 0 0 0 0 459.08135026785084 529.83048049768968 0 529.83048049768968 749.1250633975942 0 0 0 0 396.15509864912917 521.9984416109437 0 521.9984416109437 749.81672049190092 0 0 0 0 400.85705216665724 295.3674816673647 0 295.3674816673647 391.71660439073094 0 0 0 0 179.39311486656823 241.98262078691369 0 241.98262078691369 815.84029130153067 0 0 0 0 367.28221921076897 478.4642922450671 0 478.4642922450671 630.70334548652318 0 0 0 0 -1.2611959835180946 2.3509455045190819 0 2.3509455045190819 -0.21850364127375954 0 0 0 0 213.13072558721305 241.86387940785335 0 241.86387940785335 -578.65515442247261 0 0 0 0 173.55130125006701 601.80509454745243 0 601.80509454745243 1383.0963382135415 0 0 0 0 192.58037441468838 278.89975357336471 0 278.89975357336471 674.31508751311776 0 0 0 0 153.8369820283865 213.27220694534117 0 213.27220694534117 634.80225647999941 0 0 0 0 32.242706415242083 195.37334310953884 0 195.37334310953884 898.93404731863848 0 0 0 0 173.11108803163506 188.15667054098049 0 188.15667054098049 405.02359770517796 0 0 0 0 90.372576572855905 128.50888583277265 0 128.50888583277265 722.71011403047305 0 0 0 0 67.165227077716736 34.197353421375738 0 34.197353421375738 447.2276072741588 0 0 0 0 165.48406658682961 107.03405088156796 0 107.03405088156796 478.80426794768573 0 0 0 0 26.077225636170624 265.96241964391083 0 265.96241964391083 977.47532967809821 0 0 0 0 92.331814519051477 -7.675969488962437 0 -7.675969488962437 757.36315273131095 0 0 0 0 180.98888652703044 -8.7578753757552477 0 -8.7578753757552477 629.92696116019215 0 0 0 0 -0.65040984994220752 1.3372493475970924 0 1.3372493475970924 -0.61952676166404785 0 0 0 0 19.975137757487175 90.547640805256378 0 90.547640805256378 -70.169721376483039 0 0 0 0 -83.818625299570556 32.638222037236574 0 32.638222037236574 367.48104998056624 0 0 0 0 -4.8345691332432574 8.1769568513848441 0 8.1769568513848441 0.71057903873364481 0 0 0 0 -158.00706250412978 -83.507109808531823 0 -83.507109808531823 362.92445945140207 0 0 0 0 -303.54924162062019 -43.093572060446832 0 -43.093572060446832 1499.8852561914537 0 0 0 0 -274.51619900760431 237.19302912072362 0 237.19302912072362 518.38589441546537 0 0 0 0 -179.16453368619267 184.22515723850483 0 184.22515723850483 528.77243575285047 0 0 0 0 -244.44794316405941 563.27029029458527 0 563.27029029458527 1500.6210677999079 0 0 0 0 141.77969009382778 487.65166253348798 0 487.65166253348798 480.3612455050299 0 0 0 0 174.97687150080208 688.93851761082669 0 688.93851761082669 492.37781987051949 0 0 0 0 -196.48186968682103 223.02185354094036 0 223.02185354094036 115.72258492757464 0 0 0 0 -140.19331303601234 292.49428359184458 0 292.49428359184458 -61.618282466668461 0 0 0 0 -367.99873080258442 160.18160152712153 0 160.18160152712153 99.393196003664343 0 0 0 0 -168.2614735113948 52.880748781914008 0 52.880748781914008 143.3027355405975 0 0 0 0 -138.29591153375441 56.180328656664642 0 56.180328656664642 -54.681686246207391 0 0 0 0 -154.95124326007567 229.56922621846024 0 229.56922621846024 233.42802974788719 0 0 0 0 -275.70641344652608 -24.209360768161787 0 -24.209360768161787 210.66675574096917 0 0 0 0 -115.3205098929102 75.886499503915729 0 75.886499503915729 -281.68857848164771 0 0 0 0 -95.841043843522471 235.62867522102169 0 235.62867522102169 -331.36555142639554 0 0 0 0 -158.50751807606775 289.89322169269872 0 289.89322169269872 -35.04326659968865 0 0 0 0 -69.008061485521466 177.93598358263262 0 177.93598358263262 15.410380326746235 0 0 0 0 334.05658187895961 -873.72996615496959 0 -873.72996615496959 1888.6128155183906 0 0 0 0 -171.37245858143694 447.86846066161706 0 447.86846066161706 -197.23767203882016 0 0 0 0 282.32882555928791 -585.21606247105956 0 -585.21606247105956 2198.9371305885143 0 0 0 0 -0.8710718922228593 2.4797020682746691 0 2.4797020682746691 5.0893475965865633 0 0 0 0 -0.56938799057225786 2.3254949499476076 0 2.3254949499476076 5.8986384801070244 0 0 0 0 -11.069609717662843 84.758024582526559 0 84.758024582526559 -47.040690298243135 0 0 0 0 -115.33954706397435 135.4338550849061 0 135.4338550849061 136.18601191148264 0 0 0 0 -71.497973980365714 62.271515960869692 0 62.271515960869692 135.01333908691595 0 0 0 0 -90.69428510889361 91.517079248638765 0 91.517079248638765 153.83662117166386 0 0 0 0 -97.978531794985201 112.32901039848366 0 112.32901039848366 96.21311515448906 0 0 0 0 -57.672637536854381 10.295032905461994 0 10.295032905461994 120.18427060525573 0 0 0 0 -76.083777720082026 79.91385093349345 0 79.91385093349345 77.666135678897263 0 0 0 0 5.6475460887379541 -22.998175222150167 0 -22.998175222150167 -56.722086585781653 0 0 0 0 -321.39144809528671 127.53051168743332 0 127.53051168743332 -126.16681553311719 0 0 0 0 314.58182001023306 -924.73296629167453 0 -924.73296629167453 1574.1484445299502 0 0 0 0 -325.3303800635764 556.62216022618759 0 556.62216022618759 615.97036494356871 0 0 0 0 -227.98790249890942 447.84877545685231 0 447.84877545685231 93.633961637635366 0 0 0 0 -645.40213359460699 194.00044580149552 0 194.00044580149552 207.47060543746193 0 0 0 0 -217.43197108399272 472.04303085871652 0 472.04303085871652 437.00172196683707 0 0 0 0 -4.6250405513545925 -0.12861491943229453 0 -0.12861491943229453 0.3494777747715645 0 0 0 0 -416.33968893916085 -249.51151952151713 0 -249.51151952151713 -153.98168090147738 0 0 0 0 -177.71929682764949 210.18189589870235 0 210.18189589870235 894.23382673681317 0 0 0 0 -11.299937075286499 -0.070888070382352453 0 -0.070888070382352453 5.0552498455960766 0 0 0 0 -322.62096183982982 -104.19105880606867 0 -104.19105880606867 585.42518702754023 0 0 0 0 62.370964696639575 155.98961114971087 0 155.98961114971087 493.73933633606794 0 0 0 0 193.94063999254922 104.43184461188252 0 104.43184461188252 489.66099538228445 0 0 0 0 29.967286063108304 -46.958582920922709 0 -46.958582920922709 1119.6534536383115 0 0 0 0 -0.30661796608025771 7.4725873635362561 0 7.4725873635362561 18.517319637386187 0 0 0 0 -52.693592943120393 -34.308298314670537 0 -34.308298314670537 -13.830847604068367 0 0 0 0 -156.52783585623138 -21.711698175411584 0 -21.711698175411584 43.115708703106066 0 0 0 0 -82.579911199212773 -94.899490928402884 0 -94.899490928402884 -91.788356915971235 0 0 0 0 -52.455109647935501 -36.23659545917144 0 -36.23659545917144 1.3187975490545796 0 0 0 0 82.681274830535259 -15.911428169589271 0 -15.911428169589271 2.268353103018967 0 0 0 0 -54.627804083074693 -116.2929613680335 0 -116.2929613680335 70.831133711111761 0 0 0 0 1.639309780257606 2.2251153911990276 0 2.2251153911990276 8.0850061880437494 0 0 0 0 71.251789228254665 -622.00428474136788 0 -622.00428474136788 1496.7808403840681 0 0 0 0 -281.10686081740266 520.8349512124405 0 520.8349512124405 1496.8698333660413 0 0 0 0 367.98404025233697 314.77855000081126 0 314.77855000081126 102.84182623839109 0 0 0 0 161.99473936170753 630.56867009571397 0 630.56867009571397 983.46446902378375 0 0 0 0 -329.92971564735075 303.24643238249155 0 303.24643238249155 1161.1926537655127 0 0 0 0 -356.55867514689851 190.15027770776896 0 190.15027770776896 718.26170769399687 0 0 0 0 67.721479440336509 366.01679743862042 0 366.01679743862042 308.34556785264067 0 0 0 0 -148.07301397160236 119.39922926215786 0 119.39922926215786 249.43659737158305 0 0 0 0 -79.721828540219803 186.54650717386994 0 186.54650717386994 242.52824210771723 0 0 0 0 -298.4295057953513 135.79057710233792 0 135.79057710233792 708.93570156937858 0 0 0 0 -215.03204365476358 121.9459196584794 0 121.9459196584794 330.50595900525514 0 0 0 0 -239.96039089507053 -36.783813438740253 0 -36.783813438740253 334.99115334180988 0 0 0 0 -489.23418463972962 9.4172604880386643 0 9.4172604880386643 1500.5546771323443 0 0 0 0 -425.39816134879936 -112.31052240843655 0 -112.31052240843655 804.49353790417445 0 0 0 0 712.25446368860901 -666.60634257915262 0 -666.60634257915262 301.64755977821915 0 0 0 0 -315.02167000962254 -492.86225580012979 0 -492.86225580012979 1497.3265032126408 0 0 0 0 -2.7512165905441179 29.868529731988019 0 29.868529731988019 51.9591075909143 0 0 0 0 13.951948278324011 -95.903536306947899 0 -95.903536306947899 374.6065581049188 0 0 0 0 -5.0215168091749209 2.555285421158036 0 2.555285421158036 10.212824141751064 0 0 0 0 -149.3595578066994 182.72994081623074 0 182.72994081623074 136.3038422056901 0 0 0 0 -223.47322929438405 -194.91129686697604 0 -194.91129686697604 719.82164496940823 0 0 0 0 82.740603085045478 -217.28892321266176 0 -217.28892321266176 108.74556653197214 0 0 0 0 12.703131496483593 -16.323626425833936 0 -16.323626425833936 197.56417088644957 0 0 0 0 296.81205899472297 -390.60797250846554 0 -390.60797250846554 221.55705937989478 0 0 0 0 -2.2180075921680973 4.9328031443947964 0 4.9328031443947964 10.043070690246843 0 0 0 0 -155.58256936564521 45.722078471280838 0 45.722078471280838 505.67456519469852 0 0 0 0 6.6746180549902476 -57.245802684415821 0 -57.245802684415821 64.238314871141483 0 0 0 0 -12.120772530682871 44.128692336826134 0 44.128692336826134 243.42262511008721 0 0 0 0 -84.940219259221521 19.343072289610063 0 19.343072289610063 323.57478469773923 0 0 0 0 -80.4803936617472 18.185451971836301 0 18.185451971836301 265.93105643160015 0 0 0 0 -76.126603010050985 45.437671782969119 0 45.437671782969119 289.9466887306553 0 0 0 0 -87.383963290311755 38.140581807984745 0 38.140581807984745 286.73830396641279 0 0 0 0 -87.639219068677448 37.638456120530464 0 37.638456120530464 317.18474992390838 0 0 0 0 -78.425680052593634 23.423724502164987 0 23.423724502164987 298.76173908109195 0 0 0 0 -76.354952895809902 22.193779495325543 0 22.193779495325543 254.44113761674089 0 0 0 0 -74.887875641607025 64.364375250013836 0 64.364375250013836 257.67692861963951 0 0 0 0 -80.409530714494849 24.34009185006289 0 24.34009185006289 261.57894564785192 0 0 0 0 -80.346030371340021 26.59423590242659 0 26.59423590242659 212.52127188527811 0 0 0 0 -103.08617047093549 67.067119038874807 0 67.067119038874807 175.30452854114355 0 0 0 0 -99.249645219788817 41.778501621903615 0 41.778501621903615 237.41848431561084 0 0 0 0 -78.645830387803471 53.304549721200601 0 53.304549721200601 226.47791804438748 0 0 0 0 -165.30172814477282 204.26198702671536 0 204.26198702671536 192.75555259657267 0 0 0 0 -135.71884465125788 91.332192616662724 0 91.332192616662724 284.79470240836963 0 0 0 0 -179.69981658126397 162.52215044902641 0 162.52215044902641 288.41117240652966 0 0 0 0 -86.622546649061405 57.236519102712919 0 57.236519102712919 314.43146218261973 0 0 0 0 88.040971107429414 177.9462369805351 0 177.9462369805351 282.62634744347997 0 0 0 0 -52.134599681855292 122.28800668611939 0 122.28800668611939 586.22479125524114 0 0 0 0 -56.450150013211442 86.020920725004544 0 86.020920725004544 361.83858912170399 0 0 0 0 -71.726756280584596 60.922367778861371 0 60.922367778861371 337.59150538815129 0 0 0 0 -61.680108247822545 51.012125658538935 0 51.012125658538935 307.69013503192764 0 0 0 0 -13.765251238776955 10.830026221796288 0 10.830026221796288 65.430061433540686 0 0 0 0 15.293897049280304 109.82904723132742 0 109.82904723132742 237.36928340029226 0 0 0 0 9.8426613376397256 65.488760596570728 0 65.488760596570728 220.51188730022841 0 0 0 0 -2.8885924920215662 -1.6995084552447572 0 -1.6995084552447572 8.5882723676827197 0 0 0 0 -172.06259899407513 316.35982761282946 0 316.35982761282946 497.0171826920996 0 0 0 0 -5.3562496211488435 1.7944852831311948 0 1.7944852831311948 8.6904914841966132 0 0 0 0 -120.73314619369233 -180.7186987542409 0 -180.7186987542409 126.96969080081908 0 0 0 0 -11.002302636111381 -8.3028207776678755 0 -8.3028207776678755 71.94866936651033 0 0 0 0 -1.2605818152685211 2.3945113234913151 0 2.3945113234913151 1495.3977605585933 0 0 0 0 530.94846067168044 247.75094654065106 0 247.75094654065106 -112.95011351621179 0 0 0 0 2.1842003007236253 2.4326188071875023 0 2.4326188071875023 3.8959676870758102 0 0 0 0 0.73973930500834706 -0.45143935546423108 0 -0.45143935546423108 4.6568237639701309 0 0 0 0 464.90171542439197 805.18396983449747 0 805.18396983449747 466.86791846351116 0 0 0 0 -277.18687241590754 678.73683862309917 0 678.73683862309917 1497.8497367689579 0 0 0 0 -356.55349892696302 270.05781500160992 0 270.05781500160992 808.58064965069207 0 0 0 0 -352.96020196976286 315.03865585766539 0 315.03865585766539 914.0017789180929 0 0 0 0 11.089844912153353 308.01605135901355 0 308.01605135901355 196.26378315404145 0 0 0 0 -179.63702073686682 -152.17166537729281 0 -152.17166537729281 1356.2446969343873 0 0 0 0 -345.72921029124888 60.505680492246029 0 60.505680492246029 1499.8028159024673 0 0 0 0 -101.7276448636818 -126.88565584125536 0 -126.88565584125536 1005.1977136153528 0 0 0 0 -256.04421433699264 23.990667521891737 0 23.990667521891737 950.61567536076836 0 0 0 0 111.4679442537944 -305.94002643378553 0 -305.94002643378553 697.6429250431429 0 0 0 0 103.92124916798348 -258.33052022512766 0 -258.33052022512766 623.95609689666162 0 0 0 0 24.909570256934725 -251.45865197444959 0 -251.45865197444959 767.16238135703315 0 0 0 0 25.933965733983932 -241.35893118672902 0 -241.35893118672902 802.72922800772358 0 0 0 0 97.386548993772124 -270.76238421562812 0 -270.76238421562812 633.19847848144855 0 0 0 0 48.152336494300812 -163.2766483844498 0 -163.2766483844498 701.19310878717988 0 0 0 0 -78.178766248602756 -63.325785008208186 0 -63.325785008208186 794.43299883399959 0 0 0 0 41.564144924098088 -127.69772278666733 0 -127.69772278666733 532.74069026743382 0 0 0 0 52.443204624865047 -280.27391568351914 0 -280.27391568351914 541.09573709217511 0 0 0 0 83.799044057228343 -326.66580523964149 0 -326.66580523964149 486.43434599162902 0 0 0 0 78.100172001754117 -266.06124957951397 0 -266.06124957951397 507.24994179685018 0 0 0 0 74.493584110794927 -293.99223219946725 0 -293.99223219946725 586.87207066614792 0 0 0 0 79.136184829609334 -252.8594424434159 0 -252.8594424434159 615.66670357693511 0 0 0 0 78.281777110170992 -331.18697191625597 0 -331.18697191625597 626.72032444788783 0 0 0 0 52.632504918445306 -334.29230710541015 0 -334.29230710541015 633.12577617498027 0 0 0 0 94.126476412950353 -251.4236558694538 0 -251.4236558694538 663.13680453086272 0 0 0 0 -38.569299376454808 -305.74509832985495 0 -305.74509832985495 694.12069974913902 0 0 0 0 120.5236915188248 -261.98277249563944 0 -261.98277249563944 621.72169160446356 0 0 0 0 -128.09379244021505 -49.898841935917517 0 -49.898841935917517 -186.17582540607327 0 0 0 0 -475.16570790598178 -147.38765500936279 0 -147.38765500936279 248.38230494835193 0 0 0 0 -174.3545632845686 -41.072868330526035 0 -41.072868330526035 533.25118311050028 0 0 0 0 -77.963549113984698 -66.884913747511746 0 -66.884913747511746 519.50927189319009 0 0 0 0 58.813614435697872 -273.52865649509749 0 -273.52865649509749 224.18253746437404 0 0 0 0 -340.13554738397136 -429.05969656513662 0 -429.05969656513662 547.72771851939615 0 0 0 0 186.24609329747159 425.15634699925613 0 425.15634699925613 846.90519550914541 0 0 0 0 -436.63873032553909 -711.30559923650981 0 -711.30559923650981 128.74511710985917 0 0 0 0 -0.83035614611580755 -1.0739557315982502 0 -1.0739557315982502 4.1234722211406307 0 0 0 0 -62.283737429188704 -82.986873375410141 0 -82.986873375410141 955.47955470756642 0 0 0 0 143.92704801971308 -260.05359695886 0 -260.05359695886 579.20421411179996 0 0 0 0 197.11804750693202 -102.72702023452985 0 -102.72702023452985 474.02815790678505 0 0 0 0 39.347311614175283 -231.16686487693369 0 -231.16686487693369 650.87812835295699 0 0 0 0 -2.7500814179163022 0.43867134590657031 0 0.43867134590657031 2.9330024663050338 0 0 0 0 109.62138685188978 -101.62761129513956 0 -101.62761129513956 476.4173124860572 0 0 0 0 14.661934823804813 -168.73242649366512 0 -168.73242649366512 257.24690084366966 0 0 0 0 -114.57802884148168 -90.277903744943615 0 -90.277903744943615 273.74506185563587 0 0 0 0 137.68263812244822 -168.66546781201032 0 -168.66546781201032 141.03121247943272 0 0 0 0 73.273318030806763 -183.67436983992593 0 -183.67436983992593 319.98108696382405 0 0 0 0 25.359706898601189 -267.84001714601618 0 -267.84001714601618 380.49363682250259 0 0 0 0 29.452729237296239 -116.4942926458898 0 -116.4942926458898 544.99675403269794 0 0 0 0 -24.869031264346177 -83.242083146629739 0 -83.242083146629739 149.32000188840175 0 0 0 0 184.99721942581414 -283.38405488386252 0 -283.38405488386252 161.77676009634524 0 0 0 0 -29.42961636816608 -101.55266588733866 0 -101.55266588733866 96.648064307111781 0 0 0 0 -20.944065099814679 -50.181113484461093 0 -50.181113484461093 90.809353497646043 0 0 0 0 -1.7302824220989492 0.069446232867662161 0 0.069446232867662161 1.9752644922614522 0 0 0 0 -21.722100637266067 -48.263083734622342 0 -48.263083734622342 164.78485670636655 0 0 0 0 56.074865704907893 -445.22513312847514 0 -445.22513312847514 640.55690236831674 0 0 0 0 88.231750334807373 -458.15017335859739 0 -458.15017335859739 528.80130439703316 0 0 0 0 -2.1649974574463045 -13.022329938958137 0 -13.022329938958137 152.26243446193985 0 0 0 0 95.251473295393112 -64.570765490460872 0 -64.570765490460872 143.84298587912417 0 0 0 0 -21.132445411946264 -18.396445266535011 0 -18.396445266535011 145.6996273301329 0 0 0 0 -37.181657715042846 -30.243335342636783 0 -30.243335342636783 121.74793519735977 0 0 0 0 -24.080875912053344 -39.711037819351986 0 -39.711037819351986 122.71110311667144 0 0 0 0 -30.326296331562645 2.6588762960618624 0 2.6588762960618624 67.115447905523069 0 0 0 0 -27.44259000431714 5.6536371475249325 0 5.6536371475249325 68.394924299227569 0 0 0 0 -36.845525901438918 12.001020550687826 0 12.001020550687826 112.3611490959247 0 0 0 0 -7.4505422937118055 12.291200758860214 0 12.291200758860214 73.246888268655312 0 0 0 0 -12.276052376805524 -23.336327020593671 0 -23.336327020593671 119.20234462331427 0 0 0 0 -44.838305226809553 17.209249033479864 0 17.209249033479864 147.62803426531491 0 0 0 0 19.955753602527238 -31.499639143727109 0 -31.499639143727109 138.87469304482511 0 0 0 0 -49.803714698518888 27.864314185063449 0 27.864314185063449 81.600868961595552 0 0 0 0 -11.336695089720223 41.505312125264027 0 41.505312125264027 -18.460046064679773 0 0 0 0 -7.8911866691613506 -0.41870103983131912 0 -0.41870103983131912 0.52704717245289245 0 0 0 0 -0.50624384004376033 -0.096902601152514478 0 -0.096902601152514478 0.70666981973179332 0 0 0 0 14.851039270663023 -219.3511181150061 0 -219.3511181150061 375.48705779036391 0 0 0 0 -1.8235986468186778 0.49655194320177998 0 0.49655194320177998 2.3806803243603483 0 0 0 0 230.53571633070692 -157.12239978319303 0 -157.12239978319303 223.95224190613226 0 0 0 0 -71.227983901527637 -119.47704168042128 0 -119.47704168042128 260.76640693156151 0 0 0 0 20.308691042229157 -41.513686570209757 0 -41.513686570209757 95.615186395367346 0 0 0 0 -41.118902370626984 -43.764846492274955 0 -43.764846492274955 190.30389780115729 0 0 0 0 15.534033354224903 -98.051241778761323 0 -98.051241778761323 206.38836334253574 0 0 0 0 -27.166213619686914 81.113344598916228 0 81.113344598916228 -137.59367292034403 0 0 0 0 -198.823246702902 56.029787352008498 0 56.029787352008498 152.78828768208587 0 0 0 0 -173.54207870951313 -105.83924983719589 0 -105.83924983719589 166.84319183008301 0 0 0 0 12.917958793907928 -24.856106405544779 0 -24.856106405544779 192.38475353458125 0 0 0 0 36.793941923705461 -115.66439942652141 0 -115.66439942652141 177.66784856231243 0 0 0 0 -0.49206409472898294 -0.20687560994309706 0 -0.20687560994309706 0.95262331001736555 0 0 0 0 50.661907116610109 -64.344715530914982 0 -64.344715530914982 106.77485262511368 0 0 0 0 237.18923649430485 -226.40394973836919 0 -226.40394973836919 368.57629543159328 0 0 0 0 51.375349058231677 -169.11246760743234 0 -169.11246760743234 235.20571094097249 0 0 0 0 124.601112818822 -129.96912173481905 0 -129.96912173481905 108.99063474535808 0 0 0 0 103.30441696063872 -174.40758771431501 0 -174.40758771431501 155.96369877043617 0 0 0 0 65.911617925886276 -72.156927238858771 0 -72.156927238858771 158.72318599712162 0 0 0 0 5.7563871857569211 -121.26524586884261 0 -121.26524586884261 154.46516461676219 0 0 0 0 -37.979626878473027 -70.959544194276532 0 -70.959544194276532 217.42655826474947 0 0 0 0 3.2477724318098922 -114.56332148569709 0 -114.56332148569709 210.70501621290168 0 0 0 0 -0.71787025548519523 -22.261788249070378 0 -22.261788249070378 51.405982845300969 0 0 0 0 -73.293403054318333 -50.975756767034909 0 -50.975756767034909 227.14836355729494 0 0 0 0 -41.334398702427507 -65.306938199235447 0 -65.306938199235447 168.77156175978598 0 0 0 0 -32.43972691882027 -92.520682788301201 0 -92.520682788301201 206.38959410961434 0 0 0 0 -52.187783678986307 -57.094061760333716 0 -57.094061760333716 191.43097189888431 0 0 0 0 9.7379578966847475 -86.752046860994596 0 -86.752046860994596 80.416316134214867 0 0 0 0 -58.925473352611789 -36.995330858659145 0 -36.995330858659145 177.87563834815955 0 0 0 0 -75.788410840546021 -15.062200055377616 0 -15.062200055377616 164.55446392009935 0 0 0 0 -0.66178165808852096 0.13120272373392794 0 0.13120272373392794 1.0768761292829865 0 0 0 0 127.5688187019 -305.58184007297677 0 -305.58184007297677 318.52892288095609 0 0 0 0 -132.5992405867737 17.571187129116879 0 17.571187129116879 199.32274783017056 0 0 0 0 -63.735897941809071 53.222956451529171 0 53.222956451529171 84.992505790325595 0 0 0 0 60.458898589264663 -85.537025999798061 0 -85.537025999798061 211.72748557714749 0 0 0 0 -0.11951759143166552 0.27678592097203136 0 0.27678592097203136 1.0109055643376266 0 0 0 0 -90.373850109469004 35.902721771544748 0 35.902721771544748 431.63720928165276 0 0 0 0 -43.028136581694071 -67.717828963353895 0 -67.717828963353895 244.90406477366923 0 0 0 0 -50.535994122669308 -23.996241299621033 0 -23.996241299621033 220.13303097536118 0 0 0 0 -116.68640286117625 -20.874663212620362 0 -20.874663212620362 216.75907083793572 0 0 0 0 -74.197220645888592 -38.615736813932017 0 -38.615736813932017 201.96689141278694 0 0 0 0 -93.26454533994638 6.4078138385084458 0 6.4078138385084458 172.50648669368093 0 0 0 0 -50.453018088448971 -25.873576456691808 0 -25.873576456691808 201.45090137719671 0 0 0 0 -23.143446518622341 -38.191600471858692 0 -38.191600471858692 181.16879140149649 0 0 0 0 -39.274564408881361 -14.789903963050165 0 -14.789903963050165 199.24190924709183 0 0 0 0 -32.381765270627739 1.5712635821073491 0 1.5712635821073491 237.93870417810831 0 0 0 0 -52.246104740583178 -22.050410881249263 0 -22.050410881249263 231.74516026546371 0 0 0 0 -51.34584763596763 -24.698104005236019 0 -24.698104005236019 239.24435393193562 0 0 0 0 -65.628583496940792 -37.580291299513192 0 -37.580291299513192 263.43651558068814 0 0 0 0 -75.687907638796787 -43.85605339200265 0 -43.85605339200265 262.44456803722096 0 0 0 0 -41.7902354786915 -2.1736722548380385 0 -2.1736722548380385 268.23848776203522 0 0 0 0 -72.423612455169405 -25.403469311389927 0 -25.403469311389927 262.47568504377341 0 0 0 0 -79.034249756364716 -31.802666934359877 0 -31.802666934359877 209.03348612156697 0 0 0 0 -60.58735188034143 -47.835559891944285 0 -47.835559891944285 205.84262973656405 0 0 0 0 -53.910685480170287 -35.044414451993362 0 -35.044414451993362 219.75892158774877 0 0 0 0 -57.256908362918693 -38.058823323699471 0 -38.058823323699471 232.71402105122979 0 0 0 0 -66.990573649394946 -44.555019641647959 0 -44.555019641647959 231.53284067959612 0 0 0 0 -73.293740112699652 -56.022250611327763 0 -56.022250611327763 258.76571442674322 0 0 0 0 -62.628608272172187 -63.076031183005398 0 -63.076031183005398 217.35723368431536 0 0 0 0 -73.342889917331831 -51.349437930064596 0 -51.349437930064596 248.39071675245214 0 0 0 0 -76.208220299881532 -66.079653963415694 0 -66.079653963415694 257.84635037905537 0 0 0 0 -81.734460768906729 -58.649435776434984 0 -58.649435776434984 289.41069654263265 0 0 0 0 -77.4982498000536 -47.529858380077712 0 -47.529858380077712 273.26547077260329 0 0 0 0 -78.820745545014688 -51.881514974607853 0 -51.881514974607853 262.34785460805506 0 0 0 0 -88.101432371955525 -46.980139154271455 0 -46.980139154271455 297.58000314778474 0 0 0 0 -87.820929285750026 -50.245599143418076 0 -50.245599143418076 287.48238982819748 0 0 0 0 -90.195181719266429 -55.664548312062834 0 -55.664548312062834 329.12002619884879 0 0 0 0 -77.535803047714808 -32.13264812230409 0 -32.13264812230409 283.0198594086105 0 0 0 0 -79.906425905229753 -40.877758887356322 0 -40.877758887356322 271.80914244192536 0 0 0 0 -81.90050214904204 -43.386368797659088 0 -43.386368797659088 282.18589992307534 0 0 0 0 -87.495063599330024 -42.929136435341206 0 -42.929136435341206 282.15170048434084 0 0 0 0 -85.653270848290958 -41.479825427879405 0 -41.479825427879405 283.12809093737451 0 0 0 0 -84.815270610245534 -38.203517582885979 0 -38.203517582885979 279.51850850273695 0 0 0 0 -87.301095622038702 -36.378784643488871 0 -36.378784643488871 278.22104109871725 0 0 0 0 -88.818846707265493 -39.1922045220781 0 -39.1922045220781 275.22335472633131 0 0 0 0 -91.770842430791163 -31.013750273639744 0 -31.013750273639744 277.4754789027611 0 0 0 0 -78.461681583395603 -30.437289846060594 0 -30.437289846060594 277.3371261767461 0 0 0 0 -84.126369656920815 -29.859368610508682 0 -29.859368610508682 261.66520008821681 0 0 0 0 -88.876040883505993 -25.937808376431349 0 -25.937808376431349 265.00058058631475 0 0 0 0 -86.203770687824544 -28.837633497216302 0 -28.837633497216302 280.77790521914903 0 0 0 0 -84.391896260354315 -7.9285320523322298 0 -7.9285320523322298 266.91861582473939 0 0 0 0 -83.868991652717796 -1.1121684933114011 0 -1.1121684933114011 292.42097463123355 0 0 0 0 -84.338350400015315 -2.7756569919438334 0 -2.7756569919438334 245.03377948022171 0 0 0 0 -83.595296057318819 -4.0410621397768409 0 -4.0410621397768409 238.31949200481176 0 0 0 0 -88.496441295097384 7.2671725444160984 0 7.2671725444160984 214.9728713935765 0 0 0 0 -84.659522023631325 -24.366989919599291 0 -24.366989919599291 233.06312811824318 0 0 0 0 -96.031882816909501 -30.449974019953515 0 -30.449974019953515 320.85861374833621 0 0 0 0 -94.046218046322338 -26.796328235988767 0 -26.796328235988767 326.87391546015715 0 0 0 0 -89.286039544485902 -24.98464387783315 0 -24.98464387783315 299.23482131855553 0 0 0 0 -87.473213337645802 -28.011896196689122 0 -28.011896196689122 281.89459257022099 0 0 0 0 -87.474955769949247 9.3234174751414685 0 9.3234174751414685 313.16263271026082 0 0 0 0 -86.94290467223891 7.2662699370375776 0 7.2662699370375776 280.89137413322896 0 0 0 0 -90.64277643980131 11.324067161007406 0 11.324067161007406 321.95572592471581 0 0 0 0 -95.195890645276222 13.82659651076392 0 13.82659651076392 359.99075097616151 0 0 0 0 -91.886046989418446 9.164172467233584 0 9.164172467233584 346.36847840976816 0 0 0 0 -96.94930934043623 -39.838388135245623 0 -39.838388135245623 392.85484033175089 0 0 0 0 -79.014413375830827 -58.170824598502804 0 -58.170824598502804 419.85830937520586 0 0 0 0 -95.552372601426327 4.9285312846186571 0 4.9285312846186571 486.92343364423141 0 0 0 0 -56.157001279803808 -59.523470185577025 0 -59.523470185577025 521.65972708914342 0 0 0 0 -8.0387977719345827 -34.188570906539098 0 -34.188570906539098 487.03154071497556 0 0 0 0 -57.560335510700043 -32.164781002982636 0 -32.164781002982636 399.18137775492869 0 0 0 0 -31.52494678535848 -104.36016519470547 0 -104.36016519470547 343.29278775725834 0 0 0 0 -17.121592469571169 -151.23410936513392 0 -151.23410936513392 496.12418775141941 0 0 0 0 -29.791371297944352 -80.803728155326098 0 -80.803728155326098 362.92012905051524 0 0 0 0 39.466622418962288 -120.22145818539502 0 -120.22145818539502 315.55668471055196 0 0 0 0 41.491111350518977 -148.89255331756249 0 -148.89255331756249 298.74085914270108 0 0 0 0 -8.2256660387604938 -112.0860594400001 0 -112.0860594400001 256.15996056995937 0 0 0 0 -55.844543415124008 -75.709072194924374 0 -75.709072194924374 318.92609074488792 0 0 0 0 -3.3036797888339606 -83.931785925156873 0 -83.931785925156873 237.64314075300354 0 0 0 0 -50.369298823605277 -89.003760417181184 0 -89.003760417181184 281.26795912186208 0 0 0 0 -67.518355562235683 -69.535070125621132 0 -69.535070125621132 269.3954365747486 0 0 0 0 -59.732456523150177 -78.465872941444104 0 -78.465872941444104 239.64484478016857 0 0 0 0 -80.390739735601073 -64.709145797616657 0 -64.709145797616657 288.67068878826831 0 0 0 0 -78.190862773200024 -66.669360551171849 0 -66.669360551171849 289.3683407304834 0 0 0 0 -82.125383170453688 -66.960957470069843 0 -66.960957470069843 343.11766077994253 0 0 0 0 -74.48261508881933 -58.031005632376036 0 -58.031005632376036 337.38844676793087 0 0 0 0 0.037551289458897047 -23.694124541998463 0 -23.694124541998463 402.36222454297149 0 0 0 0 0.6928471830094256 0.8598875644829036 0 0.8598875644829036 1.3618670514988178 0 0 0 0 72.209093537667385 58.592950774552719 0 58.592950774552719 239.62544028829871 0 0 0 0 82.0824322582625 13.744462799702887 0 13.744462799702887 154.87264071237587 0 0 0 0 64.627017541936027 -41.518789725250826 0 -41.518789725250826 1364.61799791464 0 0 0 0 -37.056808863085223 247.3264030407372 0 247.3264030407372 1043.1151751973214 0 0 0 0 -212.76144160381958 115.39785808451961 0 115.39785808451961 1498.5464517988403 0 0 0 0 -0.17298661436665477 120.37075982535166 0 120.37075982535166 1236.100240825137 0 0 0 0 -151.2721641366318 886.99289249068897 0 886.99289249068897 2017.2029872730418 0 0 0 0 -0.3031289857824383 -1.3900714444894504 0 -1.3900714444894504 4.1127176575962636 0 0 0 0 103.63447118759424 211.14623463241514 0 211.14623463241514 745.06877261398768 0 0 0 0 166.17567407374472 516.42616798939162 0 516.42616798939162 1255.9777031809426 0 0 0 0 2.4405804277750724 -4.0591795409756486 0 -4.0591795409756486 6.2819946040070676 0 0 0 0 44.254778030110714 326.76611439005683 0 326.76611439005683 1188.1391478670339 0 0 0 0 -124.37751300384616 -166.10163783512689 0 -166.10163783512689 1164.2374868172938 0 0 0 0 -50.089275603216265 400.11407261672139 0 400.11407261672139 1434.1390310924908 0 0 0 0 -231.3535057181457 553.10778562828636 0 553.10778562828636 1311.4643458410283 0 0 0 0 429.97202311308797 231.20914123445618 0 231.20914123445618 -208.60836317103531 0 0 0 0 125.11273636492206 510.7552620418428 0 510.7552620418428 418.04260175577656 0 0 0 0 201.08769528303037 576.15397299489268 0 576.15397299489268 369.71431536838645 0 0 0 0 -98.482813327734675 394.54564114250388 0 394.54564114250388 1232.0421094788471 0 0 0 0 -57.114078073328116 506.32869630046935 0 506.32869630046935 1295.3904475172676 0 0 0 0 88.145816931724383 360.67015074750816 0 360.67015074750816 644.38866202630743 0 0 0 0 -79.705485077628879 -122.91101756196804 0 -122.91101756196804 639.26884911441084 0 0 0 0 -95.930752064315755 127.31146491819163 0 127.31146491819163 529.04505074241069 0 0 0 0 1.5590790135477071 1.0819737559499174 0 1.0819737559499174 1.048886308840121 0 0 0 0 95.547186043994628 -46.642427379785659 0 -46.642427379785659 172.48925309182596 0 0 0 0 0.80757483334077707 -0.39102912819323876 0 -0.39102912819323876 0.46330018800669492 0 0 0 0 -249.89191231426912 61.634017265274451 0 61.634017265274451 615.92361984259333 0 0 0 0 -0.9180279475026033 0.00099343471656965221 0 0.00099343471656965221 38.205433969560019 0 0 0 0 -192.71961681273547 112.46316077137817 0 112.46316077137817 73.952646972949879 0 0 0 0 -92.910442157678062 28.085777075357328 0 28.085777075357328 26.686335229256656 0 0 0 0 -360.88895977461289 -396.76921873963693 0 -396.76921873963693 94.081225174937572 0 0 0 0 130.59714330845213 150.14567242189423 0 150.14567242189423 -146.56724141010636 0 0 0 0 142.02795251377626 63.944209982662869 0 63.944209982662869 -20.491548113655881 0 0 0 0 180.38861449618071 -172.73922221762041 0 -172.73922221762041 231.05855539506592 0 0 0 0 149.88225414732221 -137.29652254868961 0 -137.29652254868961 288.90866316647225 0 0 0 0 258.86263971188407 -516.79756877858108 0 -516.79756877858108 689.07826083368855 0 0 0 0 0.35601369341218703 0.82243428507997773 0 0.82243428507997773 15.762020843518869 0 0 0 0 195.19809737856986 -473.75902751451213 0 -473.75902751451213 799.87754366506488 0 0 0 0 380.73295095507933 744.5126109091907 0 744.5126109091907 686.56400048770593 0 0 0 0 300.63199453528023 -205.46839064898427 0 -205.46839064898427 -26.771971593487251 0 0 0 0 176.13883644619318 178.98188874960033 0 178.98188874960033 -362.83680426845604 0 0 0 0 182.69812898152105 620.77133534576387 0 620.77133534576387 1500.3072717753639 0 0 0 0 -223.72915131121044 651.01280689640316 0 651.01280689640316 2135.5719270293703 0 0 0 0 133.9037455862574 856.17760280477705 0 856.17760280477705 1475.3150004486233 0 0 0 0 -235.21720873094273 -283.45788351462761 0 -283.45788351462761 2232.6911885127433 0 0 0 0 1186.8832840092355 439.50407711473053 0 439.50407711473053 104.79895505494642 0 0 0 0 3.5411625730102205 -1.531954627521614 0 -1.531954627521614 3.5851234915893997 0 0 0 0 671.79717760013864 -343.07927173923099 0 -343.07927173923099 1197.3180605630187 0 0 0 0 871.96857477511946 319.26031689652882 0 319.26031689652882 1495.0696100076893 0 0 0 0 78.221209015843328 -203.58628537977711 0 -203.58628537977711 1484.367216175473 0 0 0 0 401.24290629189716 -346.35723269629671 0 -346.35723269629671 744.41211499309429 0 0 0 0 93.746144582191675 -358.44403212880206 0 -358.44403212880206 1277.590026302114 0 0 0 0 165.70600957919964 -415.76984456865466 0 -415.76984456865466 897.54436086007991 0 0 0 0 135.82061172861665 -398.87015760893337 0 -398.87015760893337 1498.4221798422877 0 0 0 0 -13.845873616912154 -210.87157420292351 0 -210.87157420292351 1280.7684211966434 0 0 0 0 -168.27941076944262 -264.13002702206359 0 -264.13002702206359 1500.0608880317268 0 0 0 0 25.363630163356618 -313.34649641147917 0 -313.34649641147917 934.29950045815986 0 0 0 0 -23.990861773901614 -302.37296672720913 0 -302.37296672720913 1307.1973349032405 0 0 0 0 -13.397200984248862 -209.65280333093688 0 -209.65280333093688 917.44546139823069 0 0 0 0 113.6578612970047 -289.77448338964314 0 -289.77448338964314 654.03241197358147 0 0 0 0 104.86261173129955 -362.38002351179603 0 -362.38002351179603 749.95725022185798 0 0 0 0 113.8231572735646 -285.25170363782195 0 -285.25170363782195 794.72016529562097 0 0 0 0 112.70535029695759 -425.42677845877915 0 -425.42677845877915 684.74826505398596 0 0 0 0 271.22787731004377 -325.64067037495988 0 -325.64067037495988 407.76984234595147 0 0 0 0 -61.013739511887479 5.6234385390162061 0 5.6234385390162061 323.62874055245447 0 0 0 0 9.9245091832470962 -234.7920346164392 0 -234.7920346164392 560.95578880196626 0 0 0 0 148.51383921721623 -257.32385774285467 0 -257.32385774285467 545.51788516595116 0 0 0 0 105.1262254687 -265.23641889472492 0 -265.23641889472492 545.05868359616215 0 0 0 0 1.8378446029380726 -0.446596523304855 0 -0.446596523304855 -1.0318834481494719 0 0 0 0 152.32418545647377 -319.74647602460391 0 -319.74647602460391 602.00322126988613 0 0 0 0 134.09129576942871 -252.22341125413732 0 -252.22341125413732 520.2448406069816 0 0 0 0 30.93509707378189 -89.892814789694967 0 -89.892814789694967 -66.096835166124947 0 0 0 0 -26.132383027076116 -36.899457015173539 0 -36.899457015173539 67.399750511309321 0 0 0 0 -20.746732080158949 -98.526961477424265 0 -98.526961477424265 23.458692596941546 0 0 0 0 -28.948406482122039 -13.398319660128891 0 -13.398319660128891 50.556423670019285 0 0 0 0 -25.153670569924998 -2.0999038514619315 0 -2.0999038514619315 1.6781483230506637 0 0 0 0 -24.206199951274925 -28.555842471316282 0 -28.555842471316282 62.618338484178821 0 0 0 0 -33.42042084114621 -8.7307495769309753 0 -8.7307495769309753 57.680480071408056 0 0 0 0 -37.147772491631486 -32.584638258268569 0 -32.584638258268569 74.289290256623644 0 0 0 0 -33.289844484555772 -11.022024279542165 0 -11.022024279542165 97.747155557673977 0 0 0 0 -27.468494696738503 7.0352422437558744 0 7.0352422437558744 50.008641586824524 0 0 0 0 -12.743180062608291 -1.2523460976411727 0 -1.2523460976411727 -1.0208745017731324 0 0 0 0 -4.6402735028614188 -17.257980198962287 0 -17.257980198962287 65.767799691468099 0 0 0 0 -12.1445160035355 -15.116386808658717 0 -15.116386808658717 108.9489635252221 0 0 0 0 -20.470641737314622 -16.031313634239723 0 -16.031313634239723 56.981771563834627 0 0 0 0 -27.36356868297969 -3.454506817201036 0 -3.454506817201036 62.275165201725031 0 0 0 0 -19.045033213202714 -11.634172373445836 0 -11.634172373445836 67.459000578361156 0 0 0 0 -17.467189097273717 -3.626875719543591 0 -3.626875719543591 10.707942942087755 0 0 0 0 -16.551279612675899 -1.2117557653509721 0 -1.2117557653509721 70.033229524740818 0 0 0 0 -37.710927687554886 -9.6782557152037043 0 -9.6782557152037043 81.342765509736637 0 0 0 0 -2.2288222708557299 4.4261946360008357 0 4.4261946360008357 51.962193225497614 0 0 0 0 -216.45192394922952 44.802647409572273 0 44.802647409572273 206.11921786186576 0 0 0 0 -245.53422997851754 19.994829019731696 0 19.994829019731696 272.13802622421645 0 0 0 0 -43.08543628921052 -15.977364535156084 0 -15.977364535156084 73.977486766612856 0 0 0 0 -50.395064772712658 -25.537787002071269 0 -25.537787002071269 58.393257705116412 0 0 0 0 -3.731620290021171 -5.0575691934566898 0 -5.0575691934566898 51.423009938657827 0 0 0 0 -2.218548192164401 0.50603366922489101 0 0.50603366922489101 17.238614154444605 0 0 0 0 -162.9811265321016 153.61096216882288 0 153.61096216882288 -295.62798534304602 0 0 0 0 -8.3651433579589529 -7.8954523214774355 0 -7.8954523214774355 55.004920872328512 0 0 0 0 -1.1104456981707604 -4.2463627953039138 0 -4.2463627953039138 48.644742835633565 0 0 0 0 -26.961564714482282 -2.1639124090915232 0 -2.1639124090915232 52.188022407564858 0 0 0 0 -140.37070381421421 58.612540923553752 0 58.612540923553752 37.151947945328175 0 0 0 0 3.0028048151466464 -9.1065820170588268 0 -9.1065820170588268 43.523849862933275 0 0 0 0 -14.566187058329433 -10.224674735938606 0 -10.224674735938606 50.971241320969057 0 0 0 0 -14.319435676523426 -13.315011962851713 0 -13.315011962851713 51.416673966035887 0 0 0 0 -12.035881545247321 -18.006148775160909 0 -18.006148775160909 38.422243268312741 0 0 0 0 43.672380245335262 -4.2369946616217931 0 -4.2369946616217931 -61.803829363583645 0 0 0 0 2.3294760839036925 -0.53136814208224337 0 -0.53136814208224337 8.553707876429236 0 0 0 0 -4.0943602006138757 -0.022800963252706197 0 -0.022800963252706197 12.433957001794901 0 0 0 0 29.928429278859539 -178.2045306915461 0 -178.2045306915461 -265.08253061721553 0 0 0 0 -127.74513330698295 68.487300373697508 0 68.487300373697508 49.207774996928492 0 0 0 0 -446.53006233995279 -29.865175096902021 0 -29.865175096902021 176.59168601194688 0 0 0 0 94.873258544729879 -21.746874196933277 0 -21.746874196933277 -170.44121511762205 0 0 0 0 -120.14948585082314 -160.44601163977586 0 -160.44601163977586 0.69425542210228741 0 0 0 0 -214.11147610672739 -15.792782461392562 0 -15.792782461392562 53.486153319754521 0 0 0 0 -112.6043797470831 73.381475228181444 0 73.381475228181444 -60.565151391179825 0 0 0 0 -22.220493601998783 -41.048143864496524 0 -41.048143864496524 53.478014480773709 0 0 0 0 115.51911160216866 -66.198694458616956 0 -66.198694458616956 -64.076211417205741 0 0 0 0 -201.06845265468985 154.65483247148222 0 154.65483247148222 360.35513885733963 0 0 0 0 -156.09544513388653 -152.08188046038049 0 -152.08188046038049 421.12429570598761 0 0 0 0 -128.14820488192876 58.191316005708359 0 58.191316005708359 173.66882219255331 0 0 0 0 -0.19063100828561619 -0.084058555025698922 0 -0.084058555025698922 0.30738174198471313 0 0 0 0 -6.6942979998272705 -137.54813778171865 0 -137.54813778171865 92.520617847629183 0 0 0 0 -50.397477576867573 -64.069310668261096 0 -64.069310668261096 47.540636894384079 0 0 0 0 21.66237499459956 -91.070175828404899 0 -91.070175828404899 10.629786674653587 0 0 0 0 18.739997201534962 -29.68100964128098 0 -29.68100964128098 40.571256642368098 0 0 0 0 -0.30830624918429117 -0.19483441669349588 0 -0.19483441669349588 0.61187178629873529 0 0 0 0 6.7002792294978057 -20.655344129912919 0 -20.655344129912919 49.346110529560974 0 0 0 0 4.6737373081912565 -20.233820701942022 0 -20.233820701942022 49.306437317394739 0 0 0 0 0.0038821695701046939 -14.781711856039692 0 -14.781711856039692 43.192790848770528 0 0 0 0 16.149629982555254 -19.694302435851569 0 -19.694302435851569 19.443469621735858 0 0 0 0 0.022266822333790549 -4.2273792055839294 0 -4.2273792055839294 10.360552449084935 0 0 0 0 97.471534254426075 -39.835498181273579 0 -39.835498181273579 -5.8012216828683449 0 0 0 0 19.229587016980929 -75.449433886953557 0 -75.449433886953557 29.175761491744197 0 0 0 0 37.951753785084506 -1.2770713055888336 0 -1.2770713055888336 167.39248585072346 0 0 0 0 -0.072072159754246287 -0.14843404269376492 0 -0.14843404269376492 0.33489569689774612 0 0 0 0 92.079421968879601 -59.000197871579985 0 -59.000197871579985 195.60781281974778 0 0 0 0 1.4935053303810273 -15.438827793084783 0 -15.438827793084783 44.794072825250623 0 0 0 0 1.4935053303802321 -15.438827793099335 0 -15.438827793099335 44.794072825239709 0 0 0 0 1.4935053303824901 -15.438827793092059 0 -15.438827793092059 44.794072825257899 0 0 0 0 -0.59404370205057466 -0.050736129592621637 0 -0.050736129592621637 0.12445022593115596 0 0 0 0 -2.1402131444481824 -1.8628585631740862 0 -1.8628585631740862 0.47493657980976423 0 0 0 0 -2.2673035928796352 -2.3329670618090859 0 -2.3329670618090859 -0.40070251111319521 0 0 0 0 -1.8345301062246975 -1.7225364219780204 0 -1.7225364219780204 -0.41863589275453705 0 0 0 0 -1.988175037925032 -1.4038824760100397 0 -1.4038824760100397 0.41469422093723551 0 0 0 0 0.60781029387136021 -0.38219031362041278 0 -0.38219031362041278 0.16608190696766201 0 0 0 0 9.4567093158478208 -33.57419052428304 0 -33.57419052428304 -16.472939401741314 0 0 0 0 -0.45344108000447464 -26.133559286889067 0 -26.133559286889067 -14.287721266453445 0 0 0 0 -6.2778961352839868 -11.039973332401132 0 -11.039973332401132 45.99455397175916 0 0 0 0 0.0009738170852306038 -21.569330442070235 0 -21.569330442070235 53.610690464920481 0 0 0 0 29.691240116900182 -69.268071259071803 0 -69.268071259071803 103.07277056459861 0 0 0 0 -2.7573639113609758 2.192805771206622 0 2.192805771206622 -18.808711056844459 0 0 0 0 -17.27557968369009 -20.953178807592849 0 -20.953178807592849 50.92789420363988 0 0 0 0 0.2114324805580301 -0.20866902628938533 0 -0.20866902628938533 0.14970781700820623 0 0 0 0 -16.443079551008964 -9.7223833292446216 0 -9.7223833292446216 -4.7696846096660011 0 0 0 0 -2.0631158750618965 -27.28494093703921 0 -27.28494093703921 27.267536920342536 0 0 0 0 -8.940269034053216 -1.6899598444251751 0 -1.6899598444251751 64.168211669220909 0 0 0 0 9.4739276781991464 -5.2540859428227122 0 -5.2540859428227122 31.885877154010814 0 0 0 0 -44.43738660246251 52.507875388582761 0 52.507875388582761 57.647336613408697 0 0 0 0 0.060558100655030034 -0.76441508343673381 0 -0.76441508343673381 4.0088239594184358 0 0 0 0 189.42509274673637 -124.6032498125951 0 -124.6032498125951 42.838903739058878 0 0 0 0 -3.8689395608841437 -34.207862224189739 0 -34.207862224189739 -30.086688838895498 0 0 0 0 -22.849994046267078 -22.908218486055375 0 -22.908218486055375 32.581881934245757 0 0 0 0 -0.097770556121637139 -1.2430736995622129 0 -1.2430736995622129 11.790816617411394 0 0 0 0 -64.992081308397218 -37.873354384251797 0 -37.873354384251797 67.820004624147259 0 0 0 0 -22.356568253829153 -4.4671454308736429 0 -4.4671454308736429 -1.0603220278499066 0 0 0 0 -11.594859935333375 -8.4055872583885503 0 -8.4055872583885503 -4.7985712505047786 0 0 0 0 -14.142361921039651 -2.2865040108081303 0 -2.2865040108081303 -0.75481490903985105 0 0 0 0 -15.37130554209574 1.2834833489032462 0 1.2834833489032462 1.579601901154092 0 0 0 0 0.041998697538601679 -1.1499314869817883 0 -1.1499314869817883 19.044492797856975 0 0 0 0 -24.627840730483229 12.700370594713604 0 12.700370594713604 24.645224968582852 0 0 0 0 -10.251948811359426 -9.6077455395443394 0 -9.6077455395443394 7.870353576472553 0 0 0 0 -52.718187319300725 -2.4052345882654436 0 -2.4052345882654436 37.428672457288485 0 0 0 0 -21.771625032880564 -2.0452103786519729 0 -2.0452103786519729 23.857949879144144 0 0 0 0 -34.958083718787137 -19.674699774433975 0 -19.674699774433975 37.326978089539807 0 0 0 0 -12.618691345496416 25.020453162887861 0 25.020453162887861 24.468411322667635 0 0 0 0 -8.9220880114162355 31.925680144344369 0 31.925680144344369 34.510672140368115 0 0 0 0 -27.868950378676345 8.9606690106120368 0 8.9606690106120368 28.26337683350539 0 0 0 0 -2.7174952169516473 17.700203596446954 0 17.700203596446954 26.026358310882642 0 0 0 0 -13.456972004588351 26.382935313387861 0 26.382935313387861 43.375636987890175 0 0 0 0 -30.532767054219676 19.68396448592739 0 19.68396448592739 37.81034804619776 0 0 0 0 -24.443324692742408 12.341273422547602 0 12.341273422547602 42.001256810995983 0 0 0 0 2.4811202123109113 -6.6916638140936726 0 -6.6916638140936726 11.870997819423792 0 0 0 0 -44.704201933847799 13.601340409357363 0 13.601340409357363 43.989902385994355 0 0 0 0 -0.052969183591498881 3.4537681382345147 0 3.4537681382345147 35.519295665446862 0 0 0 0 -19.781288659331878 15.833698059781455 0 15.833698059781455 7.3911224235707778 0 0 0 0 -59.616333336044036 5.5224861234569289 0 5.5224861234569289 55.588270310210646 0 0 0 0 0.10222810993870654 3.6840711274202178 0 3.6840711274202178 44.564648422914757 0 0 0 0 -76.227483481653906 -55.323042735597483 0 -55.323042735597483 33.282145906719961 0 0 0 0 75.934529268035305 26.625836101440655 0 26.625836101440655 -85.995611119033128 0 0 0 0 -29.370045939620013 -16.043157870921277 0 -16.043157870921277 52.881078898859414 0 0 0 0 -27.643320918027712 10.518631073182405 0 10.518631073182405 46.005184363561057 0 0 0 0 -25.77626970043832 6.2463641740273488 0 6.2463641740273488 56.809175582875469 0 0 0 0 -25.433034848415446 5.6330202755198115 0 5.6330202755198115 35.556895139674907 0 0 0 0 -6.2967128482637236 7.9513060685112578 0 7.9513060685112578 52.508829936852635 0 0 0 0 -24.21198689781761 -3.3000631714066913 0 -3.3000631714066913 73.68904354780534 0 0 0 0 -1.8581098626953008 -1.8689036195855806 0 -1.8689036195855806 76.06574074105265 0 0 0 0 9.183580397759215 21.514420641618926 0 21.514420641618926 61.003498381078316 0 0 0 0 -6.4495558937052415 2.3314579890500511 0 2.3314579890500511 81.150921766140527 0 0 0 0 -1.2749188388120274 20.606471613400572 0 20.606471613400572 62.454875846891809 0 0 0 0 -14.846424009047496 22.067213524482213 0 22.067213524482213 49.779946128363918 0 0 0 0 -3.2118474690164476 15.071289639652605 0 15.071289639652605 46.740508842754934 0 0 0 0 -14.5569485146234 33.126451559361158 0 33.126451559361158 55.559888607178436 0 0 0 0 -12.609301102277414 29.436141077457251 0 29.436141077457251 32.909523434183939 0 0 0 0 0.37968173897479573 27.061732606235637 0 27.061732606235637 24.77925464285363 0 0 0 0 23.625623561024895 8.6891822663856146 0 8.6891822663856146 56.978042819227994 0 0 0 0 -0.27128650962390566 37.427007134589076 0 37.427007134589076 85.442280253235367 0 0 0 0 22.854380924206197 17.713267738576633 0 17.713267738576633 -27.583616567750141 0 0 0 0 18.514266716791553 54.152825958746689 0 54.152825958746689 28.744059817259313 0 0 0 0 0.34889143799079214 2.1255678385975045 0 2.1255678385975045 3.5081261979904923 0 0 0 0 -13.046856837523137 33.182733884925256 0 33.182733884925256 21.992042479621887 0 0 0 0 2.8694977358136384 8.1549508673397213 0 8.1549508673397213 21.531973911645764 0 0 0 0 8.2853700781507911 14.519530958718057 0 14.519530958718057 -4.7439640910746554 0 0 0 0 29.116990733567661 -9.2025721490153956 0 -9.2025721490153956 -122.54747588115424 0 0 0 0 3.9613746382792669 -12.133193717621907 0 -12.133193717621907 -119.2525205286147 0 0 0 0 0.1682472908609105 -1.9991850419270634 0 -1.9991850419270634 -4.1504491957800482 0 0 0 0 4.9568083032431787 -35.028227670306705 0 -35.028227670306705 -47.221912730776239 0 0 0 0 -2.3464393584675349 -17.445632425682561 0 -17.445632425682561 -56.112416320640477 0 0 0 0 0.45482997807607717 -19.144274618265626 0 -19.144274618265626 -131.76828807231686 0 0 0 0 3.3628576589781005 -6.9376287919367314 0 -6.9376287919367314 -56.788718284042261 0 0 0 0 -13.236475801866959 -13.933351655316073 0 -13.933351655316073 -59.129782731935848 0 0 0 0 22.045336788189275 -26.524231718922238 0 -26.524231718922238 -73.263169714387914 0 0 0 0 15.659276692962766 28.485382368021419 0 28.485382368021419 -47.670598041571793 0 0 0 0 11.618142091263167 3.7809164730279008 0 3.7809164730279008 -18.070613019357552 0 0 0 0 51.175120095482441 -7.8916785671644902 0 -7.8916785671644902 -14.955358324936242 0 0 0 0 31.151673220857063 8.7771405564781162 0 8.7771405564781162 50.540126473031705 0 0 0 0 75.555529372794751 16.326691339527315 0 16.326691339527315 49.072215331924781 0 0 0 0 41.833706273844598 -9.0181115224822861 0 -9.0181115224822861 126.85779410653049 0 0 0 0 47.771748318766413 44.79616452832488 0 44.79616452832488 88.846988071545638 0 0 0 0 32.674925632741406 -25.61811538267375 0 -25.61811538267375 26.877747948579781 0 0 0 0 55.935525517614792 15.704230569157517 0 15.704230569157517 39.745528866173117 0 0 0 0 18.938872744087007 -18.569752629162394 0 -18.569752629162394 33.063782952728616 0 0 0 0 2.9656878365051398 -24.403159957628304 0 -24.403159957628304 30.010813539818628 0 0 0 0 0.048431328065362322 -22.365510550087492 0 -22.365510550087492 -7.8768319039427297 0 0 0 0 32.055839118663812 -15.666771539010369 0 -15.666771539010369 -8.6948309195286129 0 0 0 0 21.169558627766804 -26.701268523392173 0 -26.701268523392173 -38.863170986514888 0 0 0 0 11.837048210194098 -23.248497209569905 0 -23.248497209569905 -36.574526427510136 0 0 0 0 -1.0721195161429478 -36.789140024622611 0 -36.789140024622611 -13.958701212255619 0 0 0 0 -7.2533254819597914 -26.793170375185582 0 -26.793170375185582 -29.546945225803938 0 0 0 0 -2.0796562604301698 -39.690987838333967 0 -39.690987838333967 -11.186939179460751 0 0 0 0 -30.774668770450603 -31.63764082047328 0 -31.63764082047328 -4.356895055170753 0 0 0 0 7.5247846365864461 -17.943139490002068 0 -17.943139490002068 -9.3053876113617662 0 0 0 0 -14.058640079437509 15.535855647587596 0 15.535855647587596 -9.0646866106635571 0 0 0 0 -37.662088259069151 -47.048638607877365 0 -47.048638607877365 2.7438798135772231 0 0 0 0 -23.04068384080847 -7.9294073164164729 0 -7.9294073164164729 49.996682139979384 0 0 0 0 2.8078672742849449 -14.118307005912357 0 -14.118307005912357 20.799979391311354 0 0 0 0 0.30374818564594352 0.79488057915751931 0 0.79488057915751931 4.0564179891426591 0 0 0 0 3.8152388534281272 3.551035085813055 0 3.551035085813055 6.9701802963536466 0 0 0 0 11.024710478831594 -4.3406058873533766 0 -4.3406058873533766 8.4207975849858485 0 0 0 0 -68.258306835994745 -30.215924487538359 0 -30.215924487538359 10.771655261705746 0 0 0 0 -2.5586605481371407 -4.0985520297508629 0 -4.0985520297508629 12.893434067867929 0 0 0 0 -0.63208957657741749 0.10301377029963987 0 0.10301377029963987 1.4129302681011922 0 0 0 0 -35.020951335323389 -13.302413627190617 0 -13.302413627190617 -14.765270255389623 0 0 0 0 1.8922127979926699 7.3943702109245351 0 7.3943702109245351 6.6424180002941284 0 0 0 0 0.11725395914320602 2.8891511602624291 0 2.8891511602624291 4.2609704102200539 0 0 0 0 3.5608020486697569 5.34469505942252 0 5.34469505942252 6.4594184057723396 0 0 0 0 0.019582748358970115 0.36164598860818842 0 0.36164598860818842 3.3589389097402176 0 0 0 0 2.2744479584835062 6.5732107122676098 0 6.5732107122676098 5.2897046778234653 0 0 0 0 -2.1841977324975232 11.867085330828559 0 11.867085330828559 31.48435138125933 0 0 0 0 0.67520631012894228 5.9707602078269701 0 5.9707602078269701 25.847714953473769 0 0 0 0 2.7815489084146066 10.816696694411803 0 10.816696694411803 19.443435453242273 0 0 0 0 -5.0248704652035903 5.3706381049132688 0 5.3706381049132688 15.190549288323808 0 0 0 0 -14.01977776097948 0.40933402898735949 0 0.40933402898735949 25.513986392805236 0 0 0 0 4.2876726064496387 9.4989625738127117 0 9.4989625738127117 5.9601709244380228 0 0 0 0 0.9057855817491145 8.2071680948793073 0 8.2071680948793073 30.031269937142497 0 0 0 0 2.5290778368276943 5.9150885723471589 0 5.9150885723471589 8.0840656445725472 0 0 0 0 1.2034418959309674 4.6901253136364005 0 4.6901253136364005 3.0689007903509236 0 0 0 0 1.1017968847229831 8.6402000726906749 0 8.6402000726906749 14.361185147201468 0 0 0 0 1.6778981658115395 3.6804911516274572 0 3.6804911516274572 2.7743354432320189 0 0 0 0 -12.867738033405203 -11.429038929112721 0 -11.429038929112721 -14.875086416002432 0 0 0 0 1.0734628476303638 9.3836870820230711 0 9.3836870820230711 13.61963586040001 0 0 0 0 1.2657243627353154 5.0641266881750102 0 5.0641266881750102 5.5900526298991622 0 0 0 0 6.8279898079031227 -23.14908773584466 0 -23.14908773584466 -54.848957207032072 0 0 0 0 -12.722402257289446 -12.329529430970524 0 -12.329529430970524 -40.189377240814792 0 0 0 0 3.0972782085461859 5.7973827464938736 0 5.7973827464938736 -0.31719295848598961 0 0 0 0 1.3593174756515509 5.2277977234043647 0 5.2277977234043647 5.5219527631052188 0 0 0 0 4.9167024064090183 8.4205917692865313 0 8.4205917692865313 -5.955691474060183 0 0 0 0 1.4192693559516556 8.8801830773518304 0 8.8801830773518304 14.525821300288953 0 0 0 0 2.2361265584959424 8.6347213721985483 0 8.6347213721985483 14.935871682161462 0 0 0 0 11.514427219775227 15.634439278125171 0 15.634439278125171 27.181023796467343 0 0 0 0 11.537842710073164 37.003764485896681 0 37.003764485896681 33.344075136657921 0 0 0 0 0.051148215743645593 5.1725936062270446 0 5.1725936062270446 26.695276829621548 0 0 0 0 -10.366728242533775 14.887390199564052 0 14.887390199564052 35.029587399214506 0 0 0 0 2.7871418986249306 12.679647035499329 0 12.679647035499329 17.359305951729766 0 0 0 0 -4.1198287236938995 20.583930614924611 0 20.583930614924611 30.393040245406155 0 0 0 0 -0.57995256082816127 -0.73235063875472406 0 -0.73235063875472406 17.831078262955998 0 0 0 0 -31.307380561762386 13.132583158179841 0 13.132583158179841 31.807424289210758 0 0 0 0 -18.935158024719243 -2.7691402924483555 0 -2.7691402924483555 48.409180586852017 0 0 0 0 -1.7194348467767182 -0.77220156829691078 0 -0.77220156829691078 25.894747802130723 0 0 0 0 -19.533256973711161 16.790928461254225 0 16.790928461254225 0.059048700477433158 0 0 0 0 -0.21655576964089668 -0.02616609538621617 0 -0.02616609538621617 0.060313202534445054 0 0 0 0 -1.6653269329450495 -17.736894601148379 0 -17.736894601148379 55.875859432377183 0 0 0 0 -0.3393745623619715 -2.5898567851162397 0 -2.5898567851162397 17.133081872554612 0 0 0 0 0.36481264291172777 -2.8035339966801303 0 -2.8035339966801303 0.77094685489027093 0 0 0 0 -1.0657734449088965 2.3417751809191927 0 2.3417751809191927 4.0956166253291144 0 0 0 0 -0.29163693254761647 -0.7507539655082951 0 -0.7507539655082951 15.638426826975774 0 0 0 0 -1.0956841592183082 8.418057637707534 0 8.418057637707534 23.936204799741972 0 0 0 0 -0.41162346908545866 3.7935368062639889 0 3.7935368062639889 11.868861985745241 0 0 0 0 -0.77587280109139556 2.8648991836525965 0 2.8648991836525965 12.091644291831471 0 0 0 0 -2.439753525803293 -2.1066858511652526 0 -2.1066858511652526 6.7111634338375028 0 0 0 0 -0.10562114984168147 14.411549408192514 0 14.411549408192514 25.274840621561452 0 0 0 0 -0.66611917196678405 6.5894924436142901 0 6.5894924436142901 6.5625260192391579 0 0 0 0 0.14138836751688799 3.7178323397917836 0 3.7178323397917836 6.6107367254456193 0 0 0 0 1.9838537350879619 6.4915133379090548 0 6.4915133379090548 6.0325214397453237 0 0 0 0 3.2776445199382733 6.3748650267276048 0 6.3748650267276048 10.77868408834911 0 0 0 0 -0.8931963814363022 3.8421590426146883 0 3.8421590426146883 8.9532968144117433 0 0 0 0 -2.5409981761363269 3.3284358032688033 0 3.3284358032688033 6.4721548445813823 0 0 0 0 -2.9400177189226042 -5.7580960246314135 0 -5.7580960246314135 17.645463241773541 0 0 0 0 1.1158017979768706 3.2183884279225694 0 3.2183884279225694 7.9697033077665083 0 0 0 0 -0.86376241632124451 1.4402696230971799 0 1.4402696230971799 10.958634108625517 0 0 0 0 -0.55555484939466482 0.2916256241854962 0 0.2916256241854962 15.735301986898861 0 0 0 0 -23.697753936168283 6.7539346223202301 0 6.7539346223202301 28.322011550619209 0 0 0 0 -1.7325902596976048 3.3658308237999393 0 3.3658308237999393 -0.024752490331053423 0 0 0 0 -13.344868179580573 4.8467972038906737 0 4.8467972038906737 11.182479632418108 0 0 0 0 -15.176566516780809 10.211651425957825 0 10.211651425957825 20.263040660687693 0 0 0 0 -5.1968876312951711 7.9098372465609827 0 7.9098372465609827 4.9377605857953313 0 0 0 0 -5.6759564875222281 5.0004022372013424 0 5.0004022372013424 13.343774690911232 0 0 0 0 -14.445065603044291 16.787772254832817 0 16.787772254832817 11.554505038471689 0 0 0 0 -0.022853891912395067 35.678717910659543 0 35.678717910659543 18.480024458818662 0 0 0 0 -16.052120962791978 21.371552934712327 0 21.371552934712327 5.8577698614826659 0 0 0 0 -8.5631709153807236 21.285044854794251 0 21.285044854794251 5.5634725819909363 0 0 0 0 -0.11239269453302261 -0.064103552524997554 0 -0.064103552524997554 0.62324975838504848 0 0 0 0 1.7697709114406521 16.763473435155902 0 16.763473435155902 -26.52391144012654 0 0 0 0 -0.0037508850349810066 23.228251890623142 0 23.228251890623142 -11.918269356436213 0 0 0 0 -8.4692423852659857 11.634503080313152 0 11.634503080313152 -10.263006215540372 0 0 0 0 -8.4067909941965837 10.545993750914931 0 10.545993750914931 2.9475897705851821 0 0 0 0 6.8289481791615696 -14.914807931597352 0 -14.914807931597352 44.160647108761623 0 0 0 0 6.902137241288699 -17.829226637713873 0 -17.829226637713873 40.398192703469249 0 0 0 0 0.0044002572165610246 -0.98016461892984807 0 -0.98016461892984807 4.4157716265908675 0 0 0 0 -0.066134961556227334 -0.21963964487169108 0 -0.21963964487169108 0.48124018870713314 0 0 0 0 23.154037219795782 -19.498170985865727 0 -19.498170985865727 171.21145320782216 0 0 0 0 -2.9276959863386764 -38.548036449388746 0 -38.548036449388746 153.27758648238887 0 0 0 0 48.94077566371061 61.120860718498079 0 61.120860718498079 196.49996439915412 0 0 0 0 7.1571992403703462 52.734137653171274 0 52.734137653171274 247.90368099514308 0 0 0 0 -58.954422423683809 10.091845461780395 0 10.091845461780395 273.15971944009971 0 0 0 0 119.42383441153788 -153.3102943187987 0 -153.3102943187987 338.1627834352912 0 0 0 0 115.88455095057816 -37.94928474308108 0 -37.94928474308108 186.84536178909002 0 0 0 0 99.71715849993484 -51.567095092765157 0 -51.567095092765157 258.51799401559219 0 0 0 0 30.515084912990915 -0.023736619719784358 0 -0.023736619719784358 220.70076189860083 0 0 0 0 65.334889395032292 -55.535084034294414 0 -55.535084034294414 196.61510304437616 0 0 0 0 95.781746228512475 2.2453401546172245 0 2.2453401546172245 273.36844302569079 0 0 0 0 194.68394520752287 4.3863335112221193 0 4.3863335112221193 205.43279461102065 0 0 0 0 57.447333693855398 38.949404060516827 0 38.949404060516827 2.9822174302498752 0 0 0 0 43.927275535760145 -71.356894873235433 0 -71.356894873235433 289.09049221498617 0 0 0 0 0.10810797998137645 0.2210531351437055 0 0.2210531351437055 0.50793511651833256 0 0 0 0 63.680815941397668 -96.590551813864749 0 -96.590551813864749 175.5559465247934 0 0 0 0 69.305579695128017 -95.667160897941358 0 -95.667160897941358 173.65632847326742 0 0 0 0 73.244290219648974 -103.20120170371956 0 -103.20120170371956 172.68566341416226 0 0 0 0 67.655391691131626 -82.953589455224574 0 -82.953589455224574 156.80074868451266 0 0 0 0 84.886464160300193 -95.346299355287556 0 -95.346299355287556 158.1618244381898 0 0 0 0 58.378908060812137 -82.817510208074964 0 -82.817510208074964 162.6633524641984 0 0 0 0 47.18536632347309 -64.840442894475927 0 -64.840442894475927 208.71886087224811 0 0 0 0 36.914224230163427 -40.186190375975457 0 -40.186190375975457 149.64040188223589 0 0 0 0 -26.761959175564556 -14.84602952716682 0 -14.84602952716682 136.27230117821455 0 0 0 0 -25.028566416436888 2.2657168187488423 0 2.2657168187488423 171.11190653835729 0 0 0 0 47.018081403078213 -36.834251906573627 0 -36.834251906573627 115.14449322804649 0 0 0 0 18.664585826500115 -54.821162725422255 0 -54.821162725422255 136.72129705228872 0 0 0 0 68.328593957658995 -103.32779586827746 0 -103.32779586827746 114.3810508757233 0 0 0 0 45.257055440060412 -45.968318494912182 0 -45.968318494912182 125.77009626914514 0 0 0 0 14.56517550053178 7.1650324683009785 0 7.1650324683009785 -0.58889963234832976 0 0 0 0 -170.31707511128911 38.906322107017331 0 38.906322107017331 135.9012923219434 0 0 0 0 0.11201345722611222 -127.66422039435201 0 -127.66422039435201 28.838150495394075 0 0 0 0 -135.54953836369327 -25.210553064431224 0 -25.210553064431224 151.70974843891599 0 0 0 0 -34.358850526342394 -71.370523791769301 0 -71.370523791769301 171.51398972879815 0 0 0 0 -2.6998015948455079 -0.032655683606634511 0 -0.032655683606634511 0.15357641160093749 0 0 0 0 -81.082841399492736 -24.363377093530289 0 -24.363377093530289 148.92702284829102 0 0 0 0 -76.32026925017135 11.678445924560947 0 11.678445924560947 141.32579733979674 0 0 0 0 -11.666728721213531 -8.4333255798883329 0 -8.4333255798883329 143.79278552566575 0 0 0 0 -5.1783857956681345 8.5573718982584523 0 8.5573718982584523 99.232201674007229 0 0 0 0 -38.661351778061999 30.038572088040382 0 30.038572088040382 101.67433324532612 0 0 0 0 -27.241593325992653 19.414970551288206 0 19.414970551288206 98.663021437430757 0 0 0 0 2.286780941489269 32.816815087918258 0 32.816815087918258 55.894805203020951 0 0 0 0 42.842206584420182 37.035705659041923 0 37.035705659041923 56.261125211282661 0 0 0 0 -98.705885989952094 46.654820771953382 0 46.654820771953382 97.076475084078993 0 0 0 0 -55.820667289240646 49.400378909562278 0 49.400378909562278 85.224398230511724 0 0 0 0 -63.366248538984109 73.938242355688999 0 73.938242355688999 61.37239936181868 0 0 0 0 -116.27345498725526 85.3913435277791 0 85.3913435277791 64.583747802833386 0 0 0 0 -88.57549019759972 42.39763932261485 0 42.39763932261485 27.226234949452191 0 0 0 0 -15.345752499871423 87.178259782601344 0 87.178259782601344 55.828700690512051 0 0 0 0 -146.59167521755944 7.2990751965116942 0 7.2990751965116942 171.88740288275585 0 0 0 0 -90.016243049415834 -20.250537796717254 0 -20.250537796717254 169.1312891855232 0 0 0 0 -152.00458928217267 28.923211062272458 0 28.923211062272458 164.25719529963567 0 0 0 0 -145.1805609609487 11.291781899622947 0 11.291781899622947 138.06574383197585 0 0 0 0 -100.03209940662578 20.480881443129419 0 20.480881443129419 131.42897579598502 0 0 0 0 -149.27429068809124 56.511301774873573 0 56.511301774873573 114.56551226207375 0 0 0 0 -124.001473674218 26.156988897166229 0 26.156988897166229 94.321989649586612 0 0 0 0 -140.79940598705343 37.349512760301877 0 37.349512760301877 92.975421921757516 0 0 0 0 -168.08641456815712 92.38616161516984 0 92.38616161516984 36.869594750525721 0 0 0 0 -118.4831012768766 98.647152864472446 0 98.647152864472446 -78.398962007675436 0 0 0 0 -133.96789264514155 33.22779335474479 0 33.22779335474479 -53.627640054044605 0 0 0 0 -159.23148492324066 40.236544486433331 0 40.236544486433331 104.32165801104566 0 0 0 0 -193.32410196886758 178.50060373741144 0 178.50060373741144 -23.335142575848295 0 0 0 0 -196.96259415003857 49.022943717468962 0 49.022943717468962 237.6636556613048 0 0 0 0 -250.26007705645469 3.5322984323402125 0 3.5322984323402125 -294.91583947264007 0 0 0 0 -93.977806143205271 334.16930244587275 0 334.16930244587275 -191.29699499479011 0 0 0 0 -101.40810412464452 86.615393013871653 0 86.615393013871653 -143.64244801876339 0 0 0 0 -3.7102721470054902 1.1131452711195138 0 1.1131452711195138 2.929541571590164 0 0 0 0 -179.90747294955145 70.6117519630061 0 70.6117519630061 -143.20134473954749 0 0 0 0 -186.1020221799954 68.603510816850758 0 68.603510816850758 -65.093953661969863 0 0 0 0 -266.06440335572188 168.95462198617315 0 168.95462198617315 -110.62689301410865 0 0 0 0 2.6510595634703211 6.2986117757095528 0 6.2986117757095528 -3.729044521753238 0 0 0 0 4.1816318185219643 9.3823963219256257 0 9.3823963219256257 -10.602925476268865 0 0 0 0 10.234243314100599 6.072762006826192 0 6.072762006826192 -16.113376199959802 0 0 0 0 -2.6878751789219155 13.029648650028257 0 13.029648650028257 17.172970072806606 0 0 0 0 -41.805314909821391 11.83520332955959 0 11.83520332955959 47.018940251355161 0 0 0 0 6.0413107989008186 14.264230713251489 0 14.264230713251489 20.54798275196714 0 0 0 0 -22.002680326230802 27.415821420387147 0 27.415821420387147 7.2208777334508341 0 0 0 0 -34.194044611812338 91.676559917817031 0 91.676559917817031 -49.713207919779961 0 0 0 0 60.244835300547038 57.507707373224548 0 57.507707373224548 4.5822341644197877 0 0 0 0 8.0545029395288434 14.34239210461805 0 14.34239210461805 -6.6793331498127984 0 0 0 0 4.0080895056298687 7.47592942681149 0 7.47592942681149 -24.056239995687065 0 0 0 0 0.49748971445842471 5.1571579768351512 0 5.1571579768351512 0.70332485083781648 0 0 0 0 3.8289696472474475 37.456021904326917 0 37.456021904326917 -35.695207661321547 0 0 0 0 12.917904394796096 -4.7343240564296138 0 -4.7343240564296138 -16.821510585901706 0 0 0 0 0.9924936894446752 0.83522829340479632 0 0.83522829340479632 -1.6773831975217561 0 0 0 0 7.5509764009289633 15.500416720034458 0 15.500416720034458 -3.3383384191741534 0 0 0 0 1.6927729077897018 1.9424411205225312 0 1.9424411205225312 -2.4326599039866608 0 0 0 0 12.430011787711976 46.817463681618392 0 46.817463681618392 -50.327558530392707 0 0 0 0 -3.3755058365175898 41.032783950817247 0 41.032783950817247 -36.212649672052066 0 0 0 0 38.149504728045798 7.5871773061044223 0 7.5871773061044223 -95.056884548512244 0 0 0 0 23.223419329444454 40.409315251561566 0 40.409315251561566 -47.663788947858848 0 0 0 0 72.139356943987906 5.7161808839227888 0 5.7161808839227888 -38.538717432822523 0 0 0 0 38.003838010973197 32.389802282217715 0 32.389802282217715 25.864976315257081 0 0 0 0 25.515353254627833 60.339392214415966 0 60.339392214415966 -3.8346141973524936 0 0 0 0 55.756216121913553 35.148667112702242 0 35.148667112702242 -48.481349770106135 0 0 0 0 40.263721630366184 55.757727898475423 0 55.757727898475423 105.70033401663386 0 0 0 0 18.288380799475974 4.7494545835907047 0 4.7494545835907047 40.269514524210535 0 0 0 0 98.023513468588632 5.9260166473504796 0 5.9260166473504796 29.311026259728806 0 0 0 0 48.743121427201999 11.534216091080452 0 11.534216091080452 183.77264680986991 0 0 0 0 51.162151071708422 86.414411368858055 0 86.414411368858055 35.566959438372578 0 0 0 0 13.408977717651169 -9.7288326725101797 0 -9.7288326725101797 5.6609077265093219 0 0 0 0 24.831796163707594 18.422657198298111 0 18.422657198298111 -21.902775458838732 0 0 0 0 36.257932969720194 66.435874256852912 0 66.435874256852912 -76.62246331985807 0 0 0 0 -118.83112335106546 160.71209022145649 0 160.71209022145649 37.964261101489683 0 0 0 0 4.9914006072220278 8.9628661229825219 0 8.9628661229825219 16.584038702262362 0 0 0 0 47.800899369959552 103.91678765440884 0 103.91678765440884 -26.580795287189176 0 0 0 0 55.325783014111721 79.317203561366114 0 79.317203561366114 17.801985863588925 0 0 0 0 40.021500469721957 4.772413200855226 0 4.772413200855226 -144.4908881613992 0 0 0 0 -10.025296685019235 198.7055863766991 0 198.7055863766991 -241.63699694114621 0 0 0 0 -219.6199422843313 297.17430336098846 0 297.17430336098846 -47.467355399807275 0 0 0 0 -179.71504084095409 57.732379840235808 0 57.732379840235808 58.537504971536691 0 0 0 0 23.866214080352393 96.95388567021655 0 96.95388567021655 7.1828161455850932 0 0 0 0 -35.976057599594014 269.70686391165873 0 269.70686391165873 -74.857022496333229 0 0 0 0 -20.766482660542351 186.45588931097154 0 186.45588931097154 132.74179973514401 0 0 0 0 0.32110125805389789 0.14128171841400672 0 0.14128171841400672 -0.55689233793357573 0 0 0 0 -5.5137673175922828 6.7392391540452081 0 6.7392391540452081 237.27595101550105 0 0 0 0 131.96600336239999 360.64595947870839 0 360.64595947870839 -461.00541777334001 0 0 0 0 -266.90044036659162 164.5433314847287 0 164.5433314847287 -25.1655802948153 0 0 0 0 1.7184162543956329 2.4937675938593138 0 2.4937675938593138 1.9811924051679455 0 0 0 0 198.47031434367864 59.344594555774165 0 59.344594555774165 -332.47503057145877 0 0 0 0 -366.05547847362686 39.640820766991055 0 39.640820766991055 166.13637061413101 0 0 0 0 -144.65363754845225 175.43119111077976 0 175.43119111077976 249.35729551994791 0 0 0 0 167.86731094885931 384.94856089036512 0 384.94856089036512 -12.060756786633647 0 0 0 0 274.90783680921214 172.71844003650358 0 172.71844003650358 388.05696689552315 0 0 0 0 11.120231257121077 -40.926790155095659 0 -40.926790155095659 215.02329971185463 0 0 0 0 27.445278079143804 -49.814779903450471 0 -49.814779903450471 -16.291152045116178 0 0 0 0 -106.66430869721097 43.468473458371591 0 43.468473458371591 165.66491829755978 0 0 0 0 -54.484519632347428 120.31549451125829 0 120.31549451125829 -185.30582378519466 0 0 0 0 148.88991280021264 188.48071612568674 0 188.48071612568674 136.32742905056693 0 0 0 0 78.884570858281791 62.250177002384589 0 62.250177002384589 -35.943071021665673 0 0 0 0 308.56072082777791 285.85607427943251 0 285.85607427943251 34.264333618037881 0 0 0 0 3.4204356763177541 5.6833868818014075 0 5.6833868818014075 5.3307830375320435 0 0 0 0 -272.72915625974429 88.34114025575218 0 88.34114025575218 72.770483332578806 0 0 0 0 -328.18495156582503 333.17018117639236 0 333.17018117639236 1.5555889954102895 0 0 0 0 2.4285817612257472 3.5281072796709054 0 3.5281072796709054 2.7894557505784121 0 0 0 0 442.75228519713028 414.10512347284021 0 414.10512347284021 -13.854984729623538 0 0 0 0 192.23284083255697 52.444718415230454 0 52.444718415230454 -178.43798107162365 0 0 0 0 72.149289726412235 258.74684050335054 0 258.74684050335054 636.75187568892761 0 0 0 0 261.8269235657524 544.08277060964974 0 544.08277060964974 493.74200501917949 0 0 0 0 -354.29953563345896 324.52061873944967 0 324.52061873944967 577.29249807501765 0 0 0 0 -29.402521625463777 408.81129050257277 0 408.81129050257277 584.554061697836 0 0 0 0 318.87204158643732 211.71435895778814 0 211.71435895778814 323.78282304939057 0 0 0 0 104.74374685937079 221.57477096556977 0 221.57477096556977 351.2316917877888 0 0 0 0 24.027602805801202 39.900852185639451 0 39.900852185639451 263.66609378609701 0 0 0 0 86.338554181948552 63.807831215880469 0 63.807831215880469 149.28710243685782 0 0 0 0 22.388207194388428 -99.907267662987579 0 -99.907267662987579 90.891521834420018 0 0 0 0 115.11272409075525 27.886402771535359 0 27.886402771535359 52.794617669729632 0 0 0 0 26.134399294775449 -42.992918450094294 0 -42.992918450094294 50.306893003689765 0 0 0 0 57.286229219587085 13.413632034149487 0 13.413632034149487 75.238561626847513 0 0 0 0 -88.27743762417083 77.865983727788262 0 77.865983727788262 384.89154010346283 0 0 0 0 -28.714903796799604 -29.289648706331718 0 -29.289648706331718 263.22614991102364 0 0 0 0 128.00241716987614 -69.804725059349948 0 -69.804725059349948 596.09578763695026 0 0 0 0 42.695788161016225 138.45419631594086 0 138.45419631594086 319.3948650241291 0 0 0 0 347.18428749800808 256.14200248013049 0 256.14200248013049 332.71304984434391 0 0 0 0 6.7694225228939331 0.049340708374074893 0 0.049340708374074893 42.005391838456489 0 0 0 0 478.7622270165931 375.09315477871223 0 375.09315477871223 255.9688446701839 0 0 0 0 -179.65496813070189 288.34978319473703 0 288.34978319473703 811.14819942255053 0 0 0 0 2.1374836895269853 3.6434144214655966 0 3.6434144214655966 6.352556416934803 0 0 0 0 -12.602859671891792 238.77770009267624 0 238.77770009267624 734.54155134113898 0 0 0 0 -169.03912952780809 -114.02950961086117 0 -114.02950961086117 566.24039891579741 0 0 0 0 87.644053862483318 41.724052903555275 0 41.724052903555275 28.530673389178673 0 0 0 0 22.571807987783281 -17.581406440233877 0 -17.581406440233877 349.42477829536801 0 0 0 0 -47.532963339136217 57.605694518075325 0 57.605694518075325 551.6904534548521 0 0 0 0 41.300805344820859 25.425505960263763 0 25.425505960263763 346.67069024459488 0 0 0 0 78.267609629693396 7.2947541337043731 0 7.2947541337043731 184.1611597204901 0 0 0 0 122.1136490210427 -8.1126068282537744 0 -8.1126068282537744 125.62649158351269 0 0 0 0 119.98308604415311 85.911608009486372 0 85.911608009486372 363.89075490322557 0 0 0 0 126.91955445060373 -56.917638458238798 0 -56.917638458238798 397.9265195066273 0 0 0 0 18.624627648591851 59.172630415132517 0 59.172630415132517 581.70570076692093 0 0 0 0 269.36617657248507 152.78534965943754 0 152.78534965943754 568.54743231179236 0 0 0 0 142.29636317098789 -141.54210174250056 0 -141.54210174250056 831.60729103234189 0 0 0 0 102.90873823414447 392.7689396719361 0 392.7689396719361 1040.3980197779974 0 0 0 0 121.05478484114474 304.98767239616609 0 304.98767239616609 666.10341827107004 0 0 0 0 66.609811460574406 235.92252604801979 0 235.92252604801979 580.54497627606543 0 0 0 0 363.53385073323562 -71.182021288157557 0 -71.182021288157557 563.22764029962718 0 0 0 0 133.85651965967054 -210.285150716114 0 -210.285150716114 884.77181886238759 0 0 0 0 5.4723953528267604 -0.92293175461009014 0 -0.92293175461009014 0.62390062177457395 0 0 0 0 183.0951343095669 202.94559535143162 0 202.94559535143162 190.20187017019634 0 0 0 0 362.91987247188291 247.30577433107192 0 247.30577433107192 198.92680769678554 0 0 0 0 155.77413675891557 96.990907845291076 0 96.990907845291076 300.64697893595803 0 0 0 0 512.65616646668138 -124.73461353416315 0 -124.73461353416315 355.83581265089742 0 0 0 0 92.916688133059097 -87.304491426175446 0 -87.304491426175446 457.72332858459413 0 0 0 0 62.094271982589362 -6.9913807103530416 0 -6.9913807103530416 528.5571111162426 0 0 0 0 -43.072863119859562 -180.73774745768969 0 -180.73774745768969 793.36310790467542 0 0 0 0 -0.41219308670567611 -1.1416139150370341 0 -1.1416139150370341 4.3828346006241361 0 0 0 0 -49.462629633043321 -364.86624441380627 0 -364.86624441380627 -5.9391179614467546 0 0 0 0 80.486063338802182 129.33965763262313 0 129.33965763262313 313.20874353707768 0 0 0 0 11.991369129360749 251.52378745558781 0 251.52378745558781 217.98833782779548 0 0 0 0 -126.10179755205968 58.276761925480969 0 58.276761925480969 181.1550481584818 0 0 0 0 -1.0456541942876161 -2.492129225699955 0 -2.492129225699955 8.5264010454597354 0 0 0 0 26.468638583074391 185.71516628984455 0 185.71516628984455 221.11462868980743 0 0 0 0 55.664327395765042 172.10053862938912 0 172.10053862938912 219.31228526368432 0 0 0 0 157.10480786766379 202.60892129024069 0 202.60892129024069 194.15453962598986 0 0 0 0 64.016573256872334 202.66136008525064 0 202.66136008525064 201.34707606735901 0 0 0 0 29.320407753168951 172.81116367864888 0 172.81116367864888 187.25064349478635 0 0 0 0 45.640516150406754 141.85338283362216 0 141.85338283362216 135.53456850654766 0 0 0 0 15.271886029149215 132.43211383134985 0 132.43211383134985 179.45381356657072 0 0 0 0 14.087258322064002 146.91157265884976 0 146.91157265884976 221.68039281283887 0 0 0 0 227.8191057844092 23.870093247223849 0 23.870093247223849 219.54972617953899 0 0 0 0 53.069957526561211 42.942086617109453 0 42.942086617109453 224.47544105404904 0 0 0 0 197.10328494679231 88.106153649187036 0 88.106153649187036 206.4596120263086 0 0 0 0 80.130456340539695 134.25340804899679 0 134.25340804899679 197.28121560011914 0 0 0 0 123.11501173028137 74.362320067666587 0 74.362320067666587 124.55592064663506 0 0 0 0 94.871366835041272 125.3853346885744 0 125.3853346885744 140.26416512299329 0 0 0 0 15.061544746882646 104.5601380764565 0 104.5601380764565 145.22073601669672 0 0 0 0 10.389640517920498 62.615907505438372 0 62.615907505438372 126.11730559727584 0 0 0 0 59.958323236591809 71.058862695910648 0 71.058862695910648 66.403977332331124 0 0 0 0 43.809768937599301 50.729594054653717 0 50.729594054653717 37.921548440332117 0 0 0 0 91.017098423383914 29.917665698974815 0 29.917665698974815 105.50844002304075 0 0 0 0 -21.31758590614163 -3.9569951625380781 0 -3.9569951625380781 105.55488006779109 0 0 0 0 16.598401618854496 -16.174062076623159 0 -16.174062076623159 -7.4001749238959746 0 0 0 0 -42.581431549608624 -15.611038387209192 0 -15.611038387209192 -49.39882793144352 0 0 0 0 -58.557695828705846 -34.631782128308259 0 -34.631782128308259 102.82204414975422 0 0 0 0 5.445736812504947 5.1741504354940844 0 5.1741504354940844 106.87827996691476 0 0 0 0 -16.249011305894328 2.717475949859363 0 2.717475949859363 229.69638813284928 0 0 0 0 -1.1147136185936688 -27.985767782110997 0 -27.985767782110997 222.30208027216577 0 0 0 0 -67.733751835853582 -93.35271689678666 0 -93.35271689678666 198.80130632880173 0 0 0 0 -32.579201133228707 -36.693496203151881 0 -36.693496203151881 479.49518347376579 0 0 0 0 57.212705159191046 10.291945839824621 0 10.291945839824621 234.05207826021979 0 0 0 0 -91.286553321603151 -77.594302110448552 0 -77.594302110448552 489.93018487967493 0 0 0 0 -34.573690219907803 -90.598439544297435 0 -90.598439544297435 336.56612706933811 0 0 0 0 -14.346153509668511 2.6057548267854145 0 2.6057548267854145 220.43059548437992 0 0 0 0 5.1651626561451849 -3.6563332017831272 0 -3.6563332017831272 220.43713314145029 0 0 0 0 13.519161603801876 12.371995532008441 0 12.371995532008441 207.38447156744951 0 0 0 0 18.968856244568087 19.079854459567287 0 19.079854459567287 125.3852692367509 0 0 0 0 0.5795556317531223 0.4401337862933441 0 0.4401337862933441 -0.63564483403891359 0 0 0 0 0.11701514515938527 -0.10641776000486658 0 -0.10641776000486658 0.34303064716530685 0 0 0 0 3.2879100224772628 -5.3230357577831455 0 -5.3230357577831455 62.755676064392901 0 0 0 0 -135.3048436496224 -18.130738779156673 0 -18.130738779156673 117.43446145219059 0 0 0 0 27.619912248963374 7.1801757211578661 0 7.1801757211578661 -107.33152676193276 0 0 0 0 -7.8387236710659636 -9.7750569967902265 0 -9.7750569967902265 -3.4777800036536064 0 0 0 0 -1.2174876547538371 -4.1902679927553592 0 -4.1902679927553592 5.745937476427315 0 0 0 0 24.626581673285727 -2.4293791961044917 0 -2.4293791961044917 13.003835848721792 0 0 0 0 5.1249837890550225 -7.5504060993204831 0 -7.5504060993204831 4.4422377525568209 0 0 0 0 22.850651201268192 -8.0218580084765563 0 -8.0218580084765563 21.927322815292428 0 0 0 0 25.195391560260759 16.97908034723514 0 16.97908034723514 37.924669877731503 0 0 0 0 22.076150410306582 -15.513266639514768 0 -15.513266639514768 3.3264990465977462 0 0 0 0 68.761218795565583 -3.6999190910937614 0 -3.6999190910937614 -54.686206846337882 0 0 0 0 103.03094278899152 35.992178974462149 0 35.992178974462149 16.316648087391513 0 0 0 0 5.4207527193091032 -6.1517754237534987 0 -6.1517754237534987 5.8311616267998829 0 0 0 0 60.45921999613347 19.041490693729429 0 19.041490693729429 -1.948181113469218 0 0 0 0 70.716699405928694 -61.464603143882869 0 -61.464603143882869 -17.287263297432219 0 0 0 0 -49.044771777096685 -41.90254183455545 0 -41.90254183455545 0.78379567060619593 0 0 0 0 54.736053825370618 -47.485824662544474 0 -47.485824662544474 -12.646792567647935 0 0 0 0 183.48377610729221 -79.908559798641363 0 -79.908559798641363 -14.48859524911677 0 0 0 0 -60.846564594507072 -88.947537082360213 0 -88.947537082360213 -1.6822695728683357 0 0 0 0 -156.07317752979725 -15.523607898503542 0 -15.523607898503542 -4.9942567106118076 0 0 0 0 -61.243937381450451 -123.963325206023 0 -123.963325206023 65.685244297652389 0 0 0 0 1.3728459049378259 -1.8974791358659857 0 -1.8974791358659857 2.7920739539377877 0 0 0 0 -0.600582324469217 1.4918044012109224 0 1.4918044012109224 -0.43975717939061099 0 0 0 0 15.437225955247413 158.34425450803974 0 158.34425450803974 624.44886254661105 0 0 0 0 -2.4044830844368335 260.14555081465551 0 260.14555081465551 50.555658006102021 0 0 0 0 27.742851181259084 94.134185677558889 0 94.134185677558889 -50.872486095729982 0 0 0 0 297.18640045250868 231.15820059954422 0 231.15820059954422 -1060.0978605030978 0 0 0 0 -0.49253894611883631 -2.0906623025242865 0 -2.0906623025242865 16.897149379236694 0 0 0 0 -395.61981681072939 -100.745082094807 0 -100.745082094807 45.924228550451517 0 0 0 0 -0.50400263636765885 124.29000871143217 0 124.29000871143217 651.23468880369546 0 0 0 0 -0.066769375047442736 117.04584998477003 0 117.04584998477003 694.38623149890918 0 0 0 0 -36.160499159430401 319.53696900639261 0 319.53696900639261 1525.3003170223674 0 0 0 0 768.70951273494939 -343.43755332700039 0 -343.43755332700039 207.50313796135015 0 0 0 0 18.115827600689954 -18.525574807164958 0 -18.525574807164958 224.2737818928872 0 0 0 0 17.123823234418523 -134.07087292031792 0 -134.07087292031792 53.222741660531028 0 0 0 0 34.965746606289031 183.43748863051587 0 183.43748863051587 532.35237252240768 0 0 0 0 42.244491627925527 167.99056653118896 0 167.99056653118896 442.66483111983689 0 0 0 0 -79.71341999116521 16.30185548159352 0 16.30185548159352 711.31268710345466 0 0 0 0 -18.719646474022738 95.163688639731845 0 95.163688639731845 511.23498949281202 0 0 0 0 -10.815501430890436 123.98454443152878 0 123.98454443152878 595.83486276020267 0 0 0 0 -3.1559558819863014 78.027568972433073 0 78.027568972433073 567.39315723438631 0 0 0 0 -86.732427024171557 -42.269418154864979 0 -42.269418154864979 513.01482604349621 0 0 0 0 -13.348766191357754 100.34392604279492 0 100.34392604279492 468.71264435202465 0 0 0 0 -72.526105454118806 -166.81928733825589 0 -166.81928733825589 608.52297096067923 0 0 0 0 5.4182487113448587 -132.17282237572545 0 -132.17282237572545 557.67830453372153 0 0 0 0 -88.455369739341222 -47.65571870167696 0 -47.65571870167696 527.68334044125368 0 0 0 0 -84.804062291679656 51.592376281631005 0 51.592376281631005 798.04695889254799 0 0 0 0 -239.86377737706061 -126.52327246556888 0 -126.52327246556888 734.38821797883429 0 0 0 0 -22.506558209812283 298.22838430418051 0 298.22838430418051 861.44748530998186 0 0 0 0 0.21405754526746334 -0.21762300772734378 0 -0.21762300772734378 6.9127861818807474 0 0 0 0 574.4266398745167 -626.89911231426231 0 -626.89911231426231 538.21090798437217 0 0 0 0 -202.20909429163748 34.990851885313532 0 34.990851885313532 1269.6782188622383 0 0 0 0 -261.78246883526663 -484.20949079585262 0 -484.20949079585262 1026.4750759904655 0 0 0 0 30.175353584377575 -73.895624538185075 0 -73.895624538185075 -9.5119126960635185 0 0 0 0 -35.122547911137644 -320.77386954067515 0 -320.77386954067515 424.88185908854211 0 0 0 0 68.202453167296838 16.258446691311747 0 16.258446691311747 -98.748752179966687 0 0 0 0 22.820346898860866 -4.379330894431348 0 -4.379330894431348 -0.73869444689864672 0 0 0 0 -54.800540258727779 -89.580277086322894 0 -89.580277086322894 742.67033556683828 0 0 0 0 166.43864735644627 74.055161543053146 0 74.055161543053146 -81.17502511197381 0 0 0 0 15.099443843160563 -2.7307489458025955 0 -2.7307489458025955 0.2048063793006154 0 0 0 0 64.537786653412255 -78.873907029540362 0 -78.873907029540362 488.87029213554342 0 0 0 0 -5.2250182218249392 -25.307474108780298 0 -25.307474108780298 508.10390703182929 0 0 0 0 -92.146225692428175 87.459658889645652 0 87.459658889645652 536.28162528299254 0 0 0 0 -117.76452601723068 131.0766660192885 0 131.0766660192885 579.8584782032267 0 0 0 0 -80.690450778305802 92.623868828231934 0 92.623868828231934 340.7927520178273 0 0 0 0 -104.06610214138782 -52.020972096623154 0 -52.020972096623154 277.53670868037079 0 0 0 0 -0.23385031690315639 125.98135095203907 0 125.98135095203907 450.84938996096025 0 0 0 0 0.066746433663842392 68.035721116788906 0 68.035721116788906 123.87403537365753 0 0 0 0 -47.513534266148511 10.248347595388623 0 10.248347595388623 61.293214007078859 0 0 0 0 -0.43584411940381584 0.50149101445896349 0 0.50149101445896349 -1.2037317348064107 0 0 0 0 -47.991762557420266 -20.386886099248215 0 -20.386886099248215 0.0028783361485693604 0 0 0 0 67.028148769332347 -116.91388125096273 0 -116.91388125096273 150.89910849295484 0 0 0 0 91.720019215269019 -28.467429368900866 0 -28.467429368900866 13.196959766770306 0 0 0 0 24.745548583478239 -36.8006832316496 0 -36.8006832316496 117.72667369228839 0 0 0 0 33.90789742716612 57.196554437102918 0 57.196554437102918 -12.162025193611044 0 0 0 0 -43.406414405725904 -21.27822716668129 0 -21.27822716668129 -1.0410216275049606 0 0 0 0 -31.036488768787535 41.139447404351813 0 41.139447404351813 -8.9015439427930687 0 0 0 0 43.95612656116657 -194.15529619644258 0 -194.15529619644258 358.16834888555968 0 0 0 0 0.23693620066611651 0.20075356835776104 0 0.20075356835776104 6.2478623453066859 0 0 0 0 171.73088420701993 186.72792729153468 0 186.72792729153468 371.0587494099891 0 0 0 0 -104.84082421203152 -29.785676944324223 0 -29.785676944324223 536.14715026250633 0 0 0 0 -104.24219172406447 50.711370047723904 0 50.711370047723904 848.05245635316533 0 0 0 0 -54.340744136223009 160.36312990909755 0 160.36312990909755 628.89078845129552 0 0 0 0 -67.384285167808912 181.05634147213277 0 181.05634147213277 597.77350184054103 0 0 0 0 98.265742733456591 296.01382816552723 0 296.01382816552723 749.21976672766687 0 0 0 0 395.61575213617743 -12.330554196272715 0 -12.330554196272715 659.86126943516865 0 0 0 0 56.39348469104425 127.85807901673616 0 127.85807901673616 604.37597602397364 0 0 0 0 151.53128431298251 66.274405590145761 0 66.274405590145761 459.35352675664035 0 0 0 0 -48.982270660141921 60.304619978136543 0 60.304619978136543 549.30905991487816 0 0 0 0 -48.810595751406822 54.042250112554029 0 54.042250112554029 701.74438966212801 0 0 0 0 -67.738516749735481 182.36600605367494 0 182.36600605367494 783.02425410065189 0 0 0 0 -63.484629823188129 139.27106086410458 0 139.27106086410458 520.66154910513433 0 0 0 0 71.390393628975971 83.636216222286748 0 83.636216222286748 652.51996488748773 0 0 0 0 12.257410200312961 299.75777320458292 0 299.75777320458292 840.77841595718201 0 0 0 0 72.728607877915238 182.86091226706412 0 182.86091226706412 960.01957910919737 0 0 0 0 -64.053133941769602 69.827275345889575 0 69.827275345889575 374.18078220057214 0 0 0 0 0.069337381022885336 1.0577287805289735 0 1.0577287805289735 2.0159107064330897 0 0 0 0 191.44168485248065 339.82455051753601 0 339.82455051753601 387.71243443591811 0 0 0 0 134.65795758299703 14.546644400574223 0 14.546644400574223 -137.39278922687663 0 0 0 0 -0.074444010617803064 0.90604153053703218 0 0.90604153053703218 4.1015029915463401 0 0 0 0 19.411468962018944 -54.16893053975582 0 -54.16893053975582 -137.17033966062866 0 0 0 0 -142.39513557404717 -17.456182536276614 0 -17.456182536276614 79.29367553951306 0 0 0 0 50.580827329029454 -1.3905339378106589 0 -1.3905339378106589 -52.004763915858348 0 0 0 0 5.2868681061438565 -21.175885791139081 0 -21.175885791139081 59.563243553144275 0 0 0 0 20.746603303885877 -30.741694896179979 0 -30.741694896179979 -25.076888875308214 0 0 0 0 75.09458171726601 117.7515291315076 0 117.7515291315076 127.10160863440979 0 0 0 0 24.131635332671635 104.82298789515335 0 104.82298789515335 200.39837185120996 0 0 0 0 117.19349337079871 166.75358557902291 0 166.75358557902291 64.972418075880341 0 0 0 0 35.576046952014622 258.45687159188492 0 258.45687159188492 515.58979551401717 0 0 0 0 22.989189260773742 138.68151728016164 0 138.68151728016164 322.05182212610453 0 0 0 0 -31.231507820198203 62.178608052772688 0 62.178608052772688 465.40532733269356 0 0 0 0 28.397900033304921 17.136020097914297 0 17.136020097914297 162.60744646414969 0 0 0 0 44.333367192673336 53.683913509041304 0 53.683913509041304 168.93008103637112 0 0 0 0 26.788509988368276 -7.6734743209563021 0 -7.6734743209563021 363.14848215827078 0 0 0 0 -28.197369746483503 80.757093989448549 0 80.757093989448549 428.13737442459751 0 0 0 0 7.3207089219906401 -22.3812302930653 0 -22.3812302930653 602.25651240069419 0 0 0 0 -82.556495412029776 140.90081342124631 0 140.90081342124631 644.58351916789616 0 0 0 0 -111.4057831194653 119.35269621755833 0 119.35269621755833 576.71154802677484 0 0 0 0 -112.34047413360508 87.239316503895679 0 87.239316503895679 655.08436900243032 0 0 0 0 -111.28280145333986 123.60557245184646 0 123.60557245184646 723.75260481978694 0 0 0 0 60.39702206603441 214.560218121042 0 214.560218121042 418.90501493289048 0 0 0 0 -42.833599396430003 49.199861627848804 0 49.199861627848804 325.41106328328169 0 0 0 0 -49.208105062379673 96.918788811472041 0 96.918788811472041 473.95099475811367 0 0 0 0 -61.388418730332148 77.03753450844124 0 77.03753450844124 477.87454139784313 0 0 0 0 -7.6076793306797015 102.81554277580108 0 102.81554277580108 183.1369896296892 0 0 0 0 79.868701709335085 206.68250207450183 0 206.68250207450183 250.71176963004837 0 0 0 0 71.899420917478778 136.0326238550897 0 136.0326238550897 245.3261642480461 0 0 0 0 -73.965896536369257 54.540051794639339 0 54.540051794639339 185.90455077630759 0 0 0 0 -95.106979493191034 -105.60359307708131 0 -105.60359307708131 49.590978053962317 0 0 0 0 -0.86148339698685339 -2.0721370655137861 0 -2.0721370655137861 7.1570366266042527 0 0 0 0 47.895520469717212 5.3300576990750415 0 5.3300576990750415 -30.124659368462744 0 0 0 0 -0.23770085035562216 -0.75349363650362022 0 -0.75349363650362022 2.968900121007465 0 0 0 0 -80.494671346102905 -194.198600586049 0 -194.198600586049 -4.010272230636474 0 0 0 0 88.165850429578768 -10.104269494482651 0 -10.104269494482651 92.119704041440855 0 0 0 0 47.577375765341458 -7.109123060334241 0 -7.109123060334241 92.011104611798146 0 0 0 0 45.568172669470101 3.7033772744734961 0 3.7033772744734961 169.82083239192434 0 0 0 0 81.198590593980498 32.422307676879427 0 32.422307676879427 149.1644765273395 0 0 0 0 56.637297622202254 40.05187747401942 0 40.05187747401942 323.90314580340782 0 0 0 0 32.601715254441388 37.325726406994363 0 37.325726406994363 180.88594746342096 0 0 0 0 18.78571074020681 70.449689369082989 0 70.449689369082989 359.70740596371979 0 0 0 0 105.84616465001909 47.27034416933202 0 47.27034416933202 312.54384249760187 0 0 0 0 24.429482520837723 15.067254332709126 0 15.067254332709126 452.75427675630999 0 0 0 0 39.194787386771168 98.610228685865877 0 98.610228685865877 460.13257456402062 0 0 0 0 144.53235841879825 71.070685738228349 0 71.070685738228349 466.58040343723042 0 0 0 0 37.987832879767609 203.05996925344152 0 203.05996925344152 592.91829574770236 0 0 0 0 -80.505640360996381 105.64532863548811 0 105.64532863548811 517.81508842821495 0 0 0 0 -15.885424201856495 1.8069369723525597 0 1.8069369723525597 361.12470057990868 0 0 0 0 67.360005100469607 94.424300683853289 0 94.424300683853289 379.69793141473201 0 0 0 0 82.073267649336231 -4.682039545446969 0 -4.682039545446969 160.91129599419583 0 0 0 0 69.625995351882295 5.1959448272318696 0 5.1959448272318696 157.71655156883207 0 0 0 0 45.791151849454423 -51.800655523133173 0 -51.800655523133173 72.293811931560413 0 0 0 0 33.806196798041327 10.778394846606716 0 10.778394846606716 176.82080187004249 0 0 0 0 -41.408113256287862 112.33747520326688 0 112.33747520326688 118.07242711448635 0 0 0 0 -118.64794835235233 51.185941922496568 0 51.185941922496568 177.66186443511106 0 0 0 0 0.36943062506100977 2.1503314171970658 0 2.1503314171970658 4.4817913241544858 0 0 0 0 -12.683190593280713 -34.73851268675935 0 -34.73851268675935 44.928386579609651 0 0 0 0 -0.21246142311003302 67.681846824469176 0 67.681846824469176 -60.239763391058659 0 0 0 0 -80.553483615537459 -80.564411676377858 0 -80.564411676377858 891.5028138913076 0 0 0 0 0.031996456143353669 0.87969580436364225 0 0.87969580436364225 2.672385765627098 0 0 0 0 -80.841714978168966 -69.265403699280796 0 -69.265403699280796 448.77490616989962 0 0 0 0 -71.564924376524374 145.83117983719058 0 145.83117983719058 654.24084861525625 0 0 0 0 -61.701673993905729 176.51210060079393 0 176.51210060079393 599.78036395704839 0 0 0 0 0.24934507517850396 187.1217699043674 0 187.1217699043674 613.74651597133197 0 0 0 0 -59.957472922311524 122.19068594031705 0 122.19068594031705 543.80300825872564 0 0 0 0 -5.7693397557123429 2.5902279869587801 0 2.5902279869587801 -1.396961501603073 0 0 0 0 -2.2557774608142989 6.5359640602946456 0 6.5359640602946456 -2.764521487239108 0 0 0 0 0.50077982793253639 -5.9870079724669267 0 -5.9870079724669267 4.5484434855898144 0 0 0 0 -4.4170229382331812 11.382270746345966 0 11.382270746345966 3.7226762447244255 0 0 0 0 0.7001998819849663 19.566414444708471 0 19.566414444708471 96.987012701996719 0 0 0 0 2.59864170903397 4.0166320232274302 0 4.0166320232274302 -5.9172929614232999 0 0 0 0 -7.0243122460036744 -70.773867928034633 0 -70.773867928034633 150.33831080928212 0 0 0 0 0.21374799274657341 1.8817916704937261 0 1.8817916704937261 3.80164488601919 0 0 0 0 -0.0076049799745416197 4.4403466221283452 0 4.4403466221283452 -2.7522259593679337 0 0 0 0 -2.5103487277163681 1.835256155353818 0 1.835256155353818 -0.045013642506091855 0 0 0 0 -4.4790313808268571 6.2002065078668238 0 6.2002065078668238 -1.4570474626452778 0 0 0 0 0.27821123813929993 0.6518646117915452 0 0.6518646117915452 0.34324083612636969 0 0 0 0 -0.20507935350909456 -0.29082702618961775 0 -0.29082702618961775 1.0160710513413704 0 0 0 0 -0.012010928820399121 1.6235466603029636 0 1.6235466603029636 4.4867396017871215 0 0 0 0 154.52757365093666 -294.68187176098036 0 -294.68187176098036 462.50018858817202 0 0 0 0 -0.16204471673683218 0.17935519201900973 0 0.17935519201900973 2.4552908627993588 0 0 0 0 -89.605882589247983 -96.659061738831952 0 -96.659061738831952 654.49827423990428 0 0 0 0 0.59059940000540145 76.252578016236569 0 76.252578016236569 253.22524707142293 0 0 0 0 -81.517762818311752 -37.000706650997245 0 -37.000706650997245 448.12251238719909 0 0 0 0 -8.289010318967712 -140.78668303391896 0 -140.78668303391896 200.04530053838334 0 0 0 0 84.310869771563574 -143.92681722236011 0 -143.92681722236011 143.85890608810314 0 0 0 0 -38.412733322795305 -78.11494864328597 0 -78.11494864328597 465.70882092908869 0 0 0 0 -25.021116585452916 -69.896959013160085 0 -69.896959013160085 260.29934097619116 0 0 0 0 6.7398498389279666 40.302406658822292 0 40.302406658822292 544.12022999549163 0 0 0 0 -2.8472865317760636 -187.64808893823351 0 -187.64808893823351 521.53033863579185 0 0 0 0 0.1289768926596091 0.96871141919127979 0 0.96871141919127979 2.4771666772180936 0 0 0 0 9.1789397936562409 143.96507747290525 0 143.96507747290525 -1.3044064258683647 0 0 0 0 34.997945684303033 37.550041436563333 0 37.550041436563333 359.6683233635049 0 0 0 0 120.98889947963875 -34.77025154916555 0 -34.77025154916555 213.38449983565079 0 0 0 0 53.122608468318219 -27.314155903319261 0 -27.314155903319261 401.69046812276065 0 0 0 0 71.392953312912653 -13.042968005074727 0 -13.042968005074727 206.21986461087363 0 0 0 0 112.04047045096854 -30.021876737402636 0 -30.021876737402636 93.222492843560758 0 0 0 0 -22.020072956328022 -28.729400671407348 0 -28.729400671407348 269.6651499738291 0 0 0 0 66.021994338555487 -47.215092834070674 0 -47.215092834070674 -17.206436709777336 0 0 0 0 63.641986252786523 12.982212458653521 0 12.982212458653521 131.44319419444946 0 0 0 0 80.083646775172724 -50.539884145113319 0 -50.539884145113319 90.301341205878998 0 0 0 0 36.960949388346421 38.465306992369733 0 38.465306992369733 -27.514055689497582 0 0 0 0 1.1402640128516595 17.868479387369007 0 17.868479387369007 -3.0960873142030323 0 0 0 0 12.294361718539676 8.4910935898478783 0 8.4910935898478783 63.328238374950161 0 0 0 0 1.5838402815488102 3.0581988069550334 0 3.0581988069550334 4.2702025175250213 0 0 0 0 -9.0262267417781459 -35.250047069588618 0 -35.250047069588618 -19.349220770396641 0 0 0 0 0.31852206146016449 1.3461447854829522 0 1.3461447854829522 0.45070561219830552 0 0 0 0 172.37671412948487 -31.312384475473664 0 -31.312384475473664 -28.4509560295337 0 0 0 0 28.866075586656962 -21.711666569426598 0 -21.711666569426598 23.309866571056773 0 0 0 0 177.67957707995788 4.8382800134349964 0 4.8382800134349964 24.784718214992608 0 0 0 0 129.93040696250978 -15.433341956191725 0 -15.433341956191725 90.981820429995423 0 0 0 0 155.73834571904354 -11.618967171496479 0 -11.618967171496479 18.762624400407731 0 0 0 0 78.135736302285807 -76.190314977657181 0 -76.190314977657181 20.361094441977912 0 0 0 0 148.51506355772472 -6.8521809780249896 0 -6.8521809780249896 93.542350107163657 0 0 0 0 150.86499041526349 24.993731562688481 0 24.993731562688481 46.047198297394061 0 0 0 0 175.73982053365444 18.474355960945104 0 18.474355960945104 2.4937547060762881 0 0 0 0 158.44644749382434 6.1882291308211279 0 6.1882291308211279 39.333731741835436 0 0 0 0 126.71419617245061 54.323299597863297 0 54.323299597863297 88.92639532080284 0 0 0 0 125.28926784980317 7.2277718123141312 0 7.2277718123141312 183.54695065238047 0 0 0 0 140.88828792528784 21.087175572291017 0 21.087175572291017 99.148432624399902 0 0 0 0 107.34325985795243 -9.7374596080007905 0 -9.7374596080007905 250.89444545399601 0 0 0 0 41.941731558035258 20.998421791584406 0 20.998421791584406 244.28856037746846 0 0 0 0 92.513193736799394 109.55731556153933 0 109.55731556153933 377.97315346672985 0 0 0 0 -26.885929870064615 -41.114441598903795 0 -41.114441598903795 412.4086453760101 0 0 0 0 205.7615556486308 47.690774523849541 0 47.690774523849541 191.9877505369659 0 0 0 0 97.362204938556545 -22.067610164524012 0 -22.067610164524012 365.20382675348446 0 0 0 0 208.88587473229995 312.23927108468979 0 312.23927108468979 447.31978520978009 0 0 0 0 46.777941537912533 -6.9241138239362954 0 -6.9241138239362954 125.62039893338806 0 0 0 0 78.033454492129067 80.557910353645639 0 80.557910353645639 182.18618569702085 0 0 0 0 117.67301930001287 -35.295660902018426 0 -35.295660902018426 94.995812962439231 0 0 0 0 14.005789931387767 19.208454317333235 0 19.208454317333235 67.602439480120665 0 0 0 0 111.7226539998278 -18.943802419780695 0 -18.943802419780695 -16.76609748070041 0 0 0 0 -0.15350165565172347 -25.053206092432447 0 -25.053206092432447 1.0086216533891275 0 0 0 0 36.936929923308867 -53.182652332930957 0 -53.182652332930957 -24.239248678197328 0 0 0 0 23.267331504475194 -29.157386190798206 0 -29.157386190798206 -66.132370785657258 0 0 0 0 -11.176282403740387 -6.5207195708135259 0 -6.5207195708135259 -29.492707507539308 0 0 0 0 2.1741120233959155 -5.5083829849714192 0 -5.5083829849714192 9.4350863110838361 0 0 0 0 -133.42010460787884 -95.628455268793914 0 -95.628455268793914 -50.398617455270141 0 0 0 0 -45.577226720945191 -93.277772588597145 0 -93.277772588597145 95.67140536417719 0 0 0 0 -48.53500407509523 72.16915359185441 0 72.16915359185441 370.06106574754813 0 0 0 0 38.40270315582768 101.10237695310025 0 101.10237695310025 145.43761712603737 0 0 0 0 -29.16636132255536 -226.08372949154364 0 -226.08372949154364 -5.6054572469874984 0 0 0 0 35.067106063295114 -95.390280448649719 0 -95.390280448649719 -121.62732183748813 0 0 0 0 0.69042255657773965 -2.0262047233416922 0 -2.0262047233416922 4.2378597159579812 0 0 0 0 45.958097112846929 25.434737475146903 0 25.434737475146903 -81.138157655688701 0 0 0 0 65.976051198403439 -16.984007754786035 0 -16.984007754786035 -2.8356680687793414 0 0 0 0 170.61717088943985 -3.2009823755688558 0 -3.2009823755688558 -49.839763017498626 0 0 0 0 194.19159708943059 -19.256089015580073 0 -19.256089015580073 -6.1946777112170821 0 0 0 0 48.67043948371321 -28.359622816646151 0 -28.359622816646151 136.89061898885848 0 0 0 0 186.79539394199281 -44.945529656428334 0 -44.945529656428334 62.868840891096625 0 0 0 0 157.30764736295501 -26.129428875512531 0 -26.129428875512531 157.89855377644744 0 0 0 0 171.29152346018668 -22.019295997142365 0 -22.019295997142365 -17.371449005622708 0 0 0 0 132.68365802453872 8.3279279712041898 0 8.3279279712041898 23.00443788848861 0 0 0 0 179.94119342866435 -23.03719576558251 0 -23.03719576558251 -19.022926583227672 0 0 0 0 81.242770895540446 23.028116433371906 0 23.028116433371906 -12.520063577754627 0 0 0 0 88.873508148509387 28.802817222858721 0 28.802817222858721 35.972868644814298 0 0 0 0 157.6236982096537 1.4410272025816084 0 1.4410272025816084 -20.154446095162712 0 0 0 0 225.49102703753101 25.052719515144418 0 25.052719515144418 3.3183038978750119 0 0 0 0 158.56275127789016 20.473902675096383 0 20.473902675096383 40.141819596152345 0 0 0 0 6.2669941622778964 11.655058208785704 0 11.655058208785704 33.371981363157829 0 0 0 0 0.36802969597999891 0.15194035512753601 0 0.15194035512753601 1.2022364493697495 0 0 0 0 196.25085072648454 -49.48909896798159 0 -49.48909896798159 23.608718087263696 0 0 0 0 0.15736274382870385 -0.079837284480984039 0 -0.079837284480984039 6.078687449315737 0 0 0 0 -24.638991140657236 -4.8682893493096344 0 -4.8682893493096344 20.963932798375026 0 0 0 0 -4.1443891242369162 2.6164185140878544 0 2.6164185140878544 -5.9975460391797242 0 0 0 0 -20.894822595479091 4.0612949526675948 0 4.0612949526675948 28.2858412531059 0 0 0 0 166.33767005038789 19.705311000187066 0 19.705311000187066 -17.864236885117862 0 0 0 0 133.82646758316463 -23.151142705140387 0 -23.151142705140387 -0.50681321860975004 0 0 0 0 69.037016961649641 62.859367794893842 0 62.859367794893842 50.703314949871128 0 0 0 0 5.9694009822579517 1.2820063628896605 0 1.2820063628896605 12.909382842171908 0 0 0 0 -0.15146898635902056 -0.6626511270896529 0 -0.6626511270896529 6.4783084207776938 0 0 0 0 -33.685261678686885 -0.39525929417413863 0 -0.39525929417413863 5.9195374539194745 0 0 0 0 -9.1618428106721872 17.525135859308648 0 17.525135859308648 9.3761199382834093 0 0 0 0 -50.398597507624523 3.9684326876458726 0 3.9684326876458726 14.362640138340794 0 0 0 0 -0.16236238166724717 -0.43410218890452157 0 -0.43410218890452157 5.9470261690887014 0 0 0 0 -0.051393248308241032 14.155031308307667 0 14.155031308307667 3.1794877754437039 0 0 0 0 -4.8408576347318775 15.223923021461815 0 15.223923021461815 4.2347108983813087 0 0 0 0 -4.7142438036265535 17.569429180244697 0 17.569429180244697 17.074946282482415 0 0 0 0 5.9454699623825888 5.6326396158801799 0 5.6326396158801799 1.1727417098827573 0 0 0 0 0.055449207642924186 0.091118431623765872 0 0.091118431623765872 0.22880017556968824 0 0 0 0 23.932221380758023 -2.1257558056349808 0 -2.1257558056349808 -2.1364396116478019 0 0 0 0 -9.7110322942537515 6.6259240246145055 0 6.6259240246145055 13.949476812165813 0 0 0 0 24.425744992067173 13.152762011988671 0 13.152762011988671 -0.43782621459831716 0 0 0 0 6.8426989879935434 22.338137781660407 0 22.338137781660407 21.723129261954455 0 0 0 0 0.0039819623893796244 10.325852826914522 0 10.325852826914522 8.8891038660585764 0 0 0 0 -4.4848399720813177 -30.198159261373803 0 -30.198159261373803 25.29670744255418 0 0 0 0 -15.274572932438346 -3.8958886328977655 0 -3.8958886328977655 1.2954917607814949 0 0 0 0 -15.201838129711177 3.3885611417135806 0 3.3885611417135806 19.766310767416144 0 0 0 0 10.568632749681456 -16.555361123329931 0 -16.555361123329931 4.6359198254067451 0 0 0 0 -4.1002739094747085 -7.7552127357485006 0 -7.7552127357485006 8.7173448168978211 0 0 0 0 2.9447849081880122 -5.816381389304297 0 -5.816381389304297 -7.6878549133998604 0 0 0 0 -2.8660509725937953 -4.8130841738179555 0 -4.8130841738179555 1.6922471602560236 0 0 0 0 3.0114553789837828 -14.646561553057836 0 -14.646561553057836 25.698444306355668 0 0 0 0 -2.3304155389225745 -0.23057502093297533 0 -0.23057502093297533 1.7106003253463484 0 0 0 0 0.16269281253244117 2.5486280424738652 0 2.5486280424738652 34.173875746808335 0 0 0 0 -5.2416340332028994 -9.32092388392266 0 -9.32092388392266 71.560205242101802 0 0 0 0 -76.006892583357057 1.2877597583010356 0 1.2877597583010356 110.43078635383426 0 0 0 0 5.1846530287123187 31.46136149997983 0 31.46136149997983 56.351207731357135 0 0 0 0 -17.853537879596388 -1.6138420668303297 0 -1.6138420668303297 44.424088279814896 0 0 0 0 -17.562785143673864 -1.2671653167963086 0 -1.2671653167963086 44.042837932377552 0 0 0 0 -10.752128066624209 -0.11454506725021929 0 -0.11454506725021929 39.064160951311351 0 0 0 0 -9.4706080995528055 -5.7378904845008947 0 -5.7378904845008947 58.321010663421475 0 0 0 0 -4.0896353694043448 -2.1069455444670551 0 -2.1069455444670551 42.481468152501009 0 0 0 0 -1.2159242787823779 -0.26047044321040858 0 -0.26047044321040858 10.979804183219208 0 0 0 0 -33.347227112222299 -4.8563371414848007 0 -4.8563371414848007 92.053134610010602 0 0 0 0 -4.4561010164843537 -2.5878110581943474 0 -2.5878110581943474 39.807964327774243 0 0 0 0 -18.889594321695768 21.821807087177149 0 21.821807087177149 10.048918741136731 0 0 0 0 -3.3289502606875825 -1.3051480420091082 0 -1.3051480420091082 36.71245183084794 0 0 0 0 -12.715456536153768 -2.5775104141300673 0 -2.5775104141300673 11.267835077982276 0 0 0 0 -4.1490354599536658 -32.426375137663854 0 -32.426375137663854 -9.7869990235558362 0 0 0 0 -30.331304133351296 -18.7125722437886 0 -18.7125722437886 63.832258370832278 0 0 0 0 -51.699876212380332 -9.90179377270033 0 -9.90179377270033 60.344158730997151 0 0 0 0 0.46934133434660907 -27.812609815158794 0 -27.812609815158794 -7.1243615721396054 0 0 0 0 -50.44441926739205 -25.151129572556329 0 -25.151129572556329 5.5834385609559831 0 0 0 0 -10.049577757285533 -3.8130041124395575 0 -3.8130041124395575 11.568598435202148 0 0 0 0 -52.441574342213471 -45.678208723103126 0 -45.678208723103126 0.5737687203582027 0 0 0 0 -0.05849595796244067 -4.3159630107265539 0 -4.3159630107265539 14.337388777468348 0 0 0 0 -2.5336748043550927 -3.791193728406288 0 -3.791193728406288 7.6163600407174386 0 0 0 0 3.356136256164973 -20.316447876404709 0 -20.316447876404709 -9.2685694080792018 0 0 0 0 -7.5074675190021054 -7.8493849149457589 0 -7.8493849149457589 18.745093566083995 0 0 0 0 -0.28699758741949566 0.1082234046328594 0 0.1082234046328594 8.3210289675805225 0 0 0 0 -26.342515474092579 12.038023844736017 0 12.038023844736017 32.073987181363918 0 0 0 0 -42.982239803768607 -48.179872792523383 0 -48.179872792523383 -16.259106198151358 0 0 0 0 -26.212125995803035 13.284148098230617 0 13.284148098230617 10.281614072766388 0 0 0 0 -17.06234846362986 -18.060235055394514 0 -18.060235055394514 12.43304811419614 0 0 0 0 -0.2962439197443516 -2.5287025399762442 0 -2.5287025399762442 8.5448444379946835 0 0 0 0 -165.51075252260512 -59.728618018109955 0 -59.728618018109955 26.902939738363784 0 0 0 0 -0.75793503320335409 0.74798884405324007 0 0.74798884405324007 11.599220989723349 0 0 0 0 -55.299246122028308 -35.425370023960568 0 -35.425370023960568 -7.3460251999458706 0 0 0 0 -12.611117408065184 -24.486666006821906 0 -24.486666006821906 -2.796476135867124 0 0 0 0 10.84981806302676 -48.161723243720189 0 -48.161723243720189 -17.161664630351879 0 0 0 0 -43.880094347239719 -54.562223974940935 0 -54.562223974940935 -0.25950450576783624 0 0 0 0 7.0466531667461823 -31.568818296895188 0 -31.568818296895188 -11.789144574286183 0 0 0 0 21.481269250039531 -12.819131353933699 0 -12.819131353933699 -1.8483221639762633 0 0 0 0 3.7394186435747749 -7.897485251627022 0 -7.897485251627022 4.6140380182717138 0 0 0 0 20.404084632755257 -14.903233723758603 0 -14.903233723758603 2.4133319705542817 0 0 0 0 25.444288541571495 -0.039004180840493063 0 -0.039004180840493063 10.143995067992364 0 0 0 0 24.126313468801527 -10.737815804777711 0 -10.737815804777711 -1.6825684538925998 0 0 0 0 19.826644193019092 -7.0688577747278032 0 -7.0688577747278032 14.084863711120306 0 0 0 0 7.2518331593156704 -8.2714255693891481 0 -8.2714255693891481 1.519343372495257 0 0 0 0 17.488968403288709 -12.138440563567201 0 -12.138440563567201 -0.19634829856659053 0 0 0 0 -2.1658677990526485 -25.140496154508583 0 -25.140496154508583 -1.5267058898225514 0 0 0 0 12.589443644907078 -7.7628825796018646 0 -7.7628825796018646 4.9549387056977139 0 0 0 0 5.4801851855900168 -20.882457961433829 0 -20.882457961433829 -0.53354655839211773 0 0 0 0 -2.7502304066710441 -7.4290868854677647 0 -7.4290868854677647 7.610226565950299 0 0 0 0 -3.0047511281434254 -7.4451313321123962 0 -7.4451313321123962 7.1691447081975639 0 0 0 0 -4.1156623539765178 -6.7801431918533126 0 -6.7801431918533126 8.1474928199022543 0 0 0 0 -3.6784795739822584 -5.9800475296106015 0 -5.9800475296106015 5.2723068818522734 0 0 0 0 -15.573114406652614 58.976534594921986 0 58.976534594921986 17.503954140549467 0 0 0 0 -7.8886458089593248 -9.3358025714619544 0 -9.3358025714619544 3.6067987407222972 0 0 0 0 -0.50919194554199887 -3.8180290474497411 0 -3.8180290474497411 7.5853909826315373 0 0 0 0 -19.275063323141694 -29.753395761865249 0 -29.753395761865249 29.48760103652603 0 0 0 0 -55.949537130093631 -110.42426387115484 0 -110.42426387115484 -79.617734818439203 0 0 0 0 -2.719661259783507 -0.92928702508964278 0 -0.92928702508964278 2.2864840705046987 0 0 0 0 -8.1275506579968351 0.0070333407802536385 0 0.0070333407802536385 -1.5455079454113729 0 0 0 0 -82.472424724857206 -27.452181278824355 0 -27.452181278824355 10.144500176829752 0 0 0 0 -79.842714485104352 -19.191243919231056 0 -19.191243919231056 34.38253724767128 0 0 0 0 -48.011026480482997 -111.25880743292146 0 -111.25880743292146 -121.29133802565411 0 0 0 0 -0.86247264962728476 -0.3313949045721003 0 -0.3313949045721003 0.76217133334390041 0 0 0 0 -47.634577351313709 -30.771587491592072 0 -30.771587491592072 -11.074516265405691 0 0 0 0 0.74303968606818671 -23.040118624834577 0 -23.040118624834577 1.1694551584150759 0 0 0 0 -16.123769280994566 57.67338535743329 0 57.67338535743329 85.713973514695681 0 0 0 0 -11.292078638260364 14.793969268568617 0 14.793969268568617 39.857285890640924 0 0 0 0 -55.450963599844926 27.125677584968344 0 27.125677584968344 44.493641583845601 0 0 0 0 -53.763858102143558 -25.826205502766243 0 -25.826205502766243 7.4471911964428728 0 0 0 0 -32.006637508601102 12.828008889396187 0 12.828008889396187 -11.934756747577921 0 0 0 0 -78.733579406675062 2.1677540252567269 0 2.1677540252567269 -23.915464025383699 0 0 0 0 -57.366905062240676 -94.901686692406656 0 -94.901686692406656 -105.96695394593735 0 0 0 0 0.23491013258232663 -1.2667763059675963 0 -1.2667763059675963 2.8126832928014665 0 0 0 0 1.771769863333887 -4.8995523817666538 0 -4.8995523817666538 6.5625695313926116 0 0 0 0 -55.085388699905707 -66.533451521321695 0 -66.533451521321695 30.128723877969605 0 0 0 0 -132.05022731952681 -53.104469256441007 0 -53.104469256441007 8.7080688223795732 0 0 0 0 61.012167869162354 158.99205105742749 0 158.99205105742749 196.96260494075977 0 0 0 0 -6.5441421142679133 89.561620428827155 0 89.561620428827155 251.60803863256115 0 0 0 0 12.880250117410526 63.129153546889938 0 63.129153546889938 85.360546045114461 0 0 0 0 -13.946381671428298 63.338610096012417 0 63.338610096012417 141.50089773333502 0 0 0 0 2.3138143969977278 83.15000310434425 0 83.15000310434425 71.989885740636964 0 0 0 0 -24.107970843232394 47.895389516048454 0 47.895389516048454 121.43721665826888 0 0 0 0 -41.794651348804905 -1.2910580184470746 0 -1.2910580184470746 59.328630772478391 0 0 0 0 -9.6322572749755579 34.691907646483742 0 34.691907646483742 98.715503212573822 0 0 0 0 -48.524706506146174 -19.638525689215385 0 -19.638525689215385 -9.429802632843348 0 0 0 0 -33.547994089313676 -47.492510287729601 0 -47.492510287729601 39.607590267332853 0 0 0 0 -110.79190748443418 -134.46631822325799 0 -134.46631822325799 -37.866067699600535 0 0 0 0 2.7690357412584925 -6.8260113623108651 0 -6.8260113623108651 11.726745536189497 0 0 0 0 30.666821873258705 -62.488767307059334 0 -62.488767307059334 2.7505450037278933 0 0 0 0 1.3736550002227355 -6.1429584446678405 0 -6.1429584446678405 10.965333619653435 0 0 0 0 -131.44053442678501 -70.885886154341279 0 -70.885886154341279 -18.99454262117797 0 0 0 0 -2.8790850103837329 -22.118488938827795 0 -22.118488938827795 -4.5944865332276095 0 0 0 0 -5.6383068171437571 -14.366622001306496 0 -14.366622001306496 12.589909567846917 0 0 0 0 -103.18484582799829 -94.856915258025765 0 -94.856915258025765 -40.824756691323273 0 0 0 0 -104.41913635833328 -57.814283639640053 0 -57.814283639640053 31.160930950156398 0 0 0 0 10.100877333930839 -2.46689936918483 0 -2.46689936918483 -2.6078602936122479 0 0 0 0 2.0116323088050194 1.2518067639321089 0 1.2518067639321089 14.477723599025921 0 0 0 0 1.4455595231165717 -2.7928389558801427 0 -2.7928389558801427 4.9677503029452055 0 0 0 0 10.119974809815631 38.797317617169028 0 38.797317617169028 0.40401651948195649 0 0 0 0 23.324363789206018 30.912313640579669 0 30.912313640579669 15.577186364625959 0 0 0 0 20.6108996911247 23.438590185266548 0 23.438590185266548 4.5309225056043942 0 0 0 0 -17.172009178776875 -33.694063000996721 0 -33.694063000996721 -15.621892871004093 0 0 0 0 32.39932941408486 -7.6684546263611537 0 -7.6684546263611537 -30.369836617195688 0 0 0 0 43.51527829500219 29.287745938876469 0 29.287745938876469 -0.040046552578132832 0 0 0 0 22.743248719801159 11.316649625405262 0 11.316649625405262 68.356311084091431 0 0 0 0 34.538038530410631 42.431507442288421 0 42.431507442288421 55.983264004200464 0 0 0 0 19.93378833916222 19.225036132515925 0 19.225036132515925 11.586264278805174 0 0 0 0 18.13151953994975 15.125496831427881 0 15.125496831427881 32.382873090115027 0 0 0 0 -103.10554251946883 -123.47208605032938 0 -123.47208605032938 -52.488916957352558 0 0 0 0 -52.037739339845032 -16.806002292560152 0 -16.806002292560152 -15.573362510458537 0 0 0 0 24.848250805573343 34.005321593367626 0 34.005321593367626 54.075208269408904 0 0 0 0 3.1067766782828423 -6.9335218221340398 0 -6.9335218221340398 11.270301904012939 0 0 0 0 8.6367690806248447 -73.767141996861028 0 -73.767141996861028 -41.806326406214794 0 0 0 0 60.434857311559426 47.637926193419844 0 47.637926193419844 56.634603479935322 0 0 0 0 -63.900454167932821 -24.594242505892908 0 -24.594242505892908 251.3193526857649 0 0 0 0 162.41403656244907 103.00408440372894 0 103.00408440372894 162.6683495800753 0 0 0 0 136.07547026682258 -71.741660824365226 0 -71.741660824365226 243.93849673119257 0 0 0 0 -14.611550086345233 -39.12224536328722 0 -39.12224536328722 520.58603904085794 0 0 0 0 -37.337079152852311 61.975238698027169 0 61.975238698027169 240.61685230001603 0 0 0 0 -10.420266579435975 4.6261199777418369 0 4.6261199777418369 113.671975214751 0 0 0 0 5.9161965301130977 56.813839655920674 0 56.813839655920674 190.93417624739232 0 0 0 0 34.413415908583602 4.3758253224186774 0 4.3758253224186774 94.094113934665074 0 0 0 0 53.313776405942008 37.595680900441948 0 37.595680900441948 83.150039381625902 0 0 0 0 -52.582205814624103 70.122218692233218 0 70.122218692233218 505.99321546414467 0 0 0 0 -47.323509316043371 -4.5512264407085468 0 -4.5512264407085468 232.34970488391991 0 0 0 0 -33.652266499653024 -13.401660071845981 0 -13.401660071845981 198.18806204028442 0 0 0 0 -42.497351901491811 -22.922290528418671 0 -22.922290528418671 228.56344551395523 0 0 0 0 -41.652382852937933 -28.523653552093037 0 -28.523653552093037 184.30585385740414 0 0 0 0 -3.6764826685900971 -20.679294335413942 0 -20.679294335413942 156.86541498631414 0 0 0 0 -24.457348882883707 -0.13818542160151992 0 -0.13818542160151992 162.29295474598234 0 0 0 0 -8.3222015487824592 13.855981344427164 0 13.855981344427164 129.50255553484021 0 0 0 0 -17.823579015383757 -3.0160103159814753 0 -3.0160103159814753 81.444573394521285 0 0 0 0 -37.713974154308062 13.257833046104679 0 13.257833046104679 130.24168972160987 0 0 0 0 -35.204156128545037 11.057556901370845 0 11.057556901370845 146.95906792799724 0 0 0 0 -7.815968691964315 13.738278850908955 0 13.738278850908955 90.200408734293887 0 0 0 0 -22.918422280187542 22.452584233607467 0 22.452584233607467 61.808808943809709 0 0 0 0 -32.829887452182447 -11.714223673403467 0 -11.714223673403467 75.300468160072342 0 0 0 0 -95.289828777393268 -15.931354524924245 0 -15.931354524924245 43.743242534328601 0 0 0 0 -1.3890778422367287 -0.31948053067200988 0 -0.31948053067200988 0.012239137637335418 0 0 0 0 -34.048000000611864 -71.724730894566164 0 -71.724730894566164 -40.768733909033472 0 0 0 0 -16.109689404380788 26.927973388810642 0 26.927973388810642 -25.263667320192326 0 0 0 0 -28.038062588217599 -22.002688594158826 0 -22.002688594158826 15.453347288254008 0 0 0 0 -111.02413905220192 -78.22954393337568 0 -78.22954393337568 86.98154838928167 0 0 0 0 55.04516694124527 112.27797169153018 0 112.27797169153018 -58.418136510183103 0 0 0 0 5.4493922341871439 75.235941390899825 0 75.235941390899825 85.77886045251762 0 0 0 0 30.780298592610052 21.028634477625019 0 21.028634477625019 11.01058081656447 0 0 0 0 21.685768427502353 -17.26442270636835 0 -17.26442270636835 -104.93340549070854 0 0 0 0 -10.546771106379932 21.089811404774849 0 21.089811404774849 3.4455740701509994 0 0 0 0 15.950005687833709 13.121061113692122 0 13.121061113692122 -16.116127063338354 0 0 0 0 -4.0684723535341512 0.33589546833974993 0 0.33589546833974993 6.5333715644716452 0 0 0 0 -14.125568993844809 -6.5304534336319193 0 -6.5304534336319193 28.667592317848175 0 0 0 0 -18.532106432387536 -5.122538106963475 0 -5.122538106963475 43.089390278846622 0 0 0 0 -3.2556096768569205 1.0804091800036986 0 1.0804091800036986 17.722832325353693 0 0 0 0 -15.718943395404835 4.1669892344316395 0 4.1669892344316395 65.891220496672759 0 0 0 0 -11.429210303741002 20.092313083281624 0 20.092313083281624 88.480214341774172 0 0 0 0 19.725435760967684 41.975912359788254 0 41.975912359788254 33.122558740091335 0 0 0 0 -0.84789836488575254 3.0307800682963721 0 3.0307800682963721 1.1028221468416746 0 0 0 0 13.117586574222514 0.27928823275215109 0 0.27928823275215109 86.060829961392301 0 0 0 0 2.3808263394678306 3.7248602632625989 0 3.7248602632625989 126.35595353274402 0 0 0 0 -8.3488464799333997 28.470409121473494 0 28.470409121473494 83.126202715913678 0 0 0 0 -22.911447649569254 6.0819859546145381 0 6.0819859546145381 151.60251150555268 0 0 0 0 -22.507134578055684 8.3931284259451786 0 8.3931284259451786 164.12159674752911 0 0 0 0 14.707818439326616 -24.259757709418409 0 -24.259757709418409 145.4580813096909 0 0 0 0 2.7242334794721046 7.7059130636935151 0 7.7059130636935151 117.3153646177816 0 0 0 0 5.1475110469059473 -4.7471083207601623 0 -4.7471083207601623 146.94300754227879 0 0 0 0 10.198316904090007 -13.663458948834887 0 -13.663458948834887 112.60642358654877 0 0 0 0 -0.67752375985810431 -0.72707183829334099 0 -0.72707183829334099 124.81772809358131 0 0 0 0 5.37136583717961 -6.4315690752955561 0 -6.4315690752955561 96.377279809225001 0 0 0 0 -0.90235472612584999 8.10640984192014 0 8.10640984192014 89.714567306291428 0 0 0 0 0.83290217732746896 22.396868018124223 0 22.396868018124223 77.48338013610919 0 0 0 0 -2.4706948885277598 10.878020945401659 0 10.878020945401659 65.40123258422318 0 0 0 0 -7.8652642228084915 6.3375807547090517 0 6.3375807547090517 110.4780155170647 0 0 0 0 -8.9030941581637535 17.501218014802362 0 17.501218014802362 60.518578504335892 0 0 0 0 -20.958938193085487 10.697445231191523 0 10.697445231191523 57.165013842764893 0 0 0 0 2.4159646916554038 -5.3981334647514814 0 -5.3981334647514814 82.401899637348833 0 0 0 0 -6.0784195718574665 20.078967024895974 0 20.078967024895974 55.720783272994595 0 0 0 0 0.14514203083103894 4.5584689957613591 0 4.5584689957613591 77.246069202534272 0 0 0 0 -10.282587082994723 -2.5781682245906268 0 -2.5781682245906268 109.30596923507619 0 0 0 0 -8.4331421068113741 28.36893119538945 0 28.36893119538945 56.823623240965389 0 0 0 0 -13.037897499953033 21.231333345982421 0 21.231333345982421 60.238830157042685 0 0 0 0 -4.4205269627498183 24.743036767002195 0 24.743036767002195 36.601006428230903 0 0 0 0 -20.387906226058021 29.92084562396667 0 29.92084562396667 46.139463314932073 0 0 0 0 -10.31043971256895 25.327628448860196 0 25.327628448860196 34.475895919284085 0 0 0 0 -6.3683230385513196 14.100611588201076 0 14.100611588201076 33.060275605393457 0 0 0 0 -16.963673937733006 33.142906015922563 0 33.142906015922563 16.641313308900862 0 0 0 0 -25.839026984634984 32.559592314675683 0 32.559592314675683 26.757154414199249 0 0 0 0 -23.286574729540405 42.336525115963468 0 42.336525115963468 23.333418124631862 0 0 0 0 -19.297434864524462 31.431314687097256 0 31.431314687097256 39.727360844161012 0 0 0 0 -11.480886155858116 35.253011501376022 0 35.253011501376022 26.589333608462766 0 0 0 0 -9.3196385809633284 35.000117194254926 0 35.000117194254926 23.790536801992857 0 0 0 0 -15.486108846698812 28.561682319853389 0 28.561682319853389 38.026762904948555 0 0 0 0 -17.657607253642709 18.981888945672836 0 18.981888945672836 185.11809812285901 0 0 0 0 -9.9412618410260318 21.992426665023622 0 21.992426665023622 3.0803984948930303 0 0 0 0 -1.8903947921849067 43.267768478941434 0 43.267768478941434 178.10654818581315 0 0 0 0 -12.143101937432903 28.438414567168365 0 28.438414567168365 13.958516918555688 0 0 0 0 -1.5586905844987946 -0.36716616421280435 0 -0.36716616421280435 8.124340959557852 0 0 0 0 -24.451488208864248 4.7253130493991193 0 4.7253130493991193 251.03203269896039 0 0 0 0 7.2135765814209662 -14.761971490106589 0 -14.761971490106589 249.08591145889295 0 0 0 0 1.9865803168090181 1.5439279342379137 0 1.5439279342379137 -4.0367512005616319 0 0 0 0 -22.549452640143045 26.97377803778727 0 26.97377803778727 34.797493573901193 0 0 0 0 7.6341572375440592 19.332444104147726 0 19.332444104147726 35.093593491634238 0 0 0 0 -8.78089879990398 20.922940729846232 0 20.922940729846232 28.807094922914985 0 0 0 0 -11.49218824261834 36.665800624456097 0 36.665800624456097 47.706046434286691 0 0 0 0 -20.428958859344675 18.418125528774908 0 18.418125528774908 141.04068468286005 0 0 0 0 -10.149321949225914 22.771030937221617 0 22.771030937221617 -2.7165020983582737 0 0 0 0 -1.4707037402872629 32.706461444236993 0 32.706461444236993 -2.1521786358680401 0 0 0 0 -38.459714938044272 -5.5090749511491595 0 -5.5090749511491595 99.82943751358107 0 0 0 0 -19.180210776686181 -31.234462310867457 0 -31.234462310867457 53.550362373491225 0 0 0 0 -7.3202640149183935 33.038337358669196 0 33.038337358669196 67.336241836561385 0 0 0 0 -13.140762686968628 -25.3811083994824 0 -25.3811083994824 59.141294723940518 0 0 0 0 -35.579335828144394 -31.750511841577463 0 -31.750511841577463 69.792502150925429 0 0 0 0 -10.213085542438876 -14.909981587157745 0 -14.909981587157745 46.926136492351361 0 0 0 0 -30.270988913081055 -26.166001270856214 0 -26.166001270856214 75.660576534472057 0 0 0 0 -19.11600936056675 6.8637299319452723 0 6.8637299319452723 90.421864450872818 0 0 0 0 -2.9372788152242455 -6.6441291936084497 0 -6.6441291936084497 0.96852412533544907 0 0 0 0 -15.374379155716269 -22.53108187948601 0 -22.53108187948601 71.903629979762627 0 0 0 0 -3.5079888261343513 -4.0237675185849184 0 -4.0237675185849184 83.186066453545209 0 0 0 0 -8.7010905351207839 -16.028102432796004 0 -16.028102432796004 98.360589728525156 0 0 0 0 -1.3277362611206627 21.564062775243656 0 21.564062775243656 116.12652744491788 0 0 0 0 2.8161897479476465 -14.338697219576716 0 -14.338697219576716 143.02967875428294 0 0 0 0 1.0123711017331516 9.0393961237336953 0 9.0393961237336953 123.25449744673097 0 0 0 0 13.083987886376235 24.427744402897588 0 24.427744402897588 179.16614761703022 0 0 0 0 8.6112772290125577 -18.213407914230629 0 -18.213407914230629 127.49646865716568 0 0 0 0 16.144017526123207 -16.962257726452663 0 -16.962257726452663 65.796672715601744 0 0 0 0 -29.856890469381597 2.6893207823404737 0 2.6893207823404737 62.519659249894175 0 0 0 0 -3.2538207322168091 6.4411181474315526 0 6.4411181474315526 104.55753480986095 0 0 0 0 -1.3520775761548975 1.0882538669520727 0 1.0882538669520727 58.261865653485074 0 0 0 0 -1.0285255037906609 -31.350381969641603 0 -31.350381969641603 88.796899918685085 0 0 0 0 10.766200170714228 -29.089939139633771 0 -29.089939139633771 16.603344213768651 0 0 0 0 43.30419105566034 -25.726107367021541 0 -25.726107367021541 -29.840851051601931 0 0 0 0 -4.6021493295546776 -6.9933593601948161 0 -6.9933593601948161 0.26535541398780715 0 0 0 0 -31.131446518093639 10.620903236540926 0 10.620903236540926 11.708233849996759 0 0 0 0 -32.470519611229179 17.144046233553581 0 17.144046233553581 129.91905201071495 0 0 0 0 -9.8346056636773937 -115.84192099557913 0 -115.84192099557913 282.52520332226413 0 0 0 0 16.175965656428161 -46.556776712513965 0 -46.556776712513965 90.817325881407669 0 0 0 0 -15.067096012176989 -46.147446261191362 0 -46.147446261191362 95.559912989741861 0 0 0 0 -2.1176293574417286 20.779773487067359 0 20.779773487067359 14.819610850714525 0 0 0 0 12.573668142038514 -52.755473100081872 0 -52.755473100081872 97.78081752511207 0 0 0 0 18.618998597206883 -6.3498426859623578 0 -6.3498426859623578 -2.9152038821048336 0 0 0 0 -7.5833740205005995 -6.7622508186702746 0 -6.7622508186702746 2.4444729112085293 0 0 0 0 10.917197783464871 2.3270957964032277 0 2.3270957964032277 -28.704780849795497 0 0 0 0 -43.698591116157331 13.358146342212422 0 13.358146342212422 13.728979629669993 0 0 0 0 243.52005062671105 -72.195539038602874 0 -72.195539038602874 16.285081496757925 0 0 0 0 85.77965981808984 -200.54676774323889 0 -200.54676774323889 292.81225508339776 0 0 0 0 128.12087155330028 -49.79295405380617 0 -49.79295405380617 252.16252133273247 0 0 0 0 283.84490910959539 -222.24199378174762 0 -222.24199378174762 255.83632901848978 0 0 0 0 58.28515071094489 -158.42406097692583 0 -158.42406097692583 229.60792062170003 0 0 0 0 73.303422445065735 -144.44967391276623 0 -144.44967391276623 157.68041107149838 0 0 0 0 -15.077669637198369 -58.681680389114263 0 -58.681680389114263 187.21925576477224 0 0 0 0 32.543985134962895 -38.307253845028754 0 -38.307253845028754 118.34896483653938 0 0 0 0 42.74443165136779 -102.66420823601197 0 -102.66420823601197 229.56674240774009 0 0 0 0 -14.424551257216081 -49.74042675482815 0 -49.74042675482815 144.47199127836575 0 0 0 0 81.434952968506877 -12.421456363656034 0 -12.421456363656034 128.26369558847364 0 0 0 0 89.769971296043877 -114.42053684886014 0 -114.42053684886014 242.15784834631631 0 0 0 0 119.96063885513649 -116.41607556036615 0 -116.41607556036615 198.78181267715263 0 0 0 0 88.059734328491686 -190.11206562290499 0 -190.11206562290499 322.38872023734075 0 0 0 0 152.18073530104084 -177.3489538730264 0 -177.3489538730264 262.44443971747751 0 0 0 0 181.68202521972125 -300.95113838589532 0 -300.95113838589532 432.1677782445779 0 0 0 0 -0.32568345845928448 0.4175292439576026 0 0.4175292439576026 1.6486291865574003 0 0 0 0 -10.874959491242862 -4.1015621947626641 0 -4.1015621947626641 22.077295657079958 0 0 0 0 -3.1314819226179686 -7.1429363255263496 0 -7.1429363255263496 0.19945453139917069 0 0 0 0 26.583815564479664 -8.6982599676339305 0 -8.6982599676339305 -15.130199832301741 0 0 0 0 -0.88097696749789378 0.95569422523129788 0 0.95569422523129788 5.7087265423335367 0 0 0 0 89.618402806261656 -184.33638396125752 0 -184.33638396125752 321.98582001353702 0 0 0 0 102.94766867738235 -232.52925696861712 0 -232.52925696861712 487.57973443315495 0 0 0 0 1.4039129410576905 -0.080412588241429717 0 -0.080412588241429717 -0.18277259694739989 0 0 0 0 -3.0253740868483909 -3.8937335782626192 0 -3.8937335782626192 -1.2048073534281656 0 0 0 0 -6.168649081681906 -1.9718531916854545 0 -1.9718531916854545 -7.9841708817875769 0 0 0 0 -11.115410327253812 -18.814227771701553 0 -18.814227771701553 112.87279949153526 0 0 0 0 -3.0000920753172977 5.9334033510840527 0 5.9334033510840527 101.94732609755374 0 0 0 0 -3.0171427097495211 -37.453157891703313 0 -37.453157891703313 55.071025814722816 0 0 0 0 -0.15812228870322542 10.592417478116658 0 10.592417478116658 148.70859062831732 0 0 0 0 -5.5359042140644306 -28.136683791701216 0 -28.136683791701216 186.91818833699472 0 0 0 0 -79.998415752816072 -40.728287037811242 0 -40.728287037811242 249.33072450484906 0 0 0 0 -3.6668534230789191 -132.56473705444841 0 -132.56473705444841 55.95313948643161 0 0 0 0 -74.482811214169033 -23.148111719197914 0 -23.148111719197914 179.56018977008534 0 0 0 0 -36.608501463818357 -165.8161488008609 0 -165.8161488008609 300.55940247588023 0 0 0 0 -39.096789317968614 66.213239462489582 0 66.213239462489582 442.63348951256376 0 0 0 0 151.83860395492138 -228.88389860770076 0 -228.88389860770076 222.13886972306136 0 0 0 0 135.34888554201189 -204.68207946000621 0 -204.68207946000621 158.97423771842659 0 0 0 0 130.36678544045753 -191.1590941581162 0 -191.1590941581162 155.85887342687784 0 0 0 0 -1.4122766156425612 -0.67600497303581619 0 -0.67600497303581619 -0.048788187163694374 0 0 0 0 225.56087102679953 175.59729513881939 0 175.59729513881939 14.924903950952285 0 0 0 0 140.60780901302084 -140.76296170074681 0 -140.76296170074681 135.34744533780031 0 0 0 0 -74.906951938741372 -182.11038578934676 0 -182.11038578934676 179.80971034308459 0 0 0 0 195.24845596166847 -113.47309418681289 0 -113.47309418681289 173.63157418065384 0 0 0 0 -51.623368739627949 -214.0456995427503 0 -214.0456995427503 156.7516802809896 0 0 0 0 168.99824942016858 177.2195266173876 0 177.2195266173876 154.8607436791699 0 0 0 0 0.37252666315635441 -1.3600093234316022 0 -1.3600093234316022 3.7914594843548457 0 0 0 0 -210.28980635102425 -317.62932303746948 0 -317.62932303746948 242.15891391671539 0 0 0 0 -23.940044092195421 -362.70927085033509 0 -362.70927085033509 163.3743194580602 0 0 0 0 114.95082669977501 185.96900862466919 0 185.96900862466919 17.539948811332124 0 0 0 0 -0.58945965720820581 0.22452231715799087 0 0.22452231715799087 0.28283123397657661 0 0 0 0 -16.432525405872639 11.123646583626396 0 11.123646583626396 39.166485951391905 0 0 0 0 -25.619455155336254 34.823950648996288 0 34.823950648996288 243.44736632470085 0 0 0 0 -58.258165241831193 -27.489816354767754 0 -27.489816354767754 39.307292535139595 0 0 0 0 -38.248468067283007 -20.716148899045265 0 -20.716148899045265 130.56403366670565 0 0 0 0 -68.869546095223086 82.583732252109257 0 82.583732252109257 196.63923293225344 0 0 0 0 102.81742678018668 53.164593533432708 0 53.164593533432708 52.06822444179852 0 0 0 0 0.66140170780727203 17.398377626279398 0 17.398377626279398 39.893210030360933 0 0 0 0 3.4988824365243545 25.176404215960702 0 25.176404215960702 21.188254784177843 0 0 0 0 -18.122710404697955 5.9766475676096888 0 5.9766475676096888 67.174697675809512 0 0 0 0 -36.611428153507859 27.74110861659392 0 27.74110861659392 42.940002329676645 0 0 0 0 -35.892821660094796 28.580605243494574 0 28.580605243494574 32.997879453272617 0 0 0 0 -26.396279912686623 19.034044264539261 0 19.034044264539261 29.89826773661116 0 0 0 0 -4.408644026395236 11.182054704325523 0 11.182054704325523 36.504984992416979 0 0 0 0 13.207269719021951 28.375222157434109 0 28.375222157434109 24.585436427574678 0 0 0 0 4.0306076204551573 6.1990244198077562 0 6.1990244198077562 15.447924451007566 0 0 0 0 -7.3157689968411432 38.256516399389511 0 38.256516399389511 25.478038004684095 0 0 0 0 -26.278295412145781 10.701420145745942 0 10.701420145745942 19.332613202852372 0 0 0 0 -4.1929689980600218 3.7572111189630881 0 3.7572111189630881 29.406210469279557 0 0 0 0 -2.6568450605696903 -5.2179544594860232 0 -5.2179544594860232 27.42385815559539 0 0 0 0 -5.6078084908945893 11.379738809295205 0 11.379738809295205 35.120048540136438 0 0 0 0 7.8746816173998013 -46.021739750624874 0 -46.021739750624874 32.602866170236666 0 0 0 0 -42.524108358854392 8.0040320095795323 0 8.0040320095795323 36.325045133708045 0 0 0 0 -33.129907945406558 16.4424176240409 0 16.4424176240409 39.934014318496338 0 0 0 0 -34.194978986262868 19.015268217735866 0 19.015268217735866 35.076300251362227 0 0 0 0 -34.667462799016903 17.78408126609429 0 17.78408126609429 39.318695710882821 0 0 0 0 -40.415401081500931 17.604600035164367 0 17.604600035164367 51.145240827740054 0 0 0 0 -23.883042138922065 25.451411502839619 0 25.451411502839619 43.69744809011172 0 0 0 0 -0.0058268878799987434 -0.81636507336664277 0 -0.81636507336664277 3.2966666142319099 0 0 0 0 -157.16469743834068 60.420795640704455 0 60.420795640704455 68.464536066159781 0 0 0 0 -186.24174769549018 -4.2331995239383104 0 -4.2331995239383104 27.882312971458305 0 0 0 0 -0.71434312672924882 -0.4329047827626491 0 -0.4329047827626491 10.35355942647972 0 0 0 0 -87.887031148060487 60.694849781568337 0 60.694849781568337 76.92837816393876 0 0 0 0 -1.2968464968444797 -2.4779274419308521 0 -2.4779274419308521 5.6430642541735381 0 0 0 0 -87.267640804207076 72.447214497080495 0 72.447214497080495 28.136435239531444 0 0 0 0 -0.23047872350144472 0.11382142515896776 0 0.11382142515896776 7.581533689487685 0 0 0 0 -37.442583146498109 87.489524279043508 0 87.489524279043508 37.749055464595585 0 0 0 0 -204.38529716333915 -25.969403839073493 0 -25.969403839073493 135.90846228976807 0 0 0 0 336.62932460044652 215.10633310923185 0 215.10633310923185 55.049478014590932 0 0 0 0 69.540120495719293 -230.19627194471286 0 -230.19627194471286 164.22170769484637 0 0 0 0 287.32578434358356 -20.565075425052783 0 -20.565075425052783 215.12987384789085 0 0 0 0 1.0714066026452869 -1.4880350572032714 0 -1.4880350572032714 2.0771486125575009 0 0 0 0 49.902868086467151 -135.35273603698897 0 -135.35273603698897 5.716604308075091 0 0 0 0 87.878390328073237 -131.59091068222642 0 -131.59091068222642 72.063420980814044 0 0 0 0 41.783562764116823 -93.50809748827578 0 -93.50809748827578 242.92714497254929 0 0 0 0 79.827002484794605 -100.88614365695821 0 -100.88614365695821 198.04831486594048 0 0 0 0 103.70016478212665 -137.295817260484 0 -137.295817260484 41.398569961904286 0 0 0 0 185.09480253637503 45.245272327836574 0 45.245272327836574 231.07430678172204 0 0 0 0 132.77502004411463 -56.217493365438713 0 -56.217493365438713 130.18252035600199 0 0 0 0 219.29438912199453 45.815454693839456 0 45.815454693839456 203.58674400043401 0 0 0 0 169.59547837795719 -94.66048061992251 0 -94.66048061992251 122.81691121067706 0 0 0 0 -57.1908839273392 43.249484235559066 0 43.249484235559066 411.0380204383946 0 0 0 0 25.067806274696864 -114.6294392320051 0 -114.6294392320051 351.1678519348136 0 0 0 0 149.17107568282285 43.142146693305222 0 43.142146693305222 333.07621899263722 0 0 0 0 86.750602953426778 -73.064786269727847 0 -73.064786269727847 229.52293763785497 0 0 0 0 57.410396629505613 -90.872450519524136 0 -90.872450519524136 232.18846008760056 0 0 0 0 70.104903330132402 -64.039322990333858 0 -64.039322990333858 332.4595116997225 0 0 0 0 -148.74982924501202 -150.80068580245461 0 -150.80068580245461 302.56324298170148 0 0 0 0 70.485103249300778 -53.135761699722025 0 -53.135761699722025 215.49926420358679 0 0 0 0 -10.166009371812152 -0.28636342651998348 0 -0.28636342651998348 45.818412327778788 0 0 0 0 -15.204840786932436 -13.550686829488768 0 -13.550686829488768 6.1563834143526037 0 0 0 0 -19.967733979883633 -11.371432515432389 0 -11.371432515432389 20.709093187346298 0 0 0 0 -2.1837589113123919 -2.8687504882359462 0 -2.8687504882359462 10.621766810823658 0 0 0 0 -26.320996453800035 -2.644252348187365 0 -2.644252348187365 8.5044594500795938 0 0 0 0 -55.031187314838689 -0.67573801277933399 0 -0.67573801277933399 18.218912553995324 0 0 0 0 -16.040372567687882 -2.7961170029302593 0 -2.7961170029302593 12.269904143227905 0 0 0 0 -8.1466446381123667 -6.667415241747074 0 -6.667415241747074 8.8623302430808053 0 0 0 0 21.199410250308574 10.755734682512411 0 10.755734682512411 2.5843771152140107 0 0 0 0 1.8593276229698077 9.2901025039830287 0 9.2901025039830287 11.124495937355363 0 0 0 0 -14.902161062346826 -12.639367830938539 0 -12.639367830938539 16.581624238645631 0 0 0 0 -4.4503951327868325 -4.2498527245986537 0 -4.2498527245986537 0.46835910783320855 0 0 0 0 36.380041330809945 24.867660312815133 0 24.867660312815133 -1.0008737111666051 0 0 0 0 6.2170277584091309 -98.167765189944475 0 -98.167765189944475 89.564539405109826 0 0 0 0 10.407463136090882 -83.054235400302787 0 -83.054235400302787 109.92071832437978 0 0 0 0 6.31735229217702 26.002585763397292 0 26.002585763397292 -15.822764067946991 0 0 0 0 -2.0981430286119576 -94.484028120954463 0 -94.484028120954463 -104.62827401244067 0 0 0 0 -2.403156976203487 -1.0382924130260864 0 -1.0382924130260864 0.10775498896969538 0 0 0 0 -103.12835125129459 -166.03289865312763 0 -166.03289865312763 91.786948080140974 0 0 0 0 -159.80532896980003 -0.35539232026167156 0 -0.35539232026167156 29.213552730332594 0 0 0 0 -28.173946529550449 -164.05987472390007 0 -164.05987472390007 170.86151394600984 0 0 0 0 20.658362791766194 -88.095352623395229 0 -88.095352623395229 82.749330306058255 0 0 0 0 19.513267679530145 -100.81810248947295 0 -100.81810248947295 67.356252544577728 0 0 0 0 34.979122627460583 -151.72907278663843 0 -151.72907278663843 105.46021811438231 0 0 0 0 32.896347219776999 -162.78118664877456 0 -162.78118664877456 86.342063395328296 0 0 0 0 57.897775201111926 -64.025548653896294 0 -64.025548653896294 178.66846494240781 0 0 0 0 64.057917345333067 -106.91910309415084 0 -106.91910309415084 -127.58840568133746 0 0 0 0 -31.832539821086812 68.284173352151811 0 68.284173352151811 307.23690979490493 0 0 0 0 13.928870843076311 85.47532930280795 0 85.47532930280795 94.74667378772574 0 0 0 0 -22.816684156614429 120.20674657480595 0 120.20674657480595 21.155213926371289 0 0 0 0 -25.689314631801608 222.72880987265489 0 222.72880987265489 320.52824624494315 0 0 0 0 -129.33962591205091 67.538373419431082 0 67.538373419431082 130.44511662250352 0 0 0 0 -35.229011680095027 -139.32037334943197 0 -139.32037334943197 -179.06391753104981 0 0 0 0 -330.74221169353677 -209.78559303211659 0 -209.78559303211659 -98.699045313929673 0 0 0 0 -83.070252612555123 -168.37037784976019 0 -168.37037784976019 -127.39860796578068 0 0 0 0 -106.56408468122754 -53.667407929262481 0 -53.667407929262481 -32.490850363928985 0 0 0 0 116.49229311871204 65.998565438925652 0 65.998565438925652 40.618208461713948 0 0 0 0 -44.579476164843982 501.70826919053434 0 501.70826919053434 833.33585990317806 0 0 0 0 377.01586344447969 633.40732913510874 0 633.40732913510874 -537.57075282725941 0 0 0 0 20.573165434870816 -288.58518879801204 0 -288.58518879801204 -607.48565830874577 0 0 0 0 24.203846305681509 2.0411953561579139 0 2.0411953561579139 17.652818319275866 0 0 0 0 5.8161127261564616 -8.1519609377573943 0 -8.1519609377573943 22.304039269249643 0 0 0 0 10.973183400280163 -11.016246216635409 0 -11.016246216635409 11.786991197866882 0 0 0 0 3.8465262840236392 -5.3389093893929385 0 -5.3389093893929385 14.838811001333852 0 0 0 0 -0.39263869179488342 -0.47101596416801428 0 -0.47101596416801428 19.229603183614486 0 0 0 0 37.234972523728175 -102.20281373765647 0 -102.20281373765647 244.89562246695641 0 0 0 0 108.94962556656083 -40.157706020423575 0 -40.157706020423575 5.799996604212879 0 0 0 0 -0.28385630011718033 2.0927073817445692 0 2.0927073817445692 20.392393011797317 0 0 0 0 18.680050205884982 6.8297010955775477 0 6.8297010955775477 16.857643802082748 0 0 0 0 57.557331445759701 -22.310916078749869 0 -22.310916078749869 16.020865523700195 0 0 0 0 12.254137962609093 -12.455765504646479 0 -12.455765504646479 14.59801782019349 0 0 0 0 40.209498004069701 11.883983727896975 0 11.883983727896975 1.9102326719475968 0 0 0 0 -20.106867369911015 -177.54599953575962 0 -177.54599953575962 755.61997140393214 0 0 0 0 -345.32599634560938 -290.92371830783213 0 -290.92371830783213 121.88212906874833 0 0 0 0 -585.18921463021525 319.68013270318534 0 319.68013270318534 1379.1837583721972 0 0 0 0 -59.105998091062247 37.35063948916013 0 37.35063948916013 6.0949122207639448 0 0 0 0 6.1947003512596002 4.6577932319152335 0 4.6577932319152335 5.2960575337496323 0 0 0 0 175.21652670289541 164.66851769427603 0 164.66851769427603 -187.62185900618715 0 0 0 0 2.2327714019753344 -0.21902817582556011 0 -0.21902817582556011 2.4060464952699903 0 0 0 0 171.15448369998012 312.2651057147441 0 312.2651057147441 -180.01793695224296 0 0 0 0 153.86309791464919 73.47688882273178 0 73.47688882273178 -576.00542963903354 0 0 0 0 -147.36428907468144 121.0145354719607 0 121.0145354719607 -82.950339810974583 0 0 0 0 47.547081521875043 17.223499992320285 0 17.223499992320285 58.442018246576481 0 0 0 0 40.977941655123459 -63.865172280978641 0 -63.865172280978641 281.54816942394245 0 0 0 0 -78.969620258804753 90.779975341893078 0 90.779975341893078 469.30248543595189 0 0 0 0 -64.97122011804754 117.64502541757747 0 117.64502541757747 326.45281235356742 0 0 0 0 23.199222088886017 119.79684638756407 0 119.79684638756407 265.87532174786975 0 0 0 0 9.9017606474333739 9.2008917033717488 0 9.2008917033717488 10.257063134117388 0 0 0 0 62.391003958658985 25.128692697548104 0 25.128692697548104 53.612870499018754 0 0 0 0 37.493461857358852 42.313133419615042 0 42.313133419615042 56.414431378164181 0 0 0 0 34.305622285391109 14.97221945334968 0 14.97221945334968 157.97145385085241 0 0 0 0 1.2537307347629394 -12.623204688207807 0 -12.623204688207807 36.189438400164363 0 0 0 0 3.9764236868945559 11.055434638009263 0 11.055434638009263 11.561280592154667 0 0 0 0 15.336912524306172 -36.906739267233206 0 -36.906739267233206 -2.1317998264821654 0 0 0 0 3.1706688664976355 52.790623484856042 0 52.790623484856042 228.21592732895806 0 0 0 0 -2.9672040367421246 1.1822250400621286 0 1.1822250400621286 10.878548671770055 0 0 0 0 -21.345786567894471 6.8381650118452448 0 6.8381650118452448 -59.730430520243317 0 0 0 0 -221.69118390428957 -94.4484992333837 0 -94.4484992333837 -40.581218122593782 0 0 0 0 -14.830610150971385 11.797048201562191 0 11.797048201562191 0.92906782239326802 0 0 0 0 -267.56810679649425 -46.980203142200708 0 -46.980203142200708 442.35098582781029 0 0 0 0 -148.0365195430004 122.95660024725839 0 122.95660024725839 41.025800058803725 0 0 0 0 -13.358601217272735 367.63474417025554 0 367.63474417025554 275.94956678403832 0 0 0 0 0.5296718942504568 2.5374793231496042 0 2.5374793231496042 8.3438853010068712 0 0 0 0 71.949550827283019 -427.09488702323688 0 -427.09488702323688 -241.13917986158697 0 0 0 0 374.65837846249997 -263.79962142546901 0 -263.79962142546901 -245.49029375843384 0 0 0 0 -203.17790833570325 -102.60266232713548 0 -102.60266232713548 -29.91208912227944 0 0 0 0 455.73147645304152 116.75083214312281 0 116.75083214312281 -27.0401174218714 0 0 0 0 77.891785359907772 305.99417636413182 0 305.99417636413182 396.37015377631178 0 0 0 0 -21.859204078326911 68.675578202977704 0 68.675578202977704 43.804088208920803 0 0 0 0 155.62924585544192 -144.17315434293607 0 -144.17315434293607 215.27710356620082 0 0 0 0 -36.893809447571584 -32.269534543490408 0 -32.269534543490408 606.98824066826637 0 0 0 0 -53.019284097365471 51.031627186961941 0 51.031627186961941 226.72830393652112 0 0 0 0 -16.006696665298875 -47.765754895915961 0 -47.765754895915961 96.154268111922079 0 0 0 0 52.470386900381186 -111.92486482980712 0 -111.92486482980712 95.292020525289843 0 0 0 0 15.641830726698117 -98.320054730491393 0 -98.320054730491393 140.62450871346846 0 0 0 0 76.739043787316405 -156.09811475360766 0 -156.09811475360766 154.97364001198548 0 0 0 0 35.613637882887133 -119.51246729029299 0 -119.51246729029299 165.0842887386425 0 0 0 0 83.036605752785135 -123.55415826103672 0 -123.55415826103672 161.44475349052664 0 0 0 0 57.978290334084704 -124.89696219198595 0 -124.89696219198595 181.34831109911102 0 0 0 0 84.993796219222531 -118.01233301392494 0 -118.01233301392494 138.00742687176535 0 0 0 0 60.007968457238576 -85.526369893892479 0 -85.526369893892479 148.99316714167799 0 0 0 0 24.346481086446659 -116.62683566962733 0 -116.62683566962733 166.6838011419095 0 0 0 0 72.841041731956182 -92.345087433791377 0 -92.345087433791377 176.59216883938643 0 0 0 0 -0.50962243976778199 -0.53651856362138606 0 -0.53651856362138606 3.8445854339579029 0 0 0 0 127.49042689291946 -187.72217194864061 0 -187.72217194864061 195.70055662911545 0 0 0 0 53.055487780176179 78.728529974889852 0 78.728529974889852 72.075562454638202 0 0 0 0 118.38565523481316 213.89821745550034 0 213.89821745550034 245.69469699155798 0 0 0 0 6.432472032971873 -19.035232588449617 0 -19.035232588449617 58.649578404219938 0 0 0 0 -12.318204117822006 -2.4862400660240382 0 -2.4862400660240382 45.815833875156386 0 0 0 0 -64.511684563472272 -16.669889793527545 0 -16.669889793527545 77.890846541344217 0 0 0 0 -0.47811729140206571 0.4923177159085359 0 0.4923177159085359 8.530812384514121 0 0 0 0 75.328236777939765 -39.263676003618457 0 -39.263676003618457 11.818428858536208 0 0 0 0 -21.9792510965367 13.828377075955359 0 13.828377075955359 22.401174887701927 0 0 0 0 9.6500045483617214 -1.7686299713259359 0 -1.7686299713259359 1.2608399595701485 0 0 0 0 55.871393407954201 2.0734537319876836 0 2.0734537319876836 62.395595744379534 0 0 0 0 8.4862759987408936 -9.2085359794837132 0 -9.2085359794837132 9.1602631930672942 0 0 0 0 5.6703581957263083 5.9123076704837807 0 5.9123076704837807 5.0618830723640684 0 0 0 0 15.840106730729531 -5.5878764502740523 0 -5.5878764502740523 2.0643969479455109 0 0 0 0 46.191006805006509 49.517182444798891 0 49.517182444798891 108.29142649085406 0 0 0 0 17.313220442714737 -18.747680248121469 0 -18.747680248121469 16.361557746880862 0 0 0 0 23.49207914698809 -13.517222527741978 0 -13.517222527741978 2.1458828759787139 0 0 0 0 20.821016318313013 -40.673572498157228 0 -40.673572498157228 43.815368476980439 0 0 0 0 -9.0092984028193115 15.778391434202547 0 15.778391434202547 40.781505409570137 0 0 0 0 -20.180425264762373 108.72117882329782 0 108.72117882329782 -73.424920528394068 0 0 0 0 -0.88955964043293712 1.6587299663219781 0 1.6587299663219781 5.0390384242059767 0 0 0 0 -0.40930279442821316 1.6486603225804757 0 1.6486603225804757 10.751623632082911 0 0 0 0 -13.086283778934785 -4.9020488048054176 0 -4.9020488048054176 20.253290591226687 0 0 0 0 17.322581405414894 -22.739155316656252 0 -22.739155316656252 99.922594293071597 0 0 0 0 -37.902661725547318 -6.9157212154268564 0 -6.9157212154268564 30.280989271137514 0 0 0 0 -91.064871439691032 45.00839403300688 0 45.00839403300688 32.816872377032269 0 0 0 0 9.2879945957097618 -31.603205650186283 0 -31.603205650186283 0.59181999547581654 0 0 0 0 -6.5053029229017056 -67.316585375137947 0 -67.316585375137947 124.73118240858457 0 0 0 0 32.211578272221914 -92.575363012712842 0 -92.575363012712842 107.84006902614783 0 0 0 0 -45.404635900988296 4.6980781741331157 0 4.6980781741331157 66.313466411083937 0 0 0 0 -29.14580509751795 14.601373417179275 0 14.601373417179275 46.88244054871393 0 0 0 0 -80.619561022427661 -7.7072336266246566 0 -7.7072336266246566 51.090904665259586 0 0 0 0 -8.020150955878762 4.2320074303752335 0 4.2320074303752335 -45.388287988738739 0 0 0 0 -38.78099956564941 -119.87108906168396 0 -119.87108906168396 288.16949420138917 0 0 0 0 -0.91957077895538131 1.2922258216481666 0 1.2922258216481666 1.9206558084111478 0 0 0 0 -105.95788417113567 -60.861080942708668 0 -60.861080942708668 282.11544298554145 0 0 0 0 -27.578482615326543 -31.07087636105075 0 -31.07087636105075 200.64561326288822 0 0 0 0 -136.9104830410256 10.877816101234203 0 10.877816101234203 250.66221400157337 0 0 0 0 178.65443867005058 289.8218667458641 0 289.8218667458641 -110.42250898214661 0 0 0 0 -5.7841647466604673 21.558616012365043 0 21.558616012365043 46.870560208873044 0 0 0 0 25.911912152424293 -335.13320677710908 0 -335.13320677710908 215.9447225526601 0 0 0 0 -0.9922186295872587 -0.81561374999099456 0 -0.81561374999099456 4.0635888040496582 0 0 0 0 -1.5552993499262149 2.0273176989236035 0 2.0273176989236035 5.3142137380394701 0 0 0 0 26.75155240748586 45.907255984078802 0 45.907255984078802 79.587474290532555 0 0 0 0 -97.683837539157594 91.413465153189463 0 91.413465153189463 -26.996069046444973 0 0 0 0 -123.10154628768991 186.78508002216998 0 186.78508002216998 -1.8182308145369461 0 0 0 0 -3.8874004521261947 18.302075310060417 0 18.302075310060417 46.219104669559911 0 0 0 0 -37.133711454544709 6.1379175069487246 0 6.1379175069487246 92.968051341861155 0 0 0 0 -16.647222301322472 125.91880614917227 0 125.91880614917227 61.169378185770256 0 0 0 0 43.956051279080384 58.179084811329631 0 58.179084811329631 -84.987369504147864 0 0 0 0 -118.02674382378427 46.128551642512321 0 46.128551642512321 8.7591377342423584 0 0 0 0 0.11290036552554739 51.470336632291492 0 51.470336632291492 50.872852996340953 0 0 0 0 -44.514028613158644 141.15498011512318 0 141.15498011512318 113.4200682397659 0 0 0 0 -128.75307439049936 46.811270426676856 0 46.811270426676856 114.82005161166308 0 0 0 0 -58.175508982352312 70.378599665949878 0 70.378599665949878 -37.502590568394226 0 0 0 0 -77.036768178936882 -16.510147618627343 0 -16.510147618627343 166.56511865499533 0 0 0 0 -83.699098991783544 34.452984286755054 0 34.452984286755054 69.943145710789395 0 0 0 0 -140.42130435107526 14.439406019293529 0 14.439406019293529 163.70036933520365 0 0 0 0 -63.718853450388963 1.6140707842516804 0 1.6140707842516804 191.07732008118182 0 0 0 0 -51.653390561975357 -36.777713605505141 0 -36.777713605505141 303.73422715538254 0 0 0 0 -12.83756861643667 -73.995475355498002 0 -73.995475355498002 192.18292998483048 0 0 0 0 -34.424967302144069 -95.771856378346911 0 -95.771856378346911 280.80932014789141 0 0 0 0 -56.921899686797587 -65.978445391493551 0 -65.978445391493551 229.22759838751517 0 0 0 0 -51.887072156831437 -22.020569267646351 0 -22.020569267646351 182.89798588305166 0 0 0 0 -57.45049058950633 -35.683605833137335 0 -35.683605833137335 163.22756211498563 0 0 0 0 -80.008156459006216 21.191865988542759 0 21.191865988542759 140.90812046994688 0 0 0 0 1.1213366408894672 6.2974898035417937 0 6.2974898035417937 83.768060385753415 0 0 0 0 -15.065132637843817 -30.747232653509855 0 -30.747232653509855 170.47802598755334 0 0 0 0 3.2532009986985031 -2.3997846461777499 0 -2.3997846461777499 109.89615160739413 0 0 0 0 12.25361406038369 25.389287935879779 0 25.389287935879779 33.760026278229205 0 0 0 0 -2.1787962691904568 -4.5982658270631873 0 -4.5982658270631873 109.20320264305155 0 0 0 0 -25.741575466734187 3.9742884797955185 0 3.9742884797955185 12.85000562326065 0 0 0 0 -54.675520977072665 80.980155503901187 0 80.980155503901187 14.098889399552718 0 0 0 0 -127.80369888665211 52.075834056255189 0 52.075834056255189 88.279338600310439 0 0 0 0 -2.3798958957213778 3.465364823389482 0 3.465364823389482 17.182904418274681 0 0 0 0 -21.859822374986834 -40.208528240043051 0 -40.208528240043051 5.5507209522038465 0 0 0 0 53.274924702661338 -139.37935875097446 0 -139.37935875097446 -124.7958921923564 0 0 0 0 -4.9601350905180546 -1.9525555506918089 0 -1.9525555506918089 0.78614069377686446 0 0 0 0 -62.434681258541787 -262.48874843233989 0 -262.48874843233989 230.03388945587176 0 0 0 0 -5.8839938356425137 -129.35430128148823 0 -129.35430128148823 -256.71531731912546 0 0 0 0 7.8581890956933975 -4.1713671896003959 0 -4.1713671896003959 0.22112431067098015 0 0 0 0 -31.715856900163089 168.11398298228778 0 168.11398298228778 -54.850332002121831 0 0 0 0 -19.014818381932599 18.948307186117134 0 18.948307186117134 44.305261591282033 0 0 0 0 -10.018875996055613 -41.848160797316268 0 -41.848160797316268 -18.782086947515381 0 0 0 0 -1.4253602205766036 1.067077835256196 0 1.067077835256196 -2.4458338976590923 0 0 0 0 0.2184476239413975 0.1154855385649256 0 0.1154855385649256 -0.3047026121349532 0 0 0 0 142.31567300451388 -29.385045829634691 0 -29.385045829634691 -343.01676513556947 0 0 0 0 -7.5031129676100647 10.670563738608791 0 10.670563738608791 32.639742465638847 0 0 0 0 59.483853902305782 11.533421675456339 0 11.533421675456339 -61.623593255998003 0 0 0 0 13.026585864340632 -30.114857777167344 0 -30.114857777167344 97.962622349017693 0 0 0 0 94.666015662631253 -43.794516502172883 0 -43.794516502172883 5.5506431971789425 0 0 0 0 107.02587842851699 99.06854083377857 0 99.06854083377857 -69.485217441737404 0 0 0 0 113.0838745601809 181.90768341635157 0 181.90768341635157 201.47262114047771 0 0 0 0 1.1011445399776996 0.93020033875669839 0 0.93020033875669839 -0.21869364426142912 0 0 0 0 136.93146258655634 95.179371545331378 0 95.179371545331378 -182.96311934792584 0 0 0 0 -50.554488615870298 -123.59986713301345 0 -123.59986713301345 733.10609571914938 0 0 0 0 -56.256044956471669 -66.260799813719132 0 -66.260799813719132 247.89228867032216 0 0 0 0 142.12003679403369 -321.34438176057301 0 -321.34438176057301 250.12054530871865 0 0 0 0 207.01089484550357 383.47527304678624 0 383.47527304678624 296.70602195880565 0 0 0 0 236.02585111874876 -391.52532255983107 0 -391.52532255983107 293.61726760800229 0 0 0 0 -189.64344453468675 46.15083397849321 0 46.15083397849321 919.93298850288465 0 0 0 0 179.72268189506667 416.16468328821793 0 416.16468328821793 647.93924361675136 0 0 0 0 3.8439592760889703 -4.8274752170706812 0 -4.8274752170706812 7.0906467072090607 0 0 0 0 159.42604814995229 -173.46260408084254 0 -173.46260408084254 31.86049138798262 0 0 0 0 101.44013291985812 100.97691785210577 0 100.97691785210577 400.1738122871775 0 0 0 0 -74.672759509910975 -8.0992418957594055 0 -8.0992418957594055 419.9397493010099 0 0 0 0 67.163299266429021 192.54202635628008 0 192.54202635628008 240.02424877047633 0 0 0 0 -86.994683813220036 -22.961118449751666 0 -22.961118449751666 405.70009425032276 0 0 0 0 -12.796349232442481 8.6847037619318144 0 8.6847037619318144 368.51321769720562 0 0 0 0 -56.850104180493872 -105.28735970994967 0 -105.28735970994967 183.29815065172306 0 0 0 0 7.7949064740446374 -12.32332203005917 0 -12.32332203005917 21.473523477578659 0 0 0 0 -60.53066914948613 -55.045798322546034 0 -55.045798322546034 64.669256669822062 0 0 0 0 -11.036760127739399 17.311106484325137 0 17.311106484325137 1.6568231665587518 0 0 0 0 -47.075807152662492 -43.801212084269196 0 -43.801212084269196 18.534765979700751 0 0 0 0 -2.8042246077934365 -7.0135780042586759 0 -7.0135780042586759 19.803457458959432 0 0 0 0 -20.804780869264505 -16.384597383032087 0 -16.384597383032087 6.4931037336937152 0 0 0 0 9.5195021207325148 -22.099090068383166 0 -22.099090068383166 22.123231408282933 0 0 0 0 -2.676940976558015 1.6168977896620689 0 1.6168977896620689 6.7687158394778528 0 0 0 0 25.835741248212457 -59.873429612210657 0 -59.873429612210657 203.06474827948659 0 0 0 0 -88.45586600123363 85.960308629557176 0 85.960308629557176 138.20232108994605 0 0 0 0 -9.495613330528613 7.2204166446845193 0 7.2204166446845193 -27.177527344594637 0 0 0 0 1.2628278500908507 1.6768570136174787 0 1.6768570136174787 -1.9927946830824901 0 0 0 0 -87.684499239285287 -121.93760937180377 0 -121.93760937180377 -51.963331729870333 0 0 0 0 -44.529765030045382 8.2621297336027055 0 8.2621297336027055 42.427504972123643 0 0 0 0 2.5623811063342146 7.1108515824089409 0 7.1108515824089409 86.230867562244384 0 0 0 0 1.8435222245225305 -2.0629540053687379 0 -2.0629540053687379 177.37117586215027 0 0 0 0 59.504541034360955 -38.381338340284856 0 -38.381338340284856 -6.0403507493356301 0 0 0 0 -89.764167748906402 10.816026783804773 0 10.816026783804773 110.76035544764818 0 0 0 0 94.97803327515021 -156.70276737303629 0 -156.70276737303629 66.177897518035024 0 0 0 0 77.18313345905699 -139.23510441404505 0 -139.23510441404505 131.12997666377123 0 0 0 0 103.40516461799416 -162.59446105195639 0 -162.59446105195639 127.67874432229655 0 0 0 0 100.66087878929602 -160.50525655050569 0 -160.50525655050569 201.19441262548935 0 0 0 0 83.027605168916125 -91.346983178471419 0 -91.346983178471419 142.07805863633985 0 0 0 0 110.96908640293009 -85.604072036268917 0 -85.604072036268917 207.0478350729536 0 0 0 0 104.69314839758954 -111.03377847664888 0 -111.03377847664888 158.43010188429253 0 0 0 0 71.709686652808841 -96.528301363710852 0 -96.528301363710852 147.05267366366024 0 0 0 0 72.716497953033468 -60.905819673425867 0 -60.905819673425867 114.71063412420699 0 0 0 0 68.411599208693133 -69.452046049804721 0 -69.452046049804721 217.01065692133125 0 0 0 0 14.953978575082147 9.0786416090923012 0 9.0786416090923012 182.47189234538382 0 0 0 0 49.420873010380092 16.14066343806553 0 16.14066343806553 166.75617741359019 0 0 0 0 48.460239914407794 27.774960195354652 0 27.774960195354652 322.58693499388755 0 0 0 0 73.287473791103821 -85.546690709401446 0 -85.546690709401446 395.6154978496852 0 0 0 0 70.015467940987946 -54.521806627781189 0 -54.521806627781189 202.66015901027276 0 0 0 0 -3.1815496171208224 16.628231069380263 0 16.628231069380263 16.729104253936384 0 0 0 0 1.1380115835879003 0.55586822710417039 0 0.55586822710417039 1.30148475326029 0 0 0 0 18.033425121265282 18.210231261473382 0 18.210231261473382 439.30413913427765 0 0 0 0 6.8580021630232295 59.81151694212349 0 59.81151694212349 302.99227724879165 0 0 0 0 -0.21039246645397114 0.31785447661902921 0 0.31785447661902921 -0.32219039020307605 0 0 0 0 29.318687491595483 4.909527520503616 0 4.909527520503616 161.77079747975222 0 0 0 0 -5.9446015645448824 19.767511850670417 0 19.767511850670417 23.373784603311833 0 0 0 0 -0.076954242777333093 8.2696923250266536 0 8.2696923250266536 7.8631896697115735 0 0 0 0 -5.8350442123832629 6.3912260090680775 0 6.3912260090680775 -3.1845365292679269 0 0 0 0 26.199600691822525 72.831378452066929 0 72.831378452066929 154.41115622901634 0 0 0 0 -20.874881464635109 59.965923531424778 0 59.965923531424778 174.54474252612499 0 0 0 0 -29.323844698496032 85.239443122329249 0 85.239443122329249 132.65149319122793 0 0 0 0 -48.722649692602317 6.7106114605385301 0 6.7106114605385301 96.312725210196731 0 0 0 0 3.4532341379854188 -14.308821453412747 0 -14.308821453412747 53.03161365788219 0 0 0 0 -8.5802484705723145 7.8065422527679402 0 7.8065422527679402 12.459813151810522 0 0 0 0 -8.5009024430464706 3.9511145184214911 0 3.9511145184214911 22.22469261181277 0 0 0 0 -14.059735050669982 8.9023440012471937 0 8.9023440012471937 0.12836461592243253 0 0 0 0 -4.4359551122818601 -4.1001393516197595 0 -4.1001393516197595 24.869405056414635 0 0 0 0 -3.6156662302291807 -4.1601962292625103 0 -4.1601962292625103 13.271781413815916 0 0 0 0 -15.47621594795055 6.3363167678890022 0 6.3363167678890022 47.338251619155926 0 0 0 0 -13.187963452042709 0.28182277177037918 0 0.28182277177037918 36.711868731416956 0 0 0 0 -27.64776411382968 -52.669584099619897 0 -52.669584099619897 217.16234880443153 0 0 0 0 -33.046690297146938 -58.692903090415712 0 -58.692903090415712 210.4619321848113 0 0 0 0 -30.793092073053344 -64.718208143613083 0 -64.718208143613083 226.30082672590652 0 0 0 0 23.198127012517034 -58.271911060888669 0 -58.271911060888669 199.05860545161158 0 0 0 0 -25.582026467107426 -59.7236693453724 0 -59.7236693453724 218.26092009222975 0 0 0 0 49.505702964982447 -57.927752577805222 0 -57.927752577805222 149.19953566897493 0 0 0 0 -24.378655030067875 -37.31827901102406 0 -37.31827901102406 190.09830898190012 0 0 0 0 -44.930077111245716 -22.213343254787105 0 -22.213343254787105 186.77979893913835 0 0 0 0 -23.550276341682103 -49.860016706658882 0 -49.860016706658882 205.32635133777876 0 0 0 0 -38.960175617598786 -45.293348819210223 0 -45.293348819210223 213.94924632897346 0 0 0 0 -41.994535368073969 -56.175727477600503 0 -56.175727477600503 229.19264300962459 0 0 0 0 -53.352258273132634 -52.15736456384343 0 -52.15736456384343 219.65274434687672 0 0 0 0 -29.0077971081339 -66.473608024627538 0 -66.473608024627538 229.81878973173298 0 0 0 0 -22.39934413811352 -50.896061534318505 0 -50.896061534318505 215.71284754561384 0 0 0 0 46.391247792951617 -155.66449149561231 0 -155.66449149561231 259.8184276777065 0 0 0 0 0.26112708425443998 -100.18254851528582 0 -100.18254851528582 215.00363379660121 0 0 0 0 14.784003425180344 -77.269771493005464 0 -77.269771493005464 209.90449536018241 0 0 0 0 83.737567182314706 -122.48476631323319 0 -122.48476631323319 167.31292894729813 0 0 0 0 88.740641752558076 -86.227328356639191 0 -86.227328356639191 207.94666081335708 0 0 0 0 28.514307597220977 -71.499785480109495 0 -71.499785480109495 229.71853238323092 0 0 0 0 18.312071003309029 -50.979181414702907 0 -50.979181414702907 299.6975857004436 0 0 0 0 138.11045438195379 -128.86097890480414 0 -128.86097890480414 239.44312287050343 0 0 0 0 132.35902581193841 -47.240443755988963 0 -47.240443755988963 229.98784686181352 0 0 0 0 -17.782229921922863 -61.214828898719134 0 -61.214828898719134 222.29881175900664 0 0 0 0 -23.629602856674865 -64.838802389571356 0 -64.838802389571356 224.3018046774614 0 0 0 0 -17.435549138320766 -64.398690073652688 0 -64.398690073652688 251.26493396207297 0 0 0 0 29.577614290679065 -65.84241476756506 0 -65.84241476756506 224.33409590720476 0 0 0 0 15.067600340044919 -87.966513999006565 0 -87.966513999006565 224.80778405448837 0 0 0 0 -25.671818002787177 -59.638576797087808 0 -59.638576797087808 224.70268387052784 0 0 0 0 -12.155931279797642 -72.961901239326835 0 -72.961901239326835 202.71772285319821 0 0 0 0 -8.2085906069187331 -81.797825434332481 0 -81.797825434332481 209.7647662072668 0 0 0 0 -0.65874731737926595 -70.360372103405098 0 -70.360372103405098 168.114775759248 0 0 0 0 -6.15786895800602 -73.630891213813356 0 -73.630891213813356 215.24167901086184 0 0 0 0 8.330645964309042 -99.253455924863374 0 -99.253455924863374 211.34860468789702 0 0 0 0 25.843754988202818 -96.355301215404324 0 -96.355301215404324 147.71563743915613 0 0 0 0 -2.4986957615302039 6.9014141231503601 0 6.9014141231503601 7.1894893955604928 0 0 0 0 62.295325653363761 -15.637818162653275 0 -15.637818162653275 59.801348798488107 0 0 0 0 154.81926200838552 -103.77501934678003 0 -103.77501934678003 17.708977970647538 0 0 0 0 34.892137888372417 -151.2165683563253 0 -151.2165683563253 243.33686607432173 0 0 0 0 27.661204090212777 -86.752912119663961 0 -86.752912119663961 172.03198889548366 0 0 0 0 34.00203098707243 -103.86620066963951 0 -103.86620066963951 171.14107181101281 0 0 0 0 -19.822786001237546 -120.26726398491883 0 -120.26726398491883 140.06657512593665 0 0 0 0 15.146372286057158 -102.90141302246775 0 -102.90141302246775 171.21892294150075 0 0 0 0 -1.8460363621493254 -0.75473868285122592 0 -0.75473868285122592 3.6355343744806419 0 0 0 0 14.015765001458931 -86.533122198132332 0 -86.533122198132332 172.45599599814523 0 0 0 0 -9.5366703681858098 4.138258437244076 0 4.138258437244076 10.647111942762422 0 0 0 0 -10.137888990369962 2.5841584548523961 0 2.5841584548523961 3.1417212971904362 0 0 0 0 44.296326220386703 -56.508845967444358 0 -56.508845967444358 90.724734186655041 0 0 0 0 -10.174161717375263 9.4935586104400613 0 9.4935586104400613 13.949416920992007 0 0 0 0 -6.8764856687549898 5.469346552406968 0 5.469346552406968 10.641501766134702 0 0 0 0 3.4197357640150585 -49.361365951588596 0 -49.361365951588596 130.30201802100783 0 0 0 0 -5.9507786470870769 -59.375485251578539 0 -59.375485251578539 168.9343747404746 0 0 0 0 -3.9955503063818014 -50.446539632406711 0 -50.446539632406711 122.16969787703783 0 0 0 0 -25.818102466197161 -55.769834182819977 0 -55.769834182819977 209.40964852457455 0 0 0 0 -14.134587996723837 -62.444291575317948 0 -62.444291575317948 168.59783198684454 0 0 0 0 -23.669846917186987 -48.813653626955784 0 -48.813653626955784 212.24461917885492 0 0 0 0 -23.228475820662879 -56.636691011218318 0 -56.636691011218318 194.32909379644843 0 0 0 0 -18.946557694820967 -36.247711219237317 0 -36.247711219237317 188.26848436863293 0 0 0 0 -1.6439010643000529 20.619347697636385 0 20.619347697636385 169.34483575448394 0 0 0 0 -16.913635732982584 -32.412463225071406 0 -32.412463225071406 159.1939211011595 0 0 0 0 46.619565842346674 -110.04024447521988 0 -110.04024447521988 79.299630077051006 0 0 0 0 36.980480615221495 -131.5306098245519 0 -131.5306098245519 90.00695427032224 0 0 0 0 115.69990657282733 -195.01083719296639 0 -195.01083719296639 -412.92022894153706 0 0 0 0 75.948167201769138 -14.517148821324554 0 -14.517148821324554 264.22565940364257 0 0 0 0 -47.949588268802927 -41.573117520210872 0 -41.573117520210872 217.50244793979437 0 0 0 0 -1.7914363840905025 -85.321473953682016 0 -85.321473953682016 232.47076731152629 0 0 0 0 59.297731067949826 -76.620272076388574 0 -76.620272076388574 199.00420164542265 0 0 0 0 22.784365555309435 -70.481151912501673 0 -70.481151912501673 203.02378873251655 0 0 0 0 116.00468319266747 -205.34833524038822 0 -205.34833524038822 340.47897908382583 0 0 0 0 4.867873690048711 10.111226251634704 0 10.111226251634704 16.812415001418323 0 0 0 0 -152.03458887224042 195.85288604084963 0 195.85288604084963 -36.00348156390146 0 0 0 0 -159.68962159332705 85.195680320721294 0 85.195680320721294 103.16129252174869 0 0 0 0 -50.148653025462409 37.189730307560239 0 37.189730307560239 -80.858631341312503 0 0 0 0 65.526641487075722 -98.923901062633377 0 -98.923901062633377 191.89476263771621 0 0 0 0 10.048817590511273 17.305979972492452 0 17.305979972492452 26.662750538864202 0 0 0 0 -114.55117636646855 201.45933538065174 0 201.45933538065174 -12.230847840459319 0 0 0 0 -22.443956207034603 -41.758982436542738 0 -41.758982436542738 185.34002260640409 0 0 0 0 -38.408298164143389 41.887808605448981 0 41.887808605448981 174.01885766530904 0 0 0 0 -91.863431847082211 77.361568423115386 0 77.361568423115386 149.38891163950393 0 0 0 0 -20.209760775860559 -23.354304095346379 0 -23.354304095346379 47.392318914262432 0 0 0 0 -68.587442750177615 56.395939126447047 0 56.395939126447047 -103.0406927685799 0 0 0 0 -47.024486383775184 119.89473798176004 0 119.89473798176004 -10.221622595359804 0 0 0 0 -65.485495948483617 12.897542940827861 0 12.897542940827861 52.826533960091183 0 0 0 0 -105.91025181244186 148.46482698820364 0 148.46482698820364 -103.91964041232102 0 0 0 0 -68.761608543071816 100.77451038673416 0 100.77451038673416 -177.77435866330779 0 0 0 0 1.5578978618675379 2.905072002379633 0 2.905072002379633 5.8294646333149984 0 0 0 0 318.17318834835623 -246.03974521737837 0 -246.03974521737837 245.82562392216641 0 0 0 0 155.72116108099044 -723.45836283564358 0 -723.45836283564358 714.50524091405168 0 0 0 0 -19.637544249542771 229.63702588803062 0 229.63702588803062 -29.091731254355182 0 0 0 0 -824.74414893784706 -133.77416692799125 0 -133.77416692799125 1008.0974498230571 0 0 0 0 9.6718922381655688 -10.445365093023199 0 -10.445365093023199 7.8287287897821187 0 0 0 0 292.26620292862935 -612.51586268558276 0 -612.51586268558276 159.61934019676846 0 0 0 0 49.722194752783707 -82.140635658233805 0 -82.140635658233805 169.60060389406135 0 0 0 0 8.2276667065057154 -89.855176513599872 0 -89.855176513599872 292.49673248578301 0 0 0 0 36.559981472479649 36.826704487684765 0 36.826704487684765 19.656486958188907 0 0 0 0 -0.48623188589377531 1.0651973485636921 0 1.0651973485636921 4.4579480132331497 0 0 0 0 0.9493336746156027 -1.6372078983681178 0 -1.6372078983681178 9.4129935653383541 0 0 0 0 -55.93044464223567 -51.882812124942575 0 -51.882812124942575 -49.795381745971099 0 0 0 0 6.2835147761574373 -8.9685766525136188 0 -8.9685766525136188 10.941703017562759 0 0 0 0 11.926309850689677 -6.0864243359010288 0 -6.0864243359010288 -3.362115816653386 0 0 0 0 -178.01075169551041 23.442358007490839 0 23.442358007490839 -9.3517267160232223 0 0 0 0 -158.03661434296919 123.35253262568949 0 123.35253262568949 -49.147810977636254 0 0 0 0 183.6005886213336 357.68363094028427 0 357.68363094028427 377.32057810508559 0 0 0 0 164.12359693802841 166.55954425349046 0 166.55954425349046 113.68361220070437 0 0 0 0 20.420197227708627 103.30639884178254 0 103.30639884178254 218.62171878230583 0 0 0 0 -54.530029603861294 -17.148177219940408 0 -17.148177219940408 26.68879398034187 0 0 0 0 66.945316583465683 144.55157278346269 0 144.55157278346269 108.40072350981791 0 0 0 0 1.1746545207497547 153.96453326584742 0 153.96453326584742 295.0798807764404 0 0 0 0 136.15910972853646 235.871836494729 0 235.871836494729 238.39865266170091 0 0 0 0 156.7716859515335 30.347280634616254 0 30.347280634616254 170.47704620435979 0 0 0 0 48.116544444352485 85.420498152943765 0 85.420498152943765 145.3066306031069 0 0 0 0 60.500007906671726 -42.231306184123241 0 -42.231306184123241 110.24335302480813 0 0 0 0 54.697633164550865 -17.056195118592314 0 -17.056195118592314 -1.7826676646945998 0 0 0 0 0.35635400627363056 -4.9641712860019211 0 -4.9641712860019211 25.294136762328804 0 0 0 0 -19.550519851627996 -8.4602715373221145 0 -8.4602715373221145 97.760715623226133 0 0 0 0 -127.59034301423299 -38.41469896729177 0 -38.41469896729177 76.328909207164543 0 0 0 0 -56.804077528960988 -43.934724768347223 0 -43.934724768347223 78.695382654779678 0 0 0 0 -38.572892763540494 -3.2830586987474817 0 -3.2830586987474817 99.572383100789011 0 0 0 0 9.0686271740364646 -45.623357695210871 0 -45.623357695210871 5.3484169510775246 0 0 0 0 -98.47593736393992 -79.389675306567369 0 -79.389675306567369 41.81249771345756 0 0 0 0 -108.79320862013083 -70.598412478226237 0 -70.598412478226237 45.319465054850298 0 0 0 0 -108.84034623949628 -45.738505125620577 0 -45.738505125620577 17.906177227909211 0 0 0 0 -182.91453309867211 30.883598655287642 0 30.883598655287642 -60.155804888985585 0 0 0 0 -3.2303993831445768 -1.1838254076401 0 -1.1838254076401 5.9129316048883638 0 0 0 0 -19.452332252471024 -28.486242834136647 0 -28.486242834136647 164.72811540935072 0 0 0 0 -11.003824178293144 -45.058792309813725 0 -45.058792309813725 188.96792427357468 0 0 0 0 12.843504861948531 1.2252225361553428 0 1.2252225361553428 168.93563518110022 0 0 0 0 21.131732624943652 59.299799221109424 0 59.299799221109424 213.75702947938407 0 0 0 0 -15.203581955273876 64.979415106467059 0 64.979415106467059 286.98463747656206 0 0 0 0 -12.778310784581208 -55.98518727298142 0 -55.98518727298142 -11.110536419962045 0 0 0 0 -47.767677687503237 13.574767015517864 0 13.574767015517864 2.1317841532145394 0 0 0 0 -125.35048192523396 -3.6502163432999168 0 -3.6502163432999168 58.312897247786168 0 0 0 0 1.8324119405812098 6.6060918104067241 0 6.6060918104067241 69.812988762336317 0 0 0 0 7.7321226881826988 -18.085250907763111 0 -18.085250907763111 16.284692327753874 0 0 0 0 -8.1151656306128643 -34.232525666157017 0 -34.232525666157017 23.259482532026595 0 0 0 0 22.727702805468425 -58.242416898567171 0 -58.242416898567171 40.9799595626464 0 0 0 0 1.6768259658765601 -0.43363317427429138 0 -0.43363317427429138 57.459777987693315 0 0 0 0 -67.506772173406716 86.125210356196476 0 86.125210356196476 -54.39714935407028 0 0 0 0 -54.687105194441756 -27.38354182069088 0 -27.38354182069088 0.73276069589974213 0 0 0 0 -50.920531691013821 5.340229683843063 0 5.340229683843063 57.853243324963842 0 0 0 0 25.636053886344598 -24.353886927048734 0 -24.353886927048734 -51.419359721865476 0 0 0 0 10.975307573513419 -42.209811872700811 0 -42.209811872700811 -34.392699894407997 0 0 0 0 -35.128414960659939 -55.049686575370288 0 -55.049686575370288 18.494839997845702 0 0 0 0 4.9934220301001915 8.1582524272962473 0 8.1582524272962473 -17.088149056951806 0 0 0 0 0.0049646749430394266 -9.5763797281033476 0 -9.5763797281033476 31.422539260558551 0 0 0 0 -21.75651453937644 4.8072190830789623 0 4.8072190830789623 97.454501721840643 0 0 0 0 3.0298104526555107 -32.794193357294716 0 -32.794193357294716 52.468687527711154 0 0 0 0 -27.138164905947633 -37.041372872175998 0 -37.041372872175998 151.44630009226967 0 0 0 0 -27.77723018611141 -8.3622078785410849 0 -8.3622078785410849 186.40131840047252 0 0 0 0 -9.3625688957581588 -55.315154636475199 0 -55.315154636475199 107.00637082809408 0 0 0 0 -9.9375225826829592 -3.0335478690185482 0 -3.0335478690185482 65.445261062544887 0 0 0 0 -42.855615113046952 -67.066237566115888 0 -67.066237566115888 299.83762653984741 0 0 0 0 -77.756937842369553 -46.878296092678283 0 -46.878296092678283 440.95211201970778 0 0 0 0 -16.88638321792132 -7.392674897579127 0 -7.392674897579127 186.31498583889288 0 0 0 0 18.917688935025581 -125.30808257374156 0 -125.30808257374156 293.55368569557504 0 0 0 0 -15.227324257255759 -4.1135488000841178 0 -4.1135488000841178 180.31428110595152 0 0 0 0 -4.9462580649233132 -40.199319252446003 0 -40.199319252446003 222.36870635725791 0 0 0 0 -27.291322146682433 -8.1913666042746627 0 -8.1913666042746627 290.94700817194826 0 0 0 0 89.335846789374045 -75.601264218388678 0 -75.601264218388678 213.45533418073319 0 0 0 0 7.0190731981824683 -3.417422597467521 0 -3.417422597467521 183.29766182176536 0 0 0 0 -37.210039633921951 -43.106889668226358 0 -43.106889668226358 153.57341928899041 0 0 0 0 -17.008149284789397 61.545780128344632 0 61.545780128344632 94.055835705781647 0 0 0 0 28.380914780062085 39.068002089283254 0 39.068002089283254 255.40891258084957 0 0 0 0 -274.27970605412065 -33.646901354735746 0 -33.646901354735746 -79.462675716989907 0 0 0 0 192.67526455775078 125.29269975452189 0 125.29269975452189 -561.49072971017358 0 0 0 0 -1.5588013419948368 -0.0032170413142864618 0 -0.0032170413142864618 -0.10992346857225854 0 0 0 0 -19.053530277701157 -47.425312449737248 0 -47.425312449737248 443.49152176102507 0 0 0 0 -28.174439194626757 -129.65683637965049 0 -129.65683637965049 389.79518911766354 0 0 0 0 -12.583335082888652 -46.98800025374976 0 -46.98800025374976 330.05240630509797 0 0 0 0 19.044941155778361 -57.019351497125172 0 -57.019351497125172 328.64334705101646 0 0 0 0 4.3158591901522421 2.3524456996142717 0 2.3524456996142717 0.38158818226571611 0 0 0 0 13.532079414190321 -34.937703878652428 0 -34.937703878652428 256.34550240256794 0 0 0 0 47.216890695312486 -37.21720297320644 0 -37.21720297320644 -62.179119751075632 0 0 0 0 23.647073937604397 -4.4568245720361546 0 -4.4568245720361546 1.5768737234693919 0 0 0 0 1.6400296534025074 -25.377136060891644 0 -25.377136060891644 -38.794738733977283 0 0 0 0 40.245323196961635 -43.63196863842677 0 -43.63196863842677 -34.4724435328244 0 0 0 0 2.7253532447668931 -59.727202410471364 0 -59.727202410471364 8.9621695930254646 0 0 0 0 -28.687835910931426 -31.393748287064227 0 -31.393748287064227 -16.162437769657117 0 0 0 0 23.173897533903187 21.404046741199636 0 21.404046741199636 -244.12911769831408 0 0 0 0 -41.967294852342548 -51.831116287798068 0 -51.831116287798068 6.3683353892265586 0 0 0 0 11.138175572569535 2.2753673746095586 0 2.2753673746095586 3.531118041077896 0 0 0 0 4.1051853334700752 -3.9630630375493858 0 -3.9630630375493858 21.835464924108919 0 0 0 0 -184.13233612422437 159.41147428297518 0 159.41147428297518 23.65194018094553 0 0 0 0 26.019370383057321 22.074137158346275 0 22.074137158346275 305.07970081649091 0 0 0 0 -31.834474092227538 -129.46941554499426 0 -129.46941554499426 479.86753547738044 0 0 0 0 -15.824061908831936 -229.95005596422561 0 -229.95005596422561 675.39063967743414 0 0 0 0 6.5542700725374079 -0.62072318899029 0 -0.62072318899029 0.23729037195491287 0 0 0 0 24.639025312651938 191.07049603687483 0 191.07049603687483 690.88709030023892 0 0 0 0 606.98792878352606 308.99611988628385 0 308.99611988628385 233.00880396760112 0 0 0 0 -119.18482204477914 -437.49357533449074 0 -437.49357533449074 1014.5462260924178 0 0 0 0 -443.9270229073436 -185.60769533161692 0 -185.60769533161692 871.19677383077214 0 0 0 0 61.46701913884317 -402.45632408229721 0 -402.45632408229721 938.10953114944277 0 0 0 0 305.3129277420594 -614.19440454510914 0 -614.19440454510914 869.31156485261454 0 0 0 0 62.664889437321108 -381.90965853645321 0 -381.90965853645321 651.21591360565071 0 0 0 0 63.431116249694242 -115.15517009807081 0 -115.15517009807081 133.59698582447163 0 0 0 0 169.23023438701148 -202.00560755487459 0 -202.00560755487459 166.4093705445157 0 0 0 0 104.80462523614369 -74.210796934468817 0 -74.210796934468817 155.58339952566894 0 0 0 0 483.82172336430267 -452.24164338662376 0 -452.24164338662376 267.3523202392098 0 0 0 0 267.79643234173636 -189.12823015530739 0 -189.12823015530739 73.200104319141246 0 0 0 0 77.187149965704521 -246.73236218509192 0 -246.73236218509192 563.00390744591277 0 0 0 0 299.30236337072415 -371.01108659240845 0 -371.01108659240845 277.00213931289909 0 0 0 0 131.82965429540354 -219.37710392926874 0 -219.37710392926874 250.14781355252489 0 0 0 0 49.502497860490621 -174.02098564305197 0 -174.02098564305197 362.38954553444637 0 0 0 0 35.470930616857004 -222.53821163854082 0 -222.53821163854082 405.17690633485836 0 0 0 0 79.441145843509275 -252.19798926222484 0 -252.19798926222484 469.82860854054161 0 0 0 0 20.899717276672163 -172.52400832354033 0 -172.52400832354033 265.08399459780776 0 0 0 0 59.164064589894224 -69.014373296427493 0 -69.014373296427493 63.39441730677936 0 0 0 0 32.791307794702789 -136.26586548057867 0 -136.26586548057867 227.13218406023225 0 0 0 0 40.032853943097507 -110.62759728130186 0 -110.62759728130186 187.50661804912761 0 0 0 0 -56.971405136931025 -2.357480898060885 0 -2.357480898060885 52.07594845177664 0 0 0 0 128.27455286011445 -57.173673355940991 0 -57.173673355940991 -39.792364288499812 0 0 0 0 55.172013007186251 -127.99243571141051 0 -127.99243571141051 283.54590254865525 0 0 0 0 48.032192946186115 -113.60234348188169 0 -113.60234348188169 288.20439894400806 0 0 0 0 54.571519357306897 -93.035681238297002 0 -93.035681238297002 239.51701830524689 0 0 0 0 20.64629002032234 -118.71779478026474 0 -118.71779478026474 317.81550905487529 0 0 0 0 3.7936849347338466 -137.99932316095692 0 -137.99932316095692 304.63877166171005 0 0 0 0 -2.6631049581719708 -157.0643543561273 0 -157.0643543561273 407.258049400858 0 0 0 0 5.2912907368927335 -142.71758886528914 0 -142.71758886528914 308.09197710363151 0 0 0 0 27.913818087597065 -157.13986513738564 0 -157.13986513738564 275.8441199998415 0 0 0 0 24.46792950983945 -124.69999042975178 0 -124.69999042975178 244.7648514250086 0 0 0 0 72.976898234519467 -140.78398995033422 0 -140.78398995033422 255.16232449035306 0 0 0 0 53.240945374290277 -126.54081970121661 0 -126.54081970121661 284.24328748368134 0 0 0 0 95.871939430837756 -100.75552716520997 0 -100.75552716520997 279.4912986616182 0 0 0 0 47.804925213089518 -115.44163351521274 0 -115.44163351521274 417.06481536446972 0 0 0 0 105.5278707412208 -150.64887988139344 0 -150.64887988139344 258.51075047750055 0 0 0 0 79.653623939541831 -121.28789472076642 0 -121.28789472076642 263.20578332109289 0 0 0 0 55.989468697759321 -62.58163419632865 0 -62.58163419632865 229.52626452327604 0 0 0 0 23.573955612098871 -5.7431604228986544 0 -5.7431604228986544 172.41126784281732 0 0 0 0 -53.491669337569874 -10.579799293151154 0 -10.579799293151154 200.04054553432434 0 0 0 0 -57.053161444048783 27.354548783030623 0 27.354548783030623 173.28626642199197 0 0 0 0 21.898097498255993 -89.187212906785135 0 -89.187212906785135 208.9853054117857 0 0 0 0 26.850043955892488 -18.330608826778303 0 -18.330608826778303 144.12092668013793 0 0 0 0 84.929546252894397 -70.673524655680012 0 -70.673524655680012 180.06880196049315 0 0 0 0 45.66584474236879 -72.909888482092356 0 -72.909888482092356 265.23693808128604 0 0 0 0 31.348693035576616 -17.402041469747928 0 -17.402041469747928 172.83411800517842 0 0 0 0 54.976432526861117 -5.3586331360074837 0 -5.3586331360074837 88.063194295566063 0 0 0 0 -91.19518632348354 218.32862448336164 0 218.32862448336164 -87.805443212487262 0 0 0 0 -44.46117918176742 74.705386573230498 0 74.705386573230498 138.83658113238562 0 0 0 0 -6.631585268166873 53.768267693743837 0 53.768267693743837 29.568625946398242 0 0 0 0 -17.010558763176959 -13.986512221716112 0 -13.986512221716112 161.37492281947198 0 0 0 0 -83.811131220363677 30.997025760942051 0 30.997025760942051 157.05518226301865 0 0 0 0 -6.3621644125796593 46.305121115157817 0 46.305121115157817 159.77037161001499 0 0 0 0 49.2625151677139 90.255874309985302 0 90.255874309985302 -279.00268226768821 0 0 0 0 -25.543872378335436 -12.871682926537687 0 -12.871682926537687 -50.155302842387755 0 0 0 0 -71.327266029560178 -48.345973983130534 0 -48.345973983130534 8.6971931968546414 0 0 0 0 21.170375378923609 99.494257572916467 0 99.494257572916467 -60.963532781290269 0 0 0 0 -106.10045028287095 43.965482434305159 0 43.965482434305159 152.85508956689409 0 0 0 0 41.610471504592283 69.661297746353284 0 69.661297746353284 -53.026247891029925 0 0 0 0 -15.984088421319266 3.5199546382806517 0 3.5199546382806517 0.44657082724930319 0 0 0 0 -100.12964787137298 -45.84481319621591 0 -45.84481319621591 293.09816764502102 0 0 0 0 21.304569735685845 -60.198133638823492 0 -60.198133638823492 95.794001510963426 0 0 0 0 44.621354069609879 56.496900840706076 0 56.496900840706076 123.4285429841857 0 0 0 0 108.34949232451027 202.19494939362085 0 202.19494939362085 -548.42699529676611 0 0 0 0 42.48798338330198 -93.641551566037379 0 -93.641551566037379 206.52317862016207 0 0 0 0 -7.5418817060004884 2.5242327077316062 0 2.5242327077316062 1.2267315613211309 0 0 0 0 -53.305637332578954 -57.679927286935708 0 -57.679927286935708 363.3032333807314 0 0 0 0 0.84139212063553614 1.1151080330407339 0 1.1151080330407339 0.18622713822534642 0 0 0 0 -114.19357111792488 -59.654907708649262 0 -59.654907708649262 -360.54508286569035 0 0 0 0 6.4609338733121149 -25.822211570475702 0 -25.822211570475702 286.34739199764954 0 0 0 0 37.670865091195083 -53.927254554779211 0 -53.927254554779211 270.04345941532665 0 0 0 0 -17.503511771980811 6.1867271086448454 0 6.1867271086448454 261.08419893112296 0 0 0 0 47.434232747840724 -41.062004793637243 0 -41.062004793637243 224.68893813138129 0 0 0 0 -19.732004283693641 60.432465003272227 0 60.432465003272227 -15.543268243163766 0 0 0 0 -33.203968249555146 28.308443078207347 0 28.308443078207347 229.97895102028269 0 0 0 0 -56.502074697187709 197.67115365709469 0 197.67115365709469 -60.285497704411682 0 0 0 0 -156.17900212989844 153.06039381800656 0 153.06039381800656 176.25180661820923 0 0 0 0 
</DataArray>
<DataArray type="Float64" Name="cross_section_updated" format="ascii">
0.0099743021276866243 1 1 1 1 1 1 1 1 0.0099947054735998447 1 1 1 0.010095672021332307 1 1 1 1 1 1 1 1 1 1 1 1 1 1 1 0.0099947492852833428 1 1 0.0098980438450454022 1 1 1 0.0098344891421432695 1 1 1 0.0099107678173774444 1 1 1 1 1 1 1 1 0.01024679578710988 1 1 1 1 1 1 0.010070031424265848 1 1 1 1 1 1 1 1 1 0.010462738009745723 1 1 0.0099562250649884113 1 1 1 0.011237028599497968 1 0.010977190545492111 1 0.0099333802647396455 0.0099802575386989494 1 1 1 1 1 1 1 1 1 0.010444786514437726 1 0.011976353575480009 1 1 0.010030501519159723 1 1 1 1 1 1 1 1 1 1 1 1 1 1 1 0.010037094286863732 1 1 1 1 0.010549750641960023 1 1 0.010001797429602551 0.011123332666596717 1 1 0.009997931414210336 1 1 1 0.01059492993069746 0.010260311559743555 0.010284655088768678 1 0.010478950921888565 1 1 1 1 1 1 1 1 1 0.009995699276835697 0.010656152453254453 1 1 1 1 1 1 0.0099994754966219179 1 1 1 1 1 0.010012178751055241 0.010562796404155776 1 1 0.0099501753582393829 1 1 0.0098180431857583291 0.01125916680564828 1 0.011008799981977763 0.010969876287803753 1 1 1 1 1 1 1 1 1 1 1 1 0.011906131236251874 1 1 0.010280618255461848 1 1 1 1 1 1 1 1 1 1 1 1 1 1 1 1 1 1 1 1 0.010095625935188205 1 1 1 1 1 1 1 1 1 1 1 1 1 1 1 0.0098569623042337063 1 1 0.0097544696607530547 1 1 1 1 0.010123550111736858 0.0099501248450652776 1 1 1 1 1 1 1 1 1 1 1 1 1 1 1 0.010328066348700213 1 1 1 0.0097515666190699339 1 1 1 1 1 1 1 1 0.009459902378470381 0.010208113835772506 1 1 1 1 1 1 1 1 1 0.0092140326041203358 1 1 1 1 1 0.010718794920114356 1 0.01036417962837681 1 1 1 1 1 0.013311431030108015 0.010776495857478797 1 1 1 0.0086787049785199688 1 0.014066433412486628 1 1 1 0.012366834138220231 1 0.0098618875448442268 1 1 0.012367708817381657 1 1 1 0.0098809668361883318 1 1 1 1 1 0.010842473660137426 0.010402387427039157 1 1 0.0099986745721867831 1 0.010491022534278374 0.0098519490971960624 1 1 0.010021094571729372 1 0.0097008659531836079 1 1 1 1 0.010096347158920839 1 0.009583734323028505 1 1 0.0097656349368219018 0.009813667911319322 0.0098061924502250639 1 0.010055355747172994 1 0.009745598174650141 0.010234237250948162 1 1 1 1 1 1 1 1 1 0.010007617750539518 1 1 1 1 1 1 1 1 1 1 1 1 1 1 1 1 1 1 1 1 1 1 1 1 0.0094473978302590279 1 0.0099637082464514165 1 1 1 1 1 0.0095444389951926303 1 0.010652678649905928 1 1 0.0095711821046961035 1 1 1 1 0.011100685982316347 1 0.0094998033671443039 1 1 1 1 1 1 1 1 1 1 1 1 1 0.010715733205985586 1 1 0.010012237654473767 1 1 1 1 1 1 1 1 1 1 1 1 1 1 1 1 1 0.0098847818074569889 1 1 1 1 1 1 1 1 1 1 0.0099062777096586806 1 1 1 0.010015331144672426 0.0097338335169110928 1 1 1 1 1 1 1 1 1 1 1 1 1 1 1 1 1 1 1 1 1 1 1 0.010459955888045578 1 1 0.0097300246187268982 1 1 0.010665635743665979 1 0.010237055370689205 1 1 1 0.010085705534577095 1 0.010798975342018567 0.010240776290438505 1 1 1 1 1 1 1 1 1 1 0.010090807879067293 1 1 1 1 1 1 1 1 1 1 1 1 1 1 1 1 1 1 1 1 1 1 1 1 1 1 1 1 1 1 1 1 0.010028646256547447 1 1 1 1 0.009954999579542826 1 1 1 1 1 1 1 0.0110001230185771 1 1 1 1 1 1 1 1 1 0.010010829875052554 1 0.010882830570171122 0.010502952059223858 1 1 0.010160477279082434 1 0.011337571941999604 1 1 1 1 1 1 1 1 0.010027340149169481 1 1 1 1 1 0.011064751452178421 1 1 1 1 1 1 0.010873696644841595 1 1 1 1 1 1 1 1 0.010511227376691735 1 0.010984247329791981 1 1 1 1 1 0.011516929933029626 1 0.010164638545865523 1 1 1 1 1 1 0.0097498947183810789 1 1 1 1 1 1 1 1 1 1 0.010190706939110139 0.01036814073201384 1 1 1 1 0.010742054386197379 1 1 1 1 1 1 1 1 1 1 1 1 0.0096694533679633713 1 1 0.010112710826117836 1 1 1 1 1 1 1 1 1 1 0.00995330730769221 0.009838241263971691 1 1 1 1 1 1 1 1 1 1 0.0099923019468425942 1 0.0099892104253763402 1 1 1 1 1 1 1 1 1 1 1 1 1 1 1 1 1 1 1 1 1 1 1 1 1 1 1 1 1 1 1 1 1 1 1 1 1 1 1 0.010091530104317892 1 1 1 0.011701680811701786 1 0.010427867839222095 1 0.01004353168466489 1 1 0.01004636521068436 1 0.0098903165564768053 1 0.010684357059328358 1 1 0.011345083681418802 1 1 1 1 1 1 1 1 0.010623723147904815 1 1 0.010675022897327526 1 1 1 1 0.0097037244957830088 1 1 1 1 1 1 1 1 1 1 0.011100695810525835 1 0.010489203998375978 1 0.009501809859968997 1 0.010948902373321379 1 0.010425433789450383 1 1 1 0.010003859688110878 1 0.009889925202551263 1 1 1 1 1 1 1 1 1 1 1 1 0.0099259543008418331 1 1 0.010002218069739523 0.010634897621091852 1 1 1 0.011010870886020287 1 1 0.010437029878658952 1 1 0.010778996499451956 1 1 1 0.010614400409527635 1 1 1 1 1 0.011084285495857649 1 1 0.010679151343315473 0.010480694870924966 1 1 1 0.0099639586184918673 0.010533963513008057 0.011218282017282038 1 1 0.010054883549932843 1 1 0.010003489570961841 1 1 1 1 1 1 0.010027912690565924 1 1 0.011269913806674253 1 1 0.010902490404446071 1 1 1 1 1 1 1 1 0.010100725817331561 1 1 1 1 1 0.011199610281850054 0.010298769340688116 0.010700063200129707 1 1 1 1 1 1 1 1 1 1 1 0.011274213717097255 1 1 1 1 0.010043953643453446 1 1 1 1 1 1 1 0.010389232199508446 1 1 1 0.010121602544252015 1 0.010430652490232492 1 0.010480038645112046 1 0.0099837350577383615 1 1 1 1 1 1 1 1 1 1 0.010003165538308958 1 1 1 1 1 1 1 1 0.010025983704995946 1 1 0.010074399451829313 1 1 1 1 0.010018580843243993 1 1 1 1 1 1 0.010405735651638956 1 0.010056864394620576 1 1 1 1 1 1 0.010389582935176792 0.010110740730183693 1 1 1 1 0.010012858542066953 1 0.010042762355989186 1 1 1 0.010037576403949235 1 1 1 1 1 1 1 0.0105737505909302 0.010082029387817354 1 1 0.010125978629464742 1 0.010006887412117386 0.0099999472929594487 0.010008252255890537 1 1 1 1 1 1 1 0.010056518547893476 1 1 1 1 1 1 1 1 1 1 1 1 1 0.010310916240003206 1 1 1 1 1 1 1 1 1 1 0.010125748443923454 1 1 0.010502882890102117 1 1 1 1 1 0.010181187693705587 1 1 1 1 1 1 1 1 0.011241288718082238 1 0.011623638981466341 1 1 0.010378313607953694 1 1 0.010804509730817848 1 1 1 1 0.010530335405089354 1 1 1 1 1 0.010117525128947726 1 1 1 1 1 1 1 1 1 0.010854559081762813 1 1 0.010002446588065979 0.010046899680107847 1 1 1 1 0.011146249544453079 1 0.010794171811987104 1 1 0.010681254011290213 0.0098365900212911816 1 0.010321594689709789 1 0.010286156123959432 1 1 1 1 1 0.010261189089198475 1 1 1 0.012758919589293614 1 1 1 0.012441976251803526 1 1 1 1 1 1 1 1 1 1 0.0099856185176938513 1 1 1 1 1 1 1 1 1 1 1 1 1 1 1 1 1 1 0.011989485876809794 1 1 0.01136484934963275 1 1 1 1 0.010504608812704572 1 1 1 1 1 1 1 1 1 1 1 1 1 1 1 1 1 1 1 1 1 1 1 1 1 1 1 1 1 1 1 1 1 1 1 1 1 1 1 1 1 1 1 1 1 1 1 1 1 1 1 1 1 1 1 1 1 1 0.010200188809859137 1 1 1 1 1 1 1 1 1 1 1 1 1 1 1 1 1 1 1 0.010366518689996175 1 1 1 1 0.010166329880137038 1 1 1 1 1 1 1 1 1 1 1 1 1 1 1 1 1 1 0.009984557282075774 1 1 1 1 0.010009116736760278 1 1 1 1 1 0.0099319272495495652 0.01071516085874305 1 1 1 1 1 1 1 1 1 1 1 1 1 1 1 1 1 1 0.010300552280987115 1 1 1 0.010782212641826616 1 0.009960832405744257 1 1 1 1 1 1 1 1 1 0.01025385640697017 1 1 1 1 0.010049751501279061 0.010596227130464687 1 1 1 1 1 1 1 1 1 1 1 1 1 1 1 1 1 1 1 0.010188792288532636 1 1 1 1 1 1 1 1 1 1 1 1 1 0.010255514441989909 1 1 1 1 1 1 1 1 1 1 1 1 1 1 1 1 1 1 1 1 1 1 0.010142825250102284 1 1 1 1 1 1 1 0.010268247182984563 1 1 1 0.010129728546297624 1 1 1 1 1 1 1 1 1 1 1 1 1 1 1 1 1 1 1 1 1 1 1 1 0.010454099140103881 1 0.009970993890427899 1 1 1 1 0.010465876636747242 1 0.010572997421506454 1 1 1 1 1 1 1 0.010161183576035963 1 1 1 1 0.010123358538650392 1 1 1 1 1 1 1 1 1 1 1 0.01046987884453437 1 1 1 1 1 1 0.0099416511853393889 1 0.019009433939328326 1 1 1 1 1 0.0098484046354838997 1 1 0.01314035636129998 1 1 0.0099889785759127957 1 1 1 1 1 1 1 1 1 1 1 1 1 1 1 1 1 1 1 1 1 1 1 1 1 1 1 0.010784521268664374 1 1 1 0.0099566012653155341 1 0.010653278732901332 1 1 0.010000981609751011 0.010082388821671931 1 1 1 0.010059001964762948 1 1 1 1 0.010133204294702165 1 0.010687918374941489 1 1 0.010209855768611215 1 1 1 1 1 0.01034581976947857 1 1 1 1 1 0.0099867934563190961 1 1 1 1 1 1 1 1 1 1 1 1 1 1 1 1 1 1 1 1 1 1 1 1 1 1 1 1 1 1 1 1 1 1 1 1 1 1 1 1 1 1 1 0.010225270372814302 0.0099873748082429104 1 1 1 1 1 1 1 1 1 1 1 1 1 1 1 1 1 1 1 1 1 1 1 1 1 1 1 1 0.01181992659895539 1 1 1 1 0.01095456963866602 1 1 1 1 0.010671453326419025 1 1 1 1 1 1 1 0.010334321990314931 1 0.015064462889705119 1 1 1 1 1 0.010115620090170759 1 1 1 1 1 1 1 1 1 1 0.0099602947564169167 1 1 1 1 1 1 1 1 1 1 1 1 1 1 1 1 1 1 1 1 1 1 1 1 1 0.015669745830271593 1 1 1 1 0.01024855775415361 1 0.015486606597873077 1 1 0.010248441401758826 1 0.0098706869986077816 1 1 1 1 1 1 0.0098690356347035033 1 1 1 0.0098958383215403921 1 1 1 1 1 1 1 1 1 1 1 1 1 1 1 1 1 0.010086589238933697 1 0.010140319080425791 1 1 1 1 1 0.010207787083346869 1 0.010072184459243383 1 1 1 1 1 1 1 1 0.010037644630830348 1 1 1 1 1 1 1 1 1 1 1 1 1 1 1 1 1 1 1 1 1 1 1 0.010039038942516324 1 0.01006308552347057 1 1 1 1 1 1 1 1 1 1 1 1 0.010096578290930174 1 1 1 1 1 1 1 1 1 1 1 1 1 1 1 1 1 1 1 1 1 1 1 1 1 1 1 0.018292868341327123 1 1 1 0.010031145971304322 1 0.012665770173838953 0.01855920372947328 1 1 1 1 1 0.009974901794688058 1 1 1 1 1 1 1 1 1 1 1 1 1 1 1 1 1 1 1 1 1 1 1 1 0.010204655642066969 1 1 0.010820607011086818 1 1 1 1 1 1 1 1 0.011143189769465378 0.010658336335731728 1 1 1 1 1 1 1 1 1 1 0.012004282777135937 1 1 0.011192086564751949 0.010689416360255014 1 0.010681298874655734 1 1 1 1 1 0.012990401602897928 1 0.011056316377985223 0.010482323573880464 0.0098826797702473296 1 1 1 1 1 1 0.011647221527366424 1 1 1 1 1 1 1 1 1 0.010356430774759557 1 0.011000686070437285 1 1 0.011129815847593611 1 1 1 1 1 1 1 1 1 1 1 1 1 1 1 1 1 1 1 1 1 1 1 1 1 1 0.01007721123775129 0.0099519249892405445 1 1 1 1 1 1 1 1 1 1 1 1 1 1 1 1 1 1 1 1 1 1 1 1 1 1 1 1 1 1 1 1 1 1 1 1 1 1 1 1 1 1 1 1 1 1 1 1 1 1 1 1 1 1 1 1 0.014195513284109319 1 1 1 1 1 1 1 1 1 0.015511664750157181 0.010168857387872668 1 1 1 0.010534939992788813 1 1 1 1 1 1 1 1 1 1 1 1 1 1 1 1 1 1 1 1 1 1 1 1 1 1 1 1 1 1 0.012108264506904061 1 1 1 1 1 1 1 0.016351038727167366 1 1 1 1 1 1 1 0.0099249983573987885 1 1 0.0087654918514945869 1 1 1 1 1 1 1 1 1 0.010108472414597811 1 1 0.0095407916475497463 0.0085981204788845456 1 1 1 0.018511455703975013 1 1 1 1 1 1 1 1 1 1 1 0.010780028541649934 1 1 1 1 0.010027496777321898 1 0.019435314081111692 1 1 0.0072704326052036618 1 1 0.007497391786571498 0.013167084337468779 1 1 1 1 1 1 1 1 1 1 0.013506569122120475 0.0099132885169773092 1 1 1 1 1 1 0.010012459651798892 1 1 1 1 1 1 0.0098961113031861454 1 0.01017692032719824 1 1 1 1 1 0.009998781751599491 0.010002594980351201 1 1 1 1 1 1 1 1 1 1 1 1 1 1 1 1 1 1 1 0.01227456194039666 0.00995404718986714 1 1 0.0099827727353755495 1 1 1 1 1 1 1 1 1 1 1 0.0099639458750031933 1 1 1 1 1 1 1 1 1 1 1 1 1 1 1 1 1 1 1 1 1 1 1 1 1 1 1 1 0.0098547467179396324 1 1 1 1 0.010145436903304935 0.0092702002370919304 1 1 1 1 1 1 1 0.0099125903575489564 1 0.010938670851177241 1 1 1 1 1 1 1 1 1 1 1 1 1 1 1 1 1 1 1 1 0.010874963111004343 0.010277786669262842 1 0.010012554857542242 1 1 1 1 1 0.010458080326592147 1 1 1 1 1 1 1 1 1 1 1 1 1 1 1 1 1 0.012384038481570226 1 1 1 1 1 1 1 1 1 1 1 0.014424381083776727 1 1 1 1 1 1 1 1 1 1 0.0098379935967361377 1 1 1 1 1 1 1 1 1 0.013458128865696526 1 1 1 1 0.014073649893530962 1 1 1 0.009551447337709398 1 1 1 1 0.0095519265946404919 1 1 1 1 1 1 1 1 1 0.0098580857143209868 1 1 1 1 0.0099489652739729491 1 1 1 1 1 1 1 1 0.010046286235209229 1 0.01265320130101848 0.010119562702684813 1 0.011494349292303653 0.012347927929969705 1 1 1 0.010482454657553101 1 1 1 0.010054483449751222 1 0.010145239483359365 1 1 1 1 1 0.0097296585838890018 1 1 1 0.013044832209479931 1 1 1 1 1 1 0.011233051866804724 0.011772227398925781 1 1 1 1 1 1 1 1 1 1 1 0.0099934787133999607 1 0.012116441220383531 0.010271489110270742 1 1 1 1 1 0.01061717422235824 0.010687739631976167 1 1 0.011310496460713117 1 1 1 1 0.011347334256266901 1 1 1 1 1 0.011195702939405035 1 1 1 1 0.0128567319555717 0.010457570703603855 1 1 0.01125941377052141 1 0.011717660214799558 0.010085603891644458 1 1 1 1 1 1 1 1 1 1 1 1 1 1 1 1 1 1 1 1 1 0.0099550540646644141 1 1 0.014509111546777288 1 0.01018834796796215 1 1 1 0.014179689895637804 1 1 1 1 1 1 0.01021763609443074 0.010203889981145135 1 1 1 1 1 1 0.010245452737671589 1 1 0.015863910140683325 1 1 1 1 1 1 0.010338018950528625 1 1 1 0.011610931731853541 1 1 1 1 1 1 0.012608481555584557 1 1 1 1 1 1 1 1 1 1 1 1 1 0.010452134794017673 1 0.010026672528464831 1 1 1 1 1 1 1 1 1 0.010186563188911058 1 1 1 0.009379526721765969 1 1 1 1 1 1 1 1 1 1 0.0098072468155457702 1 1 1 1 1 1 1 1 1 1 1 1 1 1 1 1 1 1 1 1 1 1 1 1 1 0.010489114003087208 1 1 1 0.013739526621767559 1 1 0.013355489242279545 1 1 1 1 1 0.010549664463506615 1 1 1 0.010248898428381557 1 1 1 1 1 1 1 0.010162990339863108 1 1 1 1 1 1 1 1 1 1 1 1 1 1 1 1 1 0.010004434708336653 1 0.010047013829979214 1 1 1 1 1 1 1 1 1 0.009901338093776621 1 0.010004351884280348 1 0.011901717963747468 1 0.010175583447377314 0.013059700305327673 1 1 1 1 0.010035458113428628 1 1 1 1 0.0099751239012086969 1 1 1 1 1 0.010175157061900303 1 0.012481982092976917 1 1 0.012493989444653086 1 1 1 1 1 1 1 1 1 1 1 1 1 1 1 1 1 0.010042358494862864 1 1 1 1 1 1 0.009993948577043334 1 1 1 1 1 0.011257292412704935 1 1 1 1 1 1 1 0.010776576036621816 1 1 0.010268688119186395 1 1 1 1 1 1 0.010332288691378585 1 1 1 0.0098636140920273854 1 1 1 1 1 1 1 1 1 1 1 1 1 1 1 1 1 0.012273423464492388 1 1 1 1 1 0.0090526094444689439 0.010520524251274565 1 1 1 1 1 0.0098234649240804967 1 0.010836245740123117 1 0.012038943465424581 1 0.01022472347179592 0.011925610802613841 1 1 1 0.010364992659236152 0.010107640441630492 1 1 1 1 1 1 1 1 1 1 1 1 1 1 1 1 1 1 1 1 1 1 1 1 1 1 1 1 1 1 1 1 1 1 1 1 1 1 0.010002773607475776 1 1 1 1 1 1 1 0.009986470913430719 1 0.011285834735212996 1 1 1 1 1 1 0.011254145186680491 1 1 1 0.0099640558468890202 1 1 1 0.01009328698702335 0.014363914544765486 1 0.011829693511983227 1 1 1 1 1 1 0.012607182311365397 1 1 0.010463939474940627 1 1 1 1 1 1 1 1 1 1 1 1 0.012671552969951445 0.01001268999913193 0.011670861168847451 1 1 1 0.010153757072398659 1 1 1 1 1 1 1 1 1 1 1 1 1 1 1 1 1 1 1 1 1 1 0.01374170397493802 1 1 1 1 0.012689984616312631 1 1 1 1 1 1 1 0.010145020102037192 1 1 1 1 1 0.010028155341458903 1 1 1 1 1 0.010427389134152176 1 1 1 1 1 1 1 1 1 0.010917152094112084 1 1 1 1 0.01039383273276143 1 1 1 1 1 1 1 1 1 1 0.01039732752197803 1 1 0.010523778832826777 1 1 1 1 1 1 1 1 1 1 1 1 1 1 1 1 1 1 1 1 0.010104389336775913 1 1 1 1 0.010202797749540971 1 1 1 1 1 1 1 1 0.010011989822134781 1 1 1 1 1 0.010064056941879142 1 1 0.010052067119744362 1 1 1 1 1 1 1 1 1 1 1 1 0.010526508522673547 1 1 1 1 1 1 1 1 1 1 1 1 1 1 1 1 1 1 1 1 1 1 1 1 1 1 1 1 0.010098564990277441 1 1 1 1 1 1 1 1 1 1 1 1 1 1 0.010794624790937197 1 1 1 1 1 1 1 1 1 1 1 1 1 1 1 1 1 1 1 0.011720421759082401 1 1 1 1 1 1 1 0.010927141997858283 1 1 1 1 1 1 1 1 1 1 1 1 1 1 1 1 1 1 1 1 1 1 1 1 0.010986831618915586 1 1 1 1 1 0.012056644853066834 1 1 1 1 1 1 1 1 1 1 0.0098402765530294801 1 1 0.01022114014520702 1 0.012048506865253557 1 1 1 1 1 1 1 0.010409745957312968 1 0.010194907210186612 1 0.010087621877269054 1 1 1 1 1 1 1 1 1 1 1 1 1 1 1 1 1 1 1 1 1 1 1 1 1 1 1 1 1 1 1 1 1 1 1 1 0.010322793876627046 1 1 1 1 1 1 1 1 1 1 1 1 1 1 1 1 1 1 1 1 1 1 1 1 1 1 1 1 1 1 1 0.010208088447132939 1 1 1 1 1 1 0.0099668072152365658 0.010381637905340406 1 1 1 1 1 1 1 1 1 1 1 1 1 0.0099804548407965207 1 1 1 1 1 1 1 1 1 1 0.010493003483333631 0.010810429525496469 1 0.011655473096941387 1 1 1 0.010811837543847291 1 0.010735037000752463 0.010348211320115448 1 0.012441686068726641 1 1 1 1 1 1 1 0.011375834806573653 0.010888667557545157 1 1 1 1 0.0099291589980108463 1 1 1 1 0.011761493882013046 1 0.010217243337821407 1 0.011469538447437963 0.010374614910571048 1 0.010439928147702362 1 1 1 1 1 0.010000268951763799 1 0.011297679516151226 0.010388525420493643 0.010151845823294038 0.010569705669952488 1 1 1 1 1 0.011002713397796456 1 1 0.011438237864842576 0.01020340960487 1 1 1 0.012741645064364794 1 1 0.01004403616501557 1 1 1 1 0.013342678089184119 1 1 0.010061910533654383 1 1 0.011133551738447755 1 1 1 1 1 1 1 1 1 1 1 1 1 1 0.010728236071198115 1 0.010528657907193434 1 1 1 1 1 0.010617390948928237 1 1 0.010272132501341005 1 1 1 1 1 0.012833436031842661 1 1 1 1 1 1 1 1 1 1 0.010757911603651778 1 1 1 1 1 1 1 1 1 1 1 0.010272499804662062 1 1 1 1 1 1 0.012963153669965822 1 1 1 1 1 1 1 1 1 1 1 1 1 1 0.012297705222667188 1 1 1 0.010090368408595021 1 1 1 1 1 1 1 0.011425679571072555 1 0.010483251794149041 1 1 1 1 1 1 1 1 1 1 1 1 1 1 1 1 1 1 1 1 1 1 1 1 1 1 1 1 1 1 1 1 1 1 1 1 0.011024646309424678 1 0.010444035001748155 1 1 0.011127951664401923 1 0.010085433239900675 1 1 1 1 1 1 0.011424954566016738 1 1 0.010068601057730041 0.011217629439439067 1 1 1 1 1 1 0.01050028759545029 1 1 1 1 1 1 1 0.010516160789519519 1 1 1 1 1 1 1 1 1 1 1 1 1 1 1 1 1 1 1 0.010136630180927126 1 1 1 0.012952891130480329 1 0.009997579001911807 1 0.012984996838366254 1 1 1 1 0.010396871661457663 1 1 1 1 1 1 0.010157230916682915 1 1 1 1 1 1 0.0099435816597322306 1 1 0.0098471003615663577 1 1 1 1 1 1 0.009903445623171591 1 1 1 1 1 1 1 1 1 0.011167861974401897 1 0.011062838133081716 1 1 1 1 1 0.0094787008942532423 0.0075765345858494464 1 1 1 0.010334751715880313 0.011706487544466687 1 1 1 1 1 1 0.0099380168987660555 1 1 0.010002604926080129 0.012836635467782668 1 1 0.0096359198591146559 1 1 0.012910949949603122 1 1 1 1 0.013601729841606458 1 1 1 1 1 1 0.011614962953384555 1 1 1 1 1 1 1 1 1 1 0.011843962740971995 1 1 1 0.010102879166568246 0.010570167201492359 1 1 1 1 1 1 1 1 1 0.010165455779178319 1 1 1 1 1 1 1 1 1 1 1 0.010452430161892158 0.011800991194077876 1 1 1 1 0.012027407682144088 1 1 1 1 0.010734053540541274 1 1 1 1 0.010425153524152336 1 1 1 0.010295370610847628 1 1 1 1 0.011301398276042715 1 1 1 1 1 0.01315089478735755 1 1 1 1 0.0098415681570199268 1 1 1 1 1 1 1 1 1 1 1 1 1 1 1 1 1 1 1 1 1 1 1 1 1 1 1 1 1 1 1 1 0.010145589182877966 1 1 1 1 0.010311044962056287 1 1 1 1 1 1 0.010103932119299159 1 1 1 0.01004155088535217 1 0.010191553996568214 1 1 1 1 1 1 1 1 1 1 1 1 1 1 1 1 1 1 1 1 1 1 1 0.010389212245598592 1 0.010143270495515383 1 1 1 0.010454030197216147 1 1 1 1 1 1 1 1 1 1 1 1 1 0.012444032835419415 1 1 0.011223103296838056 1 1 0.010085241217396802 0.012065245587321964 1 0.012642208390473687 1 1 1 1 1 1 1 1 1 1 1 1 1 1 1 1 1 0.011579789367216793 1 1 1 1 1 0.011302523257260787 1 1 1 1 1 1 1 0.01093385099569041 1 1 1 1 1 1 1 0.0096092832114264819 1 1 1 1 1 1 1 1 1 1 1 1 1 1 1 0.010576977527717081 1 1 1 0.010265985522331164 1 1 1 1 1 1 1 1 1 1 1 0.011328816153152843 1 1 1 1 1 1 0.014080106754215616 1 1 0.010005546019897905 1 0.010098692159276078 1 1 1 0.0083031803360167494 1 1 1 1 1 1 1 1 1 1 1 0.0088767881299195942 1 1 1 1 1 0.0098319526932045855 1 1 1 0.0090836899155582462 1 1 1 0.0077069371711096409 1 1 1 1 1 0.013076659735569367 1 0.013303125217642318 1 1 1 1 1 1 1 1 0.010558749702777877 1 0.011539023672579108 1 1 0.01104273582933833 1 0.013361805031014296 1 0.010008768297720606 1 1 1 1 1 1 1 1 1 1 0.0099530201047748242 1 0.012132861090498045 1 1 1 1 0.010167738736757926 1 1 1 0.010233077216032139 0.011551630813889492 1 1 1 0.010602770166914377 1 0.010074683820114465 0.010954595080613803 1 1 0.010502502676519426 0.01188295962351861 1 0.010982831727638129 0.010782507521212197 1 1 0.010610922529468532 0.010526706292016502 1 1 0.010423019511283322 1 1 0.010008672425309822 1 0.0099771506698335052 1 1 0.010494811198630976 1 1 0.010033696128915446 1 0.010383860299815794 1 1 1 0.010254508007788819 1 0.0099916849776613588 1 1 0.011042978310453113 0.0106926248728342 1 1 1 0.011180090527378487 0.011969162782581425 1 0.010439852801902089 1 1 1 1 1 1 1 1 0.0099803427950206809 1 1 0.010294877079619118 0.012937877237492944 1 0.011211176031022846 1 0.01049867878896478 0.012869237896945692 1 1 1 0.012385481249644097 1 1 0.012079874641394327 1 1 1 1 1 1 0.010153656888964272 0.013045289665380516 1 1 1 1 1 1 1 0.010074562678449115 0.010023891728598154 1 1 1 1 0.010221777540584386 1 1 1 0.009999284254085989 1 1 0.0098674625671068723 1 1 1 1 1 0.014965840343383498 1 1 0.011755990051388707 1 1 1 0.010183377855429179 0.0096965552703105855 1 1 0.010003417634337427 1 1 1 0.010101592852266868 1 1 1 0.01185318121809043 0.0094235852119750763 1 1 0.0086211446875376265 1 1 1 1 0.0099951054196686616 0.011933479225534364 1 1 0.010530559584299944 0.0099995235088992211 1 0.011895391598016255 0.013044116277329761 1 1 1 1 1 1 0.012151404013065943 1 1 1 1 1 1 1 1 1 1 0.010195060816189407 0.010021690176831355 1 1 1 1 1 1 1 0.010087835093712432 1 1 1 1 1 1 1 1 1 0.0108147972375438 1 1 0.010127965230426802 1 1 0.012027180919606157 1 1 1 1 1 1 1 1 1 1 1 1 1 1 1 1 1 1 0.011325349022092025 0.010936096765536633 1 1 1 1 0.010245750849044008 1 1 0.011877568146719857 1 1 1 1 1 1 1 1 1 0.012777533591333268 1 1 0.010036390631738848 1 1 1 1 1 1 1 1 1 1 1 0.010083820177961356 1 0.010119742279684766 1 1 1 1 1 1 1 1 1 1 0.0098988747487094315 1 1 1 1 1 1 1 1 1 1 1 1 1 1 1 1 1 1 1 1 1 1 1 1 1 1 1 1 1 1 1 1 1 1 1 1 1 1 1 0.011908961344515653 1 1 1 1 1 1 1 1 1 0.010458462433325266 1 1 0.0090316670209295482 1 1 1 1 1 1 1 1 1 1 1 1 1 1 1 1 0.0077538716786075068 1 0.01383875931849054 1 1 0.010456901153565464 1 1 1 0.010004835548744621 0.0099255312594692217 1 0.010292455868513557 0.0099878568195393043 1 0.0095983104129521782 1 1 0.0098569250729095212 1 1 0.010047652624967412 1 1 1 1 1 1 1 1 1 1 1 1 1 1 1 1 1 1 1 1 1 0.010222156191681084 1 1 1 1 1 1 1 1 1 1 1 1 1 1 1 1 1 1 1 0.0102376454300804 1 1 1 1 1 0.010358470493643454 1 1 1 1 1 1 1 1 1 1 1 1 1 1 1 1 1 1 1 1 1 1 1 1 0.010829547874397299 1 1 1 1 1 1 0.0099501605000566727 1 1 1 1 1 1 1 1 1 1 1 1 1 1 1 0.010010948036206058 1 1 1 0.0098803485632941428 0.010606366569662257 1 1 1 0.0098384494377589948 1 1 1 1 1 1 1 1 0.0099220671601385289 1 1 1 1 0.009973640186379789 1 1 1 1 1 1 1 1 1 1 1 1 1 0.010255697746074219 1 1 1 1 1 1 1 1 1 1 1 1 1 1 1 1 1 1 1 1 1 1 1 1 1 1 1 0.011369302240565574 1 1 1 1 1 1 1 1 1 1 1 1 1 1 1 0.011673764786756058 0.010164869361748234 1 1 1 0.010198247821867297 1 1 1 1 1 1 1 1 1 1 1 1 1 1 1 1 1 1 1 1 1 1 1 1 1 1 1 1 1 1 0.010654060406911126 1 1 1 1 1 1 1 1 1 1 1 1 1 1 1 1 1 1 1 1 1 1 1 1 1 0.010005672003534088 1 1 1 1 1 1 1 0.0099577521082707936 1 1 1 0.0097636970457411383 1 1 0.012400898195788686 1 1 1 1 1 1 1 1 0.010886096007688688 0.013624856781206332 1 1 1 1 1 0.010171047584015949 1 1 1 1 1 1 1 1 1 1 1 1 1 1 1 1 1 1 1 0.010372418219816394 1 0.010073302110832594 1 0.010658977815791875 1 1 1 0.015574362989679494 1 0.013764243161768941 1 1 1 1 1 1 1 1 1 1 1 1 0.015897390051844935 1 1 1 1 0.0099603109263320232 1 1 0.011827969471130365 1 0.013979804744009783 1 1 0.010207498044728714 1 1 1 0.01007438927563397 1 1 1 1 1 1 1 1 1 0.012129400185890461 1 1 1 1 0.012035458138238133 1 1 1 1 0.011865157748740578 1 1 1 1 1 1 0.010120128719235493 1 0.010434128286208752 1 0.011520625036438959 1 1 1 0.010399779571563333 1 1 1 1 1 1 0.011750921484362811 0.011427417926227616 1 1 1 1 1 0.010169740043430964 1 1 1 1 1 1 1 1 1 1 1 1 1 1 1 1 1 1 1 0.01025939670947917 1 1 1 1 1 1 1 1 1 0.014656422375125096 1 0.010001447949417517 1 0.0099490566379615737 1 1 1 1 1 1 1 1 1 1 1 1 0.010494743992666939 1 1 0.013039628503213836 1 1 1 1 1 1 1 1 1 0.0088248430262925191 1 0.012189978713633538 1 1 1 1 1 1 0.0095956026443832759 1 1 1 1 1 1 1 1 1 1 1 1 1 1 1 1 1 1 1 1 1 1 1 1 1 1 1 1 1 1 1 1 1 1 1 1 1 1 1 1 1 0.01012041337866167 1 1 0.0099963017685505088 1 0.010431791648361128 1 1 1 0.010788476603900806 0.010001323044587996 1 1 0.010777077064360449 1 1 1 1 1 1 1 1 1 1 1 1 0.010722717582883106 1 1 1 1 1 1 1 1 1 1 1 1 0.010287978604946887 1 1 1 1 1 1 1 1 1 1 1 1 1 1 1 0.010533915036640045 1 1 1 1 1 0.010502233176361597 1 1 1 1 1 1 1 1 1 0.01018006621041089 1 1 1 1 0.010417711640491286 1 1 1 1 1 1 1 1 1 1 1 0.012234332913148453 1 0.009881645162547999 1 0.010024011042700955 1 1 1 0.0095331923371369861 1 1 1 1 1 1 1 1 1 1 1 1 1 1 1 1 1 1 1 1 0.010190474331402636 1 1 1 1 1 1 1 1 1 1 1 1 1 1 1 1 1 1 0.010089942483234459 1 1 1 1 1 0.0080821037488909772 1 1 1 1 1 1 1 1 0.0096720522587188749 1 1 0.0089450522845555512 1 1 1 1 1 1 1 0.010343099683464151 1 1 1 1 1 1 1 1 1 0.010059205210171273 1 1 1 1 1 1 1 1 1 1 1 1 1 1 1 1 1 1 1 1 1 1 1 1 0.010698876173781791 1 0.012022211970920231 1 1 0.010999375776702692 1 1 1 1 1 1 1 1 0.010031334997616817 1 1 1 1 1 1 0.014790463768331291 1 1 1 1 1 1 1 1 1 1 1 1 0.010670834986261733 1 1 1 1 1 1 1 1 1 1 1 1 1 1 0.010327735302797581 1 1 1 0.016481366665373594 1 1 1 1 0.010114964208474108 1 1 1 1 1 1 1 1 1 1 1 1 1 1 1 1 1 1 1 1 1 1 1 1 1 1 0.010079380234149784 1 1 0.010169021083729744 1 1 1 1 1 1 1 1 1 0.010009011238745822 1 1 0.010073970999761869 1 1 0.010046642513979031 1 1 1 1 1 1 1 1 1 1 1 1 1 1 1 1 1 1 1 1 1 1 1 1 1 1 1 1 1 1 1 1 1 1 1 1 1 1 1 1 1 1 1 1 1 1 1 1 1 1 1 1 1 1 1 1 1 1 1 1 1 1 1 0.010321747966952287 1 1 1 1 1 1 0.017717560535511261 1 1 1 1 1 1 1 1 1 1 1 0.018279513261779505 0.010924558215399414 1 1 0.013442279306997403 1 0.010778068802620704 1 1 0.01675953374199133 1 1 0.0093146263142990585 1 1 1 1 1 1 1 1 0.010033778614213429 1 1 1 1 1 1 1 1 1 0.010122498643312994 1 1 1 1 0.010039539395773072 1 1 1 1 1 1 1 1 1 1 1 1 1 1 1 0.010087759990794367 1 1 1 1 0.020038309954677438 1 0.0099614001811376366 1 1 1 0.0098488314779823696 1 1 0.01636808519971307 1 1 1 1 1 1 1 1 1 1 1 0.010077731262532599 1 1 0.010169834454779165 1 1 1 0.0098554412863082023 1 1 0.015759523179925884 0.012613298268831287 1 1 0.0071307359978560634 1 1 1 1 1 1 1 1 0.010658037437515006 1 1 1 1 0.010191903553178712 1 0.010758369136325097 1 0.0094516677543437753 1 1 1 1 0.0097594413438942523 1 1 1 0.010023586756113197 1 1 1 1 1 1 1 1 1 1 1 1 1 1 1 1 1 1 0.010240764701836907 1 1 1 1 1 1 1 1 1 1 1 1 1 1 1 1 1 1 1 1 1 1 1 1 1 1 1 1 1 1 1 1 1 1 1 1 1 1 1 1 0.010448347006462813 1 1 1 1 1 0.010121337975745976 1 1 1 1 1 1 1 1 1 1 1 1 1 0.010690441160514976 1 1 0.012064430291762436 1 1 1 0.01035154412633723 1 0.01063886751747742 1 1 1 1 0.0098278783944898262 1 1 1 1 1 1 1 1 1 0.010931796448845696 1 1 0.0099624659889494972 0.008600077097051146 1 0.010912040915118302 1 1 1 1 1 1 1 1 1 1 1 1 1 1 1 1 1 1 1 1 1 1 1 0.010998667892654591 1 1 1 0.010626962074050112 1 1 1 1 1 1 1 0.010216330723814702 1 1 1 1 1 1 1 1 1 1 1 1 1 1 1 1 1 1 1 1 1 1 1 0.010300943563144867 1 1 1 1 1 0.010786872396645856 1 0.010512986383364646 0.0096863032545335143 1 1 1 0.0099904284896884781 1 1 0.010026580734508048 1 1 1 1 1 1 1 1 1 1 1 0.009942863755162944 1 1 1 0.00945388166637408 1 0.0098309617149614989 1 1 1 1 1 0.010760759859546686 1 0.00995724334968991 1 0.0092330543380393579 1 1 1 1 1 1 1 1 0.012112440114242147 0.010122887984455237 0.011434008455863702 1 1 0.010024494734111461 1 1 1 1 1 1 1 1 1 1 1 1 1 1 1 1 1 1 1 1 1 1 1 1 1 1 1 1 1 1 1 1 1 1 1 1 1 0.0095116363757836858 1 1 1 1 1 1 1 0.0097821767005428321 1 1 0.010003897294747325 1 1 1 1 1 1 1 1 1 1 1 1 1 1 1 1 1 1 1 1 1 1 1 0.010209166797607548 1 1 1 1 1 1 1 1 1 1 0.011226211070689581 1 1 1 1 0.012141649930257724 1 1 1 1 0.0073251517203750914 1 0.010019032397082558 0.017869410886583767 1 1 1 1 0.010326330096790367 1 1 0.0058315927275550388 1 1 0.014035524606365157 0.010588072137199488 1 1 1 1 1 1 1 0.01485558179063355 1 1 1 1 1 1 1 1 1 1 1 1 1 0.0099613900131263547 1 1 1 1 1 1 1 0.015618432516693816 0.0099289720329299915 1 0.010036405902026061 1 0.013861521743646334 1 1 1 0.010813808796950954 1 1 1 1 1 0.010490253448779496 1 1 0.010163883572877504 1 1 1 1 1 1 1 0.010402602559689951 1 1 1 1 1 1 1 1 0.0099957411158016658 1 1 1 0.013541258356042633 1 1 1 1 1 0.009703641150962089 0.016826695026058276 1 1 0.009189477904687748 1 1 1 1 1 1 1 1 1 1 1 1 1 1 0.010062863549012386 1 1 0.0087234693944699508 1 0.011294062840641802 1 1 1 1 0.010634896683963439 1 1 1 1 1 0.017098943208041908 1 1 0.0099549756628086288 0.016716859190341295 1 1 1 1 0.012611136648022481 1 1 1 1 1 1 1 1 0.013555321479312104 1 0.01205980134534366 1 1 1 1 1 1 1 1 0.013427908412418761 1 1 1 1 0.01018003217209911 1 1 1 1 1 1 1 1 1 1 1 1 1 1 1 1 1 1 1 1 1 1 1 1 1 1 1 1 1 1 1 1 1 0.010269238578285119 1 1 1 1 1 1 1 0.010631051546694224 1 1 1 1 1 1 1 1 1 1 1 1 0.0099391583725733229 1 1 1 1 0.01763461280132108 1 1 1 1 1 1 1 1 1 1 1 1 1 0.010000190774609901 1 1 0.011587244154544363 1 1 1 1 0.010533745849860957 1 1 1 1 1 1 1 1 1 1 1 0.010059166198853137 1 0.01786617491621343 1 1 0.010021738743611775 1 1 1 1 0.0093503409458776283 1 1 1 1 1 1 1 1 1 1 1 1 1 1 1 1 1 1 1 1 1 1 1 1 1 1 1 1 0.0097937152212389748 1 1 1 1 0.0099536889781749634 1 1 1 1 1 1 1 1 1 0.0097680673519837252 1 1 1 0.011143195374491157 1 1 1 1 1 1 0.010443019851044963 1 0.011122421283674905 1 0.010181647084222832 1 1 1 1 1 1 1 1 1 1 1 1 1 1 1 1 1 1 1 1 1 1 1 1 1 1 1 1 1 1 1 1 1 1 1 0.0099989326196470545 1 0.010559017800625032 1 1 1 1 1 1 1 1 0.01024489048812377 1 1 1 1 1 1 1 1 1 1 1 1 0.0092974081115204058 1 1 1 1 1 1 1 1 1 1 1 1 1 0.0097773332730922789 1 1 0.0099730734934550952 1 1 1 1 0.01000141925018409 1 1 1 1 0.010095081643851377 1 1 1 1 1 0.010075803443175728 0.0099916835250024351 1 0.010235041614903469 1 1 0.010726098591717066 1 1 1 1 0.010007200842749212 1 0.010265757143951735 1 1 1 1 1 1 1 1 0.0099876026349111253 1 1 1 1 0.01001534651784099 1 1 1 1 1 1 1 1 1 1 1 1 1 1 1 1 1 1 1 1 1 1 0.010041439677300014 1 1 1 1 1 1 1 1 1 1 1 1 1 1 1 1 1 1 1 1 1 0.010056786195141006 1 1 1 1 1 1 1 0.010293133480985133 1 0.010121312337368946 1 1 1 1 1 1 1 1 1 1 1 1 1 1 1 1 1 1 1 1 1 1 1 1 1 1 0.011285844532958325 1 1 1 1 1 0.0103730022508232 1 0.0099938274664106222 1 1 1 1 0.010886248210947242 0.010816894800828999 0.010041030068698907 1 0.01201336262000533 1 1 1 0.0091938483468457163 1 1 1 1 0.01031873589391798 1 0.011528609201594606 1 1 1 1 0.0099990084894837211 1 1 1 0.010964089336867877 0.010473673871919853 0.0098169222033906399 1 0.011096928430760572 1 0.010880051737453661 1 1 0.01001074599423683 1 1 1 1 1 1 1 1 1 1 0.010102596143478285 1 0.010127838289079004 1 0.010099788099794825 1 1 1 1 0.010355904863304241 1 1 1 1 0.0097532456892482772 1 1 1 1 1 1 1 1 1 1 0.016658491082749319 1 0.010017420174004097 1 1 0.0079349602540961829 1 1 0.017708890908536758 1 1 1 1 1 0.008887848997759731 1 1 1 1 1 1 1 1 1 1 1 1 0.010448858427216136 1 1 1 0.0095879099530045506 1 1 1 1 1 0.009911595916057038 1 1 1 1 1 1 1 1 1 1 1 1 1 1 1 1 1 1 1 1 1 0.0099608119374083454 1 1 1 1 0.012315062090719198 1 1 1 0.012920130751076819 1 0.009549010153686293 1 1 0.012818799241089335 1 0.010014255684131513 1 1 1 1 1 1 0.010074926545047722 1 1 1 1 0.0093704382479729668 1 0.012203385874372558 1 1 1 1 1 1 1 0.010122571747869119 1 1 1 1 1 1 1 0.017597996729695656 1 1 1 1 1 1 1 1 1 1 1 1 1 1 1 1 1 0.010302603919968229 1 1 1 0.0098134469257079235 1 1 1 1 1 1 1 1 1 1 1 1 1 1 0.0094813981227490005 1 1 1 1 1 1 1 1 1 1 1 1 1 1 1 1 1 1 1 1 1 1 1 1 1 1 1 0.010703677188940686 1 0.011390522173227547 1 1 1 0.009805553193055816 1 1 1 0.012490603404308137 1 1 0.010115811901551088 0.012141365829782671 1 1 1 1 1 1 1 1 0.011127417266625233 1 1 0.011681478481550597 1 1 1 1 0.010692422513358895 1 0.010242731277784306 1 1 1 0.010099822287788558 1 1 1 1 1 1 1 1 1 1 0.011113109625120498 1 1 0.0096039796274664455 1 1 0.010010177880173303 1 1 1 1 1 1 1 0.012909512147928749 1 1 0.012055485950828976 0.014078551062018153 1 1 1 0.0099997415429425272 1 1 1 1 1 1 0.0091922150328255462 1 1 1 1 0.015650095601780281 1 1 1 0.01035958734229713 1 1 1 1 0.0098749147096662635 1 1 0.010415338687610663 1 1 1 1 1 1 1 1 1 1 1 0.010055385281407999 1 1 1 1 0.011567068472383993 1 0.011455700951255926 1 0.0094717099318973701 1 0.010573483354086899 1 1 1 1 1 1 1 1 1 1 1 0.010194718997137748 0.012092142394390978 1 1 1 1 1 1 0.0099313943382545195 1 1 0.010031719308280288 1 1 1 1 1 1 0.0097931552170560203 1 1 1 0.01021859214739953 1 0.01026549014383488 1 1 1 0.010541144642052962 1 1 1 1 1 1 0.010310306653084942 1 1 1 1 1 1 0.010010942649603425 1 0.010013445015233923 1 1 1 0.012165357442424534 1 1 1 1 0.010297074508170504 1 1 1 1 1 1 1 0.010000513870311581 1 0.01082564603063375 1 0.011704020809606655 1 1 1 0.0097319991963207807 0.011821072812457848 1 1 0.0097568694789950464 1 1 1 1 1 0.010420191947776491 1 0.010614191119740745 0.010396511853721202 0.010893571295926122 0.011556643148850665 1 1 1 1 1 0.010737326486138548 0.0097439763074562286 1 1 0.010039203160037079 1 1 1 0.011091203756966306 1 1 1 1 1 1 1 1 1 0.010033350605989528 1 1 1 0.010000885488871517 1 1 1 1 1 1 1 0.01001628013071347 1 0.010002001703516814 1 1 1 1 0.0099304952965472738 1 0.010188864587059612 1 1 1 1 0.01013928297142197 1 1 1 1 1 1 1 1 1 0.010055785822256306 1 1 1 1 1 1 1 1 1 1 1 1 1 1 1 1 1 1 1 1 1 0.010005554564111894 1 1 1 1 0.010002672616625834 1 1 1 1 1 0.011014572602371693 1 0.010046933270671719 1 1 1 1 1 1 1 1 1 1 1 0.010151186344795849 1 0.010670247915353167 1 0.010789726547536016 0.010319876160920923 1 0.009972866313205481 1 0.01094971220034709 1 1 1 0.0099870088458833342 1 1 1 0.010096481143556338 1 1 1 1 0.010969629214988558 1 0.0099803008316310098 1 1 1 1 1 1 1 1 0.010075221703287408 1 1 1 1 1 1 1 1 0.010007773609649523 1 1 1 1 1 1 1 1 1 0.0099967732117248759 1 1 0.0097416195989162221 1 1 1 0.0099278378217000727 1 1 1 1 1 1 1 1 1 1 1 1 0.01029664284702304 1 1 1 1 0.012209145350925089 1 1 1 1 1 1 0.012476257996722771 1 1 1 1 0.0099894203980090135 1 0.010249941701857402 1 1 1 1 1 1 1 0.010785071827820266 1 1 1 0.0099915538082434047 0.0100161792062436 1 1 1 1 0.012517171890670902 1 0.0099988769851708029 1 1 0.010527957278617685 1 1 1 1 1 1 1 1 1 1 1 1 1 1 1 1 1 1 1 1 1 1 1 1 1 1 1 1 1 1 1 1 1 1 1 0.0094966791498235781 1 1 1 0.011535983704529773 1 1 1 1 1 1 1 1 1 1 1 1 1 0.010004406150256943 1 0.010461566900836852 1 1 1 1 1 1 1 1 1 1 1 1 1 0.011494690066766244 1 1 0.011904945626789485 1 1 1 1 1 0.011515369272699059 1 1 1 1 1 1 1 1 1 1 1 1 1 1 1 1 1 1 1 0.010779341589898779 0.010780333244806558 1 1 0.0099904374183285641 1 1 0.012373087722670597 1 1 1 1 1 1 1 0.010030137426847913 1 1 1 1 0.010520215782117997 1 1 1 1 1 1 1 1 1 1 1 1 1 1 0.010449981679874399 1 1 0.01011945467737517 1 1 1 1 1 1 1 0.010207727790123964 0.010285885372325878 1 1 1 1 1 1 1 1 1 1 1 1 1 1 1 1 0.010099130276476548 1 1 1 1 0.010096502284296207 1 1 0.01197295072172366 1 1 0.010910160297575158 1 1 1 1 1 1 1 1 1 1 1 1 0.010440867258585378 1 1 1 1 0.009842906154940774 1 1 1 1 1 1 1 1 1 0.010326319501886312 0.010944551588256742 0.011998963592858802 1 1 1 0.010007355730377355 1 1 0.0099508808948255319 0.0093667219994082469 1 0.008750572212036116 1 1 1 0.010028389622575021 1 1 1 1 1 1 1 1 1 1 1 1 1 1 1 1 1 1 1 1 1 1 1 1 1 1 1 1 1 1 1 1 1 1 1 1 1 1 1 1 1 1 1 1 1 1 1 1 0.010025151005178808 1 0.010006673419163755 1 1 1 1 1 1 1 1 1 0.010217586927234503 1 1 1 1 1 1 0.0099948965651387514 1 1 1 1 1 0.0099951781813286122 1 1 1 1 1 1 1 1 1 1 1 1 1 1 1 0.010319587329460273 1 1 1 1 1 1 1 0.010084636042300033 1 1 1 1 1 0.010199463865744534 0.010260930070470898 1 1 1 1 0.010460419989318941 1 1 1 1 1 1 1 1 1 1 1 1 1 1 1 1 1 1 1 1 1 0.010164168399267474 1 1 1 1 1 1 0.010382830467472529 1 1 1 0.010360019164261975 1 1 1 1 1 1 1 1 1 1 1 1 1 1 1 1 1 1 0.010412521942973485 1 0.0099514929002503597 1 1 1 1 1 0.010372262717475723 0.0098607731853630025 1 1 1 0.0099738181184174882 1 1 1 1 1 1 0.009598264315924929 1 1 1 1 1 0.01045409683224599 1 0.010782866700920308 1 1 0.010499733702148599 1 1 1 1 0.010456427865359091 1 1 1 1 0.011125321581984437 1 1 1 1 0.010000830113482559 1 1 1 1 1 1 1 1 1 1 1 1 1 0.010455916355239956 1 1 1 1 1 1 1 1 1 1 1 1 1 1 1 1 0.0098482439141213754 1 1 1 1 0.0093927549985713382 1 1 1 1 0.011522084687714349 1 1 1 1 1 1 1 1 1 1 0.011224650046596871 1 1 1 1 0.010164600788866048 1 1 1 1 1 1 1 1 1 1 1 1 1 1 1 0.010521627300286579 1 1 1 0.010025403186279256 1 1 1 1 1 1 1 1 1 1 1 1 1 1 0.011015394347102291 1 1 1 1 1 1 1 1 1 1 1 0.0097606677225420546 1 1 0.0098846038952882468 1 1 1 1 1 1 0.012585397664212536 0.0095633558486524564 1 1 1 1 0.0099358475708286927 1 0.010076818375549494 1 1 1 0.011968627078711014 1 1 0.010795736093026019 1 1 1 1 1 1 1 1 1 1 1 1 1 1 1 1 0.011475466565475559 1 1 1 1 1 1 1 1 0.01353126400949756 0.0099634354607036485 1 1 1 0.010206690739276679 0.010957600113634077 1 0.0092741904603952131 1 0.0098444226541824897 1 1 1 1 0.0099557378814151797 1 1 1 1 1 1 1 1 1 1 1 1 1 0.010013654890203576 1 0.012740537406449395 1 1 1 1 1 1 1 1 0.01146940466666794 0.010000762084093605 1 1 0.0096788809770539698 0.011057315892609488 0.011363097610912847 1 1 1 1 1 1 0.010003156519658513 1 1 0.011374723763208408 1 1 0.010036948561012135 0.009655886093961558 0.0097185867196954382 0.0095732841161551233 1 1 1 1 1 1 1 1 1 1 1 1 1 0.01008469348955298 1 1 0.012142764897241157 1 0.010054455282147936 1 1 1 1 1 1 1 0.0099760994389018129 0.011839185615849679 1 1 0.011525548769176696 1 1 0.0089943115073280767 1 1 1 1 0.0093936813293321736 0.0095032585246906803 0.0090609445690732864 0.009459003398378376 1 1 1 1 1 1 1 1 1 1 1 1 1 1 0.010416179352861994 1 1 0.010762605775450445 1 1 1 1 0.010005524274208732 1 1 1 0.01156726734075816 1 1 0.011346963930435461 1 1 0.010001286436017784 1 1 0.011743296736994049 0.011750821537636316 1 0.0097962171267705761 1 1 1 1 1 1 0.0095357747141676889 1 1 1 1 0.011425662947174101 1 1 1 1 1 0.010952015016024955 1 1 0.010000645895155987 1 0.010321735493726699 0.011664727552380134 1 1 1 0.0100605627647987 1 1 1 1 1 0.0099855110621313234 1 1 1 0.0099697520284610878 1 1 1 0.0099996526672352006 1 1 1 1 1 1 1 0.009642937598403678 1 1 1 1 1 0.0096644496355244927 1 1 1 1 1 1 1 0.0099585844079125539 1 0.010009249732861512 0.0098770127862848837 1 1 0.0099986338787106041 1 1 1 1 1 1 0.0098772125801080187 1 1 1 1 1 1 0.0089262055424886248 1 1 1 1 1 1 0.01285107753002486 1 0.012581689154577299 1 0.0096458133146754728 1 1 0.013821458064503751 1 1 1 1 0.012130698003555014 0.0099398416101142348 0.010658961645967111 0.011800180953862633 1 1 1 1 1 1 1 1 0.0098892514207330265 1 1 1 0.0099980432645201227 1 0.0096352822389859233 1 1 1 1 1 1 1 1 1 1 1 1 1 1 1 1 0.010997439265714096 1 0.011664049831445443 1 1 1 1 1 1 1 1 0.010012903689939323 1 1 1 1 1 0.012586608889000272 1 1 0.012493215039441868 1 1 1 1 1 1 0.012479539049994662 0.012699652642022552 1 1 0.011099695900994078 1 1 1 1 1 1 1 1 1 1 1 0.0098812679130945991 0.010754330576220369 1 1 1 1 0.0099981206199717294 1 1 1 1 1 1 1 1 0.011174071211338416 1 1 1 1 0.010280049978424036 1 1 1 1 1 1 0.010682301173562673 1 0.010596412566968891 1 0.012339618543358117 1 1 1 1 1 1 1 1 1 1 1 1 1 1 1 1 1 1 0.010143131974259197 1 1 1 1 1 1 1 1 1 1 1 1 1 1 1 1 1 0.010004748983942012 0.010000704269297217 1 1 1 1 1 1 1 1 1 1 1 1 1 1 1 1 1 1 1 1 1 1 1 1 1 1 1 1 1 1 1 1 1 1 1 1 1 1 1 1 1 1 1 1 1 0.010094922193819023 1 0.010294412112667073 1 1 1 1 1 1 1 0.010005996213707376 1 1 1 0.011836111713546012 1 0.010061611438830961 0.010007042288869795 0.010119216303217864 1 0.010694686027675962 0.012784962348364095 1 1 0.0099915835419494593 0.012619899596113151 0.010139710489648795 1 1 1 1 1 0.010314673442344477 1 0.013101850515426295 0.011760465127214494 1 1 1 1 1 1 1 0.010632474771234714 1 1 0.013313705985624522 1 1 0.010028298326559038 0.010709871550850784 1 1 1 1 1 1 0.010807931896990395 1 1 0.010406254372165354 0.011042809637842366 1 1 0.010092850316782333 1 1 1 0.010229838724749987 1 1 1 1 0.011883977466260614 1 1 1 0.012510800904989221 1 1 0.010913262277122799 1 1 1 1 1 1 1 1 1 1 1 1 1 1 1 1 1 1 1 0.013423081484137839 0.010005527742245033 1 1 1 0.013790724664809927 1 1 1 1 0.013039809348670812 1 1 1 1 1 0.010523167056023129 0.011114418284948585 1 1 1 1 1 1 1 1 1 0.010669629334663977 1 1 1 1 1 1 1 1 1 1 1 1 1 1 1 1 1 1 1 1 1 1 1 1 1 1 1 0.0099985220512096452 1 0.014554704832834706 0.0098771341066411587 1 1 1 1 1 1 1 1 1 1 1 1 1 1 1 1 1 1 1 1 1 1 1 1 1 1 1 0.013534121940193622 1 1 0.010047446708089953 1 1 0.013256932935132248 1 1 0.011690804582972907 1 0.011325371302818063 1 1 1 1 1 1 1 0.010775341350355839 1 1 1 1 1 1 1 1 1 1 1 1 0.011759479029372921 1 0.0096315859009530082 1 0.010000936917922268 1 1 1 1 1 0.011146110186071758 1 1 1 1 0.010020725198279585 1 1 0.0098862949063216899 1 1 1 1 1 1 1 1 0.010584978954929967 1 1 1 1 1 1 0.011436836682735443 1 1 1 1 0.010618570379648057 1 1 1 0.010558976866926894 1 1 1 1 1 1 1 1 1 1 1 1 1 1 1 1 1 1 0.011001188319015972 1 0.010693069032829077 1 1 1 0.010249570709857325 1 1 1 1 1 1 1 1 1 1 1 1 1 1 1 1 1 1 1 0.011258064879295961 1 1 1 0.010045791613277972 1 1 1 0.010138641930060307 1 1 1 1 1 1 1 1 1 1 1 1 1 1 1 0.0099938369685253388 1 1 1 1 0.011794673615467103 1 1 0.010950111807935824 1 1 1 1 1 1 0.010075431400604452 1 0.011930247211927772 1 0.011443980034044426 0.009350265059768114 0.010012163705486195 1 1 1 0.0099925694534433659 0.013880947325546799 1 1 1 1 1 1 1 0.010207391403117848 1 1 1 0.011341174788192864 1 0.012647220297726094 1 1 1 1 1 1 1 1 1 0.010546091023171568 1 1 1 1 1 1 1 1 0.0121619266104312 1 1 1 1 0.010918792548734629 1 1 1 1 1 1 1 1 1 1 1 1 1 1 1 1 1 1 1 1 1 0.0096453535850060286 0.0099422713825725179 1 1 1 1 1 1 1 1 0.011333754574587213 1 1 1 1 1 1 1 1 1 1 0.01357233804428597 1 1 1 1 1 1 0.0084988406208472578 1 1 1 1 1 0.0090338737077786876 1 0.0099958922125480739 1 1 0.010172710799207646 0.011853059337357495 1 1 1 1 1 1 1 1 1 1 1 1 1 1 1 1 1 1 1 1 1 1 1 1 1 1 1 1 1 1 1 1 1 1 1 1 1 1 1 1 1 1 1 1 1 1 1 1 0.01134774878548973 0.009994975338406778 1 1 0.013187806152091537 1 1 1 1 1 0.012091177279108346 0.0099988758111732856 1 1 0.010015731558668297 0.0095848246775424757 1 1 1 1 1 1 1 1 1 1 0.009465589013594183 1 1 1 1 1 1 1 1 1 1 1 1 1 1 1 0.010558870683789001 1 1 1 1 1 1 1 1 1 1 1 1 1 0.011355140324985601 1 0.011967483440630634 0.0095733485918723295 0.0095904097767495946 1 1 1 1 1 1 1 1 0.012732209702861468 0.0098113589519529948 1 1 1 1 0.0099378620120430302 1 1 1 1 1 1 1 1 0.011043296857026964 1 1 1 1 1 1 1 1 1 1 1 1 1 1 1 1 1 0.012815350606054751 1 1 1 1 1 1 0.010274680465564468 1 1 0.0111486053215601 1 1 1 1 1 1 1 1 1 1 1 1 1 1 1 1 1 1 0.010041424130345655 1 1 1 0.010424503004310286 1 1 0.010031702675770915 1 0.010909791625869029 0.0094937764898626181 1 1 0.010102726860305338 1 1 1 0.013901006254833715 1 1 0.010310499425958883 1 0.010425773316079769 0.0091411681910982985 1 1 1 1 0.010516066227573602 1 1 1 1 1 1 0.011128320303065691 1 0.0099503210152979346 1 1 1 0.010131380365878968 1 1 1 1 0.0093114219424767428 1 0.00956399511494164 0.011719843478608296 1 1 1 1 1 0.010032533430265079 1 0.011954229464559377 1 0.0098512551389164579 1 0.0091561474743714066 0.010186230040821085 1 1 1 1 1 1 1 0.010840718892444904 1 0.01097878536200542 1 1 0.0078357836536905832 1 1 0.0091296249780139904 1 1 1 1 1 1 1 1 1 1 1 1 1 1 1 1 1 1 1 1 1 1 1 1 1 1 1 1 1 1 1 0.01090236963665495 1 1 1 1 1 1 1 1 1 1 1 1 1 1 1 1 1 1 1 1 1 1 1 0.0098617209306359113 1 1 1 1 1 0.010431783546863077 0.0096771065997525076 1 1 1 1 1 1 1 1 1 1 1 1 1 1 1 1 1 1 1 1 1 0.013746809156722026 1 1 1 1 1 1 1 1 1 1 1 1 1 0.0097307541249560068 1 0.010895103554803085 1 1 1 0.012580089247725083 1 1 1 1 1 1 1 1 0.010977667417731957 1 0.0088807962469009717 1 1 1 1 1 0.0096901128180277053 1 1 1 1 1 1 1 1 1 1 1 0.011704598728484769 1 1 1 1 1 1 1 1 1 1 1 0.01135667487661398 1 1 1 1 1 1 1 1 0.010526209445914923 1 1 1 1 1 1 1 1 1 1 1 1 1 1 1 1 1 1 1 1 1 1 1 1 1 1 0.010506411825978963 1 1 0.010782198008714772 1 1 1 1 1 1 1 1 1 1 1 1 1 1 1 1 1 1 1 1 1 1 1 1 1 1 1 1 0.014324907636060404 1 0.010021568601999783 1 0.0099518415747195145 1 1 1 1 1 0.011406807418110388 1 1 1 1 0.010004166904788654 1 1 1 0.011683649854635788 1 1 1 1 1 1 1 1 1 1 1 1 1 1 1 1 1 1 0.010927152396311385 0.014484633784698352 0.0099885344915909956 1 1 1 1 1 1 1 1 1 1 1 1 1 0.0098016388553901022 1 1 1 1 1 1 1 1 1 1 1 1 0.010030974347436029 1 1 0.0092702828741795026 1 1 1 1 1 1 1 1 1 1 1 1 1 1 1 1 1 1 1 1 1 0.010275786182735809 0.010438999724562813 1 1 1 1 1 1 1 1 1 1 1 1 1 1 0.0095545802784138059 1 1 0.0089149529914059351 1 1 1 1 0.01210607791328976 1 1 1 1 1 1 0.010872298666240069 1 1 1 1 1 1 1 1 1 1 1 1 1 1 1 1 1 1 0.010378229855937376 1 1 1 1 1 0.010769966503762003 1 1 1 1 1 1 1 1 1 1 1 1 1 1 1 1 1 1 1 1 1 1 1 1 1 1 1 1 0.010604686098853058 1 0.010185170234498537 1 1 1 1 0.010528598973616009 0.010366567985218705 1 1 1 1 1 1 1 1 1 1 1 1 1 1 1 1 1 1 1 1 1 1 1 1 1 1 1 1 1 1 1 1 1 1 1 0.01033540471907154 1 1 1 1 0.0099346189037588031 1 1 1 1 1 1 1 1 1 1 1 0.0099438386294788822 1 1 1 1 1 1 1 1 1 1 1 1 1 1 1 1 1 0.009238944619787106 0.0099672561828894491 1 0.0099884597726183355 1 1 1 1 1 1 1 1 1 1 0.0099646043311901432 1 1 1 1 1 1 1 1 1 1 1 1 1 1 1 1 1 0.009997679498338418 1 1 1 1 0.010034763416108303 1 1 1 1 1 1 1 1 1 1 1 1 1 1 1 1 1 1 1 1 1 1 1 1 1 1 1 1 1 1 1 1 1 1 1 1 1 1 1 1 1 1 1 1 1 1 1 1 1 1 1 1 1 1 1 1 1 1 1 1 1 1 1 1 1 1 1 1 1 1 1 1 1 1 1 1 1 1 1 1 1 0.010061341138281001 1 1 1 1 1 1 1 0.010170775925012058 1 1 0.010648008629685634 1 1 1 1 1 1 1 1 1 1 1 1 0.010145612710122291 1 0.010084360897756429 1 0.013820505184175035 1 1 1 1 1 1 1 1 0.011576705045154796 1 1 1 1 1 1 1 1 1 0.010478113705444096 1 1 1 1 1 1 1 1 1 1 1 1 1 1 1 1 1 1 1 1 1 0.010190075348218013 1 1 1 1 1 1 1 1 1 1 1 1 0.0087339157419277641 1 1 1 1 1 0.0082446469714147486 1 1 0.015198954680269113 1 1 1 1 0.015139059227174756 0.0099109252021314515 1 1 0.014861749056517017 1 1 1 1 1 1 1 0.010275389937693237 0.0096513610023031098 1 1 1 1 1 1 1 1 1 1 1 1 0.010008729050162592 1 1 1 1 0.010016938374661721 1 1 1 1 1 1 1 1 0.010008275163803412 1 1 1 1 0.0099480849860933106 1 1 1 1 0.010082834961873274 1 1 1 1 1 1 1 0.010037731912836436 1 1 1 1 1 0.010398843084603898 1 1 1 0.01117567425189458 1 1 1 1 1 0.011901163776878028 1 1 1 1 1 1 1 1 1 1 1 1 1 1 0.013554070635645959 1 1 0.014458742210721956 1 1 1 1 1 1 1 1 1 1 1 1 1 1 1 1 1 1 1 1 1 0.0099762224127209892 1 1 0.010194435266308779 1 1 0.0099964527972555301 1 1 1 1 1 1 1 1 1 1 1 1 1 1 1 1 1 1 1 1 1 1 1 1 1 1 1 1 1 1 0.010406138965369981 1 1 1 1 0.0099995814055288332 1 1 0.0099246590824280771 1 0.010001409197771371 1 1 1 1 0.0095542640223893194 1 0.01052113490702185 1 1 0.0099407893516271321 1 0.009853250781531292 1 0.011367864235874232 0.010562192115691555 1 1 0.010063981793530963 1 0.010570649223271732 1 0.009978763193744326 1 1 0.012672760728398491 1 1 1 1 1 1 0.012587020949309531 1 0.0099807511033894354 1 1 0.010009431161784823 0.010235137234779132 1 1 0.011196475399729405 1 0.0097377762993831156 1 1 0.010511334772607758 1 1 0.010905084976831365 1 1 0.010574917165569634 0.010345255390616426 0.011574011591809458 1 0.009573425012830282 1 1 1 1 1 1 1 1 0.009988312868570725 1 1 1 1 1 1 1 0.0099884333906654389 1 1 1 1 1 1 1 1 1 1 1 1 1 1 0.010037415267807603 1 1 1 1 1 1 1 1 1 1 1 1 1 1 1 1 1 1 1 0.0097445672118191985 1 1 1 1 1 1 1 1 1 1 1 1 1 1 1 1 1 1 1 1 1 1 1 1 1 1 1 1 1 1 1 0.0098519026008480927 1 1 1 0.010641788358166784 1 0.0093926127314675964 0.0091105519328043422 1 0.012904057188256565 1 1 1 0.010171331055343607 1 1 1 1 0.010112484915569403 0.010090725043683708 0.0099928845747535751 1 1 1 1 1 1 1 1 1 1 1 1 1 1 1 1 1 0.012143098693818466 1 1 1 1 1 1 1 1 1 0.010025765914950222 1 1 1 0.010398341332839121 1 1 1 1 1 1 1 1 1 1 1 1 0.01096079265291355 1 1 0.010562451320074429 1 1 1 1 1 1 1 1 1 1 1 1 1 1 1 1 1 1 1 1 1 1 0.010842107974955018 1 1 1 1 1 1 1 1 1 1 1 1 1 1 1 1 1 1 0.010529507346712159 1 1 1 1 1 1 1 0.01036375365956084 1 1 1 1 0.010724631335422816 1 1 1 1 1 1 1 1 1 1 1 1 1 1 1 1 1 1 1 1 1 1 1 1 1 1 1 1 1 1 1 1 1 1 1 0.0099298014935315718 0.01003529083037397 1 1 1 1 0.010509308048044416 1 0.011218606011850079 1 1 1 1 1 0.011137596242218521 1 1 1 1 1 1 1 1 0.010364564857308361 0.0099176404726644043 1 1 1 1 0.011660942858145767 1 1 1 1 1 1 1 1 1 1 1 1 1 1 1 1 1 1 1 1 1 0.010686755963632697 1 1 1 1 1 1 0.012197544331894745 1 1 0.011457130468714665 1 1 1 1 1 1 1 1 1 0.0098688968313194771 1 1 1 1 1 1 1 1 0.01062520434669518 1 1 1 1 1 1 1 1 1 1 1 1 1 1 1 1 1 0.010202255663128271 1 1 0.010410717093182118 1 1 1 1 1 1 1 1 1 1 1 1 1 1 1 1 1 1 1 1 1 1 1 1 1 1 1 1 1 0.01060695826290917 1 0.010246080587047204 1 1 1 1 1 1 1 1 1 1 1 1 1 1 1 1 1 1 1 1 1 1 0.010488567491207355 1 1 1 0.010243761738273661 1 1 1 1 1 1 1 1 1 1 1 1 0.010350759702809563 1 1 1 0.010080344569138235 0.010000222438123587 1 1 0.010218238743466109 1 1 1 1 1 1 1 1 1 0.010245219318462985 1 1 1 1 1 1 1 1 1 1 1 1 1 0.010566823757280257 1 0.0099812286126490478 1 1 1 1 1 1 1 1 1 1 1 1 1 1 1 1 1 1 1 1 1 1 1 1 1 1 1 1 1 0.011181595138460499 1 1 1 1 1 1 0.010474437407185903 1 1 1 1 1 1 1 1 1 1 1 1 1 1 1 1 0.010085365818188349 1 0.01057710135955482 1 1 1 1 1 1 1 0.010640241643486236 1 1 1 0.010579437797121968 1 1 1 1 0.010026788184337554 1 1 1 1 1 1 0.0083967772139262563 1 1 1 1 0.0094823615056729531 1 0.010172025906945121 1 1 1 1 1 1 1 1 0.014224688824706511 0.0099691024932419652 1 1 1 0.013638137667044178 0.0087907801372006482 1 1 1 1 1 1 1 0.011520123172011055 0.010716143510956927 1 0.0093064582996857086 0.0099715774739619761 1 1 1 1 0.010823494021529378 1 0.011120301638722605 1 1 1 1 1 1 0.01059586904294693 1 1 1 1 0.010297667307017696 1 1 1 1 0.010880482155938747 1 1 1 1 1 0.010794582128343905 1 1 0.0099847386184236143 1 1 1 1 0.0099998801109267496 1 1 1 1 1 1 1 1 1 0.0099745858966100529 0.010938279791216527 1 1 1 1 1 1 1 1 1 1 1 1 1 0.011469402473271148 1 0.011299101298735931 1 1 1 1 1 1 1 1 1 1 1 1 1 1 1 1 1 1 1 1 1 0.011467831235762237 1 1 1 1 1 1 1 1 1 1 1 1 1 1 1 1 1 1 1 1 1 1 1 1 1 1 0.0098645069508260502 1 1 1 1 1 1 1 1 0.0087448211293517323 1 0.009592387508407605 1 1 1 1 1 1 0.010029605623872662 1 1 1 1 1 1 1 1 1 1 1 1 1 1 1 1 1 1 1 1 1 1 1 1 1 1 0.013028242382719716 1 1 1 1 1 1 1 1 0.0087964236668785049 1 1 0.0098499438964646975 1 1 0.01000425546436275 1 1 1 1 1 0.0087667870970128629 1 1 1 1 1 1 1 1 1 0.010021464300450207 1 1 1 1 1 1 1 1 1 1 1 1 1 1 1 0.0095885504762042214 1 1 1 1 1 1 1 1 0.0092894488078441671 1 1 1 1 1 1 1 1 1 1 1 1 1 1 1 1 1 1 0.010095397521170273 1 0.0097364652626650387 1 0.01029556121537087 1 1 0.010140756814599857 0.009390859803059955 1 1 1 1 1 1 1 1 1 1 1 1 1 1 0.0098514490217833806 1 1 1 1 1 1 0.010426168230336531 1 1 1 0.0099390887100973772 1 1 1 1 1 1 1 1 1 1 1 1 0.013021304650593368 1 1 1 1 0.012823035715816328 0.010951511915067848 0.012501471630518658 1 1 1 1 1 1 1 0.010333998536919801 1 1 0.010961505875302598 1 0.010025208845014972 1 0.010756894109185218 1 1 1 1 1 0.01028545171985411 1 1 1 1 1 1 1 1 1 1 1 1 1 1 1 1 1 1 1 1 0.010996901224433588 1 1 1 0.010745870821898809 1 0.0097229015709039517 0.0088528338697036277 0.0093810854993378653 1 1 1 1 1 0.0097840169892032553 1 1 1 1 1 1 1 1 1 1 1 1 1 1 1 1 1 1 1 1 1 1 1 1 1 1 0.011896653366677173 1 1 0.012060146248764787 1 1 1 1 1 1 1 1 0.011033414731860043 1 0.010208393525591103 1 1 1 1 1 1 1 1 0.011848287959089579 1 1 1 1 0.011915028333957941 1 1 0.010009310449462492 1 1 0.0079080921426392739 1 1 1 0.01087509412092987 1 1 1 1 1 1 1 1 1 1 1 1 1 1 1 1 1 1 1 1 0.01031907618035317 1 1 1 1 1 1 0.010805924939585139 1 1 1 1 1 0.011092914828260466 1 1 1 1 1 0.013409383438464137 1 0.010244643650303663 0.011073865804241348 1 1 1 1 1 1 1 1 1 1 1 1 0.010113680860276753 1 1 1 1 0.014464606341953195 1 0.010319847104956387 0.010240714366809813 1 1 1 0.014190032331902245 1 1 1 1 1 1 1 1 1 1 1 1 1 1 1 1 1 1 1 1 1 1 0.014935080294381188 1 0.007707207092603436 1 1 0.0099579890847080743 1 1 0.0095333014166447631 1 1 0.010939326919164589 1 1 1 0.0097292013156001621 0.010020025274671218 1 1 1 1 1 1 1 0.010096811147147883 1 1 1 1 1 1 1 1 0.01105604078866829 1 1 1 1 1 1 1 0.012849137157032732 1 1 1 0.011873921681087394 1 0.011719957466243386 0.0097919966718707577 1 1 1 0.009926915396084212 1 1 1 1 1 1 1 1 1 1 1 1 1 1 1 1 1 1 1 1 1 1 0.010081787387673114 1 1 0.010004752248278674 1 1 1 0.0090562938641996476 1 1 1 1 1 1 1 0.0081996431449304491 0.012363740960169036 1 1 0.009657566699996116 1 1 1 1 1 1 1 1 1 1 1 1 1 1 1 1 1 1 1 1 1 1 1 1 1 1 1 1 1 1 1 1 1 1 1 0.01067459405053266 1 1 1 1 1 1 1 0.010001658818803275 1 1 0.0090690209355345462 1 1 0.010341000204610337 1 1 1 1 1 1 1 1 1 1 1 1 1 1 1 1 1 1 1 0.012150192849453888 1 1 1 1 0.013641103131532417 1 1 1 1 1 1 1 1 1 1 0.010679926335210227 1 1 1 1 0.011803193851893351 1 1 1 1 0.010366691553486266 0.010968585992927842 1 0.011489292044058699 1 1 1 1 1 1 1 1 1 1 1 1 1 1 0.012616404487240572 1 1 1 1 1 1 1 1 1 0.0099862022923102103 1 1 1 1 1 1 1 1 1 1 1 1 1 1 1 1 1 1 1 1 1 1 1 1 1 1 1 1 1 1 1 1 1 1 1 1 1 1 1 1 1 0.009849077948897977 1 1 1 1 0.010466446380162349 1 1 0.012279931043574149 1 1 1 1 1 1 0.011145123815974609 0.012265782067616486 1 1 1 1 0.010089994680486715 1 1 1 1 1 1 1 1 1 1 1 1 1 1 1 1 1 1 1 1 1 1 1 1 1 1 1 1 1 1 1 1 1 1 1 1 1 1 1 1 1 1 1 1 1 1 1 1 1 1 1 1 1 1 1 1 1 1 1 1 1 0.0085886033609839287 1 1 1 1 1 0.0093693615726943014 1 0.010101431328928065 1 1 1 1 1 1 1 1 1 
</DataArray>
</CellData>
</Piece>
</UnstructuredGrid>
</VTKFile>
