<?xml version="1.0"?>
<VTKFile type="UnstructuredGrid" version="0.1" byte_order="LittleEndian">
<UnstructuredGrid>
<Piece NumberOfPoints="31803" NumberOfCells="11138">
<Points>
<DataArray type="Float64" NumberOfComponents="3" format="ascii">
-0.5 -0.5 0 -0.45548010468302219 -0.47409976266728771 0 -0.39033772046636178 -0.5 0 -0.5 -0.5 0 -0.5 -0.4728559892474955 0 -0.45548010468302219 -0.47409976266728771 0 -0.45548010468302219 -0.47409976266728771 0 -0.42175805041756831 -0.47059302185658308 0 -0.43683329395829418 -0.45883789525204199 0 -0.44325177638658408 -0.44499033344372818 0 -0.4609924593698097 -0.44331294626993722 0 -0.44325177638658408 -0.44499033344372818 0 -0.4609924593698097 -0.44331294626993722 0 -0.43532005847222488 -0.4395300783392273 0 -0.44325177638658408 -0.44499033344372818 0 -0.45329629051794967 -0.45657013505873151 0 -0.4609924593698097 -0.44331294626993722 0 -0.4609924593698097 -0.44331294626993722 0 -0.43532005847222488 -0.4395300783392273 0 -0.45548010468302219 -0.47409976266728771 0 -0.45329629051794967 -0.45657013505873151 0 -0.43683329395829418 -0.45883789525204199 0 -0.44325177638658408 -0.44499033344372818 0 -0.45329629051794967 -0.45657013505873151 0 -0.43683329395829418 -0.45883789525204199 0 -0.45548010468302219 -0.47409976266728771 0 -0.45329629051794967 -0.45657013505873151 0 -0.48049622968490469 -0.45808446775871658 0 -0.45329629051794967 -0.45657013505873151 0 -0.4609924593698097 -0.44331294626993722 0 -0.48049622968490469 -0.45808446775871658 0 -0.4609924593698097 -0.44331294626993722 0 -0.46518387710886577 -0.44291664640018857 0 -0.47003336415859043 -0.43145763506305518 0 -0.4609924593698097 -0.44331294626993722 0 -0.46518387710886577 -0.44291664640018857 0 -0.46518387710886577 -0.44291664640018857 0 -0.49354104323781323 -0.44613235951042801 0 -0.4609924593698097 -0.44331294626993722 0 -0.46518387710886577 -0.44291664640018857 0 -0.48049622968490469 -0.45808446775871658 0 -0.46518387710886577 -0.44291664640018857 0 -0.482591938554432 -0.44127070869773549 0 -0.49354104323781323 -0.44613235951042801 0 -0.46518387710886577 -0.44291664640018857 0 -0.48049622968490469 -0.45808446775871658 0 -0.49354104323781323 -0.44613235951042801 0 -0.5 -0.4728559892474955 0 -0.45548010468302219 -0.47409976266728771 0 -0.48049622968490469 -0.45808446775871658 0 -0.4609924593698097 -0.44331294626993722 0 -0.48049622968490469 -0.45808446775871658 0 -0.46518387710886577 -0.44291664640018857 0 -0.482591938554432 -0.44127070869773549 0 -0.46518387710886577 -0.44291664640018857 0 -0.482591938554432 -0.44127070869773549 0 -0.47003336415859043 -0.43145763506305518 0 -0.48049622968490469 -0.45808446775871658 0 -0.5 -0.4562403801213889 0 -0.49354104323781323 -0.44613235951042801 0 -0.5 -0.4728559892474955 0 -0.48049622968490469 -0.45808446775871658 0 -0.5 -0.4728559892474955 0 -0.48049622968490469 -0.45808446775871658 0 -0.5 -0.4562403801213889 0 -0.482591938554432 -0.44127070869773549 0 -0.49999999999999828 -0.4396247709952823 0 -0.5 -0.4562403801213889 0 -0.49999999999999828 -0.4396247709952823 0 -0.49354104323781323 -0.44613235951042801 0 -0.482591938554432 -0.44127070869773549 0 -0.49999999999999828 -0.4396247709952823 0 -0.49354104323781323 -0.44613235951042801 0 -0.49999999999999828 -0.4396247709952823 0 -0.5 -0.41228582208183251 0 -0.48426175480860889 -0.42721604554059689 0 -0.482591938554432 -0.44127070869773549 0 -0.49999999999999828 -0.4396247709952823 0 -0.48426175480860889 -0.42721604554059689 0 -0.5 -0.41228582208183251 0 -0.48426175480860889 -0.42721604554059689 0 -0.46868347133002242 -0.41144129086507919 0 -0.47003336415859043 -0.43145763506305518 0 -0.48426175480860889 -0.42721604554059689 0 -0.46868347133002242 -0.41144129086507919 0 -0.482591938554432 -0.44127070869773549 0 -0.47003336415859043 -0.43145763506305518 0 -0.48426175480860889 -0.42721604554059689 0 -0.5 -0.41228582208183251 0 -0.47650672892393231 -0.39001631608573728 0 -0.46868347133002242 -0.41144129086507919 0 -0.5 -0.38494687316838261 0 -0.47650672892393231 -0.39001631608573728 0 -0.47823983509586637 -0.36496786212379623 0 -0.5 -0.41228582208183251 0 -0.5 -0.38494687316838261 0 -0.47650672892393231 -0.39001631608573728 0 -0.47650672892393231 -0.39001631608573728 0 -0.47823983509586637 -0.36496786212379623 0 -0.4564796701917318 -0.3723277999926593 0 -0.47650672892393231 -0.39001631608573728 0 -0.45563739692597321 -0.3941282482826744 0 -0.4564796701917318 -0.3723277999926593 0 -0.47650672892393231 -0.39001631608573728 0 -0.45563739692597321 -0.3941282482826744 0 -0.46868347133002242 -0.41144129086507919 0 -0.45563739692597321 -0.3941282482826744 0 -0.46868347133002242 -0.41144129086507919 0 -0.44165055109960061 -0.40720716276855629 0 -0.44333644961898683 -0.38984839405600691 0 -0.44165055109960061 -0.40720716276855629 0 -0.42819512459003117 -0.39589102137462229 0 -0.45563739692597321 -0.3941282482826744 0 -0.44333644961898683 -0.38984839405600691 0 -0.44165055109960061 -0.40720716276855629 0 -0.45563739692597321 -0.3941282482826744 0 -0.44333644961898683 -0.38984839405600691 0 -0.4564796701917318 -0.3723277999926593 0 -0.43471950528759717 -0.37968773786152238 0 -0.4564796701917318 -0.3723277999926593 0 -0.44333644961898683 -0.38984839405600691 0 -0.43471950528759717 -0.37968773786152238 0 -0.4564796701917318 -0.3723277999926593 0 -0.47003336415859043 -0.43145763506305518 0 -0.45498905499247999 -0.42361017764329267 0 -0.46868347133002242 -0.41144129086507919 0 -0.4609924593698097 -0.44331294626993722 0 -0.47003336415859043 -0.43145763506305518 0 -0.45498905499247999 -0.42361017764329267 0 -0.45498905499247999 -0.42361017764329267 0 -0.46868347133002242 -0.41144129086507919 0 -0.44165055109960061 -0.40720716276855629 0 -0.45498905499247999 -0.42361017764329267 0 -0.44165055109960061 -0.40720716276855629 0 -0.43593365463171241 -0.42433422232621759 0 -0.4609924593698097 -0.44331294626993722 0 -0.45498905499247999 -0.42361017764329267 0 -0.43593365463171241 -0.42433422232621759 0 -0.4609924593698097 -0.44331294626993722 0 -0.43593365463171241 -0.42433422232621759 0 -0.4609924593698097 -0.44331294626993722 0 -0.43593365463171241 -0.42433422232621759 0 -0.43532005847222488 -0.4395300783392273 0 -0.43593365463171241 -0.42433422232621759 0 -0.41100115555083833 -0.43677230576790133 0 -0.43532005847222488 -0.4395300783392273 0 -0.43593365463171241 -0.42433422232621759 0 -0.41222834786981433 -0.40638059374187879 0 -0.44165055109960061 -0.40720716276855629 0 -0.43593365463171241 -0.42433422232621759 0 -0.41222834786981433 -0.40638059374187879 0 -0.43593365463171241 -0.42433422232621759 0 -0.41222834786981433 -0.40638059374187879 0 -0.41100115555083833 -0.43677230576790133 0 -0.42280210415024239 -0.37633601693441299 0 -0.43471950528759717 -0.37968773786152238 0 -0.4129593403834626 -0.38704767573038551 0 -0.43471950528759717 -0.37968773786152238 0 -0.42819512459003117 -0.39589102137462229 0 -0.4129593403834626 -0.38704767573038551 0 -0.43471950528759717 -0.37968773786152238 0 -0.4129593403834626 -0.38704767573038551 0 -0.44333644961898683 -0.38984839405600691 0 -0.43471950528759717 -0.37968773786152238 0 -0.42819512459003117 -0.39589102137462229 0 -0.44165055109960061 -0.40720716276855629 0 -0.41222834786981433 -0.40638059374187879 0 -0.42819512459003117 -0.39589102137462229 0 -0.41222834786981433 -0.40638059374187879 0 -0.42819512459003117 -0.39589102137462229 0 -0.4129593403834626 -0.38704767573038551 0 -0.41222834786981433 -0.40638059374187879 0 -0.4129593403834626 -0.38704767573038551 0 -0.40303884611843221 -0.387431654983031 0 -0.42280210415024239 -0.37633601693441299 0 -0.4129593403834626 -0.38704767573038551 0 -0.4070742095167042 -0.37651330309384878 0 -0.4129593403834626 -0.38704767573038551 0 -0.4070742095167042 -0.37651330309384878 0 -0.40303884611843221 -0.387431654983031 0 -0.4070742095167042 -0.37651330309384878 0 -0.39440929171426459 -0.37878973719150111 0 -0.40303884611843221 -0.387431654983031 0 -0.39440929171426459 -0.37878973719150111 0 -0.40303884611843221 -0.387431654983031 0 -0.38852304110791552 -0.38842696515754099 0 -0.39440929171426459 -0.37878973719150111 0 -0.38852304110791552 -0.38842696515754099 0 -0.41222834786981433 -0.40638059374187879 0 -0.38852304110791552 -0.38842696515754099 0 -0.39454598895448889 -0.4156591684236724 0 -0.41222834786981433 -0.40638059374187879 0 -0.40303884611843221 -0.387431654983031 0 -0.38852304110791552 -0.38842696515754099 0 -0.41222834786981433 -0.40638059374187879 0 -0.38852304110791552 -0.38842696515754099 0 -0.38852304110791552 -0.38842696515754099 0 -0.37544319540799009 -0.40984186289139513 0 -0.37700261609447377 -0.39151541855601291 0 -0.38852304110791552 -0.38842696515754099 0 -0.37544319540799009 -0.40984186289139513 0 -0.38852304110791552 -0.38842696515754099 0 -0.39454598895448889 -0.4156591684236724 0 -0.37544319540799009 -0.40984186289139513 0 -0.37700261609447377 -0.39151541855601291 0 -0.38852304110791552 -0.38842696515754099 0 -0.3736050920558095 -0.37712859558941952 0 -0.37700261609447377 -0.39151541855601291 0 -0.3736050920558095 -0.37712859558941952 0 -0.38852304110791552 -0.38842696515754099 0 -0.3736050920558095 -0.37712859558941952 0 -0.38852304110791552 -0.38842696515754099 0 -0.38473115707176497 -0.37557916730823449 0 -0.3736050920558095 -0.37712859558941952 0 -0.39440929171426459 -0.37878973719150111 0 -0.38852304110791552 -0.38842696515754099 0 -0.38473115707176497 -0.37557916730823449 0 -0.41100115555083833 -0.43677230576790133 0 -0.38668225262945161 -0.43401453319657529 0 -0.41100115555083833 -0.43677230576790133 0 -0.39454598895448889 -0.4156591684236724 0 -0.38668225262945161 -0.43401453319657529 0 -0.41222834786981433 -0.40638059374187879 0 -0.41100115555083833 -0.43677230576790133 0 -0.39454598895448889 -0.4156591684236724 0 -0.39454598895448889 -0.4156591684236724 0 -0.37544319540799009 -0.40984186289139513 0 -0.38668225262945161 -0.43401453319657529 0 -0.40568106697753809 -0.4601591898804398 0 -0.37944820501736221 -0.45618957580009578 0 -0.37308520881948731 -0.47311457134684493 0 -0.45548010468302219 -0.47409976266728771 0 -0.39033772046636178 -0.5 0 -0.42175805041756831 -0.47059302185658308 0 -0.38668225262945161 -0.43401453319657529 0 -0.38724483919654362 -0.4448178993177675 0 -0.37184798146519082 -0.44287720796098101 0 -0.38724483919654362 -0.4448178993177675 0 -0.37184798146519082 -0.44287720796098101 0 -0.38724483919654362 -0.4448178993177675 0 -0.37944820501736221 -0.45618957580009578 0 -0.37184798146519082 -0.44287720796098101 0 -0.41100115555083833 -0.43677230576790133 0 -0.38668225262945161 -0.43401453319657529 0 -0.40090001983845103 -0.44547708406844488 0 -0.38668225262945161 -0.43401453319657529 0 -0.38724483919654362 -0.4448178993177675 0 -0.40090001983845103 -0.44547708406844488 0 -0.38724483919654362 -0.4448178993177675 0 -0.40090001983845103 -0.44547708406844488 0 -0.40568106697753809 -0.4601591898804398 0 -0.38724483919654362 -0.4448178993177675 0 -0.40568106697753809 -0.4601591898804398 0 -0.37944820501736221 -0.45618957580009578 0 -0.40568106697753809 -0.4601591898804398 0 -0.39033772046636178 -0.5 0 -0.42175805041756831 -0.47059302185658308 0 -0.40568106697753809 -0.4601591898804398 0 -0.39033772046636178 -0.5 0 -0.37308520881948731 -0.47311457134684493 0 -0.43683329395829418 -0.45883789525204199 0 -0.42551109340335858 -0.44666772061751941 0 -0.42054853231581057 -0.45721887344942519 0 -0.42175805041756831 -0.47059302185658308 0 -0.43683329395829418 -0.45883789525204199 0 -0.42054853231581057 -0.45721887344942519 0 -0.44325177638658408 -0.44499033344372818 0 -0.42551109340335858 -0.44666772061751941 0 -0.44325177638658408 -0.44499033344372818 0 -0.43532005847222488 -0.4395300783392273 0 -0.42551109340335858 -0.44666772061751941 0 -0.41100115555083833 -0.43677230576790133 0 -0.43532005847222488 -0.4395300783392273 0 -0.42551109340335858 -0.44666772061751941 0 -0.41100115555083833 -0.43677230576790133 0 -0.43532005847222488 -0.4395300783392273 0 -0.44325177638658408 -0.44499033344372818 0 -0.43683329395829418 -0.45883789525204199 0 -0.42551109340335858 -0.44666772061751941 0 -0.42551109340335858 -0.44666772061751941 0 -0.41295915682229373 -0.4498365396405416 0 -0.42054853231581057 -0.45721887344942519 0 -0.41100115555083833 -0.43677230576790133 0 -0.42551109340335858 -0.44666772061751941 0 -0.41295915682229373 -0.4498365396405416 0 -0.41100115555083833 -0.43677230576790133 0 -0.40090001983845103 -0.44547708406844488 0 -0.41295915682229373 -0.4498365396405416 0 -0.40090001983845103 -0.44547708406844488 0 -0.40568106697753809 -0.4601591898804398 0 -0.41295915682229373 -0.4498365396405416 0 -0.40568106697753809 -0.4601591898804398 0 -0.42175805041756831 -0.47059302185658308 0 -0.42054853231581057 -0.45721887344942519 0 -0.40568106697753809 -0.4601591898804398 0 -0.41295915682229373 -0.4498365396405416 0 -0.42054853231581057 -0.45721887344942519 0 -0.4532057695747912 -0.25757148026103982 0 -0.4333622490676961 -0.2631873810005152 0 -0.44649212724522441 -0.24428432365824809 0 -0.44302861710187302 -0.27647174063190011 0 -0.45813986288235442 -0.2786532560330181 0 -0.4532057695747912 -0.25757148026103982 0 -0.44302861710187302 -0.27647174063190011 0 -0.4532057695747912 -0.25757148026103982 0 -0.44302861710187302 -0.27647174063190011 0 -0.4532057695747912 -0.25757148026103982 0 -0.4333622490676961 -0.2631873810005152 0 -0.45813986288235442 -0.2786532560330181 0 -0.47547160050312431 -0.27421394620763218 0 -0.46464472418111002 -0.29013947256401001 0 -0.45813986288235442 -0.2786532560330181 0 -0.4532057695747912 -0.25757148026103982 0 -0.47547160050312431 -0.27421394620763218 0 -0.4532057695747912 -0.25757148026103982 0 -0.47286237098273382 -0.25426865576589458 0 -0.47547160050312431 -0.27421394620763218 0 -0.4532057695747912 -0.25757148026103982 0 -0.47286237098273382 -0.25426865576589458 0 -0.46457533397759981 -0.2407125258605749 0 -0.47286237098273382 -0.25426865576589458 0 -0.48688102542376238 -0.25796138406543823 0 -0.4822850952358293 -0.23937807317212151 0 -0.47286237098273382 -0.25426865576589458 0 -0.48688102542376238 -0.25796138406543823 0 -0.47547160050312431 -0.27421394620763218 0 -0.48688102542376238 -0.25796138406543823 0 -0.5 -0.27300074323369411 0 -0.5 -0.2459337634225153 0 -0.48688102542376238 -0.25796138406543823 0 -0.5 -0.27300074323369411 0 -0.47547160050312431 -0.27421394620763218 0 -0.47547160050312431 -0.27421394620763218 0 -0.48773580025156321 -0.30067432453184162 0 -0.47547160050312431 -0.27421394620763218 0 -0.48773580025156321 -0.30067432453184162 0 -0.47421706503261662 -0.29826106860583712 0 -0.47547160050312431 -0.27421394620763218 0 -0.47421706503261662 -0.29826106860583712 0 -0.46464472418111002 -0.29013947256401001 0 -0.5 -0.27300074323369411 0 -0.5 -0.30006772304487278 0 -0.48773580025156321 -0.30067432453184162 0 -0.5 -0.27300074323369411 0 -0.47547160050312431 -0.27421394620763218 0 -0.48773580025156321 -0.30067432453184162 0 -0.5 -0.30006772304487278 0 -0.48773580025156321 -0.30067432453184162 0 -0.50000000000000111 -0.32713470285605162 0 -0.48773580025156321 -0.30067432453184162 0 -0.48066209024889311 -0.30946486765929299 0 -0.48715878002139068 -0.31786741367318838 0 -0.48773580025156321 -0.30067432453184162 0 -0.48066209024889311 -0.30946486765929299 0 -0.47421706503261662 -0.29826106860583712 0 -0.47421706503261662 -0.29826106860583712 0 -0.4730913882736692 -0.30982630890716401 0 -0.46323666924861501 -0.30288084698726991 0 -0.48066209024889311 -0.30946486765929299 0 -0.47421706503261662 -0.29826106860583712 0 -0.4730913882736692 -0.30982630890716401 0 -0.46323666924861501 -0.30288084698726991 0 -0.44947185942397178 -0.30564899519255612 0 -0.46609225421898692 -0.31592598938235089 0 -0.44609644295593948 -0.31191757083546179 0 -0.44947185942397178 -0.30564899519255612 0 -0.46609225421898692 -0.31592598938235089 0 -0.4730913882736692 -0.30982630890716401 0 -0.46323666924861501 -0.30288084698726991 0 -0.46609225421898692 -0.31592598938235089 0 -0.44947185942397178 -0.30564899519255612 0 -0.46609225421898692 -0.31592598938235089 0 -0.46323666924861501 -0.30288084698726991 0 -0.45079844238839462 -0.29180329980495268 0 -0.44947185942397178 -0.30564899519255612 0 -0.47421706503261662 -0.29826106860583712 0 -0.46323666924861501 -0.30288084698726991 0 -0.46464472418111002 -0.29013947256401001 0 -0.45813986288235442 -0.2786532560330181 0 -0.46464472418111002 -0.29013947256401001 0 -0.45079844238839462 -0.29180329980495268 0 -0.46323666924861501 -0.30288084698726991 0 -0.46464472418111002 -0.29013947256401001 0 -0.45079844238839462 -0.29180329980495268 0 -0.44302861710187302 -0.27647174063190011 0 -0.45079844238839462 -0.29180329980495268 0 -0.43285146462895668 -0.29537200100276151 0 -0.44302861710187302 -0.27647174063190011 0 -0.43285146462895668 -0.29537200100276151 0 -0.44302861710187302 -0.27647174063190011 0 -0.45813986288235442 -0.2786532560330181 0 -0.45079844238839462 -0.29180329980495268 0 -0.44947185942397178 -0.30564899519255612 0 -0.43285146462895668 -0.29537200100276151 0 -0.44609644295593948 -0.31191757083546179 0 -0.44947185942397178 -0.30564899519255612 0 -0.43285146462895668 -0.29537200100276151 0 -0.45079844238839462 -0.29180329980495268 0 -0.44947185942397178 -0.30564899519255612 0 -0.43285146462895668 -0.29537200100276151 0 -0.44609644295593948 -0.31191757083546179 0 -0.45434684898802002 -0.32845530696242908 0 -0.43301574264880038 -0.32852220007615229 0 -0.45434684898802002 -0.32845530696242908 0 -0.44188457645065948 -0.34631402509792347 0 -0.43301574264880038 -0.32852220007615229 0 -0.45434684898802002 -0.32845530696242908 0 -0.46804978942840619 -0.32691134082401629 0 -0.47094228822532769 -0.34114071555867009 0 -0.45434684898802002 -0.32845530696242908 0 -0.47094228822532769 -0.34114071555867009 0 -0.44188457645065948 -0.34631402509792347 0 -0.47094228822532769 -0.34114071555867009 0 -0.44188457645065948 -0.34631402509792347 0 -0.45434684898802002 -0.32845530696242908 0 -0.46804978942840619 -0.32691134082401629 0 -0.46609225421898692 -0.31592598938235089 0 -0.44609644295593948 -0.31191757083546179 0 -0.45434684898802002 -0.32845530696242908 0 -0.46609225421898692 -0.31592598938235089 0 -0.44609644295593948 -0.31191757083546179 0 -0.46609225421898692 -0.31592598938235089 0 -0.46609225421898692 -0.31592598938235089 0 -0.48133646738229741 -0.32535204045030253 0 -0.47798990336816322 -0.31831102677276052 0 -0.4730913882736692 -0.30982630890716401 0 -0.46609225421898692 -0.31592598938235089 0 -0.47798990336816322 -0.31831102677276052 0 -0.46609225421898692 -0.31592598938235089 0 -0.47798990336816322 -0.31831102677276052 0 -0.46609225421898692 -0.31592598938235089 0 -0.48133646738229741 -0.32535204045030253 0 -0.46804978942840619 -0.32691134082401629 0 -0.46609225421898692 -0.31592598938235089 0 -0.48133646738229741 -0.32535204045030253 0 -0.48133646738229741 -0.32535204045030253 0 -0.47798990336816322 -0.31831102677276052 0 -0.48715878002139068 -0.31786741367318838 0 -0.48066209024889311 -0.30946486765929299 0 -0.47798990336816322 -0.31831102677276052 0 -0.48715878002139068 -0.31786741367318838 0 -0.48066209024889311 -0.30946486765929299 0 -0.4730913882736692 -0.30982630890716401 0 -0.47798990336816322 -0.31831102677276052 0 -0.48773580025156321 -0.30067432453184162 0 -0.50000000000000111 -0.32713470285605162 0 -0.48773580025156321 -0.30067432453184162 0 -0.48715878002139068 -0.31786741367318838 0 -0.50000000000000111 -0.32713470285605162 0 -0.48133646738229741 -0.32535204045030253 0 -0.48715878002139068 -0.31786741367318838 0 -0.49145980593956501 -0.32629273818545379 0 -0.48715878002139068 -0.31786741367318838 0 -0.49145980593956501 -0.32629273818545379 0 -0.50000000000000111 -0.32713470285605162 0 -0.49999999999999611 -0.33596740601941733 0 -0.47094228822532769 -0.34114071555867009 0 -0.49999999999999611 -0.33596740601941733 0 -0.49658068054560772 -0.33477809151825427 0 -0.47094228822532769 -0.34114071555867009 0 -0.49999999999999611 -0.33596740601941733 0 -0.47094228822532769 -0.34114071555867009 0 -0.48729553083029847 -0.3499209769892041 0 -0.50000000000000111 -0.32713470285605162 0 -0.49999999999999611 -0.33596740601941733 0 -0.49658068054560772 -0.33477809151825427 0 -0.49145980593956501 -0.32629273818545379 0 -0.50000000000000111 -0.32713470285605162 0 -0.49658068054560772 -0.33477809151825427 0 -0.48133646738229741 -0.32535204045030253 0 -0.49145980593956501 -0.32629273818545379 0 -0.49658068054560772 -0.33477809151825427 0 -0.48133646738229741 -0.32535204045030253 0 -0.49658068054560772 -0.33477809151825427 0 -0.48133646738229741 -0.32535204045030253 0 -0.49658068054560772 -0.33477809151825427 0 -0.47094228822532769 -0.34114071555867009 0 -0.46804978942840619 -0.32691134082401629 0 -0.48133646738229741 -0.32535204045030253 0 -0.47094228822532769 -0.34114071555867009 0 -0.47094228822532769 -0.34114071555867009 0 -0.47823983509586637 -0.36496786212379623 0 -0.46325939537857391 -0.3565248414560141 0 -0.47094228822532769 -0.34114071555867009 0 -0.48729553083029847 -0.3499209769892041 0 -0.47823983509586637 -0.36496786212379623 0 -0.500000000000001 -0.35760792425493282 0 -0.48729553083029847 -0.3499209769892041 0 -0.47823983509586637 -0.36496786212379623 0 -0.49999999999999611 -0.33596740601941733 0 -0.500000000000001 -0.35760792425493282 0 -0.48729553083029847 -0.3499209769892041 0 -0.500000000000001 -0.35760792425493282 0 -0.47823983509586637 -0.36496786212379623 0 -0.5 -0.38494687316838261 0 -0.500000000000001 -0.35760792425493282 0 -0.47823983509586637 -0.36496786212379623 0 -0.47823983509586637 -0.36496786212379623 0 -0.4564796701917318 -0.3723277999926593 0 -0.47823983509586637 -0.36496786212379623 0 -0.4564796701917318 -0.3723277999926593 0 -0.46325939537857391 -0.3565248414560141 0 -0.4564796701917318 -0.3723277999926593 0 -0.46325939537857391 -0.3565248414560141 0 -0.44188457645065948 -0.34631402509792347 0 -0.47094228822532769 -0.34114071555867009 0 -0.46325939537857391 -0.3565248414560141 0 -0.44188457645065948 -0.34631402509792347 0 -0.43471950528759717 -0.37968773786152238 0 -0.4564796701917318 -0.3723277999926593 0 -0.43581124741413357 -0.36579588233271659 0 -0.4564796701917318 -0.3723277999926593 0 -0.44188457645065948 -0.34631402509792347 0 -0.43581124741413357 -0.36579588233271659 0 -0.42280210415024239 -0.37633601693441299 0 -0.43581124741413357 -0.36579588233271659 0 -0.42317038099043669 -0.35431383177706488 0 -0.42280210415024239 -0.37633601693441299 0 -0.43471950528759717 -0.37968773786152238 0 -0.43581124741413357 -0.36579588233271659 0 -0.44188457645065948 -0.34631402509792347 0 -0.43581124741413357 -0.36579588233271659 0 -0.42317038099043669 -0.35431383177706488 0 -0.42317038099043669 -0.35431383177706488 0 -0.40213126390944742 -0.35851111005549657 0 -0.41209218565442429 -0.333924609777565 0 -0.42280210415024239 -0.37633601693441299 0 -0.4070742095167042 -0.37651330309384878 0 -0.40213126390944742 -0.35851111005549657 0 -0.42280210415024239 -0.37633601693441299 0 -0.42317038099043669 -0.35431383177706488 0 -0.40213126390944742 -0.35851111005549657 0 -0.42280210415024239 -0.37633601693441299 0 -0.40213126390944742 -0.35851111005549657 0 -0.39440929171426459 -0.37878973719150111 0 -0.38556016128458881 -0.36488141703087262 0 -0.40213126390944742 -0.35851111005549657 0 -0.4070742095167042 -0.37651330309384878 0 -0.39440929171426459 -0.37878973719150111 0 -0.40213126390944742 -0.35851111005549657 0 -0.38556016128458881 -0.36488141703087262 0 -0.37993750519849562 -0.35423620841977482 0 -0.3736050920558095 -0.37712859558941952 0 -0.39440929171426459 -0.37878973719150111 0 -0.38473115707176497 -0.37557916730823449 0 -0.38556016128458881 -0.36488141703087262 0 -0.38473115707176497 -0.37557916730823449 0 -0.38556016128458881 -0.36488141703087262 0 -0.3736050920558095 -0.37712859558941952 0 -0.37993750519849562 -0.35423620841977482 0 -0.40213126390944742 -0.35851111005549657 0 -0.38146042366865229 -0.34068620317658022 0 -0.38556016128458881 -0.36488141703087262 0 -0.37993750519849562 -0.35423620841977482 0 -0.40213126390944742 -0.35851111005549657 0 -0.37993750519849562 -0.35423620841977482 0 -0.38146042366865229 -0.34068620317658022 0 -0.36719733774183239 -0.34999494594354191 0 -0.40213126390944742 -0.35851111005549657 0 -0.39570109695240591 -0.33243443824697988 0 -0.38146042366865229 -0.34068620317658022 0 -0.40213126390944742 -0.35851111005549657 0 -0.38146042366865229 -0.34068620317658022 0 -0.39570109695240591 -0.33243443824697988 0 -0.40444344364834162 -0.31925327278615179 0 -0.41209218565442429 -0.333924609777565 0 -0.40213126390944742 -0.35851111005549657 0 -0.39570109695240591 -0.33243443824697988 0 -0.41209218565442429 -0.333924609777565 0 -0.39570109695240591 -0.33243443824697988 0 -0.38146042366865229 -0.34068620317658022 0 -0.38631035053194179 -0.31891769745289211 0 -0.38146042366865229 -0.34068620317658022 0 -0.38631035053194179 -0.31891769745289211 0 -0.360789583427857 -0.32286129629766402 0 -0.39570109695240591 -0.33243443824697988 0 -0.38631035053194179 -0.31891769745289211 0 -0.40444344364834162 -0.31925327278615179 0 -0.38631035053194179 -0.31891769745289211 0 -0.40444344364834162 -0.31925327278615179 0 -0.40201295341004378 -0.30308046616474921 0 -0.40444344364834162 -0.31925327278615179 0 -0.41209218565442429 -0.333924609777565 0 -0.42610063169289192 -0.30790915228857341 0 -0.41209218565442429 -0.333924609777565 0 -0.42610063169289192 -0.30790915228857341 0 -0.44188457645065948 -0.34631402509792347 0 -0.42317038099043669 -0.35431383177706488 0 -0.43301574264880038 -0.32852220007615229 0 -0.42317038099043669 -0.35431383177706488 0 -0.41209218565442429 -0.333924609777565 0 -0.43301574264880038 -0.32852220007615229 0 -0.44609644295593948 -0.31191757083546179 0 -0.43301574264880038 -0.32852220007615229 0 -0.42610063169289192 -0.30790915228857341 0 -0.41209218565442429 -0.333924609777565 0 -0.43301574264880038 -0.32852220007615229 0 -0.42610063169289192 -0.30790915228857341 0 -0.44609644295593948 -0.31191757083546179 0 -0.42610063169289192 -0.30790915228857341 0 -0.43285146462895668 -0.29537200100276151 0 -0.44609644295593948 -0.31191757083546179 0 -0.42610063169289192 -0.30790915228857341 0 -0.42610063169289192 -0.30790915228857341 0 -0.42958773282857682 -0.29335391700636843 0 -0.41826820887312222 -0.29632089037607517 0 -0.42610063169289192 -0.30790915228857341 0 -0.43285146462895668 -0.29537200100276151 0 -0.42610063169289192 -0.30790915228857341 0 -0.43285146462895668 -0.29537200100276151 0 -0.42958773282857682 -0.29335391700636843 0 -0.44302861710187302 -0.27647174063190011 0 -0.43285146462895668 -0.29537200100276151 0 -0.42958773282857682 -0.29335391700636843 0 -0.44302861710187302 -0.27647174063190011 0 -0.42958773282857682 -0.29335391700636843 0 -0.42509877061066148 -0.27969369650497622 0 -0.43285146462895668 -0.29537200100276151 0 -0.42958773282857682 -0.29335391700636843 0 -0.42958773282857682 -0.29335391700636843 0 -0.42135326157417691 -0.28966504591856701 0 -0.42509877061066148 -0.27969369650497622 0 -0.42958773282857682 -0.29335391700636843 0 -0.41826820887312222 -0.29632089037607517 0 -0.42135326157417691 -0.28966504591856701 0 -0.41826820887312222 -0.29632089037607517 0 -0.42135326157417691 -0.28966504591856701 0 -0.4122577049662759 -0.28731210054148809 0 -0.41826820887312222 -0.29632089037607517 0 -0.4122577049662759 -0.28731210054148809 0 -0.40201295341004378 -0.30308046616474921 0 -0.42135326157417691 -0.28966504591856701 0 -0.4122577049662759 -0.28731210054148809 0 -0.42509877061066148 -0.27969369650497622 0 -0.42610063169289192 -0.30790915228857341 0 -0.40201295341004378 -0.30308046616474921 0 -0.40444344364834162 -0.31925327278615179 0 -0.42610063169289192 -0.30790915228857341 0 -0.40201295341004378 -0.30308046616474921 0 -0.42610063169289192 -0.30790915228857341 0 -0.41826820887312222 -0.29632089037607517 0 -0.40201295341004378 -0.30308046616474921 0 -0.38631035053194179 -0.31891769745289211 0 -0.37792527512719548 -0.29825178004092567 0 -0.3723334944222802 -0.31176610904246982 0 -0.40201295341004378 -0.30308046616474921 0 -0.37792527512719548 -0.29825178004092567 0 -0.38631035053194179 -0.31891769745289211 0 -0.40201295341004378 -0.30308046616474921 0 -0.37792527512719548 -0.29825178004092567 0 -0.37792527512719548 -0.29825178004092567 0 -0.39506086987756311 -0.28713763513676521 0 -0.37911409616237329 -0.27712822252120128 0 -0.4122577049662759 -0.28731210054148809 0 -0.40201295341004378 -0.30308046616474921 0 -0.39506086987756311 -0.28713763513676521 0 -0.40201295341004378 -0.30308046616474921 0 -0.37792527512719548 -0.29825178004092567 0 -0.39506086987756311 -0.28713763513676521 0 -0.4122577049662759 -0.28731210054148809 0 -0.39506086987756311 -0.28713763513676521 0 -0.4113667517495474 -0.26756252016582899 0 -0.39506086987756311 -0.28713763513676521 0 -0.39623350680016062 -0.26698880457250751 0 -0.4113667517495474 -0.26756252016582899 0 -0.39506086987756311 -0.28713763513676521 0 -0.4113667517495474 -0.26756252016582899 0 -0.39506086987756311 -0.28713763513676521 0 -0.39623350680016062 -0.26698880457250751 0 -0.37911409616237329 -0.27712822252120128 0 -0.37911409616237329 -0.27712822252120128 0 -0.38752920617537062 -0.25267883187100432 0 -0.37095335669059598 -0.26196135062087761 0 -0.38752920617537062 -0.25267883187100432 0 -0.37095335669059598 -0.26196135062087761 0 -0.3710897063250192 -0.24549086766890671 0 -0.39623350680016062 -0.26698880457250751 0 -0.37911409616237329 -0.27712822252120128 0 -0.38752920617537062 -0.25267883187100432 0 -0.39623350680016062 -0.26698880457250751 0 -0.38752920617537062 -0.25267883187100432 0 -0.40809661003594849 -0.25043681316773753 0 -0.39623350680016062 -0.26698880457250751 0 -0.40809661003594849 -0.25043681316773753 0 -0.4113667517495474 -0.26756252016582899 0 -0.4113667517495474 -0.26756252016582899 0 -0.42767263362153179 -0.24798740519489279 0 -0.40809661003594849 -0.25043681316773753 0 -0.4113667517495474 -0.26756252016582899 0 -0.42767263362153179 -0.24798740519489279 0 -0.4122577049662759 -0.28731210054148809 0 -0.4113667517495474 -0.26756252016582899 0 -0.42509877061066148 -0.27969369650497622 0 -0.4113667517495474 -0.26756252016582899 0 -0.42509877061066148 -0.27969369650497622 0 -0.4333622490676961 -0.2631873810005152 0 -0.44302861710187302 -0.27647174063190011 0 -0.42509877061066148 -0.27969369650497622 0 -0.4333622490676961 -0.2631873810005152 0 -0.4333622490676961 -0.2631873810005152 0 -0.42767263362153179 -0.24798740519489279 0 -0.44649212724522441 -0.24428432365824809 0 -0.4113667517495474 -0.26756252016582899 0 -0.4333622490676961 -0.2631873810005152 0 -0.42767263362153179 -0.24798740519489279 0 -0.30994815942337223 -0.26365692149475661 0 -0.31463666262515572 -0.24470528053627741 0 -0.3185352298557616 -0.2496684481364129 0 -0.322150518940582 -0.25715196244835231 0 -0.31904269253571982 -0.26523379405709019 0 -0.32842276464558179 -0.26550300955493977 0 -0.322150518940582 -0.25715196244835231 0 -0.32842276464558179 -0.26550300955493977 0 -0.33242358686280787 -0.25466407808984032 0 -0.322150518940582 -0.25715196244835231 0 -0.33242358686280787 -0.25466407808984032 0 -0.32631504982578291 -0.24710641401897079 0 -0.322150518940582 -0.25715196244835231 0 -0.3185352298557616 -0.2496684481364129 0 -0.32631504982578291 -0.24710641401897079 0 -0.322150518940582 -0.25715196244835231 0 -0.30994815942337223 -0.26365692149475661 0 -0.3185352298557616 -0.2496684481364129 0 -0.322150518940582 -0.25715196244835231 0 -0.31904269253571982 -0.26523379405709019 0 -0.30994815942337223 -0.26365692149475661 0 -0.31904269253571982 -0.26523379405709019 0 -0.31803029662778531 -0.27360494924057988 0 -0.30994815942337223 -0.26365692149475661 0 -0.31803029662778531 -0.27360494924057988 0 -0.33184254162932209 -0.27588131886661338 0 -0.33200286775610638 -0.28904604054866367 0 -0.31904269253571982 -0.26523379405709019 0 -0.31803029662778531 -0.27360494924057988 0 -0.32842276464558179 -0.26550300955493977 0 -0.31803029662778531 -0.27360494924057988 0 -0.33184254162932209 -0.27588131886661338 0 -0.32842276464558179 -0.26550300955493977 0 -0.33184254162932209 -0.27588131886661338 0 -0.34057130244837919 -0.26840306633057859 0 -0.32842276464558179 -0.26550300955493977 0 -0.33184254162932209 -0.27588131886661338 0 -0.34057130244837919 -0.26840306633057859 0 -0.3514781122233514 -0.27550369558477089 0 -0.33184254162932209 -0.27588131886661338 0 -0.3514781122233514 -0.27550369558477089 0 -0.33200286775610638 -0.28904604054866367 0 -0.34057130244837919 -0.26840306633057859 0 -0.33787988083110743 -0.26071373769430989 0 -0.35047557771389298 -0.26424912829637592 0 -0.33787988083110743 -0.26071373769430989 0 -0.32842276464558179 -0.26550300955493977 0 -0.33242358686280787 -0.25466407808984032 0 -0.34057130244837919 -0.26840306633057859 0 -0.33787988083110743 -0.26071373769430989 0 -0.32842276464558179 -0.26550300955493977 0 -0.33242358686280787 -0.25466407808984032 0 -0.34357736444614539 -0.25421893888895541 0 -0.33643048387245028 -0.2467438411192806 0 -0.33787988083110743 -0.26071373769430989 0 -0.33242358686280787 -0.25466407808984032 0 -0.34357736444614539 -0.25421893888895541 0 -0.34357736444614539 -0.25421893888895541 0 -0.35680164887330151 -0.25202588794793468 0 -0.34672280578156511 -0.24412450819441839 0 -0.34357736444614539 -0.25421893888895541 0 -0.35047557771389298 -0.26424912829637592 0 -0.35680164887330151 -0.25202588794793468 0 -0.33787988083110743 -0.26071373769430989 0 -0.34357736444614539 -0.25421893888895541 0 -0.35047557771389298 -0.26424912829637592 0 -0.35680164887330151 -0.25202588794793468 0 -0.37095335669059598 -0.26196135062087761 0 -0.3710897063250192 -0.24549086766890671 0 -0.35047557771389298 -0.26424912829637592 0 -0.35680164887330151 -0.25202588794793468 0 -0.37095335669059598 -0.26196135062087761 0 -0.37095335669059598 -0.26196135062087761 0 -0.36407765767916073 -0.27795678280496589 0 -0.3514781122233514 -0.27550369558477089 0 -0.37095335669059598 -0.26196135062087761 0 -0.3514781122233514 -0.27550369558477089 0 -0.37911409616237329 -0.27712822252120128 0 -0.37095335669059598 -0.26196135062087761 0 -0.36407765767916073 -0.27795678280496589 0 -0.37911409616237329 -0.27712822252120128 0 -0.36407765767916073 -0.27795678280496589 0 -0.36631277551334102 -0.28730479409086962 0 -0.36407765767916073 -0.27795678280496589 0 -0.3514781122233514 -0.27550369558477089 0 -0.35252994780614161 -0.28788585120711019 0 -0.35047557771389298 -0.26424912829637592 0 -0.37095335669059598 -0.26196135062087761 0 -0.3514781122233514 -0.27550369558477089 0 -0.34057130244837919 -0.26840306633057859 0 -0.35047557771389298 -0.26424912829637592 0 -0.3514781122233514 -0.27550369558477089 0 -0.3514781122233514 -0.27550369558477089 0 -0.35252994780614161 -0.28788585120711019 0 -0.33200286775610638 -0.28904604054866367 0 -0.35383759684434768 -0.29342309391710081 0 -0.35252994780614161 -0.28788585120711019 0 -0.33200286775610638 -0.28904604054866367 0 -0.35383759684434768 -0.29342309391710081 0 -0.35252994780614161 -0.28788585120711019 0 -0.36631277551334102 -0.28730479409086962 0 -0.35383759684434768 -0.29342309391710081 0 -0.35252994780614161 -0.28788585120711019 0 -0.36407765767916073 -0.27795678280496589 0 -0.35252994780614161 -0.28788585120711019 0 -0.36631277551334102 -0.28730479409086962 0 -0.37792527512719548 -0.29825178004092567 0 -0.35383759684434768 -0.29342309391710081 0 -0.36631277551334102 -0.28730479409086962 0 -0.37792527512719548 -0.29825178004092567 0 -0.35383759684434768 -0.29342309391710081 0 -0.37792527512719548 -0.29825178004092567 0 -0.37911409616237329 -0.27712822252120128 0 -0.36631277551334102 -0.28730479409086962 0 -0.35383759684434768 -0.29342309391710081 0 -0.3658090372365369 -0.30508035475899442 0 -0.360789583427857 -0.32286129629766402 0 -0.37792527512719548 -0.29825178004092567 0 -0.35383759684434768 -0.29342309391710081 0 -0.3658090372365369 -0.30508035475899442 0 -0.37792527512719548 -0.29825178004092567 0 -0.3723334944222802 -0.31176610904246982 0 -0.3658090372365369 -0.30508035475899442 0 -0.35383759684434768 -0.29342309391710081 0 -0.34066251082892818 -0.30550529186621039 0 -0.360789583427857 -0.32286129629766402 0 -0.35383759684434768 -0.29342309391710081 0 -0.360789583427857 -0.32286129629766402 0 -0.34066251082892818 -0.30550529186621039 0 -0.33200286775610638 -0.28904604054866367 0 -0.32662215398330102 -0.31067834040799192 0 -0.35383759684434768 -0.29342309391710081 0 -0.34066251082892818 -0.30550529186621039 0 -0.33200286775610638 -0.28904604054866367 0 -0.35383759684434768 -0.29342309391710081 0 -0.33200286775610638 -0.28904604054866367 0 -0.3514781122233514 -0.27550369558477089 0 -0.33200286775610638 -0.28904604054866367 0 -0.33200286775610638 -0.28904604054866367 0 -0.30392984496931141 -0.28341844066159078 0 -0.33200286775610638 -0.28904604054866367 0 -0.31239022787025728 -0.30268392506577552 0 -0.33200286775610638 -0.28904604054866367 0 -0.31239022787025728 -0.30268392506577552 0 -0.30392984496931141 -0.28341844066159078 0 -0.31803029662778531 -0.27360494924057988 0 -0.33200286775610638 -0.28904604054866367 0 -0.30392984496931141 -0.28341844066159078 0 -0.32662215398330102 -0.31067834040799192 0 -0.3143995574521718 -0.31833356296141269 0 -0.31239022787025728 -0.30268392506577552 0 -0.33200286775610638 -0.28904604054866367 0 -0.32662215398330102 -0.31067834040799192 0 -0.31239022787025728 -0.30268392506577552 0 -0.32662215398330102 -0.31067834040799192 0 -0.32344578435058913 -0.3246117282686603 0 -0.33408945742872082 -0.32197383914768368 0 -0.32662215398330102 -0.31067834040799192 0 -0.32344578435058913 -0.3246117282686603 0 -0.3143995574521718 -0.31833356296141269 0 -0.32344578435058913 -0.3246117282686603 0 -0.3143995574521718 -0.31833356296141269 0 -0.31632160484192212 -0.33374394489563808 0 -0.31632160484192212 -0.33374394489563808 0 -0.32822056703227459 -0.33464760678358307 0 -0.33412224479667779 -0.34722557082527489 0 -0.31632160484192212 -0.33374394489563808 0 -0.33412224479667779 -0.34722557082527489 0 -0.32315190231214658 -0.34787748462533391 0 -0.31632160484192212 -0.33374394489563808 0 -0.33412224479667779 -0.34722557082527489 0 -0.32344578435058913 -0.3246117282686603 0 -0.31632160484192212 -0.33374394489563808 0 -0.32822056703227459 -0.33464760678358307 0 -0.32822056703227459 -0.33464760678358307 0 -0.33510980479979707 -0.33946857579131329 0 -0.33805517271033902 -0.33278744997519949 0 -0.32822056703227459 -0.33464760678358307 0 -0.33805517271033902 -0.33278744997519949 0 -0.33408945742872082 -0.32197383914768368 0 -0.35261735416511902 -0.34224669023995058 0 -0.34416419350214777 -0.34009322582264429 0 -0.33412224479667779 -0.34722557082527489 0 -0.32822056703227459 -0.33464760678358307 0 -0.33510980479979707 -0.33946857579131329 0 -0.33412224479667779 -0.34722557082527489 0 -0.33510980479979707 -0.33946857579131329 0 -0.33615854085628533 -0.34355774020483409 0 -0.33412224479667779 -0.34722557082527489 0 -0.33615854085628533 -0.34355774020483409 0 -0.3389924986034088 -0.33912451116767478 0 -0.34416419350214777 -0.34009322582264429 0 -0.33615854085628533 -0.34355774020483409 0 -0.34416419350214777 -0.34009322582264429 0 -0.33412224479667779 -0.34722557082527489 0 -0.33510980479979707 -0.33946857579131329 0 -0.33615854085628533 -0.34355774020483409 0 -0.3389924986034088 -0.33912451116767478 0 -0.33510980479979707 -0.33946857579131329 0 -0.3389924986034088 -0.33912451116767478 0 -0.33805517271033902 -0.33278744997519949 0 -0.3389924986034088 -0.33912451116767478 0 -0.33805517271033902 -0.33278744997519949 0 -0.34416419350214777 -0.34009322582264429 0 -0.33805517271033902 -0.33278744997519949 0 -0.3450630453438519 -0.32757796555822538 0 -0.34416419350214777 -0.34009322582264429 0 -0.33805517271033902 -0.33278744997519949 0 -0.33408945742872082 -0.32197383914768368 0 -0.3450630453438519 -0.32757796555822538 0 -0.34066251082892818 -0.30550529186621039 0 -0.32662215398330102 -0.31067834040799192 0 -0.33408945742872082 -0.32197383914768368 0 -0.34066251082892818 -0.30550529186621039 0 -0.33408945742872082 -0.32197383914768368 0 -0.3450630453438519 -0.32757796555822538 0 -0.32344578435058913 -0.3246117282686603 0 -0.32822056703227459 -0.33464760678358307 0 -0.33408945742872082 -0.32197383914768368 0 -0.34066251082892818 -0.30550529186621039 0 -0.360789583427857 -0.32286129629766402 0 -0.34066251082892818 -0.30550529186621039 0 -0.3450630453438519 -0.32757796555822538 0 -0.360789583427857 -0.32286129629766402 0 -0.3723334944222802 -0.31176610904246982 0 -0.3658090372365369 -0.30508035475899442 0 -0.360789583427857 -0.32286129629766402 0 -0.38631035053194179 -0.31891769745289211 0 -0.3723334944222802 -0.31176610904246982 0 -0.360789583427857 -0.32286129629766402 0 -0.38146042366865229 -0.34068620317658022 0 -0.360789583427857 -0.32286129629766402 0 -0.36719733774183239 -0.34999494594354191 0 -0.360789583427857 -0.32286129629766402 0 -0.36719733774183239 -0.34999494594354191 0 -0.38146042366865229 -0.34068620317658022 0 -0.360789583427857 -0.32286129629766402 0 -0.360789583427857 -0.32286129629766402 0 -0.35261735416511902 -0.34224669023995058 0 -0.36719733774183239 -0.34999494594354191 0 -0.3450630453438519 -0.32757796555822538 0 -0.360789583427857 -0.32286129629766402 0 -0.35261735416511902 -0.34224669023995058 0 -0.3450630453438519 -0.32757796555822538 0 -0.35261735416511902 -0.34224669023995058 0 -0.34416419350214777 -0.34009322582264429 0 -0.35261735416511902 -0.34224669023995058 0 -0.36719733774183239 -0.34999494594354191 0 -0.35386366842624362 -0.36217708320734732 0 -0.35261735416511902 -0.34224669023995058 0 -0.35386366842624362 -0.36217708320734732 0 -0.33412224479667779 -0.34722557082527489 0 -0.35386366842624362 -0.36217708320734732 0 -0.33412224479667779 -0.34722557082527489 0 -0.36719733774183239 -0.34999494594354191 0 -0.3736050920558095 -0.37712859558941952 0 -0.35386366842624362 -0.36217708320734732 0 -0.360753838095623 -0.38303458413913222 0 -0.3736050920558095 -0.37712859558941952 0 -0.36719733774183239 -0.34999494594354191 0 -0.35386366842624362 -0.36217708320734732 0 -0.3736050920558095 -0.37712859558941952 0 -0.35386366842624362 -0.36217708320734732 0 -0.3736050920558095 -0.37712859558941952 0 -0.37993750519849562 -0.35423620841977482 0 -0.36719733774183239 -0.34999494594354191 0 -0.3736050920558095 -0.37712859558941952 0 -0.35386366842624362 -0.36217708320734732 0 -0.360753838095623 -0.38303458413913222 0 -0.34490053396880688 -0.37977001939774901 0 -0.35386366842624362 -0.36217708320734732 0 -0.34007058159186399 -0.36107985560777622 0 -0.34490053396880688 -0.37977001939774901 0 -0.32653946698530639 -0.36088387189270871 0 -0.34490053396880688 -0.37977001939774901 0 -0.32910490485257088 -0.37675812563209632 0 -0.32653946698530639 -0.36088387189270871 0 -0.34490053396880688 -0.37977001939774901 0 -0.34007058159186399 -0.36107985560777622 0 -0.32653946698530639 -0.36088387189270871 0 -0.34490053396880688 -0.37977001939774901 0 -0.35386366842624362 -0.36217708320734732 0 -0.34007058159186399 -0.36107985560777622 0 -0.33412224479667779 -0.34722557082527489 0 -0.33615854085628533 -0.34355774020483409 0 -0.33412224479667779 -0.34722557082527489 0 -0.33412224479667779 -0.34722557082527489 0 -0.32653946698530639 -0.36088387189270871 0 -0.34007058159186399 -0.36107985560777622 0 -0.33412224479667779 -0.34722557082527489 0 -0.32653946698530639 -0.36088387189270871 0 -0.31562429262468028 -0.34965655088771419 0 -0.32653946698530639 -0.36088387189270871 0 -0.3078631423731451 -0.36436905971928102 0 -0.33412224479667779 -0.34722557082527489 0 -0.32315190231214658 -0.34787748462533391 0 -0.32653946698530639 -0.36088387189270871 0 -0.32315190231214658 -0.34787748462533391 0 -0.31562429262468028 -0.34965655088771419 0 -0.32653946698530639 -0.36088387189270871 0 -0.31562429262468028 -0.34965655088771419 0 -0.32653946698530639 -0.36088387189270871 0 -0.31632160484192212 -0.33374394489563808 0 -0.32315190231214658 -0.34787748462533391 0 -0.31562429262468028 -0.34965655088771419 0 -0.32653946698530639 -0.36088387189270871 0 -0.31427503178763078 -0.38297489875897028 0 -0.32653946698530639 -0.36088387189270871 0 -0.32910490485257088 -0.37675812563209632 0 -0.31427503178763078 -0.38297489875897028 0 -0.32653946698530639 -0.36088387189270871 0 -0.3078631423731451 -0.36436905971928102 0 -0.31427503178763078 -0.38297489875897028 0 -0.3078631423731451 -0.36436905971928102 0 -0.2921459644150039 -0.36156261128352007 0 -0.2934538525579265 -0.38069307749052639 0 -0.31562429262468028 -0.34965655088771419 0 -0.3078631423731451 -0.36436905971928102 0 -0.30261131863628032 -0.35162969639742542 0 -0.3078631423731451 -0.36436905971928102 0 -0.30261131863628032 -0.35162969639742542 0 -0.2921459644150039 -0.36156261128352007 0 -0.31562429262468028 -0.34965655088771419 0 -0.30261131863628032 -0.35162969639742542 0 -0.30470911826405511 -0.33842922988271867 0 -0.31562429262468028 -0.34965655088771419 0 -0.30470911826405511 -0.33842922988271867 0 -0.30261131863628032 -0.35162969639742542 0 -0.29271407550451689 -0.34413103021389269 0 -0.30470911826405511 -0.33842922988271867 0 -0.29271407550451689 -0.34413103021389269 0 -0.2921459644150039 -0.36156261128352007 0 -0.27548675518732002 -0.34741322886421527 0 -0.30261131863628032 -0.35162969639742542 0 -0.29271407550451689 -0.34413103021389269 0 -0.2921459644150039 -0.36156261128352007 0 -0.2921459644150039 -0.36156261128352007 0 -0.27573933769469372 -0.36752054931604727 0 -0.2934538525579265 -0.38069307749052639 0 -0.25592911825887171 -0.36184407364603371 0 -0.26257158138572417 -0.3779282839996056 0 -0.24479666343684461 -0.38082423049403802 0 -0.27573933769469372 -0.36752054931604727 0 -0.25592911825887171 -0.36184407364603371 0 -0.26257158138572417 -0.3779282839996056 0 -0.25592911825887171 -0.36184407364603371 0 -0.27548675518732002 -0.34741322886421527 0 -0.25342751825815613 -0.34069167962580948 0 -0.2921459644150039 -0.36156261128352007 0 -0.27573933769469372 -0.36752054931604727 0 -0.27548675518732002 -0.34741322886421527 0 -0.27573933769469372 -0.36752054931604727 0 -0.25592911825887171 -0.36184407364603371 0 -0.27548675518732002 -0.34741322886421527 0 -0.27548675518732002 -0.34741322886421527 0 -0.25342751825815613 -0.34069167962580948 0 -0.27284737859467351 -0.32466469912681012 0 -0.27548675518732002 -0.34741322886421527 0 -0.27284737859467351 -0.32466469912681012 0 -0.28779914141447271 -0.3310991663013248 0 -0.25342751825815613 -0.34069167962580948 0 -0.27284737859467351 -0.32466469912681012 0 -0.25342751825815613 -0.34069167962580948 0 -0.25650529409784478 -0.32253511422086872 0 -0.27284737859467351 -0.32466469912681012 0 -0.25650529409784478 -0.32253511422086872 0 -0.25588233811311839 -0.30137350192898421 0 -0.23812722191089 -0.32397554996763572 0 -0.27284737859467351 -0.32466469912681012 0 -0.29226723893119078 -0.3086377186278107 0 -0.27645462634490348 -0.30925660075111772 0 -0.25650529409784478 -0.32253511422086872 0 -0.27284737859467351 -0.32466469912681012 0 -0.27645462634490348 -0.30925660075111772 0 -0.27284737859467351 -0.32466469912681012 0 -0.29277758798440767 -0.31632180958288658 0 -0.29226723893119078 -0.3086377186278107 0 -0.27284737859467351 -0.32466469912681012 0 -0.29277758798440767 -0.31632180958288658 0 -0.28779914141447271 -0.3310991663013248 0 -0.27284737859467351 -0.32466469912681012 0 -0.29226723893119078 -0.3086377186278107 0 -0.28779914141447271 -0.3310991663013248 0 -0.29822604912480549 -0.33144811248043649 0 -0.29852096488716678 -0.32026231896600049 0 -0.29277758798440767 -0.31632180958288658 0 -0.28779914141447271 -0.3310991663013248 0 -0.29852096488716678 -0.32026231896600049 0 -0.29271407550451689 -0.34413103021389269 0 -0.27548675518732002 -0.34741322886421527 0 -0.28779914141447271 -0.3310991663013248 0 -0.29271407550451689 -0.34413103021389269 0 -0.28779914141447271 -0.3310991663013248 0 -0.29822604912480549 -0.33144811248043649 0 -0.31632160484192212 -0.33374394489563808 0 -0.31562429262468028 -0.34965655088771419 0 -0.30470911826405511 -0.33842922988271867 0 -0.31632160484192212 -0.33374394489563808 0 -0.29822604912480549 -0.33144811248043649 0 -0.29852096488716678 -0.32026231896600049 0 -0.31632160484192212 -0.33374394489563808 0 -0.29822604912480549 -0.33144811248043649 0 -0.30470911826405511 -0.33842922988271867 0 -0.29271407550451689 -0.34413103021389269 0 -0.29822604912480549 -0.33144811248043649 0 -0.30470911826405511 -0.33842922988271867 0 -0.31632160484192212 -0.33374394489563808 0 -0.29852096488716678 -0.32026231896600049 0 -0.29277758798440767 -0.31632180958288658 0 -0.29852096488716678 -0.32026231896600049 0 -0.31239022787025728 -0.30268392506577552 0 -0.3143995574521718 -0.31833356296141269 0 -0.29852096488716678 -0.32026231896600049 0 -0.31239022787025728 -0.30268392506577552 0 -0.3143995574521718 -0.31833356296141269 0 -0.31632160484192212 -0.33374394489563808 0 -0.29852096488716678 -0.32026231896600049 0 -0.31239022787025728 -0.30268392506577552 0 -0.29553279300865659 -0.29615172813988982 0 -0.29226723893119078 -0.3086377186278107 0 -0.29277758798440767 -0.31632180958288658 0 -0.31239022787025728 -0.30268392506577552 0 -0.29277758798440767 -0.31632180958288658 0 -0.31239022787025728 -0.30268392506577552 0 -0.29226723893119078 -0.3086377186278107 0 -0.31239022787025728 -0.30268392506577552 0 -0.30392984496931141 -0.28341844066159078 0 -0.29553279300865659 -0.29615172813988982 0 -0.30392984496931141 -0.28341844066159078 0 -0.29045583725182089 -0.28636836820404632 0 -0.27585682218251589 -0.27779084077451899 0 -0.29553279300865659 -0.29615172813988982 0 -0.28752808604618091 -0.29326776477047939 0 -0.28513253568905361 -0.30048484809658332 0 -0.29553279300865659 -0.29615172813988982 0 -0.29045583725182089 -0.28636836820404632 0 -0.28752808604618091 -0.29326776477047939 0 -0.30392984496931141 -0.28341844066159078 0 -0.29553279300865659 -0.29615172813988982 0 -0.29045583725182089 -0.28636836820404632 0 -0.29045583725182089 -0.28636836820404632 0 -0.28365891835034462 -0.28809585826421391 0 -0.27585682218251589 -0.27779084077451899 0 -0.29045583725182089 -0.28636836820404632 0 -0.28365891835034462 -0.28809585826421391 0 -0.28752808604618091 -0.29326776477047939 0 -0.28365891835034462 -0.28809585826421391 0 -0.28181890865696652 -0.29459352831845032 0 -0.27984742965707982 -0.28998647350236217 0 -0.28365891835034462 -0.28809585826421391 0 -0.28752808604618091 -0.29326776477047939 0 -0.28181890865696652 -0.29459352831845032 0 -0.28752808604618091 -0.29326776477047939 0 -0.28181890865696652 -0.29459352831845032 0 -0.28513253568905361 -0.30048484809658332 0 -0.28513253568905361 -0.30048484809658332 0 -0.29226723893119078 -0.3086377186278107 0 -0.27645462634490348 -0.30925660075111772 0 -0.28181890865696652 -0.29459352831845032 0 -0.28513253568905361 -0.30048484809658332 0 -0.27738282300059403 -0.29936061379485113 0 -0.29553279300865659 -0.29615172813988982 0 -0.28513253568905361 -0.30048484809658332 0 -0.29226723893119078 -0.3086377186278107 0 -0.27645462634490348 -0.30925660075111772 0 -0.26893236905362361 -0.29810221820439009 0 -0.25588233811311839 -0.30137350192898421 0 -0.27645462634490348 -0.30925660075111772 0 -0.27738282300059403 -0.29936061379485113 0 -0.26893236905362361 -0.29810221820439009 0 -0.28513253568905361 -0.30048484809658332 0 -0.27645462634490348 -0.30925660075111772 0 -0.27738282300059403 -0.29936061379485113 0 -0.25650529409784478 -0.32253511422086872 0 -0.27645462634490348 -0.30925660075111772 0 -0.25588233811311839 -0.30137350192898421 0 -0.25588233811311839 -0.30137350192898421 0 -0.25843579458272947 -0.28199527553847331 0 -0.27363745431534681 -0.27877145389033281 0 -0.25588233811311839 -0.30137350192898421 0 -0.27363745431534681 -0.27877145389033281 0 -0.25588233811311839 -0.30137350192898421 0 -0.25843579458272947 -0.28199527553847331 0 -0.24571051639519559 -0.28905741133308022 0 -0.26893236905362361 -0.29810221820439009 0 -0.25588233811311839 -0.30137350192898421 0 -0.27363745431534681 -0.27877145389033281 0 -0.26893236905362361 -0.29810221820439009 0 -0.27599563624082613 -0.29172809807912597 0 -0.27363745431534681 -0.27877145389033281 0 -0.27738282300059403 -0.29936061379485113 0 -0.26893236905362361 -0.29810221820439009 0 -0.27599563624082613 -0.29172809807912597 0 -0.28181890865696652 -0.29459352831845032 0 -0.27599563624082613 -0.29172809807912597 0 -0.27984742965707982 -0.28998647350236217 0 -0.27599563624082613 -0.29172809807912597 0 -0.27984742965707982 -0.28998647350236217 0 -0.27791625538018189 -0.28552840934765861 0 -0.28181890865696652 -0.29459352831845032 0 -0.27738282300059403 -0.29936061379485113 0 -0.27599563624082613 -0.29172809807912597 0 -0.27599563624082613 -0.29172809807912597 0 -0.27791625538018189 -0.28552840934765861 0 -0.27363745431534681 -0.27877145389033281 0 -0.28365891835034462 -0.28809585826421391 0 -0.27791625538018189 -0.28552840934765861 0 -0.27585682218251589 -0.27779084077451899 0 -0.28365891835034462 -0.28809585826421391 0 -0.27984742965707982 -0.28998647350236217 0 -0.27791625538018189 -0.28552840934765861 0 -0.27363745431534681 -0.27877145389033281 0 -0.2770770997220085 -0.2672116601779656 0 -0.29139257051757511 -0.2561694058516813 0 -0.27363745431534681 -0.27877145389033281 0 -0.27585682218251589 -0.27779084077451899 0 -0.29139257051757511 -0.2561694058516813 0 -0.27791625538018189 -0.28552840934765861 0 -0.27363745431534681 -0.27877145389033281 0 -0.27585682218251589 -0.27779084077451899 0 -0.27363745431534681 -0.27877145389033281 0 -0.2770770997220085 -0.2672116601779656 0 -0.27308659815637321 -0.27301940066128488 0 -0.2770770997220085 -0.2672116601779656 0 -0.27308561769591028 -0.26899547662792861 0 -0.27308659815637321 -0.27301940066128488 0 -0.2770770997220085 -0.2672116601779656 0 -0.27308561769591028 -0.26899547662792861 0 -0.27228270319233899 -0.2659191775691675 0 -0.27308561769591028 -0.26899547662792861 0 -0.27228270319233899 -0.2659191775691675 0 -0.26989606971292063 -0.26983166810329617 0 -0.27228270319233899 -0.2659191775691675 0 -0.26989606971292063 -0.26983166810329617 0 -0.26678153653249698 -0.26431210283870937 0 -0.27308659815637321 -0.27301940066128488 0 -0.26989606971292063 -0.26983166810329617 0 -0.26938507772496678 -0.27396132580776 0 -0.27308561769591028 -0.26899547662792861 0 -0.27308659815637321 -0.27301940066128488 0 -0.26989606971292063 -0.26983166810329617 0 -0.26989606971292063 -0.26983166810329617 0 -0.26938507772496678 -0.27396132580776 0 -0.26498616064206121 -0.27118414049651318 0 -0.26989606971292063 -0.26983166810329617 0 -0.26498616064206121 -0.27118414049651318 0 -0.26678153653249698 -0.26431210283870937 0 -0.25843579458272947 -0.28199527553847331 0 -0.27363745431534681 -0.27877145389033281 0 -0.26531910579813228 -0.27699996588737302 0 -0.27363745431534681 -0.27877145389033281 0 -0.26938507772496678 -0.27396132580776 0 -0.26531910579813228 -0.27699996588737302 0 -0.27363745431534681 -0.27877145389033281 0 -0.27308659815637321 -0.27301940066128488 0 -0.26938507772496678 -0.27396132580776 0 -0.26938507772496678 -0.27396132580776 0 -0.26531910579813228 -0.27699996588737302 0 -0.26498616064206121 -0.27118414049651318 0 -0.26531910579813228 -0.27699996588737302 0 -0.26498616064206121 -0.27118414049651318 0 -0.2573618105052779 -0.27299914977085099 0 -0.25843579458272947 -0.28199527553847331 0 -0.26531910579813228 -0.27699996588737302 0 -0.2573618105052779 -0.27299914977085099 0 -0.26498616064206121 -0.27118414049651318 0 -0.26074953756444819 -0.26662875094571498 0 -0.26678153653249698 -0.26431210283870937 0 -0.26498616064206121 -0.27118414049651318 0 -0.26074953756444819 -0.26662875094571498 0 -0.2573618105052779 -0.27299914977085099 0 -0.2573618105052779 -0.27299914977085099 0 -0.2505573511965149 -0.26569685807797838 0 -0.2448528328091156 -0.27539806873421441 0 -0.26074953756444819 -0.26662875094571498 0 -0.2573618105052779 -0.27299914977085099 0 -0.2505573511965149 -0.26569685807797838 0 -0.25843579458272947 -0.28199527553847331 0 -0.2573618105052779 -0.27299914977085099 0 -0.2448528328091156 -0.27539806873421441 0 -0.25565615090317201 -0.25345781787206628 0 -0.25251589588023188 -0.25812427529212989 0 -0.25773112777593682 -0.2580299277963255 0 -0.25565615090317201 -0.25345781787206628 0 -0.25901141734507621 -0.24900710031127299 0 -0.25383687152731699 -0.24830787689851239 0 -0.25565615090317201 -0.25345781787206628 0 -0.2497529842214796 -0.25220111039885162 0 -0.25383687152731699 -0.24830787689851239 0 -0.25565615090317201 -0.25345781787206628 0 -0.25251589588023188 -0.25812427529212989 0 -0.2497529842214796 -0.25220111039885162 0 -0.26074953756444819 -0.26662875094571498 0 -0.2505573511965149 -0.26569685807797838 0 -0.25682202517463032 -0.26180150425393728 0 -0.2505573511965149 -0.26569685807797838 0 -0.25251589588023188 -0.25812427529212989 0 -0.25682202517463032 -0.26180150425393728 0 -0.25251589588023188 -0.25812427529212989 0 -0.25682202517463032 -0.26180150425393728 0 -0.25773112777593682 -0.2580299277963255 0 -0.25682202517463032 -0.26180150425393728 0 -0.25773112777593682 -0.2580299277963255 0 -0.26255621345601982 -0.26052770915753759 0 -0.26074953756444819 -0.26662875094571498 0 -0.25682202517463032 -0.26180150425393728 0 -0.26255621345601982 -0.26052770915753759 0 -0.26074953756444819 -0.26662875094571498 0 -0.26255621345601982 -0.26052770915753759 0 -0.26678153653249698 -0.26431210283870937 0 -0.26255621345601982 -0.26052770915753759 0 -0.26695223058553957 -0.25749833276467449 0 -0.26678153653249698 -0.26431210283870937 0 -0.26255621345601982 -0.26052770915753759 0 -0.26215427413643833 -0.2541476116358945 0 -0.26695223058553957 -0.25749833276467449 0 -0.25565615090317201 -0.25345781787206628 0 -0.25773112777593682 -0.2580299277963255 0 -0.26215427413643833 -0.2541476116358945 0 -0.25773112777593682 -0.2580299277963255 0 -0.26255621345601982 -0.26052770915753759 0 -0.26215427413643833 -0.2541476116358945 0 -0.25565615090317201 -0.25345781787206628 0 -0.26215427413643833 -0.2541476116358945 0 -0.25901141734507621 -0.24900710031127299 0 -0.26215427413643833 -0.2541476116358945 0 -0.26440038254346598 -0.24923453919678179 0 -0.25901141734507621 -0.24900710031127299 0 -0.26215427413643833 -0.2541476116358945 0 -0.26914506214054601 -0.25217494541183971 0 -0.26440038254346598 -0.24923453919678179 0 -0.26215427413643833 -0.2541476116358945 0 -0.26914506214054601 -0.25217494541183971 0 -0.26695223058553957 -0.25749833276467449 0 -0.26914506214054601 -0.25217494541183971 0 -0.26695223058553957 -0.25749833276467449 0 -0.27110647792249021 -0.25601012440124271 0 -0.26914506214054601 -0.25217494541183971 0 -0.27110647792249021 -0.25601012440124271 0 -0.27570558938939488 -0.25475375310074461 0 -0.27110647792249021 -0.25601012440124271 0 -0.27135236553462461 -0.2602968580083499 0 -0.27570558938939488 -0.25475375310074461 0 -0.26914506214054601 -0.25217494541183971 0 -0.27570558938939488 -0.25475375310074461 0 -0.273972840182588 -0.24696089302480309 0 -0.26695223058553957 -0.25749833276467449 0 -0.26678153653249698 -0.26431210283870937 0 -0.27135236553462461 -0.2602968580083499 0 -0.26695223058553957 -0.25749833276467449 0 -0.27110647792249021 -0.25601012440124271 0 -0.27135236553462461 -0.2602968580083499 0 -0.27228270319233899 -0.2659191775691675 0 -0.27135236553462461 -0.2602968580083499 0 -0.27556507355346699 -0.26128566965200128 0 -0.27228270319233899 -0.2659191775691675 0 -0.26678153653249698 -0.26431210283870937 0 -0.27135236553462461 -0.2602968580083499 0 -0.2770770997220085 -0.2672116601779656 0 -0.27556507355346699 -0.26128566965200128 0 -0.28077112945189842 -0.25778021353653818 0 -0.2770770997220085 -0.2672116601779656 0 -0.27228270319233899 -0.2659191775691675 0 -0.27556507355346699 -0.26128566965200128 0 -0.27135236553462461 -0.2602968580083499 0 -0.27556507355346699 -0.26128566965200128 0 -0.27570558938939488 -0.25475375310074461 0 -0.27556507355346699 -0.26128566965200128 0 -0.27570558938939488 -0.25475375310074461 0 -0.28077112945189842 -0.25778021353653818 0 -0.27570558938939488 -0.25475375310074461 0 -0.28077112945189842 -0.25778021353653818 0 -0.28443117863150441 -0.2470498507370901 0 -0.28077112945189842 -0.25778021353653818 0 -0.29139257051757511 -0.2561694058516813 0 -0.28443117863150441 -0.2470498507370901 0 -0.29021714725838399 -0.27285054132421488 0 -0.2997034517118089 -0.25399963940206571 0 -0.30042169301858163 -0.26562130020313762 0 -0.29139257051757511 -0.2561694058516813 0 -0.29021714725838399 -0.27285054132421488 0 -0.2997034517118089 -0.25399963940206571 0 -0.29021714725838399 -0.27285054132421488 0 -0.2997034517118089 -0.25399963940206571 0 -0.2770770997220085 -0.2672116601779656 0 -0.28077112945189842 -0.25778021353653818 0 -0.29139257051757511 -0.2561694058516813 0 -0.30392984496931141 -0.28341844066159078 0 -0.27585682218251589 -0.27779084077451899 0 -0.27585682218251589 -0.27779084077451899 0 -0.29139257051757511 -0.2561694058516813 0 -0.29021714725838399 -0.27285054132421488 0 -0.30392984496931141 -0.28341844066159078 0 -0.27585682218251589 -0.27779084077451899 0 -0.29021714725838399 -0.27285054132421488 0 -0.27363745431534681 -0.27877145389033281 0 -0.29139257051757511 -0.2561694058516813 0 -0.29021714725838399 -0.27285054132421488 0 -0.30181801368076139 -0.27197809859151328 0 -0.30042169301858163 -0.26562130020313762 0 -0.31803029662778531 -0.27360494924057988 0 -0.30392984496931141 -0.28341844066159078 0 -0.30181801368076139 -0.27197809859151328 0 -0.31803029662778531 -0.27360494924057988 0 -0.30181801368076139 -0.27197809859151328 0 -0.30994815942337223 -0.26365692149475661 0 -0.30181801368076139 -0.27197809859151328 0 -0.30994815942337223 -0.26365692149475661 0 -0.30042169301858163 -0.26562130020313762 0 -0.30392984496931141 -0.28341844066159078 0 -0.29021714725838399 -0.27285054132421488 0 -0.30181801368076139 -0.27197809859151328 0 -0.30994815942337223 -0.26365692149475661 0 -0.2997034517118089 -0.25399963940206571 0 -0.30918975616523298 -0.23514873747991599 0 -0.30994815942337223 -0.26365692149475661 0 -0.2997034517118089 -0.25399963940206571 0 -0.30042169301858163 -0.26562130020313762 0 -0.39033772046636178 -0.5 0 -0.34689817560526681 -0.47663211761692231 0 -0.30739613299384289 -0.5 0 -0.33078176434601958 -0.45622443260406081 0 -0.31393101125595041 -0.46742479995693842 0 -0.34689817560526681 -0.47663211761692231 0 -0.33078176434601958 -0.45622443260406081 0 -0.34689817560526681 -0.47663211761692231 0 -0.3498176061071267 -0.45179720294948711 0 -0.33078176434601958 -0.45622443260406081 0 -0.32919916405431709 -0.43750155321566842 0 -0.3498176061071267 -0.45179720294948711 0 -0.32919916405431709 -0.43750155321566842 0 -0.35645112373383808 -0.44093651660419309 0 -0.32919916405431709 -0.43750155321566842 0 -0.31481339420581489 -0.44883480068671577 0 -0.3019472043747965 -0.43406658982714241 0 -0.33078176434601958 -0.45622443260406081 0 -0.32919916405431709 -0.43750155321566842 0 -0.31481339420581489 -0.44883480068671577 0 -0.33078176434601958 -0.45622443260406081 0 -0.31481339420581489 -0.44883480068671577 0 -0.31393101125595041 -0.46742479995693842 0 -0.31393101125595041 -0.46742479995693842 0 -0.34689817560526681 -0.47663211761692231 0 -0.30739613299384289 -0.5 0 -0.39033772046636178 -0.5 0 -0.34689817560526681 -0.47663211761692231 0 -0.37308520881948731 -0.47311457134684493 0 -0.34689817560526681 -0.47663211761692231 0 -0.37308520881948731 -0.47311457134684493 0 -0.36265219462496878 -0.45715949192703809 0 -0.37944820501736221 -0.45618957580009578 0 -0.37308520881948731 -0.47311457134684493 0 -0.36265219462496878 -0.45715949192703809 0 -0.34689817560526681 -0.47663211761692231 0 -0.36265219462496878 -0.45715949192703809 0 -0.3498176061071267 -0.45179720294948711 0 -0.32919916405431709 -0.43750155321566842 0 -0.3498176061071267 -0.45179720294948711 0 -0.35645112373383808 -0.44093651660419309 0 -0.36265219462496878 -0.45715949192703809 0 -0.3498176061071267 -0.45179720294948711 0 -0.35645112373383808 -0.44093651660419309 0 -0.3498176061071267 -0.45179720294948711 0 -0.35645112373383808 -0.44093651660419309 0 -0.35645112373383808 -0.44093651660419309 0 -0.37184798146519082 -0.44287720796098101 0 -0.36236334970806477 -0.43125676062524931 0 -0.36265219462496878 -0.45715949192703809 0 -0.35645112373383808 -0.44093651660419309 0 -0.37184798146519082 -0.44287720796098101 0 -0.35645112373383808 -0.44093651660419309 0 -0.37184798146519082 -0.44287720796098101 0 -0.37944820501736221 -0.45618957580009578 0 -0.36265219462496878 -0.45715949192703809 0 -0.37184798146519082 -0.44287720796098101 0 -0.37544319540799009 -0.40984186289139513 0 -0.38668225262945161 -0.43401453319657529 0 -0.36236334970806477 -0.43125676062524931 0 -0.38668225262945161 -0.43401453319657529 0 -0.37184798146519082 -0.44287720796098101 0 -0.36236334970806477 -0.43125676062524931 0 -0.38668225262945161 -0.43401453319657529 0 -0.36236334970806477 -0.43125676062524931 0 -0.35645112373383808 -0.44093651660419309 0 -0.36236334970806477 -0.43125676062524931 0 -0.36030746493771681 -0.4310236225331322 0 -0.35645112373383808 -0.44093651660419309 0 -0.36236334970806477 -0.43125676062524931 0 -0.36236334970806477 -0.43125676062524931 0 -0.36030746493771681 -0.4310236225331322 0 -0.36236334970806477 -0.43125676062524931 0 -0.36030746493771681 -0.4310236225331322 0 -0.36063508045905712 -0.4228226049697052 0 -0.37544319540799009 -0.40984186289139513 0 -0.36236334970806477 -0.43125676062524931 0 -0.36063508045905712 -0.4228226049697052 0 -0.37544319540799009 -0.40984186289139513 0 -0.36236334970806477 -0.43125676062524931 0 -0.37544319540799009 -0.40984186289139513 0 -0.36053557137134562 -0.41175124337168612 0 -0.36326160095230842 -0.3986561669027886 0 -0.37544319540799009 -0.40984186289139513 0 -0.36063508045905712 -0.4228226049697052 0 -0.36053557137134562 -0.41175124337168612 0 -0.35164471099738842 -0.4185727720738236 0 -0.34863906280587431 -0.40267323238371172 0 -0.33884384022199848 -0.41374008798248518 0 -0.36063508045905712 -0.4228226049697052 0 -0.36053557137134562 -0.41175124337168612 0 -0.35164471099738842 -0.4185727720738236 0 -0.36053557137134562 -0.41175124337168612 0 -0.35164471099738842 -0.4185727720738236 0 -0.34863906280587431 -0.40267323238371172 0 -0.35164471099738842 -0.4185727720738236 0 -0.34394135152010291 -0.43036338150761788 0 -0.33884384022199848 -0.41374008798248518 0 -0.35164471099738842 -0.4185727720738236 0 -0.34394135152010291 -0.43036338150761788 0 -0.3539815668129388 -0.42713974262872728 0 -0.35645112373383808 -0.44093651660419309 0 -0.34394135152010291 -0.43036338150761788 0 -0.35337922615042888 -0.43291633205935731 0 -0.34394135152010291 -0.43036338150761788 0 -0.35337922615042888 -0.43291633205935731 0 -0.3539815668129388 -0.42713974262872728 0 -0.35645112373383808 -0.44093651660419309 0 -0.36030746493771681 -0.4310236225331322 0 -0.35337922615042888 -0.43291633205935731 0 -0.36030746493771681 -0.4310236225331322 0 -0.35337922615042888 -0.43291633205935731 0 -0.3539815668129388 -0.42713974262872728 0 -0.36030746493771681 -0.4310236225331322 0 -0.36063508045905712 -0.4228226049697052 0 -0.3539815668129388 -0.42713974262872728 0 -0.36063508045905712 -0.4228226049697052 0 -0.35164471099738842 -0.4185727720738236 0 -0.3539815668129388 -0.42713974262872728 0 -0.37700261609447377 -0.39151541855601291 0 -0.360753838095623 -0.38303458413913222 0 -0.3736050920558095 -0.37712859558941952 0 -0.37700261609447377 -0.39151541855601291 0 -0.37544319540799009 -0.40984186289139513 0 -0.36326160095230842 -0.3986561669027886 0 -0.37700261609447377 -0.39151541855601291 0 -0.360753838095623 -0.38303458413913222 0 -0.36326160095230842 -0.3986561669027886 0 -0.36326160095230842 -0.3986561669027886 0 -0.34863906280587431 -0.40267323238371172 0 -0.34490053396880688 -0.37977001939774901 0 -0.36053557137134562 -0.41175124337168612 0 -0.36326160095230842 -0.3986561669027886 0 -0.34863906280587431 -0.40267323238371172 0 -0.36326160095230842 -0.3986561669027886 0 -0.34490053396880688 -0.37977001939774901 0 -0.360753838095623 -0.38303458413913222 0 -0.36326160095230842 -0.3986561669027886 0 -0.34490053396880688 -0.37977001939774901 0 -0.34490053396880688 -0.37977001939774901 0 -0.32910490485257088 -0.37675812563209632 0 -0.33264811932339811 -0.39354910457373721 0 -0.34863906280587431 -0.40267323238371172 0 -0.34490053396880688 -0.37977001939774901 0 -0.33264811932339811 -0.39354910457373721 0 -0.34863906280587431 -0.40267323238371172 0 -0.33264811932339811 -0.39354910457373721 0 -0.33884384022199848 -0.41374008798248518 0 -0.33264811932339811 -0.39354910457373721 0 -0.32015808494610648 -0.40318886898329259 0 -0.33884384022199848 -0.41374008798248518 0 -0.33264811932339811 -0.39354910457373721 0 -0.32015808494610648 -0.40318886898329259 0 -0.31427503178763078 -0.38297489875897028 0 -0.32910490485257088 -0.37675812563209632 0 -0.33264811932339811 -0.39354910457373721 0 -0.31427503178763078 -0.38297489875897028 0 -0.32919916405431709 -0.43750155321566842 0 -0.35645112373383808 -0.44093651660419309 0 -0.34394135152010291 -0.43036338150761788 0 -0.32919916405431709 -0.43750155321566842 0 -0.33884384022199848 -0.41374008798248518 0 -0.31761304516921479 -0.41960043222153359 0 -0.32919916405431709 -0.43750155321566842 0 -0.34394135152010291 -0.43036338150761788 0 -0.33884384022199848 -0.41374008798248518 0 -0.32015808494610648 -0.40318886898329259 0 -0.31761304516921479 -0.41960043222153359 0 -0.30201059658995488 -0.40506592562523169 0 -0.32015808494610648 -0.40318886898329259 0 -0.33884384022199848 -0.41374008798248518 0 -0.31761304516921479 -0.41960043222153359 0 -0.32919916405431709 -0.43750155321566842 0 -0.3019472043747965 -0.43406658982714241 0 -0.32919916405431709 -0.43750155321566842 0 -0.31761304516921479 -0.41960043222153359 0 -0.3019472043747965 -0.43406658982714241 0 -0.31761304516921479 -0.41960043222153359 0 -0.3019472043747965 -0.43406658982714241 0 -0.30282925188156118 -0.42147247504135021 0 -0.3019472043747965 -0.43406658982714241 0 -0.30282925188156118 -0.42147247504135021 0 -0.28974616139227888 -0.42715695249149321 0 -0.30282925188156118 -0.42147247504135021 0 -0.28974616139227888 -0.42715695249149321 0 -0.30201059658995488 -0.40506592562523169 0 -0.31761304516921479 -0.41960043222153359 0 -0.30282925188156118 -0.42147247504135021 0 -0.30201059658995488 -0.40506592562523169 0 -0.28974616139227888 -0.42715695249149321 0 -0.30201059658995488 -0.40506592562523169 0 -0.2837974152193749 -0.41553214570078661 0 -0.28974616139227888 -0.42715695249149321 0 -0.30201059658995488 -0.40506592562523169 0 -0.2837974152193749 -0.41553214570078661 0 -0.30201059658995488 -0.40506592562523169 0 -0.28591223041160768 -0.3981790654754806 0 -0.3019472043747965 -0.43406658982714241 0 -0.28974616139227888 -0.42715695249149321 0 -0.29820782699799048 -0.44895662782976892 0 -0.31427503178763078 -0.38297489875897028 0 -0.30201059658995488 -0.40506592562523169 0 -0.2934538525579265 -0.38069307749052639 0 -0.3078631423731451 -0.36436905971928102 0 -0.31427503178763078 -0.38297489875897028 0 -0.2934538525579265 -0.38069307749052639 0 -0.32015808494610648 -0.40318886898329259 0 -0.31427503178763078 -0.38297489875897028 0 -0.30201059658995488 -0.40506592562523169 0 -0.31427503178763078 -0.38297489875897028 0 -0.30201059658995488 -0.40506592562523169 0 -0.30201059658995488 -0.40506592562523169 0 -0.28591223041160768 -0.3981790654754806 0 -0.2934538525579265 -0.38069307749052639 0 -0.27573933769469372 -0.36752054931604727 0 -0.2934538525579265 -0.38069307749052639 0 -0.27623066463344909 -0.38517943225515422 0 -0.28591223041160768 -0.3981790654754806 0 -0.2934538525579265 -0.38069307749052639 0 -0.27623066463344909 -0.38517943225515422 0 -0.27573933769469372 -0.36752054931604727 0 -0.27623066463344909 -0.38517943225515422 0 -0.26257158138572417 -0.3779282839996056 0 -0.27623066463344909 -0.38517943225515422 0 -0.26016212290476198 -0.39427313428675459 0 -0.26257158138572417 -0.3779282839996056 0 -0.2837974152193749 -0.41553214570078661 0 -0.28591223041160768 -0.3981790654754806 0 -0.27228391213900388 -0.4014547310252643 0 -0.28591223041160768 -0.3981790654754806 0 -0.27623066463344909 -0.38517943225515422 0 -0.27228391213900388 -0.4014547310252643 0 -0.27623066463344909 -0.38517943225515422 0 -0.27228391213900388 -0.4014547310252643 0 -0.26016212290476198 -0.39427313428675459 0 -0.27228391213900388 -0.4014547310252643 0 -0.26016212290476198 -0.39427313428675459 0 -0.25531712752582569 -0.41410987740814548 0 -0.26016212290476198 -0.39427313428675459 0 -0.25531712752582569 -0.41410987740814548 0 -0.24451415433406121 -0.39664901921967188 0 -0.26016212290476198 -0.39427313428675459 0 -0.26257158138572417 -0.3779282839996056 0 -0.24479666343684461 -0.38082423049403802 0 -0.28974616139227888 -0.42715695249149321 0 -0.26932781198625028 -0.43027113077956802 0 -0.27748172619460298 -0.44924797935775462 0 -0.2837974152193749 -0.41553214570078661 0 -0.28974616139227888 -0.42715695249149321 0 -0.26932781198625028 -0.43027113077956802 0 -0.2837974152193749 -0.41553214570078661 0 -0.26932781198625028 -0.43027113077956802 0 -0.25531712752582569 -0.41410987740814548 0 -0.2837974152193749 -0.41553214570078661 0 -0.27228391213900388 -0.4014547310252643 0 -0.25531712752582569 -0.41410987740814548 0 -0.2837974152193749 -0.41553214570078661 0 -0.25531712752582569 -0.41410987740814548 0 -0.26932781198625028 -0.43027113077956802 0 -0.25315030238089897 -0.44857473424003752 0 -0.24170368887837121 -0.42892600481203791 0 -0.26932781198625028 -0.43027113077956802 0 -0.25531712752582569 -0.41410987740814548 0 -0.24170368887837121 -0.42892600481203791 0 -0.25315030238089897 -0.44857473424003752 0 -0.26521729099692698 -0.47133900622401598 0 -0.24288308881848369 -0.47032857943130968 0 -0.25315030238089897 -0.44857473424003752 0 -0.27748172619460298 -0.44924797935775462 0 -0.26521729099692698 -0.47133900622401598 0 -0.27748172619460298 -0.44924797935775462 0 -0.26521729099692698 -0.47133900622401598 0 -0.27748172619460298 -0.44924797935775462 0 -0.29207799406287788 -0.46807695606399757 0 -0.26521729099692698 -0.47133900622401598 0 -0.26932781198625028 -0.43027113077956802 0 -0.25315030238089897 -0.44857473424003752 0 -0.27748172619460298 -0.44924797935775462 0 -0.28974616139227888 -0.42715695249149321 0 -0.27748172619460298 -0.44924797935775462 0 -0.29820782699799048 -0.44895662782976892 0 -0.28974616139227888 -0.42715695249149321 0 -0.27748172619460298 -0.44924797935775462 0 -0.27748172619460298 -0.44924797935775462 0 -0.29207799406287788 -0.46807695606399757 0 -0.29820782699799048 -0.44895662782976892 0 -0.31393101125595041 -0.46742479995693842 0 -0.29207799406287788 -0.46807695606399757 0 -0.29820782699799048 -0.44895662782976892 0 -0.31481339420581489 -0.44883480068671577 0 -0.31393101125595041 -0.46742479995693842 0 -0.29820782699799048 -0.44895662782976892 0 -0.31481339420581489 -0.44883480068671577 0 -0.3019472043747965 -0.43406658982714241 0 -0.29820782699799048 -0.44895662782976892 0 -0.29207799406287788 -0.46807695606399757 0 -0.30739613299384289 -0.5 0 -0.26521729099692698 -0.47133900622401598 0 -0.31393101125595041 -0.46742479995693842 0 -0.29207799406287788 -0.46807695606399757 0 -0.30739613299384289 -0.5 0 -0.30739613299384289 -0.5 0 -0.26521729099692698 -0.47133900622401598 0 -0.24679151038962771 -0.5 0 -0.26521729099692698 -0.47133900622401598 0 -0.24679151038962771 -0.5 0 -0.24288308881848369 -0.47032857943130968 0 -0.24679151038962771 -0.5 0 -0.2205260445144013 -0.47033949896844601 0 -0.20251006770660421 -0.5 0 -0.24679151038962771 -0.5 0 -0.24288308881848369 -0.47032857943130968 0 -0.2205260445144013 -0.47033949896844601 0 -0.25315030238089897 -0.44857473424003752 0 -0.2236814421733388 -0.44151355404197451 0 -0.24170368887837121 -0.42892600481203791 0 -0.25315030238089897 -0.44857473424003752 0 -0.24288308881848369 -0.47032857943130968 0 -0.2236814421733388 -0.44151355404197451 0 -0.2205260445144013 -0.47033949896844601 0 -0.2236814421733388 -0.44151355404197451 0 -0.24288308881848369 -0.47032857943130968 0 -0.2205260445144013 -0.47033949896844601 0 -0.2236814421733388 -0.44151355404197451 0 -0.2205260445144013 -0.47033949896844601 0 -0.18817096919871179 -0.46865941105144387 0 -0.19977620586990261 -0.44196489441056508 0 -0.2205260445144013 -0.47033949896844601 0 -0.2236814421733388 -0.44151355404197451 0 -0.19977620586990261 -0.44196489441056508 0 -0.18817096919871179 -0.46865941105144387 0 -0.20251006770660421 -0.5 0 -0.18273322180473781 -0.48739228993883199 0 -0.2205260445144013 -0.47033949896844601 0 -0.18817096919871179 -0.46865941105144387 0 -0.20251006770660421 -0.5 0 -0.20251006770660421 -0.5 0 -0.18273322180473781 -0.48739228993883199 0 -0.1701445537340425 -0.50000000000000044 0 -0.18273322180473781 -0.48739228993883199 0 -0.1701445537340425 -0.50000000000000044 0 -0.16986239966906269 -0.48237858299094921 0 -0.1701445537340425 -0.50000000000000044 0 -0.14846713163266109 -0.48696609943523511 0 -0.1701445537340425 -0.50000000000000044 0 -0.16986239966906269 -0.48237858299094921 0 -0.14846713163266109 -0.48696609943523511 0 -0.16986239966906269 -0.48237858299094921 0 -0.15964306140607881 -0.46979313595865052 0 -0.14846713163266109 -0.48696609943523511 0 -0.18817096919871179 -0.46865941105144387 0 -0.15964306140607881 -0.46979313595865052 0 -0.18817096919871179 -0.46865941105144387 0 -0.16986239966906269 -0.48237858299094921 0 -0.15964306140607881 -0.46979313595865052 0 -0.18817096919871179 -0.46865941105144387 0 -0.18273322180473781 -0.48739228993883199 0 -0.16986239966906269 -0.48237858299094921 0 -0.18817096919871179 -0.46865941105144387 0 -0.19977620586990261 -0.44196489441056508 0 -0.1739567943081998 -0.45145097335196421 0 -0.18817096919871179 -0.46865941105144387 0 -0.15964306140607881 -0.46979313595865052 0 -0.1739567943081998 -0.45145097335196421 0 -0.19977620586990261 -0.44196489441056508 0 -0.1739567943081998 -0.45145097335196421 0 -0.17817757015099561 -0.44077092265527629 0 -0.1739567943081998 -0.45145097335196421 0 -0.17817757015099561 -0.44077092265527629 0 -0.16566884778406149 -0.44052722204999439 0 -0.1739567943081998 -0.45145097335196421 0 -0.15184460131526961 -0.45756886544170949 0 -0.15264543300966879 -0.44481780099792168 0 -0.1739567943081998 -0.45145097335196421 0 -0.16566884778406149 -0.44052722204999439 0 -0.15264543300966879 -0.44481780099792168 0 -0.15964306140607881 -0.46979313595865052 0 -0.1739567943081998 -0.45145097335196421 0 -0.15184460131526961 -0.45756886544170949 0 -0.15964306140607881 -0.46979313595865052 0 -0.15184460131526961 -0.45756886544170949 0 -0.1425006659771143 -0.4623528909300097 0 -0.15964306140607881 -0.46979313595865052 0 -0.1425006659771143 -0.4623528909300097 0 -0.13111515361344581 -0.47092686086585689 0 -0.15184460131526961 -0.45756886544170949 0 -0.1425006659771143 -0.4623528909300097 0 -0.13995129188361291 -0.45336959375219771 0 -0.15264543300966879 -0.44481780099792168 0 -0.13942551553354879 -0.44039790705910098 0 -0.13995129188361291 -0.45336959375219771 0 -0.15184460131526961 -0.45756886544170949 0 -0.15264543300966879 -0.44481780099792168 0 -0.13995129188361291 -0.45336959375219771 0 -0.13942551553354879 -0.44039790705910098 0 -0.12811630720819869 -0.44857187362834472 0 -0.13995129188361291 -0.45336959375219771 0 -0.13942551553354879 -0.44039790705910098 0 -0.12811630720819869 -0.44857187362834472 0 -0.12821447175470491 -0.43453126055706442 0 -0.1425006659771143 -0.4623528909300097 0 -0.1310357170809634 -0.45941105227638129 0 -0.13111515361344581 -0.47092686086585689 0 -0.1425006659771143 -0.4623528909300097 0 -0.13995129188361291 -0.45336959375219771 0 -0.1310357170809634 -0.45941105227638129 0 -0.12811630720819869 -0.44857187362834472 0 -0.13995129188361291 -0.45336959375219771 0 -0.1310357170809634 -0.45941105227638129 0 -0.12811630720819869 -0.44857187362834472 0 -0.1310357170809634 -0.45941105227638129 0 -0.1172263432475437 -0.45794469602715809 0 -0.1310357170809634 -0.45941105227638129 0 -0.13111515361344581 -0.47092686086585689 0 -0.1172263432475437 -0.45794469602715809 0 -0.1267897095312801 -0.47393219887046939 0 -0.14846713163266109 -0.48696609943523511 0 -0.1267897095312801 -0.47393219887046939 0 -0.13195717737893961 -0.48928285565192547 0 -0.14846713163266109 -0.48696609943523511 0 -0.1267897095312801 -0.47393219887046939 0 -0.13111515361344581 -0.47092686086585689 0 -0.14846713163266109 -0.48696609943523511 0 -0.13195717737893961 -0.48928285565192547 0 -0.1451716235147972 -0.5 0 -0.12019869329555199 -0.5 0 -0.1701445537340425 -0.50000000000000044 0 -0.14846713163266109 -0.48696609943523511 0 -0.1451716235147972 -0.5 0 -0.13195717737893961 -0.48928285565192547 0 -0.14846713163266109 -0.48696609943523511 0 -0.1451716235147972 -0.5 0 -0.15964306140607881 -0.46979313595865052 0 -0.13111515361344581 -0.47092686086585689 0 -0.15964306140607881 -0.46979313595865052 0 -0.13111515361344581 -0.47092686086585689 0 -0.14846713163266109 -0.48696609943523511 0 -0.14681665499657559 -0.39689468564200858 0 -0.1468406594137342 -0.41631630720659829 0 -0.16616949746503429 -0.40191849260069967 0 -0.14681665499657559 -0.39689468564200858 0 -0.1472332371007635 -0.38147618159339181 0 -0.16147925657836831 -0.38912790156292792 0 -0.14681665499657559 -0.39689468564200858 0 -0.1472332371007635 -0.38147618159339181 0 -0.13167573345180539 -0.38399194324865721 0 -0.1472332371007635 -0.38147618159339181 0 -0.13167573345180539 -0.38399194324865721 0 -0.13184198378708389 -0.36607862463740531 0 -0.13167573345180539 -0.38399194324865721 0 -0.13184198378708389 -0.36607862463740531 0 -0.1136836432202615 -0.37941280123382082 0 -0.14681665499657559 -0.39689468564200858 0 -0.1468406594137342 -0.41631630720659829 0 -0.1203728861856499 -0.4034920136046149 0 -0.14681665499657559 -0.39689468564200858 0 -0.13167573345180539 -0.38399194324865721 0 -0.1203728861856499 -0.4034920136046149 0 -0.1468406594137342 -0.41631630720659829 0 -0.1147451985958797 -0.42350430754810431 0 -0.1203728861856499 -0.4034920136046149 0 -0.1468406594137342 -0.41631630720659829 0 -0.1203728861856499 -0.4034920136046149 0 -0.12821447175470491 -0.43453126055706442 0 -0.1468406594137342 -0.41631630720659829 0 -0.1147451985958797 -0.42350430754810431 0 -0.13942551553354879 -0.44039790705910098 0 -0.12821447175470491 -0.43453126055706442 0 -0.1468406594137342 -0.41631630720659829 0 -0.15264543300966879 -0.44481780099792168 0 -0.13942551553354879 -0.44039790705910098 0 -0.1468406594137342 -0.41631630720659829 0 -0.16566884778406149 -0.44052722204999439 0 -0.15264543300966879 -0.44481780099792168 0 -0.1468406594137342 -0.41631630720659829 0 -0.1468406594137342 -0.41631630720659829 0 -0.1709711538624171 -0.41498389785887541 0 -0.17330843264181839 -0.42914060080858168 0 -0.1468406594137342 -0.41631630720659829 0 -0.1709711538624171 -0.41498389785887541 0 -0.16616949746503429 -0.40191849260069967 0 -0.1709711538624171 -0.41498389785887541 0 -0.1755064391708068 -0.40844519414404801 0 -0.16616949746503429 -0.40191849260069967 0 -0.16566884778406149 -0.44052722204999439 0 -0.1468406594137342 -0.41631630720659829 0 -0.17330843264181839 -0.42914060080858168 0 -0.1468406594137342 -0.41631630720659829 0 -0.17330843264181839 -0.42914060080858168 0 -0.19977620586990261 -0.44196489441056508 0 -0.17817757015099561 -0.44077092265527629 0 -0.17330843264181839 -0.42914060080858168 0 -0.19977620586990261 -0.44196489441056508 0 -0.17330843264181839 -0.42914060080858168 0 -0.184909648721264 -0.43106280537702668 0 -0.19977620586990261 -0.44196489441056508 0 -0.17330843264181839 -0.42914060080858168 0 -0.17817757015099561 -0.44077092265527629 0 -0.16566884778406149 -0.44052722204999439 0 -0.17330843264181839 -0.42914060080858168 0 -0.17330843264181839 -0.42914060080858168 0 -0.184909648721264 -0.43106280537702668 0 -0.1795754723468829 -0.41980905049798478 0 -0.184909648721264 -0.43106280537702668 0 -0.1883741757733895 -0.41129150209934429 0 -0.184909648721264 -0.43106280537702668 0 -0.1795754723468829 -0.41980905049798478 0 -0.1883741757733895 -0.41129150209934429 0 -0.1709711538624171 -0.41498389785887541 0 -0.1755064391708068 -0.40844519414404801 0 -0.18031395073552539 -0.41256644634609579 0 -0.1755064391708068 -0.40844519414404801 0 -0.18031395073552539 -0.41256644634609579 0 -0.1818742181297941 -0.40687446312501702 0 -0.1709711538624171 -0.41498389785887541 0 -0.1795754723468829 -0.41980905049798478 0 -0.18031395073552539 -0.41256644634609579 0 -0.1709711538624171 -0.41498389785887541 0 -0.17330843264181839 -0.42914060080858168 0 -0.1795754723468829 -0.41980905049798478 0 -0.1795754723468829 -0.41980905049798478 0 -0.18031395073552539 -0.41256644634609579 0 -0.1883741757733895 -0.41129150209934429 0 -0.18031395073552539 -0.41256644634609579 0 -0.1818742181297941 -0.40687446312501702 0 -0.1883741757733895 -0.41129150209934429 0 -0.18493925272844941 -0.40003032317604742 0 -0.18891119199572831 -0.3939362388016891 0 -0.1883741757733895 -0.41129150209934429 0 -0.18493925272844941 -0.40003032317604742 0 -0.1808047467650519 -0.39438420912013578 0 -0.1790814492471639 -0.40231802140358441 0 -0.1818742181297941 -0.40687446312501702 0 -0.18493925272844941 -0.40003032317604742 0 -0.1883741757733895 -0.41129150209934429 0 -0.1818742181297941 -0.40687446312501702 0 -0.18493925272844941 -0.40003032317604742 0 -0.1790814492471639 -0.40231802140358441 0 -0.1808047467650519 -0.39438420912013578 0 -0.18390964689173259 -0.38688256084209011 0 -0.18891119199572831 -0.3939362388016891 0 -0.18493925272844941 -0.40003032317604742 0 -0.1808047467650519 -0.39438420912013578 0 -0.18891119199572831 -0.3939362388016891 0 -0.1808047467650519 -0.39438420912013578 0 -0.16616949746503429 -0.40191849260069967 0 -0.17343885829390879 -0.38774947975311908 0 -0.1808047467650519 -0.39438420912013578 0 -0.1790814492471639 -0.40231802140358441 0 -0.16616949746503429 -0.40191849260069967 0 -0.1755064391708068 -0.40844519414404801 0 -0.1790814492471639 -0.40231802140358441 0 -0.16616949746503429 -0.40191849260069967 0 -0.1755064391708068 -0.40844519414404801 0 -0.1818742181297941 -0.40687446312501702 0 -0.1790814492471639 -0.40231802140358441 0 -0.14681665499657559 -0.39689468564200858 0 -0.16616949746503429 -0.40191849260069967 0 -0.16147925657836831 -0.38912790156292792 0 -0.16616949746503429 -0.40191849260069967 0 -0.16147925657836831 -0.38912790156292792 0 -0.17343885829390879 -0.38774947975311908 0 -0.1472332371007635 -0.38147618159339181 0 -0.17044073136899579 -0.37395793102994551 0 -0.1472332371007635 -0.38147618159339181 0 -0.16147925657836831 -0.38912790156292792 0 -0.17044073136899579 -0.37395793102994551 0 -0.16147925657836831 -0.38912790156292792 0 -0.17343885829390879 -0.38774947975311908 0 -0.17044073136899579 -0.37395793102994551 0 -0.17839417269448221 -0.38162245369302661 0 -0.17343885829390879 -0.38774947975311908 0 -0.17044073136899579 -0.37395793102994551 0 -0.17839417269448221 -0.38162245369302661 0 -0.18578745422329149 -0.37789984314695158 0 -0.17044073136899579 -0.37395793102994551 0 -0.17839417269448221 -0.38162245369302661 0 -0.17343885829390879 -0.38774947975311908 0 -0.18390964689173259 -0.38688256084209011 0 -0.1808047467650519 -0.39438420912013578 0 -0.17343885829390879 -0.38774947975311908 0 -0.18390964689173259 -0.38688256084209011 0 -0.18390964689173259 -0.38688256084209011 0 -0.18578745422329149 -0.37789984314695158 0 -0.1918387028255143 -0.39152019882166172 0 -0.17839417269448221 -0.38162245369302661 0 -0.18390964689173259 -0.38688256084209011 0 -0.18578745422329149 -0.37789984314695158 0 -0.1918387028255143 -0.39152019882166172 0 -0.1960577216937017 -0.36744317465006437 0 -0.1918387028255143 -0.39152019882166172 0 -0.21264310896355779 -0.37435056908747322 0 -0.1918387028255143 -0.39152019882166172 0 -0.1960577216937017 -0.36744317465006437 0 -0.21264310896355779 -0.37435056908747322 0 -0.18578745422329149 -0.37789984314695158 0 -0.1918387028255143 -0.39152019882166172 0 -0.1960577216937017 -0.36744317465006437 0 -0.1918387028255143 -0.39152019882166172 0 -0.19373176705993569 -0.41103438510891072 0 -0.1883741757733895 -0.41129150209934429 0 -0.1918387028255143 -0.39152019882166172 0 -0.1883741757733895 -0.41129150209934429 0 -0.20064804293127281 -0.40051452377366781 0 -0.1918387028255143 -0.39152019882166172 0 -0.21081087647692731 -0.39460872273410419 0 -0.18390964689173259 -0.38688256084209011 0 -0.18891119199572831 -0.3939362388016891 0 -0.1918387028255143 -0.39152019882166172 0 -0.20064804293127281 -0.40051452377366781 0 -0.1918387028255143 -0.39152019882166172 0 -0.19373176705993569 -0.41103438510891072 0 -0.18891119199572831 -0.3939362388016891 0 -0.1918387028255143 -0.39152019882166172 0 -0.1883741757733895 -0.41129150209934429 0 -0.18891119199572831 -0.3939362388016891 0 -0.1918387028255143 -0.39152019882166172 0 -0.21081087647692731 -0.39460872273410419 0 -0.21348344272250599 -0.38588363163357181 0 -0.22878924986612359 -0.39485148505356171 0 -0.20064804293127281 -0.40051452377366781 0 -0.21860810827706731 -0.40234592646968509 0 -0.21028430344610599 -0.41186099711220753 0 -0.1918387028255143 -0.39152019882166172 0 -0.21081087647692731 -0.39460872273410419 0 -0.21348344272250599 -0.38588363163357181 0 -0.20064804293127281 -0.40051452377366781 0 -0.21860810827706731 -0.40234592646968509 0 -0.21081087647692731 -0.39460872273410419 0 -0.1918387028255143 -0.39152019882166172 0 -0.21348344272250599 -0.38588363163357181 0 -0.21264310896355779 -0.37435056908747322 0 -0.2219616039561032 -0.37823148663430861 0 -0.21264310896355779 -0.37435056908747322 0 -0.21348344272250599 -0.38588363163357181 0 -0.2219616039561032 -0.37823148663430861 0 -0.21264310896355779 -0.37435056908747322 0 -0.19977620586990261 -0.44196489441056508 0 -0.196447082900717 -0.42844913883445968 0 -0.20747245730978489 -0.42717815646081808 0 -0.19977620586990261 -0.44196489441056508 0 -0.184909648721264 -0.43106280537702668 0 -0.196447082900717 -0.42844913883445968 0 -0.184909648721264 -0.43106280537702668 0 -0.1915750501133591 -0.42204158788037122 0 -0.196447082900717 -0.42844913883445968 0 -0.196447082900717 -0.42844913883445968 0 -0.1985020524892743 -0.41999825004351721 0 -0.20747245730978489 -0.42717815646081808 0 -0.1915750501133591 -0.42204158788037122 0 -0.196447082900717 -0.42844913883445968 0 -0.1985020524892743 -0.41999825004351721 0 -0.1985020524892743 -0.41999825004351721 0 -0.19373176705993569 -0.41103438510891072 0 -0.21028430344610599 -0.41186099711220753 0 -0.184909648721264 -0.43106280537702668 0 -0.1915750501133591 -0.42204158788037122 0 -0.1883741757733895 -0.41129150209934429 0 -0.20064804293127281 -0.40051452377366781 0 -0.19373176705993569 -0.41103438510891072 0 -0.21028430344610599 -0.41186099711220753 0 -0.19373176705993569 -0.41103438510891072 0 -0.21028430344610599 -0.41186099711220753 0 -0.1915750501133591 -0.42204158788037122 0 -0.1985020524892743 -0.41999825004351721 0 -0.19304576135898971 -0.41609143128303577 0 -0.1915750501133591 -0.42204158788037122 0 -0.19304576135898971 -0.41609143128303577 0 -0.1883741757733895 -0.41129150209934429 0 -0.1985020524892743 -0.41999825004351721 0 -0.19304576135898971 -0.41609143128303577 0 -0.19373176705993569 -0.41103438510891072 0 -0.19304576135898971 -0.41609143128303577 0 -0.19373176705993569 -0.41103438510891072 0 -0.1883741757733895 -0.41129150209934429 0 -0.21028430344610599 -0.41186099711220753 0 -0.20747245730978489 -0.42717815646081808 0 -0.2268368398322764 -0.41268760911550312 0 -0.21860810827706731 -0.40234592646968509 0 -0.21028430344610599 -0.41186099711220753 0 -0.2268368398322764 -0.41268760911550312 0 -0.21028430344610599 -0.41186099711220753 0 -0.2268368398322764 -0.41268760911550312 0 -0.1985020524892743 -0.41999825004351721 0 -0.21028430344610599 -0.41186099711220753 0 -0.20747245730978489 -0.42717815646081808 0 -0.2236814421733388 -0.44151355404197451 0 -0.19977620586990261 -0.44196489441056508 0 -0.20747245730978489 -0.42717815646081808 0 -0.2236814421733388 -0.44151355404197451 0 -0.20747245730978489 -0.42717815646081808 0 -0.2268368398322764 -0.41268760911550312 0 -0.2236814421733388 -0.44151355404197451 0 -0.2268368398322764 -0.41268760911550312 0 -0.2236814421733388 -0.44151355404197451 0 -0.2268368398322764 -0.41268760911550312 0 -0.24170368887837121 -0.42892600481203791 0 -0.25531712752582569 -0.41410987740814548 0 -0.2268368398322764 -0.41268760911550312 0 -0.24170368887837121 -0.42892600481203791 0 -0.25531712752582569 -0.41410987740814548 0 -0.2268368398322764 -0.41268760911550312 0 -0.24451415433406121 -0.39664901921967188 0 -0.25531712752582569 -0.41410987740814548 0 -0.2268368398322764 -0.41268760911550312 0 -0.23074165989997081 -0.37701536099162031 0 -0.22878924986612359 -0.39485148505356171 0 -0.21348344272250599 -0.38588363163357181 0 -0.2219616039561032 -0.37823148663430861 0 -0.22878924986612359 -0.39485148505356171 0 -0.23074165989997081 -0.37701536099162031 0 -0.2219616039561032 -0.37823148663430861 0 -0.22878924986612359 -0.39485148505356171 0 -0.23074165989997081 -0.37701536099162031 0 -0.22878924986612359 -0.39485148505356171 0 -0.23721043188425001 -0.38733502393972291 0 -0.2268368398322764 -0.41268760911550312 0 -0.22878924986612359 -0.39485148505356171 0 -0.21860810827706731 -0.40234592646968509 0 -0.21081087647692731 -0.39460872273410419 0 -0.22878924986612359 -0.39485148505356171 0 -0.21860810827706731 -0.40234592646968509 0 -0.2268368398322764 -0.41268760911550312 0 -0.22878924986612359 -0.39485148505356171 0 -0.2268368398322764 -0.41268760911550312 0 -0.22878924986612359 -0.39485148505356171 0 -0.24451415433406121 -0.39664901921967188 0 -0.22878924986612359 -0.39485148505356171 0 -0.24451415433406121 -0.39664901921967188 0 -0.23721043188425001 -0.38733502393972291 0 -0.24451415433406121 -0.39664901921967188 0 -0.23721043188425001 -0.38733502393972291 0 -0.24479666343684461 -0.38082423049403802 0 -0.26016212290476198 -0.39427313428675459 0 -0.24451415433406121 -0.39664901921967188 0 -0.24479666343684461 -0.38082423049403802 0 -0.23074165989997081 -0.37701536099162031 0 -0.23721043188425001 -0.38733502393972291 0 -0.24479666343684461 -0.38082423049403802 0 -0.24479666343684461 -0.38082423049403802 0 -0.2340076579216393 -0.35671866012480957 0 -0.23074165989997081 -0.37701536099162031 0 -0.24479666343684461 -0.38082423049403802 0 -0.2340076579216393 -0.35671866012480957 0 -0.25592911825887171 -0.36184407364603371 0 -0.24479666343684461 -0.38082423049403802 0 -0.2340076579216393 -0.35671866012480957 0 -0.23074165989997081 -0.37701536099162031 0 -0.2219616039561032 -0.37823148663430861 0 -0.2340076579216393 -0.35671866012480957 0 -0.2219616039561032 -0.37823148663430861 0 -0.2340076579216393 -0.35671866012480957 0 -0.21264310896355779 -0.37435056908747322 0 -0.2340076579216393 -0.35671866012480957 0 -0.22905537985001109 -0.35496925397264539 0 -0.21264310896355779 -0.37435056908747322 0 -0.2340076579216393 -0.35671866012480957 0 -0.21264310896355779 -0.37435056908747322 0 -0.22905537985001109 -0.35496925397264539 0 -0.2127222694647207 -0.36026049373070629 0 -0.21849580901100291 -0.35330845374512138 0 -0.2340076579216393 -0.35671866012480957 0 -0.22400526943561219 -0.33437060597185819 0 -0.222501355355848 -0.34715916368403449 0 -0.22905537985001109 -0.35496925397264539 0 -0.22400526943561219 -0.33437060597185819 0 -0.2340076579216393 -0.35671866012480957 0 -0.22905537985001109 -0.35496925397264539 0 -0.22400526943561219 -0.33437060597185819 0 -0.22905537985001109 -0.35496925397264539 0 -0.2127222694647207 -0.36026049373070629 0 -0.2340076579216393 -0.35671866012480957 0 -0.23772678017874449 -0.34089914913688069 0 -0.22400526943561219 -0.33437060597185819 0 -0.222501355355848 -0.34715916368403449 0 -0.21849580901100291 -0.35330845374512138 0 -0.21844896312676579 -0.34598834104651321 0 -0.222501355355848 -0.34715916368403449 0 -0.22905537985001109 -0.35496925397264539 0 -0.21849580901100291 -0.35330845374512138 0 -0.25342751825815613 -0.34069167962580948 0 -0.2340076579216393 -0.35671866012480957 0 -0.25342751825815613 -0.34069167962580948 0 -0.2340076579216393 -0.35671866012480957 0 -0.23772678017874449 -0.34089914913688069 0 -0.25592911825887171 -0.36184407364603371 0 -0.25342751825815613 -0.34069167962580948 0 -0.2340076579216393 -0.35671866012480957 0 -0.25342751825815613 -0.34069167962580948 0 -0.25650529409784478 -0.32253511422086872 0 -0.23812722191089 -0.32397554996763572 0 -0.25342751825815613 -0.34069167962580948 0 -0.23772678017874449 -0.34089914913688069 0 -0.23812722191089 -0.32397554996763572 0 -0.25588233811311839 -0.30137350192898421 0 -0.23812722191089 -0.32397554996763572 0 -0.22527610743726331 -0.3199235880227142 0 -0.22400526943561219 -0.33437060597185819 0 -0.21400288094958531 -0.3120225518189067 0 -0.22400526943561219 -0.33437060597185819 0 -0.21400288094958531 -0.3120225518189067 0 -0.23812722191089 -0.32397554996763572 0 -0.22527610743726331 -0.3199235880227142 0 -0.2272492052427092 -0.31070847768585691 0 -0.23812722191089 -0.32397554996763572 0 -0.22527610743726331 -0.3199235880227142 0 -0.22400526943561219 -0.33437060597185819 0 -0.22527610743726331 -0.3199235880227142 0 -0.2272492052427092 -0.31070847768585691 0 -0.21400288094958531 -0.3120225518189067 0 -0.23772678017874449 -0.34089914913688069 0 -0.23812722191089 -0.32397554996763572 0 -0.22400526943561219 -0.33437060597185819 0 -0.22400526943561219 -0.33437060597185819 0 -0.2157028969093949 -0.33939929488062398 0 -0.21844896312676579 -0.34598834104651321 0 -0.222501355355848 -0.34715916368403449 0 -0.22400526943561219 -0.33437060597185819 0 -0.21844896312676579 -0.34598834104651321 0 -0.2157028969093949 -0.33939929488062398 0 -0.21269766834566251 -0.33199190053260519 0 -0.20792947345420421 -0.34126337039777049 0 -0.20792947345420421 -0.34126337039777049 0 -0.1995489293832122 -0.32002711488761798 0 -0.21269766834566251 -0.33199190053260519 0 -0.20792947345420421 -0.34126337039777049 0 -0.1995489293832122 -0.32002711488761798 0 -0.2157028969093949 -0.33939929488062398 0 -0.20792947345420421 -0.34126337039777049 0 -0.21095219968641071 -0.34967378105997993 0 -0.22400526943561219 -0.33437060597185819 0 -0.2157028969093949 -0.33939929488062398 0 -0.21269766834566251 -0.33199190053260519 0 -0.21269766834566251 -0.33199190053260519 0 -0.21400288094958531 -0.3120225518189067 0 -0.21269766834566251 -0.33199190053260519 0 -0.20836938223298801 -0.31911393157655882 0 -0.21400288094958531 -0.3120225518189067 0 -0.22400526943561219 -0.33437060597185819 0 -0.21269766834566251 -0.33199190053260519 0 -0.21400288094958531 -0.3120225518189067 0 -0.21269766834566251 -0.33199190053260519 0 -0.20836938223298801 -0.31911393157655882 0 -0.1995489293832122 -0.32002711488761798 0 -0.20836938223298801 -0.31911393157655882 0 -0.1995489293832122 -0.32002711488761798 0 -0.20722805025349211 -0.3124141590671054 0 -0.20836938223298801 -0.31911393157655882 0 -0.21400288094958531 -0.3120225518189067 0 -0.20722805025349211 -0.3124141590671054 0 -0.1995489293832122 -0.32002711488761798 0 -0.20722805025349211 -0.3124141590671054 0 -0.20241517915144019 -0.30531199331900338 0 -0.1995489293832122 -0.32002711488761798 0 -0.19252385077792711 -0.32678763432960872 0 -0.20184472672778631 -0.33441799404765832 0 -0.1995489293832122 -0.32002711488761798 0 -0.19252385077792711 -0.32678763432960872 0 -0.1898923753458138 -0.31436044305663358 0 -0.19252385077792711 -0.32678763432960872 0 -0.1898923753458138 -0.31436044305663358 0 -0.1810778160547192 -0.31820705886260681 0 -0.20792947345420421 -0.34126337039777049 0 -0.1995489293832122 -0.32002711488761798 0 -0.20184472672778631 -0.33441799404765832 0 -0.20184472672778631 -0.33441799404765832 0 -0.19394052585453811 -0.34059146228093939 0 -0.19911694290360851 -0.34998486376821308 0 -0.20792947345420421 -0.34126337039777049 0 -0.20184472672778631 -0.33441799404765832 0 -0.19911694290360851 -0.34998486376821308 0 -0.20184472672778631 -0.33441799404765832 0 -0.19911694290360851 -0.34998486376821308 0 -0.20184472672778631 -0.33441799404765832 0 -0.19363827476852721 -0.3341425119588603 0 -0.19394052585453811 -0.34059146228093939 0 -0.19252385077792711 -0.32678763432960872 0 -0.20184472672778631 -0.33441799404765832 0 -0.19363827476852721 -0.3341425119588603 0 -0.19252385077792711 -0.32678763432960872 0 -0.19363827476852721 -0.3341425119588603 0 -0.18472752256866559 -0.33535830250008047 0 -0.19363827476852721 -0.3341425119588603 0 -0.19394052585453811 -0.34059146228093939 0 -0.18472752256866559 -0.33535830250008047 0 -0.19394052585453811 -0.34059146228093939 0 -0.19014954214004839 -0.34773098913117129 0 -0.18472752256866559 -0.33535830250008047 0 -0.19394052585453811 -0.34059146228093939 0 -0.19014954214004839 -0.34773098913117129 0 -0.19911694290360851 -0.34998486376821308 0 -0.19014954214004839 -0.34773098913117129 0 -0.19202838559735191 -0.35676516505434452 0 -0.18167389794407099 -0.3483481685820764 0 -0.19014954214004839 -0.34773098913117129 0 -0.19911694290360851 -0.34998486376821308 0 -0.19202838559735191 -0.35676516505434452 0 -0.19911694290360851 -0.34998486376821308 0 -0.19638915907943039 -0.3655517334887679 0 -0.20475837717335241 -0.35660952719748029 0 -0.19911694290360851 -0.34998486376821308 0 -0.19638915907943039 -0.3655517334887679 0 -0.19911694290360851 -0.34998486376821308 0 -0.19202838559735191 -0.35676516505434452 0 -0.19638915907943039 -0.3655517334887679 0 -0.1960577216937017 -0.36744317465006437 0 -0.19638915907943039 -0.3655517334887679 0 -0.21264310896355779 -0.37435056908747322 0 -0.19202838559735191 -0.35676516505434452 0 -0.19364822563722811 -0.36643968046649927 0 -0.19638915907943039 -0.3655517334887679 0 -0.19364822563722811 -0.36643968046649927 0 -0.19638915907943039 -0.3655517334887679 0 -0.19364822563722811 -0.36643968046649927 0 -0.1960577216937017 -0.36744317465006437 0 -0.18578745422329149 -0.37789984314695158 0 -0.19364822563722811 -0.36643968046649927 0 -0.1960577216937017 -0.36744317465006437 0 -0.19364822563722811 -0.36643968046649927 0 -0.1960577216937017 -0.36744317465006437 0 -0.19638915907943039 -0.3655517334887679 0 -0.1960577216937017 -0.36744317465006437 0 -0.19638915907943039 -0.3655517334887679 0 -0.1960577216937017 -0.36744317465006437 0 -0.21264310896355779 -0.37435056908747322 0 -0.22905537985001109 -0.35496925397264539 0 -0.21264310896355779 -0.37435056908747322 0 -0.2127222694647207 -0.36026049373070629 0 -0.19638915907943039 -0.3655517334887679 0 -0.2127222694647207 -0.36026049373070629 0 -0.19638915907943039 -0.3655517334887679 0 -0.2127222694647207 -0.36026049373070629 0 -0.20475837717335241 -0.35660952719748029 0 -0.19638915907943039 -0.3655517334887679 0 -0.21264310896355779 -0.37435056908747322 0 -0.2127222694647207 -0.36026049373070629 0 -0.2127222694647207 -0.36026049373070629 0 -0.21849580901100291 -0.35330845374512138 0 -0.21095219968641071 -0.34967378105997993 0 -0.21849580901100291 -0.35330845374512138 0 -0.21844896312676579 -0.34598834104651321 0 -0.21095219968641071 -0.34967378105997993 0 -0.2157028969093949 -0.33939929488062398 0 -0.21844896312676579 -0.34598834104651321 0 -0.21095219968641071 -0.34967378105997993 0 -0.20792947345420421 -0.34126337039777049 0 -0.19911694290360851 -0.34998486376821308 0 -0.21095219968641071 -0.34967378105997993 0 -0.19911694290360851 -0.34998486376821308 0 -0.21095219968641071 -0.34967378105997993 0 -0.20475837717335241 -0.35660952719748029 0 -0.2127222694647207 -0.36026049373070629 0 -0.21095219968641071 -0.34967378105997993 0 -0.20475837717335241 -0.35660952719748029 0 -0.23363617275768819 -0.25158402435266242 0 -0.2174564928687569 -0.25918335877984772 0 -0.22963896206648859 -0.24131919055517639 0 -0.23363617275768819 -0.25158402435266242 0 -0.23107988541657121 -0.26694915606070041 0 -0.2174564928687569 -0.25918335877984772 0 -0.23363617275768819 -0.25158402435266242 0 -0.24298331598586409 -0.25674069032871261 0 -0.24382227947229909 -0.24770150552419051 0 -0.25251589588023188 -0.25812427529212989 0 -0.24298331598586409 -0.25674069032871261 0 -0.2497529842214796 -0.25220111039885162 0 -0.24298331598586409 -0.25674069032871261 0 -0.2497529842214796 -0.25220111039885162 0 -0.24382227947229909 -0.24770150552419051 0 -0.2505573511965149 -0.26569685807797838 0 -0.25251589588023188 -0.25812427529212989 0 -0.24298331598586409 -0.25674069032871261 0 -0.2505573511965149 -0.26569685807797838 0 -0.24298331598586409 -0.25674069032871261 0 -0.24195739487408249 -0.26611329224564201 0 -0.23363617275768819 -0.25158402435266242 0 -0.24298331598586409 -0.25674069032871261 0 -0.23107988541657121 -0.26694915606070041 0 -0.24298331598586409 -0.25674069032871261 0 -0.24195739487408249 -0.26611329224564201 0 -0.23107988541657121 -0.26694915606070041 0 -0.2448528328091156 -0.27539806873421441 0 -0.23107988541657121 -0.26694915606070041 0 -0.2327615971073983 -0.28563533000162228 0 -0.24195739487408249 -0.26611329224564201 0 -0.2448528328091156 -0.27539806873421441 0 -0.23107988541657121 -0.26694915606070041 0 -0.2505573511965149 -0.26569685807797838 0 -0.24195739487408249 -0.26611329224564201 0 -0.2448528328091156 -0.27539806873421441 0 -0.23107988541657121 -0.26694915606070041 0 -0.2157296869091713 -0.28560295529937718 0 -0.2174564928687569 -0.25918335877984772 0 -0.23107988541657121 -0.26694915606070041 0 -0.2327615971073983 -0.28563533000162228 0 -0.2157296869091713 -0.28560295529937718 0 -0.2327615971073983 -0.28563533000162228 0 -0.22527267791449609 -0.29897083905357402 0 -0.2157296869091713 -0.28560295529937718 0 -0.2327615971073983 -0.28563533000162228 0 -0.2366200193636164 -0.30088488046210699 0 -0.22527267791449609 -0.29897083905357402 0 -0.2448528328091156 -0.27539806873421441 0 -0.2327615971073983 -0.28563533000162228 0 -0.24571051639519559 -0.28905741133308022 0 -0.25843579458272947 -0.28199527553847331 0 -0.2448528328091156 -0.27539806873421441 0 -0.24571051639519559 -0.28905741133308022 0 -0.2327615971073983 -0.28563533000162228 0 -0.24571051639519559 -0.28905741133308022 0 -0.2366200193636164 -0.30088488046210699 0 -0.25588233811311839 -0.30137350192898421 0 -0.24571051639519559 -0.28905741133308022 0 -0.2366200193636164 -0.30088488046210699 0 -0.25588233811311839 -0.30137350192898421 0 -0.23812722191089 -0.32397554996763572 0 -0.2366200193636164 -0.30088488046210699 0 -0.23812722191089 -0.32397554996763572 0 -0.2366200193636164 -0.30088488046210699 0 -0.2272492052427092 -0.31070847768585691 0 -0.2366200193636164 -0.30088488046210699 0 -0.2272492052427092 -0.31070847768585691 0 -0.22527267791449609 -0.29897083905357402 0 -0.2272492052427092 -0.31070847768585691 0 -0.22527267791449609 -0.29897083905357402 0 -0.21400288094958531 -0.3120225518189067 0 -0.21400288094958531 -0.3120225518189067 0 -0.2157296869091713 -0.28560295529937718 0 -0.22527267791449609 -0.29897083905357402 0 -0.21400288094958531 -0.3120225518189067 0 -0.2157296869091713 -0.28560295529937718 0 -0.21116343235254309 -0.30567845199716381 0 -0.21400288094958531 -0.3120225518189067 0 -0.2157296869091713 -0.28560295529937718 0 -0.21116343235254309 -0.30567845199716381 0 -0.21400288094958531 -0.3120225518189067 0 -0.21116343235254309 -0.30567845199716381 0 -0.20241517915144019 -0.30531199331900338 0 -0.20435787278669229 -0.29421667864221801 0 -0.21116343235254309 -0.30567845199716381 0 -0.20722805025349211 -0.3124141590671054 0 -0.20241517915144019 -0.30531199331900338 0 -0.21116343235254309 -0.30567845199716381 0 -0.21400288094958531 -0.3120225518189067 0 -0.20722805025349211 -0.3124141590671054 0 -0.1995489293832122 -0.32002711488761798 0 -0.19116838531222019 -0.29879085937746541 0 -0.1995489293832122 -0.32002711488761798 0 -0.20241517915144019 -0.30531199331900338 0 -0.19116838531222019 -0.29879085937746541 0 -0.1995489293832122 -0.32002711488761798 0 -0.1898923753458138 -0.31436044305663358 0 -0.19116838531222019 -0.29879085937746541 0 -0.1898923753458138 -0.31436044305663358 0 -0.19116838531222019 -0.29879085937746541 0 -0.1830186074957923 -0.30741442007565761 0 -0.20241517915144019 -0.30531199331900338 0 -0.19116838531222019 -0.29879085937746541 0 -0.20435787278669229 -0.29421667864221801 0 -0.19116838531222019 -0.29879085937746541 0 -0.20200806737356611 -0.277982781906357 0 -0.18278784124122821 -0.2775546038673129 0 -0.19116838531222019 -0.29879085937746541 0 -0.20435787278669229 -0.29421667864221801 0 -0.20200806737356611 -0.277982781906357 0 -0.2157296869091713 -0.28560295529937718 0 -0.20435787278669229 -0.29421667864221801 0 -0.20200806737356611 -0.277982781906357 0 -0.21116343235254309 -0.30567845199716381 0 -0.2157296869091713 -0.28560295529937718 0 -0.20435787278669229 -0.29421667864221801 0 -0.2157296869091713 -0.28560295529937718 0 -0.20200806737356611 -0.277982781906357 0 -0.2174564928687569 -0.25918335877984772 0 -0.20200806737356611 -0.277982781906357 0 -0.19648498718047261 -0.2598938503678061 0 -0.2174564928687569 -0.25918335877984772 0 -0.2157296869091713 -0.28560295529937718 0 -0.2174564928687569 -0.25918335877984772 0 -0.20200806737356611 -0.277982781906357 0 -0.19648498718047261 -0.2598938503678061 0 -0.18278784124122821 -0.2775546038673129 0 -0.19648498718047261 -0.2598938503678061 0 -0.17440729717023629 -0.2563183483571605 0 -0.19221211386711259 -0.24194809490021019 0 -0.19648498718047261 -0.2598938503678061 0 -0.2174564928687569 -0.25918335877984772 0 -0.20611919924340391 -0.2452313957486619 0 -0.1609838013676928 -0.25944558601030793 0 -0.14768051084269579 -0.25428255713799652 0 -0.16020994257011351 -0.2451737285806446 0 -0.1609838013676928 -0.25944558601030793 0 -0.17440729717023629 -0.2563183483571605 0 -0.16746909980702801 -0.26960395520529917 0 -0.1609838013676928 -0.25944558601030793 0 -0.17440729717023629 -0.2563183483571605 0 -0.16020994257011351 -0.2451737285806446 0 -0.19648498718047261 -0.2598938503678061 0 -0.17440729717023629 -0.2563183483571605 0 -0.18278784124122821 -0.2775546038673129 0 -0.17440729717023629 -0.2563183483571605 0 -0.18278784124122821 -0.2775546038673129 0 -0.16746909980702801 -0.26960395520529917 0 -0.18278784124122821 -0.2775546038673129 0 -0.16746909980702801 -0.26960395520529917 0 -0.1653730482237403 -0.28273565132151512 0 -0.17440729717023629 -0.2563183483571605 0 -0.18278784124122821 -0.2775546038673129 0 -0.1609838013676928 -0.25944558601030793 0 -0.16746909980702801 -0.26960395520529917 0 -0.1537935110322427 -0.27196558647019942 0 -0.16746909980702801 -0.26960395520529917 0 -0.1653730482237403 -0.28273565132151512 0 -0.1537935110322427 -0.27196558647019942 0 -0.16138255146732941 -0.29502333597278241 0 -0.1653730482237403 -0.28273565132151512 0 -0.14901683645165781 -0.28900850974254122 0 -0.16138255146732941 -0.29502333597278241 0 -0.1653730482237403 -0.28273565132151512 0 -0.17464037950682479 -0.29640025875598242 0 -0.19116838531222019 -0.29879085937746541 0 -0.18278784124122821 -0.2775546038673129 0 -0.18278784124122821 -0.2775546038673129 0 -0.1653730482237403 -0.28273565132151512 0 -0.17464037950682479 -0.29640025875598242 0 -0.19116838531222019 -0.29879085937746541 0 -0.18278784124122821 -0.2775546038673129 0 -0.17464037950682479 -0.29640025875598242 0 -0.19116838531222019 -0.29879085937746541 0 -0.17464037950682479 -0.29640025875598242 0 -0.1830186074957923 -0.30741442007565761 0 -0.17464037950682479 -0.29640025875598242 0 -0.1830186074957923 -0.30741442007565761 0 -0.17406550584898761 -0.30816322482517777 0 -0.1830186074957923 -0.30741442007565761 0 -0.17406550584898761 -0.30816322482517777 0 -0.1810778160547192 -0.31820705886260681 0 -0.17406550584898761 -0.30816322482517777 0 -0.1725022439191323 -0.31554379324599879 0 -0.16730810735910129 -0.31292447028650561 0 -0.17406550584898761 -0.30816322482517777 0 -0.16331774291930851 -0.30470887308945738 0 -0.16730810735910129 -0.31292447028650561 0 -0.17464037950682479 -0.29640025875598242 0 -0.17406550584898761 -0.30816322482517777 0 -0.16331774291930851 -0.30470887308945738 0 -0.16138255146732941 -0.29502333597278241 0 -0.17464037950682479 -0.29640025875598242 0 -0.16331774291930851 -0.30470887308945738 0 -0.16138255146732941 -0.29502333597278241 0 -0.16331774291930851 -0.30470887308945738 0 -0.15160538860354311 -0.30494230578398401 0 -0.16331774291930851 -0.30470887308945738 0 -0.1592035046114299 -0.31186405585854038 0 -0.16730810735910129 -0.31292447028650561 0 -0.16331774291930851 -0.30470887308945738 0 -0.1592035046114299 -0.31186405585854038 0 -0.15160538860354311 -0.30494230578398401 0 -0.15160538860354311 -0.30494230578398401 0 -0.14268066058263251 -0.29873695115094129 0 -0.14901683645165781 -0.28900850974254122 0 -0.1592035046114299 -0.31186405585854038 0 -0.15160538860354311 -0.30494230578398401 0 -0.1523438774499061 -0.31359116474145732 0 -0.15160538860354311 -0.30494230578398401 0 -0.14268066058263251 -0.29873695115094129 0 -0.14115708325134049 -0.30864117420015508 0 -0.15160538860354311 -0.30494230578398401 0 -0.14115708325134049 -0.30864117420015508 0 -0.1523438774499061 -0.31359116474145732 0 -0.13154007170172999 -0.28904253058189561 0 -0.1334915056615506 -0.31543468348756382 0 -0.12302680567365459 -0.3029402217818149 0 -0.13154007170172999 -0.28904253058189561 0 -0.1334915056615506 -0.31543468348756382 0 -0.14115708325134049 -0.30864117420015508 0 -0.13154007170172999 -0.28904253058189561 0 -0.1334915056615506 -0.31543468348756382 0 -0.14268066058263251 -0.29873695115094129 0 -0.14115708325134049 -0.30864117420015508 0 -0.13154007170172999 -0.28904253058189561 0 -0.13154007170172999 -0.28904253058189561 0 -0.14901683645165781 -0.28900850974254122 0 -0.1418426312942162 -0.27780782144691463 0 -0.14268066058263251 -0.29873695115094129 0 -0.13154007170172999 -0.28904253058189561 0 -0.14901683645165781 -0.28900850974254122 0 -0.16138255146732941 -0.29502333597278241 0 -0.15160538860354311 -0.30494230578398401 0 -0.14901683645165781 -0.28900850974254122 0 -0.14901683645165781 -0.28900850974254122 0 -0.1537935110322427 -0.27196558647019942 0 -0.1418426312942162 -0.27780782144691463 0 -0.1653730482237403 -0.28273565132151512 0 -0.14901683645165781 -0.28900850974254122 0 -0.1537935110322427 -0.27196558647019942 0 -0.1537935110322427 -0.27196558647019942 0 -0.14275678427465471 -0.26607186438683139 0 -0.1418426312942162 -0.27780782144691463 0 -0.13154007170172999 -0.28904253058189561 0 -0.12958863774190951 -0.26265037767622729 0 -0.1237907433450408 -0.27190828871300787 0 -0.13154007170172999 -0.28904253058189561 0 -0.1418426312942162 -0.27780782144691463 0 -0.1324903003465443 -0.26577057386494779 0 -0.13154007170172999 -0.28904253058189561 0 -0.1324903003465443 -0.26577057386494779 0 -0.12958863774190951 -0.26265037767622729 0 -0.13154007170172999 -0.28904253058189561 0 -0.12958863774190951 -0.26265037767622729 0 -0.12958863774190951 -0.26265037767622729 0 -0.12276414117456309 -0.26522023297836478 0 -0.1237907433450408 -0.27190828871300787 0 -0.14275678427465471 -0.26607186438683139 0 -0.1418426312942162 -0.27780782144691463 0 -0.1324903003465443 -0.26577057386494779 0 -0.1324903003465443 -0.26577057386494779 0 -0.1387510265344509 -0.25915203581971707 0 -0.13207651067390849 -0.25048314788909232 0 -0.14275678427465471 -0.26607186438683139 0 -0.1324903003465443 -0.26577057386494779 0 -0.1387510265344509 -0.25915203581971707 0 -0.1324903003465443 -0.26577057386494779 0 -0.12958863774190951 -0.26265037767622729 0 -0.12896030181799739 -0.25415245352329358 0 -0.1324903003465443 -0.26577057386494779 0 -0.13207651067390849 -0.25048314788909232 0 -0.12958863774190951 -0.26265037767622729 0 -0.12896030181799739 -0.25415245352329358 0 -0.1324903003465443 -0.26577057386494779 0 -0.12896030181799739 -0.25415245352329358 0 -0.13207651067390849 -0.25048314788909232 0 -0.12958863774190951 -0.26265037767622729 0 -0.12896030181799739 -0.25415245352329358 0 -0.1201488900900636 -0.25008013106566529 0 -0.12896030181799739 -0.25415245352329358 0 -0.13207651067390849 -0.25048314788909232 0 -0.1387510265344509 -0.25915203581971707 0 -0.13207651067390849 -0.25048314788909232 0 -0.14768051084269579 -0.25428255713799652 0 -0.1609838013676928 -0.25944558601030793 0 -0.1537935110322427 -0.27196558647019942 0 -0.14768051084269579 -0.25428255713799652 0 -0.1537935110322427 -0.27196558647019942 0 -0.14275678427465471 -0.26607186438683139 0 -0.14768051084269579 -0.25428255713799652 0 -0.14275678427465471 -0.26607186438683139 0 -0.1387510265344509 -0.25915203581971707 0 -0.14768051084269579 -0.25428255713799652 0 -0.1716329888238517 -0.35727089098761577 0 -0.16793210287845639 -0.34443772696102531 0 -0.14961775201047531 -0.34810210150873228 0 -0.16793210287845639 -0.34443772696102531 0 -0.158204748123071 -0.33874103679002843 0 -0.14961775201047531 -0.34810210150873228 0 -0.1716329888238517 -0.35727089098761577 0 -0.14961775201047531 -0.34810210150873228 0 -0.1541533386182341 -0.36537714595141813 0 -0.1716329888238517 -0.35727089098761577 0 -0.14961775201047531 -0.34810210150873228 0 -0.1716329888238517 -0.35727089098761577 0 -0.17044073136899579 -0.37395793102994551 0 -0.1541533386182341 -0.36537714595141813 0 -0.1472332371007635 -0.38147618159339181 0 -0.17044073136899579 -0.37395793102994551 0 -0.1541533386182341 -0.36537714595141813 0 -0.18578745422329149 -0.37789984314695158 0 -0.19364822563722811 -0.36643968046649927 0 -0.17044073136899579 -0.37395793102994551 0 -0.19364822563722811 -0.36643968046649927 0 -0.1716329888238517 -0.35727089098761577 0 -0.17044073136899579 -0.37395793102994551 0 -0.19364822563722811 -0.36643968046649927 0 -0.1716329888238517 -0.35727089098761577 0 -0.19202838559735191 -0.35676516505434452 0 -0.19364822563722811 -0.36643968046649927 0 -0.1716329888238517 -0.35727089098761577 0 -0.19364822563722811 -0.36643968046649927 0 -0.17044073136899579 -0.37395793102994551 0 -0.19202838559735191 -0.35676516505434452 0 -0.1716329888238517 -0.35727089098761577 0 -0.18167389794407099 -0.3483481685820764 0 -0.16793210287845639 -0.34443772696102531 0 -0.18167389794407099 -0.3483481685820764 0 -0.17701711132301021 -0.34090891384965077 0 -0.1716329888238517 -0.35727089098761577 0 -0.16793210287845639 -0.34443772696102531 0 -0.18167389794407099 -0.3483481685820764 0 -0.19014954214004839 -0.34773098913117129 0 -0.18167389794407099 -0.3483481685820764 0 -0.18472752256866559 -0.33535830250008047 0 -0.18472752256866559 -0.33535830250008047 0 -0.1675575464137212 -0.32288041900970549 0 -0.16365938230909019 -0.32716575309494211 0 -0.19252385077792711 -0.32678763432960872 0 -0.18472752256866559 -0.33535830250008047 0 -0.1675575464137212 -0.32288041900970549 0 -0.18472752256866559 -0.33535830250008047 0 -0.16365938230909019 -0.32716575309494211 0 -0.18472752256866559 -0.33535830250008047 0 -0.17701711132301021 -0.34090891384965077 0 -0.16829938551812401 -0.33616940879992407 0 -0.18472752256866559 -0.33535830250008047 0 -0.16365938230909019 -0.32716575309494211 0 -0.16829938551812401 -0.33616940879992407 0 -0.18167389794407099 -0.3483481685820764 0 -0.18472752256866559 -0.33535830250008047 0 -0.17701711132301021 -0.34090891384965077 0 -0.19252385077792711 -0.32678763432960872 0 -0.1675575464137212 -0.32288041900970549 0 -0.19252385077792711 -0.32678763432960872 0 -0.1810778160547192 -0.31820705886260681 0 -0.1675575464137212 -0.32288041900970549 0 -0.1898923753458138 -0.31436044305663358 0 -0.1830186074957923 -0.30741442007565761 0 -0.1810778160547192 -0.31820705886260681 0 -0.1810778160547192 -0.31820705886260681 0 -0.1725022439191323 -0.31554379324599879 0 -0.1675575464137212 -0.32288041900970549 0 -0.17406550584898761 -0.30816322482517777 0 -0.1810778160547192 -0.31820705886260681 0 -0.1725022439191323 -0.31554379324599879 0 -0.1675575464137212 -0.32288041900970549 0 -0.16365938230909019 -0.32716575309494211 0 -0.1425912420495152 -0.31897320368980298 0 -0.1725022439191323 -0.31554379324599879 0 -0.16730810735910129 -0.31292447028650561 0 -0.1675575464137212 -0.32288041900970549 0 -0.1592035046114299 -0.31186405585854038 0 -0.16730810735910129 -0.31292447028650561 0 -0.1675575464137212 -0.32288041900970549 0 -0.1592035046114299 -0.31186405585854038 0 -0.1675575464137212 -0.32288041900970549 0 -0.1523438774499061 -0.31359116474145732 0 -0.16793210287845639 -0.34443772696102531 0 -0.16829938551812401 -0.33616940879992407 0 -0.158204748123071 -0.33874103679002843 0 -0.16793210287845639 -0.34443772696102531 0 -0.17701711132301021 -0.34090891384965077 0 -0.16829938551812401 -0.33616940879992407 0 -0.16829938551812401 -0.33616940879992407 0 -0.158204748123071 -0.33874103679002843 0 -0.15439501741920891 -0.33107166331860299 0 -0.16365938230909019 -0.32716575309494211 0 -0.16829938551812401 -0.33616940879992407 0 -0.15439501741920891 -0.33107166331860299 0 -0.158204748123071 -0.33874103679002843 0 -0.14992033606063401 -0.33613243481116778 0 -0.14961775201047531 -0.34810210150873228 0 -0.158204748123071 -0.33874103679002843 0 -0.14992033606063401 -0.33613243481116778 0 -0.15439501741920891 -0.33107166331860299 0 -0.14992033606063401 -0.33613243481116778 0 -0.15439501741920891 -0.33107166331860299 0 -0.14369501045481919 -0.32924814272575409 0 -0.14992033606063401 -0.33613243481116778 0 -0.14369501045481919 -0.32924814272575409 0 -0.1410765312828739 -0.33642525532779949 0 -0.14992033606063401 -0.33613243481116778 0 -0.1410765312828739 -0.33642525532779949 0 -0.14961775201047531 -0.34810210150873228 0 -0.16365938230909019 -0.32716575309494211 0 -0.15439501741920891 -0.33107166331860299 0 -0.1425912420495152 -0.31897320368980298 0 -0.16365938230909019 -0.32716575309494211 0 -0.1425912420495152 -0.31897320368980298 0 -0.1675575464137212 -0.32288041900970549 0 -0.1523438774499061 -0.31359116474145732 0 -0.1425912420495152 -0.31897320368980298 0 -0.1675575464137212 -0.32288041900970549 0 -0.1425912420495152 -0.31897320368980298 0 -0.14369501045481919 -0.32924814272575409 0 -0.1425912420495152 -0.31897320368980298 0 -0.13862074271843039 -0.32387637114586271 0 -0.15439501741920891 -0.33107166331860299 0 -0.14369501045481919 -0.32924814272575409 0 -0.1425912420495152 -0.31897320368980298 0 -0.14115708325134049 -0.30864117420015508 0 -0.1523438774499061 -0.31359116474145732 0 -0.1425912420495152 -0.31897320368980298 0 -0.1425912420495152 -0.31897320368980298 0 -0.1334915056615506 -0.31543468348756382 0 -0.13364967567804489 -0.31757385260440191 0 -0.1425912420495152 -0.31897320368980298 0 -0.1334915056615506 -0.31543468348756382 0 -0.14115708325134049 -0.30864117420015508 0 -0.1425912420495152 -0.31897320368980298 0 -0.1334915056615506 -0.31543468348756382 0 -0.1425912420495152 -0.31897320368980298 0 -0.13364967567804489 -0.31757385260440191 0 -0.1425912420495152 -0.31897320368980298 0 -0.13364967567804489 -0.31757385260440191 0 -0.13862074271843039 -0.32387637114586271 0 -0.1334915056615506 -0.31543468348756382 0 -0.13364967567804489 -0.31757385260440191 0 -0.13364967567804489 -0.31757385260440191 0 -0.13862074271843039 -0.32387637114586271 0 -0.13454704269134221 -0.32971028556349458 0 -0.14369501045481919 -0.32924814272575409 0 -0.13862074271843039 -0.32387637114586271 0 -0.13454704269134221 -0.32971028556349458 0 -0.13364967567804489 -0.31757385260440191 0 -0.13454704269134221 -0.32971028556349458 0 -0.13364967567804489 -0.31757385260440191 0 -0.12827220566853911 -0.32632970255134158 0 -0.1185952784527774 -0.32261577435500272 0 -0.13364967567804489 -0.31757385260440191 0 -0.12827220566853911 -0.32632970255134158 0 -0.13454704269134221 -0.32971028556349458 0 -0.1410765312828739 -0.33642525532779949 0 -0.12760251519709889 -0.33893331202984872 0 -0.14961775201047531 -0.34810210150873228 0 -0.12760251519709889 -0.33893331202984872 0 -0.14961775201047531 -0.34810210150873228 0 -0.1410765312828739 -0.33642525532779949 0 -0.13454704269134221 -0.32971028556349458 0 -0.12760251519709889 -0.33893331202984872 0 -0.14369501045481919 -0.32924814272575409 0 -0.1410765312828739 -0.33642525532779949 0 -0.13454704269134221 -0.32971028556349458 0 -0.12827220566853911 -0.32632970255134158 0 -0.13454704269134221 -0.32971028556349458 0 -0.12760251519709889 -0.33893331202984872 0 -0.12760251519709889 -0.33893331202984872 0 -0.12560740073502161 -0.35173558238620162 0 -0.14961775201047531 -0.34810210150873228 0 -0.12560740073502161 -0.35173558238620162 0 -0.14961775201047531 -0.34810210150873228 0 -0.13184198378708389 -0.36607862463740531 0 -0.1472332371007635 -0.38147618159339181 0 -0.1541533386182341 -0.36537714595141813 0 -0.13184198378708389 -0.36607862463740531 0 -0.14961775201047531 -0.34810210150873228 0 -0.1541533386182341 -0.36537714595141813 0 -0.13184198378708389 -0.36607862463740531 0 -0.12560740073502161 -0.35173558238620162 0 -0.13184198378708389 -0.36607862463740531 0 -0.10852250058293821 -0.36094790182171749 0 -0.13184198378708389 -0.36607862463740531 0 -0.10852250058293821 -0.36094790182171749 0 -0.1136836432202615 -0.37941280123382082 0 -0.096671992026033091 -0.374153878706599 0 -0.10852250058293821 -0.36094790182171749 0 -0.088198263330623486 -0.36134042769114483 0 -0.096671992026033091 -0.374153878706599 0 -0.10852250058293821 -0.36094790182171749 0 -0.1136836432202615 -0.37941280123382082 0 -0.10852250058293821 -0.36094790182171749 0 -0.09569612090851741 -0.34727987288104711 0 -0.088198263330623486 -0.36134042769114483 0 -0.10852250058293821 -0.36094790182171749 0 -0.09569612090851741 -0.34727987288104711 0 -0.1104522520975118 -0.34461597193330379 0 -0.12560740073502161 -0.35173558238620162 0 -0.10852250058293821 -0.36094790182171749 0 -0.1104522520975118 -0.34461597193330379 0 -0.12760251519709889 -0.33893331202984872 0 -0.12560740073502161 -0.35173558238620162 0 -0.1104522520975118 -0.34461597193330379 0 -0.12760251519709889 -0.33893331202984872 0 -0.10558727838372239 -0.32976452255096511 0 -0.12760251519709889 -0.33893331202984872 0 -0.1104522520975118 -0.34461597193330379 0 -0.10558727838372239 -0.32976452255096511 0 -0.12760251519709889 -0.33893331202984872 0 -0.1185952784527774 -0.32261577435500272 0 -0.10558727838372239 -0.32976452255096511 0 -0.12827220566853911 -0.32632970255134158 0 -0.12760251519709889 -0.33893331202984872 0 -0.1185952784527774 -0.32261577435500272 0 -0.13364967567804489 -0.31757385260440191 0 -0.1058586280479005 -0.31322456624336592 0 -0.1334915056615506 -0.31543468348756382 0 -0.13364967567804489 -0.31757385260440191 0 -0.1058586280479005 -0.31322456624336592 0 -0.13364967567804489 -0.31757385260440191 0 -0.1185952784527774 -0.32261577435500272 0 -0.1058586280479005 -0.31322456624336592 0 -0.1185952784527774 -0.32261577435500272 0 -0.1074709749459017 -0.32164103496671481 0 -0.10558727838372239 -0.32976452255096511 0 -0.1185952784527774 -0.32261577435500272 0 -0.1058586280479005 -0.31322456624336592 0 -0.1074709749459017 -0.32164103496671481 0 -0.1058586280479005 -0.31322456624336592 0 -0.1074709749459017 -0.32164103496671481 0 -0.098713437764221701 -0.32306030554819593 0 -0.1074709749459017 -0.32164103496671481 0 -0.098713437764221701 -0.32306030554819593 0 -0.10558727838372239 -0.32976452255096511 0 -0.098713437764221701 -0.32306030554819593 0 -0.10558727838372239 -0.32976452255096511 0 -0.095288145773074678 -0.33104590138430212 0 -0.098713437764221701 -0.32306030554819593 0 -0.095288145773074678 -0.33104590138430212 0 -0.088884300539754768 -0.32345795032561481 0 -0.1058586280479005 -0.31322456624336592 0 -0.098713437764221701 -0.32306030554819593 0 -0.09056931562317809 -0.31726444479132421 0 -0.09569612090851741 -0.34727987288104711 0 -0.095288145773074678 -0.33104590138430212 0 -0.10150849730246821 -0.33901169018726751 0 -0.09569612090851741 -0.34727987288104711 0 -0.1104522520975118 -0.34461597193330379 0 -0.10150849730246821 -0.33901169018726751 0 -0.1104522520975118 -0.34461597193330379 0 -0.10558727838372239 -0.32976452255096511 0 -0.10150849730246821 -0.33901169018726751 0 -0.10558727838372239 -0.32976452255096511 0 -0.095288145773074678 -0.33104590138430212 0 -0.10150849730246821 -0.33901169018726751 0 -0.09569612090851741 -0.34727987288104711 0 -0.095288145773074678 -0.33104590138430212 0 -0.076152364619844565 -0.34539672097830398 0 -0.095288145773074678 -0.33104590138430212 0 -0.078279232598824758 -0.32807736214335781 0 -0.076152364619844565 -0.34539672097830398 0 -0.095288145773074678 -0.33104590138430212 0 -0.076152364619844565 -0.34539672097830398 0 -0.095288145773074678 -0.33104590138430212 0 -0.088884300539754768 -0.32345795032561481 0 -0.078279232598824758 -0.32807736214335781 0 -0.1058586280479005 -0.31322456624336592 0 -0.09056931562317809 -0.31726444479132421 0 -0.078067580417755869 -0.30887527988233199 0 -0.09056931562317809 -0.31726444479132421 0 -0.088884300539754768 -0.32345795032561481 0 -0.0815642665087008 -0.31941140708951382 0 -0.098713437764221701 -0.32306030554819593 0 -0.09056931562317809 -0.31726444479132421 0 -0.088884300539754768 -0.32345795032561481 0 -0.088884300539754768 -0.32345795032561481 0 -0.078279232598824758 -0.32807736214335781 0 -0.0815642665087008 -0.31941140708951382 0 -0.09056931562317809 -0.31726444479132421 0 -0.0815642665087008 -0.31941140708951382 0 -0.078067580417755869 -0.30887527988233199 0 -0.078279232598824758 -0.32807736214335781 0 -0.072020903363990502 -0.31938199830494018 0 -0.061304006860722862 -0.32680495784232372 0 -0.072020903363990502 -0.31938199830494018 0 -0.078067580417755869 -0.30887527988233199 0 -0.060882326003174433 -0.31531065389579349 0 -0.0815642665087008 -0.31941140708951382 0 -0.072020903363990502 -0.31938199830494018 0 -0.078067580417755869 -0.30887527988233199 0 -0.078279232598824758 -0.32807736214335781 0 -0.0815642665087008 -0.31941140708951382 0 -0.072020903363990502 -0.31938199830494018 0 -0.072020903363990502 -0.31938199830494018 0 -0.060882326003174433 -0.31531065389579349 0 -0.061304006860722862 -0.32680495784232372 0 -0.078279232598824758 -0.32807736214335781 0 -0.063489367408723657 -0.34123591865820962 0 -0.061304006860722862 -0.32680495784232372 0 -0.078279232598824758 -0.32807736214335781 0 -0.063489367408723657 -0.34123591865820962 0 -0.076152364619844565 -0.34539672097830398 0 -0.063489367408723657 -0.34123591865820962 0 -0.076152364619844565 -0.34539672097830398 0 -0.057321813797732123 -0.3561000609094796 0 -0.076152364619844565 -0.34539672097830398 0 -0.057016583466611509 -0.3597475405723019 0 -0.076152364619844565 -0.34539672097830398 0 -0.057016583466611509 -0.3597475405723019 0 -0.057321813797732123 -0.3561000609094796 0 -0.076152364619844565 -0.34539672097830398 0 -0.072992681153778008 -0.36270566959079792 0 -0.057016583466611509 -0.3597475405723019 0 -0.065846655124202277 -0.37224329178737109 0 -0.072992681153778008 -0.36270566959079792 0 -0.057016583466611509 -0.3597475405723019 0 -0.065846655124202277 -0.37224329178737109 0 -0.072992681153778008 -0.36270566959079792 0 -0.079257401346482723 -0.37671650155312641 0 -0.072992681153778008 -0.36270566959079792 0 -0.088198263330623486 -0.36134042769114483 0 -0.079257401346482723 -0.37671650155312641 0 -0.096671992026033091 -0.374153878706599 0 -0.088198263330623486 -0.36134042769114483 0 -0.079257401346482723 -0.37671650155312641 0 -0.076152364619844565 -0.34539672097830398 0 -0.072992681153778008 -0.36270566959079792 0 -0.088198263330623486 -0.36134042769114483 0 -0.09569612090851741 -0.34727987288104711 0 -0.076152364619844565 -0.34539672097830398 0 -0.088198263330623486 -0.36134042769114483 0 -0.10217223929686139 -0.25326639019209451 0 -0.092090952296779632 -0.25724559411557713 0 -0.094660834490162576 -0.24584606288603569 0 -0.10209405843009289 -0.260963873182745 0 -0.10217223929686139 -0.25326639019209451 0 -0.092090952296779632 -0.25724559411557713 0 -0.10209405843009289 -0.260963873182745 0 -0.09781330731838711 -0.26756169198024682 0 -0.092090952296779632 -0.25724559411557713 0 -0.10209405843009289 -0.260963873182745 0 -0.1096895172462215 -0.26181560955162309 0 -0.10791225782567659 -0.27093381755294299 0 -0.10209405843009289 -0.260963873182745 0 -0.10217223929686139 -0.25326639019209451 0 -0.1096895172462215 -0.26181560955162309 0 -0.10217223929686139 -0.25326639019209451 0 -0.1109921256463052 -0.25224745320341441 0 -0.1096895172462215 -0.26181560955162309 0 -0.1109921256463052 -0.25224745320341441 0 -0.1201488900900636 -0.25008013106566529 0 -0.1145805210548668 -0.25782545508817378 0 -0.1109921256463052 -0.25224745320341441 0 -0.1145805210548668 -0.25782545508817378 0 -0.1096895172462215 -0.26181560955162309 0 -0.1201488900900636 -0.25008013106566529 0 -0.1207403428949461 -0.26007566873944571 0 -0.1145805210548668 -0.25782545508817378 0 -0.12958863774190951 -0.26265037767622729 0 -0.1201488900900636 -0.25008013106566529 0 -0.1207403428949461 -0.26007566873944571 0 -0.12958863774190951 -0.26265037767622729 0 -0.12276414117456309 -0.26522023297836478 0 -0.1207403428949461 -0.26007566873944571 0 -0.1207403428949461 -0.26007566873944571 0 -0.1145805210548668 -0.25782545508817378 0 -0.11693684071635591 -0.26624659678477841 0 -0.12276414117456309 -0.26522023297836478 0 -0.1207403428949461 -0.26007566873944571 0 -0.11693684071635591 -0.26624659678477841 0 -0.1145805210548668 -0.25782545508817378 0 -0.1096895172462215 -0.26181560955162309 0 -0.11693684071635591 -0.26624659678477841 0 -0.11693684071635591 -0.26624659678477841 0 -0.1180468378001238 -0.27793197019876009 0 -0.10791225782567659 -0.27093381755294299 0 -0.13154007170172999 -0.28904253058189561 0 -0.1237907433450408 -0.27190828871300787 0 -0.1180468378001238 -0.27793197019876009 0 -0.1096895172462215 -0.26181560955162309 0 -0.11693684071635591 -0.26624659678477841 0 -0.10791225782567659 -0.27093381755294299 0 -0.11693684071635591 -0.26624659678477841 0 -0.1237907433450408 -0.27190828871300787 0 -0.1180468378001238 -0.27793197019876009 0 -0.12276414117456309 -0.26522023297836478 0 -0.11693684071635591 -0.26624659678477841 0 -0.1237907433450408 -0.27190828871300787 0 -0.1180468378001238 -0.27793197019876009 0 -0.10791225782567659 -0.27093381755294299 0 -0.11016662643441159 -0.28270403882378198 0 -0.10791225782567659 -0.27093381755294299 0 -0.1013404901128714 -0.27989779913835039 0 -0.11016662643441159 -0.28270403882378198 0 -0.10791225782567659 -0.27093381755294299 0 -0.09781330731838711 -0.26756169198024682 0 -0.1013404901128714 -0.27989779913835039 0 -0.10209405843009289 -0.260963873182745 0 -0.10791225782567659 -0.27093381755294299 0 -0.09781330731838711 -0.26756169198024682 0 -0.09781330731838711 -0.26756169198024682 0 -0.094146766062896819 -0.27511950776256427 0 -0.089852732377628503 -0.26539620480421833 0 -0.094146766062896819 -0.27511950776256427 0 -0.1013404901128714 -0.27989779913835039 0 -0.090463019887977947 -0.28393479494824031 0 -0.09781330731838711 -0.26756169198024682 0 -0.094146766062896819 -0.27511950776256427 0 -0.1013404901128714 -0.27989779913835039 0 -0.10155803965067151 -0.28828942847602068 0 -0.095728543053857654 -0.29432960563981081 0 -0.090463019887977947 -0.28393479494824031 0 -0.1013404901128714 -0.27989779913835039 0 -0.10155803965067151 -0.28828942847602068 0 -0.090463019887977947 -0.28393479494824031 0 -0.10155803965067151 -0.28828942847602068 0 -0.095728543053857654 -0.29432960563981081 0 -0.10542073743660151 -0.29528424451880853 0 -0.10155803965067151 -0.28828942847602068 0 -0.10542073743660151 -0.29528424451880853 0 -0.1101399379996833 -0.29136203047150228 0 -0.10155803965067151 -0.28828942847602068 0 -0.11016662643441159 -0.28270403882378198 0 -0.1101399379996833 -0.29136203047150228 0 -0.1013404901128714 -0.27989779913835039 0 -0.10155803965067151 -0.28828942847602068 0 -0.11016662643441159 -0.28270403882378198 0 -0.1180468378001238 -0.27793197019876009 0 -0.11016662643441159 -0.28270403882378198 0 -0.1184278942635318 -0.29016783030971949 0 -0.11016662643441159 -0.28270403882378198 0 -0.1184278942635318 -0.29016783030971949 0 -0.1101399379996833 -0.29136203047150228 0 -0.13154007170172999 -0.28904253058189561 0 -0.1180468378001238 -0.27793197019876009 0 -0.1184278942635318 -0.29016783030971949 0 -0.1184278942635318 -0.29016783030971949 0 -0.1128068118589567 -0.29735736568959398 0 -0.12302680567365459 -0.3029402217818149 0 -0.13154007170172999 -0.28904253058189561 0 -0.1184278942635318 -0.29016783030971949 0 -0.12302680567365459 -0.3029402217818149 0 -0.1184278942635318 -0.29016783030971949 0 -0.1101399379996833 -0.29136203047150228 0 -0.1128068118589567 -0.29735736568959398 0 -0.10542073743660151 -0.29528424451880853 0 -0.1101399379996833 -0.29136203047150228 0 -0.1128068118589567 -0.29735736568959398 0 -0.1334915056615506 -0.31543468348756382 0 -0.1058586280479005 -0.31322456624336592 0 -0.10687035461983831 -0.30508279231711471 0 -0.1334915056615506 -0.31543468348756382 0 -0.10687035461983831 -0.30508279231711471 0 -0.1334915056615506 -0.31543468348756382 0 -0.12302680567365459 -0.3029402217818149 0 -0.10687035461983831 -0.30508279231711471 0 -0.1128068118589567 -0.29735736568959398 0 -0.12302680567365459 -0.3029402217818149 0 -0.10687035461983831 -0.30508279231711471 0 -0.1058586280479005 -0.31322456624336592 0 -0.10687035461983831 -0.30508279231711471 0 -0.078067580417755869 -0.30887527988233199 0 -0.095728543053857654 -0.29432960563981081 0 -0.10687035461983831 -0.30508279231711471 0 -0.080249203578126038 -0.29473090114666572 0 -0.095728543053857654 -0.29432960563981081 0 -0.10542073743660151 -0.29528424451880853 0 -0.10687035461983831 -0.30508279231711471 0 -0.10542073743660151 -0.29528424451880853 0 -0.1128068118589567 -0.29735736568959398 0 -0.10687035461983831 -0.30508279231711471 0 -0.10687035461983831 -0.30508279231711471 0 -0.080249203578126038 -0.29473090114666572 0 -0.10687035461983831 -0.30508279231711471 0 -0.078067580417755869 -0.30887527988233199 0 -0.080249203578126038 -0.29473090114666572 0 -0.1058586280479005 -0.31322456624336592 0 -0.078067580417755869 -0.30887527988233199 0 -0.078067580417755869 -0.30887527988233199 0 -0.050276532787611239 -0.30452599352129822 0 -0.078067580417755869 -0.30887527988233199 0 -0.068530137175499301 -0.30016379286076161 0 -0.050276532787611239 -0.30452599352129822 0 -0.078067580417755869 -0.30887527988233199 0 -0.050276532787611239 -0.30452599352129822 0 -0.060882326003174433 -0.31531065389579349 0 -0.078067580417755869 -0.30887527988233199 0 -0.068530137175499301 -0.30016379286076161 0 -0.080249203578126038 -0.29473090114666572 0 -0.076313370799049235 -0.28210391776853938 0 -0.080249203578126038 -0.29473090114666572 0 -0.061828968513657927 -0.28912082368160441 0 -0.068530137175499301 -0.30016379286076161 0 -0.080249203578126038 -0.29473090114666572 0 -0.061828968513657927 -0.28912082368160441 0 -0.068530137175499301 -0.30016379286076161 0 -0.061828968513657927 -0.28912082368160441 0 -0.057768956981920007 -0.29660743357724872 0 -0.076313370799049235 -0.28210391776853938 0 -0.065991233379648295 -0.27919097374783342 0 -0.061828968513657927 -0.28912082368160441 0 -0.076313370799049235 -0.28210391776853938 0 -0.080249203578126038 -0.29473090114666572 0 -0.090463019887977947 -0.28393479494824031 0 -0.095728543053857654 -0.29432960563981081 0 -0.080249203578126038 -0.29473090114666572 0 -0.090463019887977947 -0.28393479494824031 0 -0.094146766062896819 -0.27511950776256427 0 -0.090463019887977947 -0.28393479494824031 0 -0.083904725958372978 -0.2730724047057308 0 -0.094146766062896819 -0.27511950776256427 0 -0.083904725958372978 -0.2730724047057308 0 -0.089852732377628503 -0.26539620480421833 0 -0.083904725958372978 -0.2730724047057308 0 -0.081924583117045049 -0.26148386366555038 0 -0.089852732377628503 -0.26539620480421833 0 -0.083904725958372978 -0.2730724047057308 0 -0.071292868598882078 -0.26962770892421728 0 -0.081924583117045049 -0.26148386366555038 0 -0.076313370799049235 -0.28210391776853938 0 -0.090463019887977947 -0.28393479494824031 0 -0.083904725958372978 -0.2730724047057308 0 -0.076313370799049235 -0.28210391776853938 0 -0.065991233379648295 -0.27919097374783342 0 -0.071292868598882078 -0.26962770892421728 0 -0.076313370799049235 -0.28210391776853938 0 -0.083904725958372978 -0.2730724047057308 0 -0.071292868598882078 -0.26962770892421728 0 -0.065991233379648295 -0.27919097374783342 0 -0.071292868598882078 -0.26962770892421728 0 -0.053424074425889798 -0.27352714867497963 0 -0.071292868598882078 -0.26962770892421728 0 -0.07173045084938745 -0.2555688281518918 0 -0.081924583117045049 -0.26148386366555038 0 -0.071292868598882078 -0.26962770892421728 0 -0.07173045084938745 -0.2555688281518918 0 -0.061994610046030567 -0.26010607421513898 0 -0.07173045084938745 -0.2555688281518918 0 -0.061994610046030567 -0.26010607421513898 0 -0.060439677568747477 -0.24743189389530029 0 -0.081924583117045049 -0.26148386366555038 0 -0.092090952296779632 -0.25724559411557713 0 -0.082719171835277869 -0.24852045636828471 0 -0.07173045084938745 -0.2555688281518918 0 -0.081924583117045049 -0.26148386366555038 0 -0.082719171835277869 -0.24852045636828471 0 -0.09781330731838711 -0.26756169198024682 0 -0.089852732377628503 -0.26539620480421833 0 -0.092090952296779632 -0.25724559411557713 0 -0.081924583117045049 -0.26148386366555038 0 -0.089852732377628503 -0.26539620480421833 0 -0.092090952296779632 -0.25724559411557713 0 -0.092090952296779632 -0.25724559411557713 0 -0.082719171835277869 -0.24852045636828471 0 -0.094660834490162576 -0.24584606288603569 0 -0.043373569505789591 -0.25757607591008469 0 -0.053499066498271831 -0.25520713030263031 0 -0.053424074425889798 -0.27352714867497963 0 -0.043373569505789591 -0.25757607591008469 0 -0.053499066498271831 -0.25520713030263031 0 -0.051865525785046343 -0.2446524537930333 0 -0.053499066498271831 -0.25520713030263031 0 -0.061994610046030567 -0.26010607421513898 0 -0.053424074425889798 -0.27352714867497963 0 -0.053499066498271831 -0.25520713030263031 0 -0.061994610046030567 -0.26010607421513898 0 -0.060439677568747477 -0.24743189389530029 0 -0.071292868598882078 -0.26962770892421728 0 -0.061994610046030567 -0.26010607421513898 0 -0.053424074425889798 -0.27352714867497963 0 -0.065991233379648295 -0.27919097374783342 0 -0.053424074425889798 -0.27352714867497963 0 -0.061828968513657927 -0.28912082368160441 0 -0.043373569505789591 -0.25757607591008469 0 -0.053424074425889798 -0.27352714867497963 0 -0.040652614106225067 -0.28247925844665228 0 -0.043373569505789591 -0.25757607591008469 0 -0.040652614106225067 -0.28247925844665228 0 -0.023063717627960081 -0.27224547015466749 0 -0.043373569505789591 -0.25757607591008469 0 -0.040652614106225067 -0.28247925844665228 0 -0.040652614106225067 -0.28247925844665228 0 -0.05044018945091161 -0.29261912424533082 0 -0.037931658706660529 -0.30738244098321998 0 -0.040652614106225067 -0.28247925844665228 0 -0.037931658706660529 -0.30738244098321998 0 -0.020357671536280701 -0.2928620444788711 0 -0.040652614106225067 -0.28247925844665228 0 -0.037931658706660529 -0.30738244098321998 0 -0.053424074425889798 -0.27352714867497963 0 -0.040652614106225067 -0.28247925844665228 0 -0.05044018945091161 -0.29261912424533082 0 -0.053424074425889798 -0.27352714867497963 0 -0.061828968513657927 -0.28912082368160441 0 -0.05044018945091161 -0.29261912424533082 0 -0.061828968513657927 -0.28912082368160441 0 -0.057768956981920007 -0.29660743357724872 0 -0.05044018945091161 -0.29261912424533082 0 -0.068530137175499301 -0.30016379286076161 0 -0.057768956981920007 -0.29660743357724872 0 -0.050276532787611239 -0.30452599352129822 0 -0.057768956981920007 -0.29660743357724872 0 -0.05044018945091161 -0.29261912424533082 0 -0.050276532787611239 -0.30452599352129822 0 -0.050276532787611239 -0.30452599352129822 0 -0.037931658706660529 -0.30738244098321998 0 -0.048929732089457452 -0.32038600447141219 0 -0.05044018945091161 -0.29261912424533082 0 -0.050276532787611239 -0.30452599352129822 0 -0.037931658706660529 -0.30738244098321998 0 -0.037931658706660529 -0.30738244098321998 0 -0.020357671536280701 -0.2928620444788711 0 -0.02115984123803465 -0.31819522760746549 0 -0.00071234882769611544 -0.29164278824115147 0 -0.020357671536280701 -0.2928620444788711 0 -0.0024353293305037051 -0.31549606810385089 0 -0.020357671536280701 -0.2928620444788711 0 -0.02115984123803465 -0.31819522760746549 0 -0.0024353293305037051 -0.31549606810385089 0 -0.00071234882769611544 -0.29164278824115147 0 -0.020357671536280701 -0.2928620444788711 0 -0.0027406730040364299 -0.27120934306675709 0 -0.040652614106225067 -0.28247925844665228 0 -0.020357671536280701 -0.2928620444788711 0 -0.023063717627960081 -0.27224547015466749 0 -0.020357671536280701 -0.2928620444788711 0 -0.023063717627960081 -0.27224547015466749 0 -0.0027406730040364299 -0.27120934306675709 0 -0.0027406730040364299 -0.27120934306675709 0 -0.024417598954686301 -0.25194111822013288 0 -0.0027406730040364299 -0.27120934306675709 0 -0.024417598954686301 -0.25194111822013288 0 -0.0042033227111639123 -0.24392009467379419 0 -0.023063717627960081 -0.27224547015466749 0 -0.0027406730040364299 -0.27120934306675709 0 -0.024417598954686301 -0.25194111822013288 0 -0.043373569505789591 -0.25757607591008469 0 -0.023063717627960081 -0.27224547015466749 0 -0.024417598954686301 -0.25194111822013288 0 -0.042885714776006369 -0.34638871872915988 0 -0.032489747907531487 -0.35718880605635522 0 -0.035210703307095997 -0.33228562351978758 0 -0.032489747907531487 -0.35718880605635522 0 -0.035210703307095997 -0.33228562351978758 0 -0.044730153177554993 -0.35595537154568341 0 -0.042885714776006369 -0.34638871872915988 0 -0.032489747907531487 -0.35718880605635522 0 -0.044730153177554993 -0.35595537154568341 0 -0.042885714776006369 -0.34638871872915988 0 -0.051648320176185647 -0.34920798040099288 0 -0.032489747907531487 -0.35718880605635522 0 -0.044595693816118193 -0.36906254815647183 0 -0.032174804165621879 -0.37837755574063769 0 -0.032489747907531487 -0.35718880605635522 0 -0.029768792507966959 -0.38209198859292282 0 -0.032174804165621879 -0.37837755574063769 0 -0.044595693816118193 -0.36906254815647183 0 -0.032174804165621879 -0.37837755574063769 0 -0.044730153177554993 -0.35595537154568341 0 -0.032489747907531487 -0.35718880605635522 0 -0.044595693816118193 -0.36906254815647183 0 -0.044595693816118193 -0.36906254815647183 0 -0.057016583466611509 -0.3597475405723019 0 -0.051320480152666888 -0.35743436517355143 0 -0.044595693816118193 -0.36906254815647183 0 -0.057016583466611509 -0.3597475405723019 0 -0.065846655124202277 -0.37224329178737109 0 -0.057016583466611509 -0.3597475405723019 0 -0.054986693338257397 -0.38400457601717702 0 -0.044595693816118193 -0.36906254815647183 0 -0.057016583466611509 -0.3597475405723019 0 -0.054986693338257397 -0.38400457601717702 0 -0.044730153177554993 -0.35595537154568341 0 -0.044595693816118193 -0.36906254815647183 0 -0.051320480152666888 -0.35743436517355143 0 -0.057016583466611509 -0.3597475405723019 0 -0.054986693338257397 -0.38400457601717702 0 -0.057016583466611509 -0.3597475405723019 0 -0.057321813797732123 -0.3561000609094796 0 -0.051320480152666888 -0.35743436517355143 0 -0.057016583466611509 -0.3597475405723019 0 -0.057321813797732123 -0.3561000609094796 0 -0.057321813797732123 -0.3561000609094796 0 -0.051320480152666888 -0.35743436517355143 0 -0.051648320176185647 -0.34920798040099288 0 -0.044730153177554993 -0.35595537154568341 0 -0.051320480152666888 -0.35743436517355143 0 -0.051648320176185647 -0.34920798040099288 0 -0.042885714776006369 -0.34638871872915988 0 -0.051648320176185647 -0.34920798040099288 0 -0.050349649311663733 -0.33730581212298022 0 -0.063489367408723657 -0.34123591865820962 0 -0.057321813797732123 -0.3561000609094796 0 -0.051648320176185647 -0.34920798040099288 0 -0.050349649311663733 -0.33730581212298022 0 -0.061304006860722862 -0.32680495784232372 0 -0.048929732089457452 -0.32038600447141219 0 -0.063489367408723657 -0.34123591865820962 0 -0.051648320176185647 -0.34920798040099288 0 -0.050349649311663733 -0.33730581212298022 0 -0.063489367408723657 -0.34123591865820962 0 -0.050349649311663733 -0.33730581212298022 0 -0.061304006860722862 -0.32680495784232372 0 -0.050276532787611239 -0.30452599352129822 0 -0.060882326003174433 -0.31531065389579349 0 -0.048929732089457452 -0.32038600447141219 0 -0.060882326003174433 -0.31531065389579349 0 -0.061304006860722862 -0.32680495784232372 0 -0.048929732089457452 -0.32038600447141219 0 -0.037931658706660529 -0.30738244098321998 0 -0.048929732089457452 -0.32038600447141219 0 -0.035210703307095997 -0.33228562351978758 0 -0.037931658706660529 -0.30738244098321998 0 -0.035210703307095997 -0.33228562351978758 0 -0.02115984123803465 -0.31819522760746549 0 -0.037931658706660529 -0.30738244098321998 0 -0.035210703307095997 -0.33228562351978758 0 -0.050349649311663733 -0.33730581212298022 0 -0.048929732089457452 -0.32038600447141219 0 -0.035210703307095997 -0.33228562351978758 0 -0.042885714776006369 -0.34638871872915988 0 -0.050349649311663733 -0.33730581212298022 0 -0.035210703307095997 -0.33228562351978758 0 -0.035210703307095997 -0.33228562351978758 0 -0.02115984123803465 -0.31819522760746549 0 -0.0063380091034914258 -0.34265484189692352 0 -0.035210703307095997 -0.33228562351978758 0 -0.0063380091034914258 -0.34265484189692352 0 -0.018060908139578329 -0.35405251500613488 0 -0.02115984123803465 -0.31819522760746549 0 -0.0024353293305037051 -0.31549606810385089 0 -0.0063380091034914258 -0.34265484189692352 0 -0.0063380091034914258 -0.34265484189692352 0 -0.018060908139578329 -0.35405251500613488 0 -0.0071951182209624527 -0.3717249770866537 0 -0.0063380091034914258 -0.34265484189692352 0 -0.0071951182209624527 -0.3717249770866537 0 -0.0063380091034914258 -0.34265484189692352 0 -0.0071951182209624527 -0.3717249770866537 0 0.0069389752520108098 -0.36251041965263731 0 -0.032489747907531487 -0.35718880605635522 0 -0.035210703307095997 -0.33228562351978758 0 -0.018060908139578329 -0.35405251500613488 0 -0.032489747907531487 -0.35718880605635522 0 -0.021105369286163699 -0.36885405539968807 0 -0.029768792507966959 -0.38209198859292282 0 -0.032489747907531487 -0.35718880605635522 0 -0.029768792507966959 -0.38209198859292282 0 -0.032489747907531487 -0.35718880605635522 0 -0.018060908139578329 -0.35405251500613488 0 -0.021105369286163699 -0.36885405539968807 0 -0.021105369286163699 -0.36885405539968807 0 -0.0071951182209624527 -0.3717249770866537 0 -0.020189875666752091 -0.38011898223171092 0 -0.018060908139578329 -0.35405251500613488 0 -0.021105369286163699 -0.36885405539968807 0 -0.0071951182209624527 -0.3717249770866537 0 -0.0071951182209624527 -0.3717249770866537 0 -0.0080522273384330753 -0.40079511227638409 0 -0.0071951182209624527 -0.3717249770866537 0 -0.020189875666752091 -0.38011898223171092 0 -0.01818797239891444 -0.39060459788858981 0 -0.0071951182209624527 -0.3717249770866537 0 -0.0080522273384330753 -0.40079511227638409 0 -0.01818797239891444 -0.39060459788858981 0 -0.0071951182209624527 -0.3717249770866537 0 -0.0080522273384330753 -0.40079511227638409 0 0.0106539000054991 -0.38695420666242719 0 -0.0080522273384330753 -0.40079511227638409 0 -0.026357765299261871 -0.39776349271049732 0 -0.01818797239891444 -0.39060459788858981 0 -0.0080522273384330753 -0.40079511227638409 0 -0.026357765299261871 -0.39776349271049732 0 -0.029489570209992572 -0.4166568795916572 0 -0.026357765299261871 -0.39776349271049732 0 -0.01818797239891444 -0.39060459788858981 0 -0.025269638580724431 -0.38775315922987369 0 -0.026357765299261871 -0.39776349271049732 0 -0.025269638580724431 -0.38775315922987369 0 -0.032998812352669771 -0.38905446880399458 0 -0.020189875666752091 -0.38011898223171092 0 -0.01818797239891444 -0.39060459788858981 0 -0.025269638580724431 -0.38775315922987369 0 -0.020189875666752091 -0.38011898223171092 0 -0.025269638580724431 -0.38775315922987369 0 -0.029768792507966959 -0.38209198859292282 0 -0.025269638580724431 -0.38775315922987369 0 -0.029768792507966959 -0.38209198859292282 0 -0.032998812352669771 -0.38905446880399458 0 -0.021105369286163699 -0.36885405539968807 0 -0.020189875666752091 -0.38011898223171092 0 -0.029768792507966959 -0.38209198859292282 0 -0.044595693816118193 -0.36906254815647183 0 -0.042047036541715807 -0.38740872127073489 0 -0.036246401188984312 -0.38315265901921147 0 -0.044595693816118193 -0.36906254815647183 0 -0.032174804165621879 -0.37837755574063769 0 -0.036246401188984312 -0.38315265901921147 0 -0.029768792507966959 -0.38209198859292282 0 -0.032174804165621879 -0.37837755574063769 0 -0.036246401188984312 -0.38315265901921147 0 -0.042047036541715807 -0.38740872127073489 0 -0.039806113491967332 -0.39719162497601879 0 -0.054986693338257397 -0.38400457601717702 0 -0.042047036541715807 -0.38740872127073489 0 -0.036246401188984312 -0.38315265901921147 0 -0.032998812352669771 -0.38905446880399458 0 -0.029768792507966959 -0.38209198859292282 0 -0.036246401188984312 -0.38315265901921147 0 -0.032998812352669771 -0.38905446880399458 0 -0.026357765299261871 -0.39776349271049732 0 -0.039806113491967332 -0.39719162497601879 0 -0.029489570209992572 -0.4166568795916572 0 -0.026357765299261871 -0.39776349271049732 0 -0.032998812352669771 -0.38905446880399458 0 -0.039806113491967332 -0.39719162497601879 0 -0.042047036541715807 -0.38740872127073489 0 -0.032998812352669771 -0.38905446880399458 0 -0.039806113491967332 -0.39719162497601879 0 -0.054986693338257397 -0.38400457601717702 0 -0.052956803209906561 -0.40826161146205231 0 -0.054986693338257397 -0.38400457601717702 0 -0.052956803209906561 -0.40826161146205231 0 -0.072324939431160334 -0.3976689352334426 0 -0.039806113491967332 -0.39719162497601879 0 -0.054986693338257397 -0.38400457601717702 0 -0.052956803209906561 -0.40826161146205231 0 -0.044595693816118193 -0.36906254815647183 0 -0.042047036541715807 -0.38740872127073489 0 -0.054986693338257397 -0.38400457601717702 0 -0.050926913081554191 -0.43251864690692737 0 -0.052956803209906561 -0.40826161146205231 0 -0.062536073103265699 -0.42509535379354252 0 -0.050926913081554191 -0.43251864690692737 0 -0.058463773048754553 -0.43809526709739899 0 -0.062536073103265699 -0.42509535379354252 0 -0.050926913081554191 -0.43251864690692737 0 -0.058463773048754553 -0.43809526709739899 0 -0.050926913081554191 -0.43251864690692737 0 -0.052956803209906561 -0.40826161146205231 0 -0.039806113491967332 -0.39719162497601879 0 -0.052956803209906561 -0.40826161146205231 0 -0.029489570209992572 -0.4166568795916572 0 -0.050926913081554191 -0.43251864690692737 0 -0.052956803209906561 -0.40826161146205231 0 -0.029489570209992572 -0.4166568795916572 0 -0.050926913081554191 -0.43251864690692737 0 -0.034617010560171288 -0.43344702690649511 0 -0.040470689843157402 -0.44442107702000272 0 -0.050926913081554191 -0.43251864690692737 0 -0.029489570209992572 -0.4166568795916572 0 -0.050926913081554191 -0.43251864690692737 0 -0.034617010560171288 -0.43344702690649511 0 -0.029489570209992572 -0.4166568795916572 0 -0.023262524629761042 -0.43083793233725493 0 -0.029489570209992572 -0.4166568795916572 0 -0.0088049990603604467 -0.42632648894402592 0 -0.034617010560171288 -0.43344702690649511 0 -0.023262524629761042 -0.43083793233725493 0 -0.028563768308680609 -0.44408006551825963 0 -0.034617010560171288 -0.43344702690649511 0 -0.023262524629761042 -0.43083793233725493 0 -0.029489570209992572 -0.4166568795916572 0 -0.0080522273384330753 -0.40079511227638409 0 -0.029489570209992572 -0.4166568795916572 0 -0.0080522273384330753 -0.40079511227638409 0 -0.0088049990603604467 -0.42632648894402592 0 -0.0080522273384330753 -0.40079511227638409 0 -0.0088049990603604467 -0.42632648894402592 0 0.0097006394704717315 -0.41288359487434978 0 -0.0080522273384330753 -0.40079511227638409 0 -0.029489570209992572 -0.4166568795916572 0 -0.0088049990603604467 -0.42632648894402592 0 -0.023262524629761042 -0.43083793233725493 0 -0.0088049990603604467 -0.42632648894402592 0 -0.0095577707822874121 -0.45185786561166769 0 -0.0088049990603604467 -0.42632648894402592 0 -0.0095577707822874121 -0.45185786561166769 0 0.0092111710068301239 -0.43818953017462381 0 -0.0088049990603604467 -0.42632648894402592 0 -0.0095577707822874121 -0.45185786561166769 0 -0.0095577707822874121 -0.45185786561166769 0 -0.030460223812359171 -0.46177587946257348 0 -0.0063595903112986024 -0.47724488521441211 0 -0.0095577707822874121 -0.45185786561166769 0 -0.0063595903112986024 -0.47724488521441211 0 0.0092792908204219898 -0.45997284759039192 0 -0.0095577707822874121 -0.45185786561166769 0 -0.030460223812359171 -0.46177587946257348 0 -0.028563768308680609 -0.44408006551825963 0 -0.023262524629761042 -0.43083793233725493 0 -0.0095577707822874121 -0.45185786561166769 0 -0.028563768308680609 -0.44408006551825963 0 -0.0063595903112986024 -0.47724488521441211 0 -0.01996880907680065 -0.5 0 0.0053422844842149209 -0.5 0 -0.030460223812359171 -0.46177587946257348 0 -0.0063595903112986024 -0.47724488521441211 0 -0.029846153058134098 -0.48330539606252509 0 -0.0063595903112986024 -0.47724488521441211 0 -0.029846153058134098 -0.48330539606252509 0 -0.01996880907680065 -0.5 0 -0.029846153058134098 -0.48330539606252509 0 -0.045279902637816241 -0.49999999999999611 0 -0.047162239452395852 -0.47750621563563989 0 -0.045279902637816241 -0.49999999999999611 0 -0.047162239452395852 -0.47750621563563989 0 -0.029846153058134098 -0.48330539606252509 0 -0.01996880907680065 -0.5 0 -0.045279902637816241 -0.49999999999999611 0 -0.030460223812359171 -0.46177587946257348 0 -0.029846153058134098 -0.48330539606252509 0 -0.047162239452395852 -0.47750621563563989 0 -0.045279902637816241 -0.49999999999999611 0 -0.047162239452395852 -0.47750621563563989 0 -0.070252832857061465 -0.5 0 -0.050926913081554191 -0.43251864690692737 0 -0.040470689843157402 -0.44442107702000272 0 -0.049044576266975802 -0.45501243127128382 0 -0.030460223812359171 -0.46177587946257348 0 -0.028563768308680609 -0.44408006551825963 0 -0.040470689843157402 -0.44442107702000272 0 -0.034617010560171288 -0.43344702690649511 0 -0.028563768308680609 -0.44408006551825963 0 -0.040470689843157402 -0.44442107702000272 0 -0.030460223812359171 -0.46177587946257348 0 -0.040470689843157402 -0.44442107702000272 0 -0.049044576266975802 -0.45501243127128382 0 -0.030460223812359171 -0.46177587946257348 0 -0.047162239452395852 -0.47750621563563989 0 -0.049044576266975802 -0.45501243127128382 0 -0.047162239452395852 -0.47750621563563989 0 -0.049044576266975802 -0.45501243127128382 0 -0.063876472171486037 -0.45532316250688182 0 -0.047162239452395852 -0.47750621563563989 0 -0.063876472171486037 -0.45532316250688182 0 -0.074059338028180113 -0.47319431068026979 0 -0.047162239452395852 -0.47750621563563989 0 -0.049044576266975802 -0.45501243127128382 0 -0.050926913081554191 -0.43251864690692737 0 -0.049044576266975802 -0.45501243127128382 0 -0.058463773048754553 -0.43809526709739899 0 -0.049044576266975802 -0.45501243127128382 0 -0.058463773048754553 -0.43809526709739899 0 -0.063876472171486037 -0.45532316250688182 0 -0.050926913081554191 -0.43251864690692737 0 -0.049044576266975802 -0.45501243127128382 0 -0.063876472171486037 -0.45532316250688182 0 -0.081980039124368298 -0.45160271961531651 0 -0.072548867108241655 -0.43652803074138219 0 -0.058463773048754553 -0.43809526709739899 0 -0.063876472171486037 -0.45532316250688182 0 -0.072548867108241655 -0.43652803074138219 0 -0.063876472171486037 -0.45532316250688182 0 -0.081980039124368298 -0.45160271961531651 0 -0.074059338028180113 -0.47319431068026979 0 -0.081980039124368298 -0.45160271961531651 0 -0.074059338028180113 -0.47319431068026979 0 -0.10258724582081299 -0.47206058577306342 0 -0.081980039124368298 -0.45160271961531651 0 -0.072548867108241655 -0.43652803074138219 0 -0.093098341108924676 -0.43346437950108668 0 -0.081980039124368298 -0.45160271961531651 0 -0.1012179255870745 -0.45116297174919201 0 -0.093098341108924676 -0.43346437950108668 0 -0.047162239452395852 -0.47750621563563989 0 -0.070252832857061465 -0.5 0 -0.074059338028180113 -0.47319431068026979 0 -0.074059338028180113 -0.47319431068026979 0 -0.095225763076306758 -0.5 0 -0.10258724582081299 -0.47206058577306342 0 -0.074059338028180113 -0.47319431068026979 0 -0.10258724582081299 -0.47206058577306342 0 -0.070252832857061465 -0.5 0 -0.074059338028180113 -0.47319431068026979 0 -0.095225763076306758 -0.5 0 -0.095225763076306758 -0.5 0 -0.10258724582081299 -0.47206058577306342 0 -0.11535171782057831 -0.48705512805909168 0 -0.1267897095312801 -0.47393219887046939 0 -0.13195717737893961 -0.48928285565192547 0 -0.11535171782057831 -0.48705512805909168 0 -0.13111515361344581 -0.47092686086585689 0 -0.10258724582081299 -0.47206058577306342 0 -0.1267897095312801 -0.47393219887046939 0 -0.13111515361344581 -0.47092686086585689 0 -0.10258724582081299 -0.47206058577306342 0 -0.1267897095312801 -0.47393219887046939 0 -0.10258724582081299 -0.47206058577306342 0 -0.11535171782057831 -0.48705512805909168 0 -0.13195717737893961 -0.48928285565192547 0 -0.11535171782057831 -0.48705512805909168 0 -0.12019869329555199 -0.5 0 -0.095225763076306758 -0.5 0 -0.11535171782057831 -0.48705512805909168 0 -0.12019869329555199 -0.5 0 -0.1012179255870745 -0.45116297174919201 0 -0.1125214052390838 -0.44130274839984851 0 -0.093098341108924676 -0.43346437950108668 0 -0.10258724582081299 -0.47206058577306342 0 -0.1012179255870745 -0.45116297174919201 0 -0.1172263432475437 -0.45794469602715809 0 -0.081980039124368298 -0.45160271961531651 0 -0.10258724582081299 -0.47206058577306342 0 -0.1012179255870745 -0.45116297174919201 0 -0.13111515361344581 -0.47092686086585689 0 -0.10258724582081299 -0.47206058577306342 0 -0.1172263432475437 -0.45794469602715809 0 -0.12811630720819869 -0.44857187362834472 0 -0.12821447175470491 -0.43453126055706442 0 -0.1125214052390838 -0.44130274839984851 0 -0.12811630720819869 -0.44857187362834472 0 -0.1172263432475437 -0.45794469602715809 0 -0.1125214052390838 -0.44130274839984851 0 -0.1012179255870745 -0.45116297174919201 0 -0.1172263432475437 -0.45794469602715809 0 -0.1125214052390838 -0.44130274839984851 0 -0.12821447175470491 -0.43453126055706442 0 -0.1125214052390838 -0.44130274839984851 0 -0.1147451985958797 -0.42350430754810431 0 -0.1125214052390838 -0.44130274839984851 0 -0.1147451985958797 -0.42350430754810431 0 -0.093098341108924676 -0.43346437950108668 0 -0.1147451985958797 -0.42350430754810431 0 -0.096236481582440289 -0.41237059186688962 0 -0.093098341108924676 -0.43346437950108668 0 -0.1147451985958797 -0.42350430754810431 0 -0.096236481582440289 -0.41237059186688962 0 -0.1203728861856499 -0.4034920136046149 0 -0.13167573345180539 -0.38399194324865721 0 -0.1203728861856499 -0.4034920136046149 0 -0.1136836432202615 -0.37941280123382082 0 -0.096671992026033091 -0.374153878706599 0 -0.1136836432202615 -0.37941280123382082 0 -0.093905112957565637 -0.3906677200026315 0 -0.1203728861856499 -0.4034920136046149 0 -0.093905112957565637 -0.3906677200026315 0 -0.096236481582440289 -0.41237059186688962 0 -0.1203728861856499 -0.4034920136046149 0 -0.093905112957565637 -0.3906677200026315 0 -0.1203728861856499 -0.4034920136046149 0 -0.1136836432202615 -0.37941280123382082 0 -0.093905112957565637 -0.3906677200026315 0 -0.096236481582440289 -0.41237059186688962 0 -0.093905112957565637 -0.3906677200026315 0 -0.072324939431160334 -0.3976689352334426 0 -0.093905112957565637 -0.3906677200026315 0 -0.079257401346482723 -0.37671650155312641 0 -0.072324939431160334 -0.3976689352334426 0 -0.096671992026033091 -0.374153878706599 0 -0.093905112957565637 -0.3906677200026315 0 -0.079257401346482723 -0.37671650155312641 0 -0.079257401346482723 -0.37671650155312641 0 -0.067785334676273193 -0.38249668417556359 0 -0.072324939431160334 -0.3976689352334426 0 -0.054986693338257397 -0.38400457601717702 0 -0.067785334676273193 -0.38249668417556359 0 -0.072324939431160334 -0.3976689352334426 0 -0.065846655124202277 -0.37224329178737109 0 -0.079257401346482723 -0.37671650155312641 0 -0.067785334676273193 -0.38249668417556359 0 -0.065846655124202277 -0.37224329178737109 0 -0.054986693338257397 -0.38400457601717702 0 -0.067785334676273193 -0.38249668417556359 0 -0.052956803209906561 -0.40826161146205231 0 -0.072324939431160334 -0.3976689352334426 0 -0.0751634865217327 -0.41862324079098762 0 -0.052956803209906561 -0.40826161146205231 0 -0.0751634865217327 -0.41862324079098762 0 -0.062536073103265699 -0.42509535379354252 0 -0.0751634865217327 -0.41862324079098762 0 -0.062536073103265699 -0.42509535379354252 0 -0.072548867108241655 -0.43652803074138219 0 -0.058463773048754553 -0.43809526709739899 0 -0.062536073103265699 -0.42509535379354252 0 -0.072548867108241655 -0.43652803074138219 0 -0.0751634865217327 -0.41862324079098762 0 -0.072548867108241655 -0.43652803074138219 0 -0.093098341108924676 -0.43346437950108668 0 -0.096236481582440289 -0.41237059186688962 0 -0.0751634865217327 -0.41862324079098762 0 -0.093098341108924676 -0.43346437950108668 0 -0.096236481582440289 -0.41237059186688962 0 -0.072324939431160334 -0.3976689352334426 0 -0.0751634865217327 -0.41862324079098762 0 -0.085292748182622238 -0.077680970276036265 0 -0.070411070132991291 -0.09604941608788034 0 -0.098288994883488634 -0.091615046303050535 0 -0.068972005060340583 -0.065093817517787783 0 -0.094436642144223398 -0.061749795696855223 0 -0.085292748182622238 -0.077680970276036265 0 -0.068972005060340583 -0.065093817517787783 0 -0.094436642144223398 -0.061749795696855223 0 -0.085292748182622238 -0.077680970276036265 0 -0.070698873335439685 -0.077945743854506658 0 -0.068972005060340583 -0.065093817517787783 0 -0.070698873335439685 -0.077945743854506658 0 -0.068972005060340583 -0.065093817517787783 0 -0.058123287805277417 -0.081109402049945059 0 -0.070698873335439685 -0.077945743854506658 0 -0.070411070132991291 -0.09604941608788034 0 -0.058123287805277417 -0.081109402049945059 0 -0.085292748182622238 -0.077680970276036265 0 -0.070698873335439685 -0.077945743854506658 0 -0.070411070132991291 -0.09604941608788034 0 -0.070411070132991291 -0.09604941608788034 0 -0.079826307660933488 -0.1142348454390191 0 -0.057688853113925811 -0.1194245254739919 0 -0.070411070132991291 -0.09604941608788034 0 -0.098288994883488634 -0.091615046303050535 0 -0.079826307660933488 -0.1142348454390191 0 -0.1001883327790668 -0.120056526169167 0 -0.098288994883488634 -0.091615046303050535 0 -0.070411070132991291 -0.09604941608788034 0 -0.079826307660933488 -0.1142348454390191 0 -0.098288994883488634 -0.091615046303050535 0 -0.1001883327790668 -0.120056526169167 0 -0.11882981078660131 -0.1073302274801098 0 -0.098288994883488634 -0.091615046303050535 0 -0.11882981078660131 -0.1073302274801098 0 -0.11552893456934731 -0.1271781895403534 0 -0.12860637303035399 -0.12227919341653321 0 -0.1001883327790668 -0.120056526169167 0 -0.11882981078660131 -0.1073302274801098 0 -0.11552893456934731 -0.1271781895403534 0 -0.11882981078660131 -0.1073302274801098 0 -0.098288994883488634 -0.091615046303050535 0 -0.12638243194868881 -0.083655546040473414 0 -0.098288994883488634 -0.091615046303050535 0 -0.10788463754023279 -0.073889557444557247 0 -0.12638243194868881 -0.083655546040473414 0 -0.085292748182622238 -0.077680970276036265 0 -0.098288994883488634 -0.091615046303050535 0 -0.10788463754023279 -0.073889557444557247 0 -0.10788463754023279 -0.073889557444557247 0 -0.1199012792281063 -0.058405773875922648 0 -0.094436642144223398 -0.061749795696855223 0 -0.085292748182622238 -0.077680970276036265 0 -0.10788463754023279 -0.073889557444557247 0 -0.094436642144223398 -0.061749795696855223 0 -0.10788463754023279 -0.073889557444557247 0 -0.1199012792281063 -0.058405773875922648 0 -0.12638243194868881 -0.083655546040473414 0 -0.1050364704759527 -0.042264783473185262 0 -0.1152188343653765 -0.022943485062778012 0 -0.1295015982488574 -0.038250320399701651 0 -0.1199012792281063 -0.058405773875922648 0 -0.1050364704759527 -0.042264783473185262 0 -0.1295015982488574 -0.038250320399701651 0 -0.1199012792281063 -0.058405773875922648 0 -0.094436642144223398 -0.061749795696855223 0 -0.1050364704759527 -0.042264783473185262 0 -0.094436642144223398 -0.061749795696855223 0 -0.082892858079749096 -0.04562718903644164 0 -0.1199012792281063 -0.058405773875922648 0 -0.1050364704759527 -0.042264783473185262 0 -0.094436642144223398 -0.061749795696855223 0 -0.1236889335263805 -0.0048356221156674456 0 -0.1152188343653765 -0.022943485062778012 0 -0.098875658403513936 -0.007155519036315363 0 -0.1236889335263805 -0.0048356221156674456 0 -0.098875658403513936 -0.007155519036315363 0 -0.1116931701901132 0.0062488222710285696 0 -0.1152188343653765 -0.022943485062778012 0 -0.090402294163841157 -0.025729082084831489 0 -0.1050364704759527 -0.042264783473185262 0 -0.1152188343653765 -0.022943485062778012 0 -0.090402294163841157 -0.025729082084831489 0 -0.1152188343653765 -0.022943485062778012 0 -0.098875658403513936 -0.007155519036315363 0 -0.090402294163841157 -0.025729082084831489 0 -0.098875658403513936 -0.007155519036315363 0 -0.090402294163841157 -0.025729082084831489 0 -0.07291959284187112 -0.003186770071663974 0 -0.098875658403513936 -0.007155519036315363 0 -0.07291959284187112 -0.003186770071663974 0 -0.094115224734212147 0.006985564178542257 0 -0.098875658403513936 -0.007155519036315363 0 -0.07291959284187112 -0.003186770071663974 0 -0.06473897346761831 -0.01923643058173229 0 -0.075450799442800101 -0.03292461415561844 0 -0.058978413017975517 -0.033158515034974252 0 -0.090402294163841157 -0.025729082084831489 0 -0.06473897346761831 -0.01923643058173229 0 -0.075450799442800101 -0.03292461415561844 0 -0.090402294163841157 -0.025729082084831489 0 -0.06473897346761831 -0.01923643058173229 0 -0.07291959284187112 -0.003186770071663974 0 -0.094436642144223398 -0.061749795696855223 0 -0.082892858079749096 -0.04562718903644164 0 -0.075518466364015407 -0.055656615617115657 0 -0.068972005060340583 -0.065093817517787783 0 -0.094436642144223398 -0.061749795696855223 0 -0.075518466364015407 -0.055656615617115657 0 -0.1050364704759527 -0.042264783473185262 0 -0.090402294163841157 -0.025729082084831489 0 -0.082892858079749096 -0.04562718903644164 0 -0.090402294163841157 -0.025729082084831489 0 -0.082892858079749096 -0.04562718903644164 0 -0.075450799442800101 -0.03292461415561844 0 -0.075450799442800101 -0.03292461415561844 0 -0.067623744740623909 -0.046012632509361412 0 -0.058978413017975517 -0.033158515034974252 0 -0.082892858079749096 -0.04562718903644164 0 -0.075450799442800101 -0.03292461415561844 0 -0.067623744740623909 -0.046012632509361412 0 -0.067623744740623909 -0.046012632509361412 0 -0.075518466364015407 -0.055656615617115657 0 -0.063667081795139996 -0.059799643325132233 0 -0.082892858079749096 -0.04562718903644164 0 -0.067623744740623909 -0.046012632509361412 0 -0.075518466364015407 -0.055656615617115657 0 -0.068972005060340583 -0.065093817517787783 0 -0.075518466364015407 -0.055656615617115657 0 -0.063667081795139996 -0.059799643325132233 0 -0.063667081795139996 -0.059799643325132233 0 -0.038075429632897798 -0.052196840636529032 0 -0.043507367976457878 -0.068437839338720316 0 -0.063667081795139996 -0.059799643325132233 0 -0.038075429632897798 -0.052196840636529032 0 -0.063667081795139996 -0.059799643325132233 0 -0.053805302244175561 -0.045967108074376997 0 -0.038075429632897798 -0.052196840636529032 0 -0.067623744740623909 -0.046012632509361412 0 -0.063667081795139996 -0.059799643325132233 0 -0.053805302244175561 -0.045967108074376997 0 -0.067623744740623909 -0.046012632509361412 0 -0.058978413017975517 -0.033158515034974252 0 -0.053805302244175561 -0.045967108074376997 0 -0.058978413017975517 -0.033158515034974252 0 -0.053805302244175561 -0.045967108074376997 0 -0.0392006560002469 -0.036742788403582617 0 -0.053805302244175561 -0.045967108074376997 0 -0.0392006560002469 -0.036742788403582617 0 -0.038075429632897798 -0.052196840636529032 0 -0.07291959284187112 -0.003186770071663974 0 -0.046963527280228193 0.00078197889298742707 0 -0.06473897346761831 -0.01923643058173229 0 -0.043719214058993872 -0.02120158103629299 0 -0.046963527280228193 0.00078197889298742707 0 -0.06473897346761831 -0.01923643058173229 0 -0.07291959284187112 -0.003186770071663974 0 -0.046963527280228193 0.00078197889298742707 0 -0.058978413017975517 -0.033158515034974252 0 -0.0392006560002469 -0.036742788403582617 0 -0.043719214058993872 -0.02120158103629299 0 -0.06473897346761831 -0.01923643058173229 0 -0.058978413017975517 -0.033158515034974252 0 -0.043719214058993872 -0.02120158103629299 0 -0.0392006560002469 -0.036742788403582617 0 -0.043719214058993872 -0.02120158103629299 0 -0.02491455705194422 -0.027754880073497561 0 -0.043719214058993872 -0.02120158103629299 0 -0.022904215643132129 -0.011868363648652149 0 -0.046963527280228193 0.00078197889298742707 0 -0.022904215643132129 -0.011868363648652149 0 -0.046963527280228193 0.00078197889298742707 0 -0.021007461718585259 0.0047507278576388329 0 -0.022904215643132129 -0.011868363648652149 0 -0.0061827162999579903 -0.01229654312151841 0 -0.021007461718585259 0.0047507278576388329 0 -0.022904215643132129 -0.011868363648652149 0 -0.02491455705194422 -0.027754880073497561 0 -0.00078442120986667719 -0.027961490694004221 0 -0.043719214058993872 -0.02120158103629299 0 -0.022904215643132129 -0.011868363648652149 0 -0.02491455705194422 -0.027754880073497561 0 -0.022904215643132129 -0.011868363648652149 0 -0.00078442120986667719 -0.027961490694004221 0 -0.0061827162999579903 -0.01229654312151841 0 -0.0061827162999579903 -0.01229654312151841 0 -0.0020414591632706811 -0.0010561809509511751 0 -0.021007461718585259 0.0047507278576388329 0 -0.0061827162999579903 -0.01229654312151841 0 -0.0020414591632706811 -0.0010561809509511751 0 0.0061385654505198744 -0.0046293945413275923 0 -0.038075429632897798 -0.052196840636529032 0 -0.01248377747065567 -0.044594037947925873 0 -0.01804273089257517 -0.071781861159652863 0 -0.038075429632897798 -0.052196840636529032 0 -0.01248377747065567 -0.044594037947925873 0 -0.0392006560002469 -0.036742788403582617 0 -0.038075429632897798 -0.052196840636529032 0 -0.01248377747065567 -0.044594037947925873 0 -0.0392006560002469 -0.036742788403582617 0 -0.02491455705194422 -0.027754880073497561 0 -0.01248377747065567 -0.044594037947925873 0 -0.02491455705194422 -0.027754880073497561 0 -0.00078442120986667719 -0.027961490694004221 0 -0.01248377747065567 -0.044594037947925873 0 -0.00078442120986667719 -0.027961490694004221 0 -0.01248377747065567 -0.044594037947925873 0 0.01310787469158659 -0.036991235259322651 0 -0.01248377747065567 -0.044594037947925873 0 -0.01804273089257517 -0.071781861159652863 0 0.0041996982975693754 -0.053878781620928649 0 -0.01804273089257517 -0.071781861159652863 0 0.010756409614314949 -0.071872236607715828 0 0.0041996982975693754 -0.053878781620928649 0 -0.0076732090237115764 -0.08650303633418148 0 -0.01804273089257517 -0.071781861159652863 0 0.010756409614314949 -0.071872236607715828 0 -0.021441885764490621 -0.084822471158924065 0 -0.01804273089257517 -0.071781861159652863 0 -0.036115916289663243 -0.084250915095056916 0 -0.0076732090237115764 -0.08650303633418148 0 -0.021441885764490621 -0.084822471158924065 0 -0.02393568685201251 -0.096754072046804973 0 -0.0076732090237115764 -0.08650303633418148 0 -0.021441885764490621 -0.084822471158924065 0 -0.01804273089257517 -0.071781861159652863 0 -0.021441885764490621 -0.084822471158924065 0 -0.036115916289663243 -0.084250915095056916 0 -0.02393568685201251 -0.096754072046804973 0 -0.01804273089257517 -0.071781861159652863 0 -0.043507367976457878 -0.068437839338720316 0 -0.01804273089257517 -0.071781861159652863 0 -0.043507367976457878 -0.068437839338720316 0 -0.036115916289663243 -0.084250915095056916 0 -0.038075429632897798 -0.052196840636529032 0 -0.01804273089257517 -0.071781861159652863 0 -0.043507367976457878 -0.068437839338720316 0 -0.043507367976457878 -0.068437839338720316 0 -0.036115916289663243 -0.084250915095056916 0 -0.058123287805277417 -0.081109402049945059 0 -0.036115916289663243 -0.084250915095056916 0 -0.058123287805277417 -0.081109402049945059 0 -0.042533145382493691 -0.1004837858727102 0 -0.070411070132991291 -0.09604941608788034 0 -0.058123287805277417 -0.081109402049945059 0 -0.042533145382493691 -0.1004837858727102 0 -0.068972005060340583 -0.065093817517787783 0 -0.043507367976457878 -0.068437839338720316 0 -0.068972005060340583 -0.065093817517787783 0 -0.063667081795139996 -0.059799643325132233 0 -0.043507367976457878 -0.068437839338720316 0 -0.068972005060340583 -0.065093817517787783 0 -0.043507367976457878 -0.068437839338720316 0 -0.058123287805277417 -0.081109402049945059 0 -0.070411070132991291 -0.09604941608788034 0 -0.042533145382493691 -0.1004837858727102 0 -0.070411070132991291 -0.09604941608788034 0 -0.057688853113925811 -0.1194245254739919 0 -0.042533145382493691 -0.1004837858727102 0 -0.036115916289663243 -0.084250915095056916 0 -0.042533145382493691 -0.1004837858727102 0 -0.02393568685201251 -0.096754072046804973 0 -0.057688853113925811 -0.1194245254739919 0 -0.042533145382493691 -0.1004837858727102 0 -0.036424194542535961 -0.12197390089750321 0 -0.042533145382493691 -0.1004837858727102 0 -0.036424194542535961 -0.12197390089750321 0 -0.02347507714429593 -0.1165511193817986 0 -0.02347507714429593 -0.1165511193817986 0 -0.0080940764120036781 -0.12039337550641591 0 -0.01566874875245022 -0.1349863789748236 0 -0.036424194542535961 -0.12197390089750321 0 -0.02347507714429593 -0.1165511193817986 0 -0.01566874875245022 -0.1349863789748236 0 -0.042533145382493691 -0.1004837858727102 0 -0.02347507714429593 -0.1165511193817986 0 -0.014655220631996089 -0.10491815565753999 0 -0.042533145382493691 -0.1004837858727102 0 -0.014655220631996089 -0.10491815565753999 0 -0.042533145382493691 -0.1004837858727102 0 -0.02393568685201251 -0.096754072046804973 0 -0.014655220631996089 -0.10491815565753999 0 -0.014655220631996089 -0.10491815565753999 0 0.0010144825763757381 -0.1137099119252646 0 0.0034777828087813839 -0.099797958812162926 0 -0.02393568685201251 -0.096754072046804973 0 0.0034777828087813839 -0.099797958812162926 0 -0.0076732090237115764 -0.08650303633418148 0 -0.02393568685201251 -0.096754072046804973 0 0.0034777828087813839 -0.099797958812162926 0 -0.02393568685201251 -0.096754072046804973 0 -0.014655220631996089 -0.10491815565753999 0 0.0034777828087813839 -0.099797958812162926 0 -0.014655220631996089 -0.10491815565753999 0 -0.0080940764120036781 -0.12039337550641591 0 0.0010144825763757381 -0.1137099119252646 0 -0.02347507714429593 -0.1165511193817986 0 -0.014655220631996089 -0.10491815565753999 0 -0.0080940764120036781 -0.12039337550641591 0 -0.0080940764120036781 -0.12039337550641591 0 0.0056543785389034287 -0.1255264008036151 0 0.0010144825763757381 -0.1137099119252646 0 -0.0080940764120036781 -0.12039337550641591 0 -0.0026142423501795578 -0.13285176072546001 0 0.0056543785389034287 -0.1255264008036151 0 -0.0026142423501795578 -0.13285176072546001 0 -0.01566874875245022 -0.1349863789748236 0 -0.00068861222154474773 -0.14631589065836079 0 -0.0080940764120036781 -0.12039337550641591 0 -0.0026142423501795578 -0.13285176072546001 0 -0.01566874875245022 -0.1349863789748236 0 -0.01566874875245022 -0.1349863789748236 0 -0.044111518073822548 -0.13950754606791479 0 -0.017863154038053129 -0.1493948926685035 0 -0.024607444541817729 -0.1628388290927551 0 -0.044111518073822548 -0.13950754606791479 0 -0.01566874875245022 -0.1349863789748236 0 -0.017863154038053129 -0.1493948926685035 0 -0.044111518073822548 -0.13950754606791479 0 -0.017863154038053129 -0.1493948926685035 0 -0.00068861222154474773 -0.14631589065836079 0 -0.0097078257662233276 -0.1624336890071614 0 -0.01566874875245022 -0.1349863789748236 0 -0.017863154038053129 -0.1493948926685035 0 -0.00068861222154474773 -0.14631589065836079 0 -0.00068861222154474773 -0.14631589065836079 0 -0.0097078257662233276 -0.1624336890071614 0 0.0036501877186468209 -0.16552061446222491 0 -0.0097078257662233276 -0.1624336890071614 0 -0.00089538367398732908 -0.1755778227299257 0 0.0036501877186468209 -0.16552061446222491 0 -0.0097078257662233276 -0.1624336890071614 0 -0.00089538367398732908 -0.1755778227299257 0 -0.01507685793713507 -0.17626512975424921 0 -0.0071235279138310006 -0.18423697962369731 0 -0.00089538367398732908 -0.1755778227299257 0 0.00057544433944834209 -0.18225048457122281 0 -0.0071235279138310006 -0.18423697962369731 0 0.00057544433944834209 -0.18225048457122281 0 0.0043410467839961964 -0.18529324621447579 0 -0.0071235279138310006 -0.18423697962369731 0 -0.00089538367398732908 -0.1755778227299257 0 -0.01507685793713507 -0.17626512975424921 0 -0.0071235279138310006 -0.18423697962369731 0 -0.01507685793713507 -0.17626512975424921 0 -0.01838216982740901 -0.18658928146228579 0 -0.01507685793713507 -0.17626512975424921 0 -0.031069698669773421 -0.18579278990409079 0 -0.024607444541817729 -0.1628388290927551 0 -0.01507685793713507 -0.17626512975424921 0 -0.031069698669773421 -0.18579278990409079 0 -0.01838216982740901 -0.18658928146228579 0 -0.017863154038053129 -0.1493948926685035 0 -0.0097078257662233276 -0.1624336890071614 0 -0.024607444541817729 -0.1628388290927551 0 -0.0097078257662233276 -0.1624336890071614 0 -0.01507685793713507 -0.17626512975424921 0 -0.024607444541817729 -0.1628388290927551 0 -0.031069698669773421 -0.18579278990409079 0 -0.024607444541817729 -0.1628388290927551 0 -0.041678966639480092 -0.16569621574823701 0 -0.031069698669773421 -0.18579278990409079 0 -0.041678966639480092 -0.16569621574823701 0 -0.052869563598918451 -0.18080928038070029 0 -0.041678966639480092 -0.16569621574823701 0 -0.052869563598918451 -0.18080928038070029 0 -0.0557366083130683 -0.15953263329572401 0 -0.052869563598918451 -0.18080928038070029 0 -0.0557366083130683 -0.15953263329572401 0 -0.073722427379045927 -0.17150239517808749 0 -0.041678966639480092 -0.16569621574823701 0 -0.0557366083130683 -0.15953263329572401 0 -0.044111518073822548 -0.13950754606791479 0 -0.044111518073822548 -0.13950754606791479 0 -0.072554287395194886 -0.14402871316100599 0 -0.0557366083130683 -0.15953263329572401 0 -0.044111518073822548 -0.13950754606791479 0 -0.072554287395194886 -0.14402871316100599 0 -0.057688853113925811 -0.1194245254739919 0 -0.044111518073822548 -0.13950754606791479 0 -0.072554287395194886 -0.14402871316100599 0 -0.057688853113925811 -0.1194245254739919 0 -0.036424194542535961 -0.12197390089750321 0 -0.044111518073822548 -0.13950754606791479 0 -0.036424194542535961 -0.12197390089750321 0 -0.01566874875245022 -0.1349863789748236 0 -0.044111518073822548 -0.13950754606791479 0 -0.024607444541817729 -0.1628388290927551 0 -0.041678966639480092 -0.16569621574823701 0 -0.044111518073822548 -0.13950754606791479 0 -0.024417598954686301 -0.25194111822013288 0 -0.021051523266036081 -0.23061258671429191 0 -0.036018359172745353 -0.23123360609286719 0 -0.024417598954686301 -0.25194111822013288 0 -0.0042033227111639123 -0.24392009467379419 0 -0.021051523266036081 -0.23061258671429191 0 -0.0042033227111639123 -0.24392009467379419 0 -0.021051523266036081 -0.23061258671429191 0 -0.0061251883926587468 -0.21847658989635399 0 -0.021051523266036081 -0.23061258671429191 0 -0.034798327151074927 -0.21182201979393589 0 -0.036018359172745353 -0.23123360609286719 0 -0.021051523266036081 -0.23061258671429191 0 -0.0061251883926587468 -0.21847658989635399 0 -0.034798327151074927 -0.21182201979393589 0 -0.0061251883926587468 -0.21847658989635399 0 -0.01450370320696402 -0.1989696834371438 0 -0.034798327151074927 -0.21182201979393589 0 -0.01450370320696402 -0.1989696834371438 0 -0.034798327151074927 -0.21182201979393589 0 -0.0061251883926587468 -0.21847658989635399 0 -0.01450370320696402 -0.1989696834371438 0 7.1336573020161454e-05 -0.1995351678497031 0 -0.0071235279138310006 -0.18423697962369731 0 -0.01450370320696402 -0.1989696834371438 0 0.0043410467839961964 -0.18529324621447579 0 -0.01450370320696402 -0.1989696834371438 0 0.0057909207371472484 -0.18611734708035199 0 -0.01450370320696402 -0.1989696834371438 0 7.1336573020161454e-05 -0.1995351678497031 0 0.0057909207371472484 -0.18611734708035199 0 -0.01450370320696402 -0.1989696834371438 0 0.0057909207371472484 -0.18611734708035199 0 0.0043410467839961964 -0.18529324621447579 0 -0.0071235279138310006 -0.18423697962369731 0 -0.01838216982740901 -0.18658928146228579 0 -0.01450370320696402 -0.1989696834371438 0 -0.031069698669773421 -0.18579278990409079 0 -0.01450370320696402 -0.1989696834371438 0 -0.034798327151074927 -0.21182201979393589 0 -0.031069698669773421 -0.18579278990409079 0 -0.01838216982740901 -0.18658928146228579 0 -0.01450370320696402 -0.1989696834371438 0 -0.031069698669773421 -0.18579278990409079 0 -0.052869563598918451 -0.18080928038070029 0 -0.053078177424185032 -0.20082817133436259 0 -0.031069698669773421 -0.18579278990409079 0 -0.053078177424185032 -0.20082817133436259 0 -0.034798327151074927 -0.21182201979393589 0 -0.052869563598918451 -0.18080928038070029 0 -0.053078177424185032 -0.20082817133436259 0 -0.0691451215329347 -0.19056542896049181 0 -0.053078177424185032 -0.20082817133436259 0 -0.034798327151074927 -0.21182201979393589 0 -0.055092951095186089 -0.22467435615072759 0 -0.053078177424185032 -0.20082817133436259 0 -0.055092951095186089 -0.22467435615072759 0 -0.073716130119236473 -0.20812055135334501 0 -0.034798327151074927 -0.21182201979393589 0 -0.055092951095186089 -0.22467435615072759 0 -0.034798327151074927 -0.21182201979393589 0 -0.036018359172745353 -0.23123360609286719 0 -0.046094524905341973 -0.23267289337351571 0 -0.034798327151074927 -0.21182201979393589 0 -0.046094524905341973 -0.23267289337351571 0 -0.055092951095186089 -0.22467435615072759 0 -0.055092951095186089 -0.22467435615072759 0 -0.059218592172817962 -0.2272870740292729 0 -0.071683584236718792 -0.22356871110784249 0 -0.055092951095186089 -0.22467435615072759 0 -0.059218592172817962 -0.2272870740292729 0 -0.061019360148322002 -0.2338026516068446 0 -0.059218592172817962 -0.2272870740292729 0 -0.067078484960836959 -0.22970237476827909 0 -0.055092951095186089 -0.22467435615072759 0 -0.059218592172817962 -0.2272870740292729 0 -0.05472471743712605 -0.23214941681569501 0 -0.061019360148322002 -0.2338026516068446 0 -0.059218592172817962 -0.2272870740292729 0 -0.05472471743712605 -0.23214941681569501 0 -0.046094524905341973 -0.23267289337351571 0 -0.05472471743712605 -0.23214941681569501 0 -0.051999311239655593 -0.23705764598208079 0 -0.046094524905341973 -0.23267289337351571 0 -0.055092951095186089 -0.22467435615072759 0 -0.05472471743712605 -0.23214941681569501 0 -0.046094524905341973 -0.23267289337351571 0 -0.055092951095186089 -0.22467435615072759 0 -0.043373569505789591 -0.25757607591008469 0 -0.046094524905341973 -0.23267289337351571 0 -0.051865525785046343 -0.2446524537930333 0 -0.046094524905341973 -0.23267289337351571 0 -0.051999311239655593 -0.23705764598208079 0 -0.051865525785046343 -0.2446524537930333 0 -0.051999311239655593 -0.23705764598208079 0 -0.056200092703497358 -0.23880142216791231 0 -0.051865525785046343 -0.2446524537930333 0 -0.05472471743712605 -0.23214941681569501 0 -0.051999311239655593 -0.23705764598208079 0 -0.056200092703497358 -0.23880142216791231 0 -0.061019360148322002 -0.2338026516068446 0 -0.05472471743712605 -0.23214941681569501 0 -0.056200092703497358 -0.23880142216791231 0 -0.056200092703497358 -0.23880142216791231 0 -0.060439677568747477 -0.24743189389530029 0 -0.063072368941633983 -0.23996327892790989 0 -0.061019360148322002 -0.2338026516068446 0 -0.056200092703497358 -0.23880142216791231 0 -0.063072368941633983 -0.23996327892790989 0 -0.053499066498271831 -0.25520713030263031 0 -0.060439677568747477 -0.24743189389530029 0 -0.051865525785046343 -0.2446524537930333 0 -0.056200092703497358 -0.23880142216791231 0 -0.060439677568747477 -0.24743189389530029 0 -0.051865525785046343 -0.2446524537930333 0 -0.024417598954686301 -0.25194111822013288 0 -0.036018359172745353 -0.23123360609286719 0 -0.046094524905341973 -0.23267289337351571 0 -0.043373569505789591 -0.25757607591008469 0 -0.046094524905341973 -0.23267289337351571 0 -0.024417598954686301 -0.25194111822013288 0 -0.046094524905341973 -0.23267289337351571 0 -0.043373569505789591 -0.25757607591008469 0 -0.024417598954686301 -0.25194111822013288 0 -0.046094524905341973 -0.23267289337351571 0 -0.088380331026424536 -0.2371467535213698 0 -0.082719171835277869 -0.24852045636828471 0 -0.094660834490162576 -0.24584606288603569 0 -0.088380331026424536 -0.2371467535213698 0 -0.097346975334182212 -0.23685388680080269 0 -0.094660834490162576 -0.24584606288603569 0 -0.088380331026424536 -0.2371467535213698 0 -0.082719171835277869 -0.24852045636828471 0 -0.076496444310969094 -0.23483487614650869 0 -0.07173045084938745 -0.2555688281518918 0 -0.082719171835277869 -0.24852045636828471 0 -0.070069542201893195 -0.2437810037866999 0 -0.082719171835277869 -0.24852045636828471 0 -0.070069542201893195 -0.2437810037866999 0 -0.076496444310969094 -0.23483487614650869 0 -0.07173045084938745 -0.2555688281518918 0 -0.060439677568747477 -0.24743189389530029 0 -0.070069542201893195 -0.2437810037866999 0 -0.060439677568747477 -0.24743189389530029 0 -0.070069542201893195 -0.2437810037866999 0 -0.063072368941633983 -0.23996327892790989 0 -0.061019360148322002 -0.2338026516068446 0 -0.063072368941633983 -0.23996327892790989 0 -0.067633172085709917 -0.23599942318279241 0 -0.070069542201893195 -0.2437810037866999 0 -0.063072368941633983 -0.23996327892790989 0 -0.067633172085709917 -0.23599942318279241 0 -0.070069542201893195 -0.2437810037866999 0 -0.067633172085709917 -0.23599942318279241 0 -0.076496444310969094 -0.23483487614650869 0 -0.076496444310969094 -0.23483487614650869 0 -0.067078484960836959 -0.22970237476827909 0 -0.071683584236718792 -0.22356871110784249 0 -0.067633172085709917 -0.23599942318279241 0 -0.076496444310969094 -0.23483487614650869 0 -0.067078484960836959 -0.22970237476827909 0 -0.076496444310969094 -0.23483487614650869 0 -0.071683584236718792 -0.22356871110784249 0 -0.083632505902205084 -0.227459559800338 0 -0.055092951095186089 -0.22467435615072759 0 -0.071683584236718792 -0.22356871110784249 0 -0.073716130119236473 -0.20812055135334501 0 -0.059218592172817962 -0.2272870740292729 0 -0.067078484960836959 -0.22970237476827909 0 -0.071683584236718792 -0.22356871110784249 0 -0.061019360148322002 -0.2338026516068446 0 -0.067633172085709917 -0.23599942318279241 0 -0.067078484960836959 -0.22970237476827909 0 -0.071683584236718792 -0.22356871110784249 0 -0.083632505902205084 -0.227459559800338 0 -0.08719517923677958 -0.215575965378273 0 -0.088380331026424536 -0.2371467535213698 0 -0.076496444310969094 -0.23483487614650869 0 -0.083632505902205084 -0.227459559800338 0 -0.088380331026424536 -0.2371467535213698 0 -0.083632505902205084 -0.227459559800338 0 -0.093963322504931959 -0.2283325588049358 0 -0.088380331026424536 -0.2371467535213698 0 -0.093963322504931959 -0.2283325588049358 0 -0.097346975334182212 -0.23685388680080269 0 -0.083632505902205084 -0.227459559800338 0 -0.08719517923677958 -0.215575965378273 0 -0.093963322504931959 -0.2283325588049358 0 -0.08719517923677958 -0.215575965378273 0 -0.092339309143287626 -0.1915667465559634 0 -0.1000497020810292 -0.20897148216052139 0 -0.08719517923677958 -0.215575965378273 0 -0.073716130119236473 -0.20812055135334501 0 -0.092339309143287626 -0.1915667465559634 0 -0.071683584236718792 -0.22356871110784249 0 -0.08719517923677958 -0.215575965378273 0 -0.073716130119236473 -0.20812055135334501 0 -0.055092951095186089 -0.22467435615072759 0 -0.073716130119236473 -0.20812055135334501 0 -0.053078177424185032 -0.20082817133436259 0 -0.073716130119236473 -0.20812055135334501 0 -0.0691451215329347 -0.19056542896049181 0 -0.073716130119236473 -0.20812055135334501 0 -0.092339309143287626 -0.1915667465559634 0 -0.073716130119236473 -0.20812055135334501 0 -0.0691451215329347 -0.19056542896049181 0 -0.092339309143287626 -0.1915667465559634 0 -0.092339309143287626 -0.1915667465559634 0 -0.1087698751764256 -0.19976619991681699 0 -0.1109624881673389 -0.1750129417585817 0 -0.092339309143287626 -0.1915667465559634 0 -0.1087698751764256 -0.19976619991681699 0 -0.1000497020810292 -0.20897148216052139 0 -0.1087698751764256 -0.19976619991681699 0 -0.1238475802305572 -0.19596353734276509 0 -0.1175629479140754 -0.21327586378056701 0 -0.1238475802305572 -0.19596353734276509 0 -0.1175629479140754 -0.21327586378056701 0 -0.1305267561856841 -0.193227593712132 0 -0.1087698751764256 -0.19976619991681699 0 -0.1238475802305572 -0.19596353734276509 0 -0.1109624881673389 -0.1750129417585817 0 -0.1087698751764256 -0.19976619991681699 0 -0.1175629479140754 -0.21327586378056701 0 -0.1077044690010928 -0.2130011506911122 0 -0.1238475802305572 -0.19596353734276509 0 -0.1175629479140754 -0.21327586378056701 0 -0.1175629479140754 -0.21327586378056701 0 -0.1305267561856841 -0.193227593712132 0 -0.1175629479140754 -0.21327586378056701 0 -0.1077044690010928 -0.2130011506911122 0 -0.11135552995054369 -0.2228755114422106 0 -0.1175629479140754 -0.21327586378056701 0 -0.11135552995054369 -0.2228755114422106 0 -0.1077044690010928 -0.2130011506911122 0 -0.1000497020810292 -0.20897148216052139 0 -0.1007842898833906 -0.22011669615544499 0 -0.1077044690010928 -0.2130011506911122 0 -0.1007842898833906 -0.22011669615544499 0 -0.11135552995054369 -0.2228755114422106 0 -0.1087698751764256 -0.19976619991681699 0 -0.1077044690010928 -0.2130011506911122 0 -0.1000497020810292 -0.20897148216052139 0 -0.08719517923677958 -0.215575965378273 0 -0.1000497020810292 -0.20897148216052139 0 -0.1007842898833906 -0.22011669615544499 0 -0.1007842898833906 -0.22011669615544499 0 -0.093963322504931959 -0.2283325588049358 0 -0.1042847820047933 -0.23113803124422541 0 -0.08719517923677958 -0.215575965378273 0 -0.1007842898833906 -0.22011669615544499 0 -0.093963322504931959 -0.2283325588049358 0 -0.093963322504931959 -0.2283325588049358 0 -0.1042847820047933 -0.23113803124422541 0 -0.097346975334182212 -0.23685388680080269 0 -0.1007842898833906 -0.22011669615544499 0 -0.1042847820047933 -0.23113803124422541 0 -0.11135552995054369 -0.2228755114422106 0 -0.1175629479140754 -0.21327586378056701 0 -0.11135552995054369 -0.2228755114422106 0 -0.1213912813342431 -0.22359136384010381 0 -0.1175629479140754 -0.21327586378056701 0 -0.1213912813342431 -0.22359136384010381 0 -0.1313016334297957 -0.22185537080061221 0 -0.1213912813342431 -0.22359136384010381 0 -0.1139766534631963 -0.23336243689562489 0 -0.12763720378208901 -0.23625822477055911 0 -0.1042847820047933 -0.23113803124422541 0 -0.11135552995054369 -0.2228755114422106 0 -0.1139766534631963 -0.23336243689562489 0 -0.11135552995054369 -0.2228755114422106 0 -0.1213912813342431 -0.22359136384010381 0 -0.1139766534631963 -0.23336243689562489 0 -0.1139766534631963 -0.23336243689562489 0 -0.115513198830046 -0.24280988997141881 0 -0.1048111211685759 -0.24210120392183021 0 -0.1139766534631963 -0.23336243689562489 0 -0.115513198830046 -0.24280988997141881 0 -0.12763720378208901 -0.23625822477055911 0 -0.1201488900900636 -0.25008013106566529 0 -0.115513198830046 -0.24280988997141881 0 -0.12763720378208901 -0.23625822477055911 0 -0.1109921256463052 -0.25224745320341441 0 -0.1201488900900636 -0.25008013106566529 0 -0.115513198830046 -0.24280988997141881 0 -0.1109921256463052 -0.25224745320341441 0 -0.115513198830046 -0.24280988997141881 0 -0.1048111211685759 -0.24210120392183021 0 -0.10217223929686139 -0.25326639019209451 0 -0.1109921256463052 -0.25224745320341441 0 -0.1048111211685759 -0.24210120392183021 0 -0.1042847820047933 -0.23113803124422541 0 -0.1048111211685759 -0.24210120392183021 0 -0.097346975334182212 -0.23685388680080269 0 -0.1042847820047933 -0.23113803124422541 0 -0.1139766534631963 -0.23336243689562489 0 -0.1048111211685759 -0.24210120392183021 0 -0.1048111211685759 -0.24210120392183021 0 -0.097346975334182212 -0.23685388680080269 0 -0.094660834490162576 -0.24584606288603569 0 -0.10217223929686139 -0.25326639019209451 0 -0.1048111211685759 -0.24210120392183021 0 -0.094660834490162576 -0.24584606288603569 0 -0.072554287395194886 -0.14402871316100599 0 -0.09211254794510855 -0.1661751626162655 0 -0.1009970567165672 -0.1485498802540971 0 -0.072554287395194886 -0.14402871316100599 0 -0.1009970567165672 -0.1485498802540971 0 -0.079826307660933488 -0.1142348454390191 0 -0.1001883327790668 -0.120056526169167 0 -0.072554287395194886 -0.14402871316100599 0 -0.1001883327790668 -0.120056526169167 0 -0.072554287395194886 -0.14402871316100599 0 -0.1009970567165672 -0.1485498802540971 0 -0.079826307660933488 -0.1142348454390191 0 -0.057688853113925811 -0.1194245254739919 0 -0.072554287395194886 -0.14402871316100599 0 -0.0557366083130683 -0.15953263329572401 0 -0.072554287395194886 -0.14402871316100599 0 -0.073722427379045927 -0.17150239517808749 0 -0.052869563598918451 -0.18080928038070029 0 -0.0691451215329347 -0.19056542896049181 0 -0.073722427379045927 -0.17150239517808749 0 -0.0691451215329347 -0.19056542896049181 0 -0.092339309143287626 -0.1915667465559634 0 -0.073722427379045927 -0.17150239517808749 0 -0.092339309143287626 -0.1915667465559634 0 -0.073722427379045927 -0.17150239517808749 0 -0.09211254794510855 -0.1661751626162655 0 -0.072554287395194886 -0.14402871316100599 0 -0.073722427379045927 -0.17150239517808749 0 -0.09211254794510855 -0.1661751626162655 0 -0.09211254794510855 -0.1661751626162655 0 -0.1109624881673389 -0.1750129417585817 0 -0.1009970567165672 -0.1485498802540971 0 -0.092339309143287626 -0.1915667465559634 0 -0.09211254794510855 -0.1661751626162655 0 -0.1109624881673389 -0.1750129417585817 0 -0.092339309143287626 -0.1915667465559634 0 -0.1109624881673389 -0.1750129417585817 0 -0.1238475802305572 -0.19596353734276509 0 -0.1109624881673389 -0.1750129417585817 0 -0.13013221254703991 -0.1786512109049633 0 -0.1109624881673389 -0.1750129417585817 0 -0.12958566719138839 -0.1584591369611982 0 -0.1109624881673389 -0.1750129417585817 0 -0.12958566719138839 -0.1584591369611982 0 -0.13013221254703991 -0.1786512109049633 0 -0.1109624881673389 -0.1750129417585817 0 -0.1009970567165672 -0.1485498802540971 0 -0.12958566719138839 -0.1584591369611982 0 -0.1009970567165672 -0.1485498802540971 0 -0.12943982603793969 -0.15307104734718671 0 -0.12958566719138839 -0.1584591369611982 0 -0.1009970567165672 -0.1485498802540971 0 -0.12902309953414701 -0.13767512038186 0 -0.12943982603793969 -0.15307104734718671 0 -0.1009970567165672 -0.1485498802540971 0 -0.12943982603793969 -0.15307104734718671 0 -0.1001883327790668 -0.120056526169167 0 -0.1009970567165672 -0.1485498802540971 0 -0.11552893456934731 -0.1271781895403534 0 -0.1009970567165672 -0.1485498802540971 0 -0.11552893456934731 -0.1271781895403534 0 -0.12902309953414701 -0.13767512038186 0 -0.11552893456934731 -0.1271781895403534 0 -0.12902309953414701 -0.13767512038186 0 -0.12860637303035399 -0.12227919341653321 0 -0.12902309953414701 -0.13767512038186 0 -0.12860637303035399 -0.12227919341653321 0 -0.12902309953414701 -0.13767512038186 0 -0.12860637303035399 -0.12227919341653321 0 -0.15090922595181491 -0.1214166074544633 0 -0.12902309953414701 -0.13767512038186 0 -0.141214642921768 -0.14812235214129371 0 -0.15090922595181491 -0.1214166074544633 0 -0.141214642921768 -0.14812235214129371 0 -0.1629426820836482 -0.1288086936917312 0 -0.141214642921768 -0.14812235214129371 0 -0.1629426820836482 -0.1288086936917312 0 -0.15090922595181491 -0.1214166074544633 0 -0.141214642921768 -0.14812235214129371 0 -0.15090922595181491 -0.1214166074544633 0 -0.141214642921768 -0.14812235214129371 0 -0.15397164465995389 -0.15697054285110021 0 -0.1662645147129467 -0.13795986531135479 0 -0.13887381733859169 -0.15457064292253689 0 -0.15397164465995389 -0.15697054285110021 0 -0.141214642921768 -0.14812235214129371 0 -0.13887381733859169 -0.15457064292253689 0 -0.15397164465995389 -0.15697054285110021 0 -0.141214642921768 -0.14812235214129371 0 -0.13470564275873009 -0.15390808388913479 0 -0.12943982603793969 -0.15307104734718671 0 -0.13887381733859169 -0.15457064292253689 0 -0.13470564275873009 -0.15390808388913479 0 -0.13887381733859169 -0.15457064292253689 0 -0.13470564275873009 -0.15390808388913479 0 -0.12958566719138839 -0.1584591369611982 0 -0.141214642921768 -0.14812235214129371 0 -0.13470564275873009 -0.15390808388913479 0 -0.141214642921768 -0.14812235214129371 0 -0.13887381733859169 -0.15457064292253689 0 -0.141214642921768 -0.14812235214129371 0 -0.13887381733859169 -0.15457064292253689 0 -0.13470564275873009 -0.15390808388913479 0 -0.12902309953414701 -0.13767512038186 0 -0.141214642921768 -0.14812235214129371 0 -0.12943982603793969 -0.15307104734718671 0 -0.12902309953414701 -0.13767512038186 0 -0.12943982603793969 -0.15307104734718671 0 -0.12943982603793969 -0.15307104734718671 0 -0.12958566719138839 -0.1584591369611982 0 -0.13470564275873009 -0.15390808388913479 0 -0.12958566719138839 -0.1584591369611982 0 -0.13470564275873009 -0.15390808388913479 0 -0.12943982603793969 -0.15307104734718671 0 -0.13470564275873009 -0.15390808388913479 0 -0.12943982603793969 -0.15307104734718671 0 -0.12958566719138839 -0.1584591369611982 0 -0.12958566719138839 -0.1584591369611982 0 -0.13013221254703991 -0.1786512109049633 0 -0.13887381733859169 -0.15457064292253689 0 -0.13013221254703991 -0.1786512109049633 0 -0.14224920042281819 -0.17509906828161559 0 -0.13887381733859169 -0.15457064292253689 0 -0.12958566719138839 -0.1584591369611982 0 -0.13013221254703991 -0.1786512109049633 0 -0.13887381733859169 -0.15457064292253689 0 -0.13013221254703991 -0.1786512109049633 0 -0.14224920042281819 -0.17509906828161559 0 -0.1305267561856841 -0.193227593712132 0 -0.13013221254703991 -0.1786512109049633 0 -0.14224920042281819 -0.17509906828161559 0 -0.1305267561856841 -0.193227593712132 0 -0.1238475802305572 -0.19596353734276509 0 -0.13013221254703991 -0.1786512109049633 0 -0.13013221254703991 -0.1786512109049633 0 -0.1305267561856841 -0.193227593712132 0 -0.14224920042281819 -0.17509906828161559 0 -0.1305267561856841 -0.193227593712132 0 -0.15176276722790419 -0.1901846721785235 0 -0.14224920042281819 -0.17509906828161559 0 -0.15864243776370829 -0.17350121022261181 0 -0.15176276722790419 -0.1901846721785235 0 -0.14224920042281819 -0.17509906828161559 0 -0.15397164465995389 -0.15697054285110021 0 -0.14224920042281819 -0.17509906828161559 0 -0.15397164465995389 -0.15697054285110021 0 -0.15864243776370829 -0.17350121022261181 0 -0.13887381733859169 -0.15457064292253689 0 -0.14224920042281819 -0.17509906828161559 0 -0.15397164465995389 -0.15697054285110021 0 -0.15397164465995389 -0.15697054285110021 0 -0.17147223174334009 -0.15975237740234291 0 -0.15397164465995389 -0.15697054285110021 0 -0.17147223174334009 -0.15975237740234291 0 -0.15864243776370829 -0.17350121022261181 0 -0.17147223174334009 -0.15975237740234291 0 -0.15864243776370829 -0.17350121022261181 0 -0.17474874178852959 -0.1845214459374703 0 -0.15864243776370829 -0.17350121022261181 0 -0.17474874178852959 -0.1845214459374703 0 -0.15176276722790419 -0.1901846721785235 0 -0.17474874178852959 -0.1845214459374703 0 -0.1889728188267257 -0.16253421195358941 0 -0.17474874178852959 -0.1845214459374703 0 -0.1889728188267257 -0.16253421195358941 0 -0.19822606747333851 -0.1781709228353828 0 -0.17147223174334009 -0.15975237740234291 0 -0.1889728188267257 -0.16253421195358941 0 -0.17147223174334009 -0.15975237740234291 0 -0.17474874178852959 -0.1845214459374703 0 -0.1889728188267257 -0.16253421195358941 0 -0.17147223174334009 -0.15975237740234291 0 -0.1795785954121363 -0.13562117085043551 0 -0.18863519254688041 -0.14565672190580931 0 -0.17147223174334009 -0.15975237740234291 0 -0.18863519254688041 -0.14565672190580931 0 -0.1889728188267257 -0.16253421195358941 0 -0.17147223174334009 -0.15975237740234291 0 -0.1795785954121363 -0.13562117085043551 0 -0.1662645147129467 -0.13795986531135479 0 -0.1795785954121363 -0.13562117085043551 0 -0.1913626164103934 -0.1289976456743151 0 -0.18863519254688041 -0.14565672190580931 0 -0.1662645147129467 -0.13795986531135479 0 -0.17855738476594171 -0.1189491877716108 0 -0.1795785954121363 -0.13562117085043551 0 -0.1662645147129467 -0.13795986531135479 0 -0.17855738476594171 -0.1189491877716108 0 -0.1795785954121363 -0.13562117085043551 0 -0.1913626164103934 -0.1289976456743151 0 -0.17855738476594171 -0.1189491877716108 0 -0.1629426820836482 -0.1288086936917312 0 -0.1662645147129467 -0.13795986531135479 0 -0.17855738476594171 -0.1189491877716108 0 -0.141214642921768 -0.14812235214129371 0 -0.1629426820836482 -0.1288086936917312 0 -0.1662645147129467 -0.13795986531135479 0 -0.15397164465995389 -0.15697054285110021 0 -0.1662645147129467 -0.13795986531135479 0 -0.15397164465995389 -0.15697054285110021 0 -0.17147223174334009 -0.15975237740234291 0 -0.1662645147129467 -0.13795986531135479 0 -0.14768051084269579 -0.25428255713799652 0 -0.14630058771211571 -0.2284959139052184 0 -0.16020994257011351 -0.2451737285806446 0 -0.13207651067390849 -0.25048314788909232 0 -0.14768051084269579 -0.25428255713799652 0 -0.14630058771211571 -0.2284959139052184 0 -0.13207651067390849 -0.25048314788909232 0 -0.1313016334297957 -0.22185537080061221 0 -0.13207651067390849 -0.25048314788909232 0 -0.12763720378208901 -0.23625822477055911 0 -0.1313016334297957 -0.22185537080061221 0 -0.12896030181799739 -0.25415245352329358 0 -0.12763720378208901 -0.23625822477055911 0 -0.12896030181799739 -0.25415245352329358 0 -0.13207651067390849 -0.25048314788909232 0 -0.12763720378208901 -0.23625822477055911 0 -0.13207651067390849 -0.25048314788909232 0 -0.14630058771211571 -0.2284959139052184 0 -0.12896030181799739 -0.25415245352329358 0 -0.1201488900900636 -0.25008013106566529 0 -0.12763720378208901 -0.23625822477055911 0 -0.13207651067390849 -0.25048314788909232 0 -0.1313016334297957 -0.22185537080061221 0 -0.14630058771211571 -0.2284959139052184 0 -0.1313016334297957 -0.22185537080061221 0 -0.14630058771211571 -0.2284959139052184 0 -0.1438848024563634 -0.2082500349959672 0 -0.1213912813342431 -0.22359136384010381 0 -0.12763720378208901 -0.23625822477055911 0 -0.1313016334297957 -0.22185537080061221 0 -0.14630058771211571 -0.2284959139052184 0 -0.16052466475032259 -0.20650867992134439 0 -0.14630058771211571 -0.2284959139052184 0 -0.1438848024563634 -0.2082500349959672 0 -0.16052466475032259 -0.20650867992134439 0 -0.1313016334297957 -0.22185537080061221 0 -0.1438848024563634 -0.2082500349959672 0 -0.1305267561856841 -0.193227593712132 0 -0.1175629479140754 -0.21327586378056701 0 -0.1313016334297957 -0.22185537080061221 0 -0.1305267561856841 -0.193227593712132 0 -0.1313016334297957 -0.22185537080061221 0 -0.1305267561856841 -0.193227593712132 0 -0.1238475802305572 -0.19596353734276509 0 -0.13013221254703991 -0.1786512109049633 0 -0.1305267561856841 -0.193227593712132 0 -0.1438848024563634 -0.2082500349959672 0 -0.15176276722790419 -0.1901846721785235 0 -0.16052466475032259 -0.20650867992134439 0 -0.1438848024563634 -0.2082500349959672 0 -0.1305267561856841 -0.193227593712132 0 -0.15176276722790419 -0.1901846721785235 0 -0.17474874178852959 -0.1845214459374703 0 -0.15176276722790419 -0.1901846721785235 0 -0.16052466475032259 -0.20650867992134439 0 -0.17474874178852959 -0.1845214459374703 0 -0.16052466475032259 -0.20650867992134439 0 -0.17474874178852959 -0.1845214459374703 0 -0.18056925046816491 -0.20380574113908789 0 -0.16052466475032259 -0.20650867992134439 0 -0.17474874178852959 -0.1845214459374703 0 -0.18056925046816491 -0.20380574113908789 0 -0.1989864895620185 -0.1962403480413466 0 -0.18056925046816491 -0.20380574113908789 0 -0.17035223766021271 -0.21867241290321451 0 -0.19132790106820249 -0.21985310244774181 0 -0.14630058771211571 -0.2284959139052184 0 -0.17035223766021271 -0.21867241290321451 0 -0.16052466475032259 -0.20650867992134439 0 -0.18056925046816491 -0.20380574113908789 0 -0.17035223766021271 -0.21867241290321451 0 -0.16052466475032259 -0.20650867992134439 0 -0.14630058771211571 -0.2284959139052184 0 -0.17035223766021271 -0.21867241290321451 0 -0.17303878430225769 -0.23469862710267961 0 -0.17303878430225769 -0.23469862710267961 0 -0.19221211386711259 -0.24194809490021019 0 -0.19132790106820249 -0.21985310244774181 0 -0.17035223766021271 -0.21867241290321451 0 -0.17303878430225769 -0.23469862710267961 0 -0.19132790106820249 -0.21985310244774181 0 -0.17440729717023629 -0.2563183483571605 0 -0.17303878430225769 -0.23469862710267961 0 -0.19221211386711259 -0.24194809490021019 0 -0.14630058771211571 -0.2284959139052184 0 -0.17303878430225769 -0.23469862710267961 0 -0.16020994257011351 -0.2451737285806446 0 -0.17440729717023629 -0.2563183483571605 0 -0.17303878430225769 -0.23469862710267961 0 -0.16020994257011351 -0.2451737285806446 0 -0.2174564928687569 -0.25918335877984772 0 -0.20611919924340391 -0.2452313957486619 0 -0.21918329882834239 -0.23276376226031811 0 -0.2174564928687569 -0.25918335877984772 0 -0.21918329882834239 -0.23276376226031811 0 -0.20611919924340391 -0.2452313957486619 0 -0.20525910347233481 -0.2323679124351275 0 -0.21918329882834239 -0.23276376226031811 0 -0.19648498718047261 -0.2598938503678061 0 -0.20611919924340391 -0.2452313957486619 0 -0.19221211386711259 -0.24194809490021019 0 -0.20611919924340391 -0.2452313957486619 0 -0.19221211386711259 -0.24194809490021019 0 -0.20525910347233481 -0.2323679124351275 0 -0.19221211386711259 -0.24194809490021019 0 -0.19132790106820249 -0.21985310244774181 0 -0.20525910347233481 -0.2323679124351275 0 -0.19132790106820249 -0.21985310244774181 0 -0.2083752368008594 -0.2187911077125417 0 -0.20525910347233481 -0.2323679124351275 0 -0.2083752368008594 -0.2187911077125417 0 -0.220910104787928 -0.20634416574078859 0 -0.21918329882834239 -0.23276376226031811 0 -0.2083752368008594 -0.2187911077125417 0 -0.20525910347233481 -0.2323679124351275 0 -0.21918329882834239 -0.23276376226031811 0 -0.2083752368008594 -0.2187911077125417 0 -0.1989864895620185 -0.1962403480413466 0 -0.220910104787928 -0.20634416574078859 0 -0.18056925046816491 -0.20380574113908789 0 -0.19132790106820249 -0.21985310244774181 0 -0.1989864895620185 -0.1962403480413466 0 -0.19132790106820249 -0.21985310244774181 0 -0.2083752368008594 -0.2187911077125417 0 -0.1989864895620185 -0.1962403480413466 0 -0.1989864895620185 -0.1962403480413466 0 -0.220910104787928 -0.20634416574078859 0 -0.21679299211206379 -0.18475702925503509 0 -0.23706317547390671 -0.19363565238550029 0 -0.220910104787928 -0.20634416574078859 0 -0.21679299211206379 -0.18475702925503509 0 -0.23706317547390671 -0.19363565238550029 0 -0.25410708769647983 -0.2033959670697395 0 -0.25120816251796563 -0.1894438163302814 0 -0.23706317547390671 -0.19363565238550029 0 -0.24011494044394349 -0.21757790953575021 0 -0.22935702257635979 -0.215370473621502 0 -0.23706317547390671 -0.19363565238550029 0 -0.24011494044394349 -0.21757790953575021 0 -0.23706317547390671 -0.19363565238550029 0 -0.24011494044394349 -0.21757790953575021 0 -0.25410708769647983 -0.2033959670697395 0 -0.24011494044394349 -0.21757790953575021 0 -0.25410708769647983 -0.2033959670697395 0 -0.24011494044394349 -0.21757790953575021 0 -0.25410708769647983 -0.2033959670697395 0 -0.25122865406170702 -0.21811373267599821 0 -0.220910104787928 -0.20634416574078859 0 -0.22935702257635979 -0.215370473621502 0 -0.21918329882834239 -0.23276376226031811 0 -0.23706317547390671 -0.19363565238550029 0 -0.220910104787928 -0.20634416574078859 0 -0.22935702257635979 -0.215370473621502 0 -0.22935702257635979 -0.215370473621502 0 -0.21918329882834239 -0.23276376226031811 0 -0.23105939755024149 -0.226756285520443 0 -0.220910104787928 -0.20634416574078859 0 -0.21918329882834239 -0.23276376226031811 0 -0.21918329882834239 -0.23276376226031811 0 -0.23105939755024149 -0.226756285520443 0 -0.22963896206648859 -0.24131919055517639 0 -0.24011494044394349 -0.21757790953575021 0 -0.22935702257635979 -0.215370473621502 0 -0.23105939755024149 -0.226756285520443 0 -0.23105939755024149 -0.226756285520443 0 -0.2406047070776014 -0.22142031509508209 0 -0.23932976191652841 -0.22908114049986911 0 -0.24011494044394349 -0.21757790953575021 0 -0.23105939755024149 -0.226756285520443 0 -0.24011494044394349 -0.21757790953575021 0 -0.23105939755024149 -0.226756285520443 0 -0.2406047070776014 -0.22142031509508209 0 -0.2406047070776014 -0.22142031509508209 0 -0.2438103669906638 -0.2264603325538401 0 -0.23932976191652841 -0.22908114049986911 0 -0.24011494044394349 -0.21757790953575021 0 -0.2406047070776014 -0.22142031509508209 0 -0.2448940970345316 -0.22215903735858 0 -0.24011494044394349 -0.21757790953575021 0 -0.2406047070776014 -0.22142031509508209 0 -0.24011494044394349 -0.21757790953575021 0 -0.2448940970345316 -0.22215903735858 0 -0.25122865406170702 -0.21811373267599821 0 -0.2448940970345316 -0.22215903735858 0 -0.248711816598742 -0.2272228969322293 0 -0.25122865406170702 -0.21811373267599821 0 -0.2406047070776014 -0.22142031509508209 0 -0.2448940970345316 -0.22215903735858 0 -0.2438103669906638 -0.2264603325538401 0 -0.2448940970345316 -0.22215903735858 0 -0.2438103669906638 -0.2264603325538401 0 -0.248711816598742 -0.2272228969322293 0 -0.248711816598742 -0.2272228969322293 0 -0.24454984724022019 -0.2329927933329605 0 -0.2505197249660438 -0.23485013370426719 0 -0.2438103669906638 -0.2264603325538401 0 -0.24454984724022019 -0.2329927933329605 0 -0.23932976191652841 -0.22908114049986911 0 -0.2438103669906638 -0.2264603325538401 0 -0.248711816598742 -0.2272228969322293 0 -0.24454984724022019 -0.2329927933329605 0 -0.23105939755024149 -0.226756285520443 0 -0.23932976191652841 -0.22908114049986911 0 -0.23820551693475769 -0.23843137207942749 0 -0.24454984724022019 -0.2329927933329605 0 -0.23932976191652841 -0.22908114049986911 0 -0.23820551693475769 -0.23843137207942749 0 -0.24540219753983769 -0.2395846647706906 0 -0.2505197249660438 -0.23485013370426719 0 -0.25094933974631878 -0.2429019344679007 0 -0.23820551693475769 -0.23843137207942749 0 -0.24540219753983769 -0.2395846647706906 0 -0.24382227947229909 -0.24770150552419051 0 -0.24454984724022019 -0.2329927933329605 0 -0.23820551693475769 -0.23843137207942749 0 -0.24540219753983769 -0.2395846647706906 0 -0.24454984724022019 -0.2329927933329605 0 -0.24540219753983769 -0.2395846647706906 0 -0.2505197249660438 -0.23485013370426719 0 -0.24540219753983769 -0.2395846647706906 0 -0.24382227947229909 -0.24770150552419051 0 -0.25094933974631878 -0.2429019344679007 0 -0.24946582583231791 -0.24785320630161661 0 -0.24382227947229909 -0.24770150552419051 0 -0.25094933974631878 -0.2429019344679007 0 -0.2497529842214796 -0.25220111039885162 0 -0.24946582583231791 -0.24785320630161661 0 -0.24382227947229909 -0.24770150552419051 0 -0.23363617275768819 -0.25158402435266242 0 -0.23820551693475769 -0.23843137207942749 0 -0.24382227947229909 -0.24770150552419051 0 -0.23363617275768819 -0.25158402435266242 0 -0.23820551693475769 -0.23843137207942749 0 -0.22963896206648859 -0.24131919055517639 0 -0.2174564928687569 -0.25918335877984772 0 -0.21918329882834239 -0.23276376226031811 0 -0.22963896206648859 -0.24131919055517639 0 -0.23105939755024149 -0.226756285520443 0 -0.23820551693475769 -0.23843137207942749 0 -0.22963896206648859 -0.24131919055517639 0 -0.20580262965313101 -0.1545119698448168 0 -0.21857773706564601 -0.15035376025423469 0 -0.20416784805484489 -0.13904610357701949 0 -0.21857773706564601 -0.15035376025423469 0 -0.21847321588446131 -0.13523758168827291 0 -0.20416784805484489 -0.13904610357701949 0 -0.21857773706564601 -0.15035376025423469 0 -0.20416784805484489 -0.13904610357701949 0 -0.21847321588446131 -0.13523758168827291 0 -0.21177935499124451 -0.127280420395537 0 -0.20416784805484489 -0.13904610357701949 0 -0.21177935499124451 -0.127280420395537 0 -0.20416784805484489 -0.13904610357701949 0 -0.20416784805484489 -0.13904610357701949 0 -0.1913626164103934 -0.1289976456743151 0 -0.18863519254688041 -0.14565672190580931 0 -0.21177935499124451 -0.127280420395537 0 -0.20416784805484489 -0.13904610357701949 0 -0.1913626164103934 -0.1289976456743151 0 -0.20416784805484489 -0.13904610357701949 0 -0.1913626164103934 -0.1289976456743151 0 -0.20416784805484489 -0.13904610357701949 0 -0.18863519254688041 -0.14565672190580931 0 -0.1889728188267257 -0.16253421195358941 0 -0.20580262965313101 -0.1545119698448168 0 -0.20416784805484489 -0.13904610357701949 0 -0.1889728188267257 -0.16253421195358941 0 -0.20416784805484489 -0.13904610357701949 0 -0.1889728188267257 -0.16253421195358941 0 -0.20580262965313101 -0.1545119698448168 0 -0.1889728188267257 -0.16253421195358941 0 -0.21149211466529799 -0.1661138035944176 0 -0.1889728188267257 -0.16253421195358941 0 -0.19822606747333851 -0.1781709228353828 0 -0.21149211466529799 -0.1661138035944176 0 -0.1889728188267257 -0.16253421195358941 0 -0.21149211466529799 -0.1661138035944176 0 -0.17474874178852959 -0.1845214459374703 0 -0.1989864895620185 -0.1962403480413466 0 -0.19822606747333851 -0.1781709228353828 0 -0.1989864895620185 -0.1962403480413466 0 -0.19822606747333851 -0.1781709228353828 0 -0.21679299211206379 -0.18475702925503509 0 -0.19822606747333851 -0.1781709228353828 0 -0.21679299211206379 -0.18475702925503509 0 -0.21149211466529799 -0.1661138035944176 0 -0.20580262965313101 -0.1545119698448168 0 -0.21857773706564601 -0.15035376025423469 0 -0.21149211466529799 -0.1661138035944176 0 -0.21857773706564601 -0.15035376025423469 0 -0.21149211466529799 -0.1661138035944176 0 -0.22353041300016729 -0.16174689292807459 0 -0.21857773706564601 -0.15035376025423469 0 -0.22353041300016729 -0.16174689292807459 0 -0.23298762607644949 -0.16166141693144701 0 -0.21149211466529799 -0.1661138035944176 0 -0.2340114105038695 -0.16969339523525059 0 -0.21149211466529799 -0.1661138035944176 0 -0.22353041300016729 -0.16174689292807459 0 -0.2340114105038695 -0.16969339523525059 0 -0.22353041300016729 -0.16174689292807459 0 -0.2340114105038695 -0.16969339523525059 0 -0.23298762607644949 -0.16166141693144701 0 -0.2340114105038695 -0.16969339523525059 0 -0.23298762607644949 -0.16166141693144701 0 -0.21679299211206379 -0.18475702925503509 0 -0.21149211466529799 -0.1661138035944176 0 -0.2340114105038695 -0.16969339523525059 0 -0.23706317547390671 -0.19363565238550029 0 -0.21679299211206379 -0.18475702925503509 0 -0.2340114105038695 -0.16969339523525059 0 -0.23706317547390671 -0.19363565238550029 0 -0.24556315195245881 -0.1715296212621579 0 -0.25120816251796563 -0.1894438163302814 0 -0.23706317547390671 -0.19363565238550029 0 -0.2340114105038695 -0.16969339523525059 0 -0.24556315195245881 -0.1715296212621579 0 -0.23706317547390671 -0.19363565238550029 0 -0.2340114105038695 -0.16969339523525059 0 -0.23298762607644949 -0.16166141693144701 0 -0.24118392951488091 -0.1497131011252702 0 -0.25192155109906789 -0.16055113994692141 0 -0.23298762607644949 -0.16166141693144701 0 -0.24556315195245881 -0.1715296212621579 0 -0.25192155109906789 -0.16055113994692141 0 -0.2340114105038695 -0.16969339523525059 0 -0.24556315195245881 -0.1715296212621579 0 -0.2340114105038695 -0.16969339523525059 0 -0.23298762607644949 -0.16166141693144701 0 -0.24556315195245881 -0.1715296212621579 0 -0.23298762607644949 -0.16166141693144701 0 -0.24556315195245881 -0.1715296212621579 0 -0.24118392951488091 -0.1497131011252702 0 -0.25192155109906789 -0.16055113994692141 0 -0.25226948237231878 -0.14577558056299589 0 -0.23298762607644949 -0.16166141693144701 0 -0.24118392951488091 -0.1497131011252702 0 -0.23027625512900771 -0.14038968038200661 0 -0.24118392951488091 -0.1497131011252702 0 -0.24047074079390249 -0.13628936881773729 0 -0.25226948237231878 -0.14577558056299589 0 -0.24118392951488091 -0.1497131011252702 0 -0.23027625512900771 -0.14038968038200661 0 -0.24047074079390249 -0.13628936881773729 0 -0.21857773706564601 -0.15035376025423469 0 -0.23298762607644949 -0.16166141693144701 0 -0.23027625512900771 -0.14038968038200661 0 -0.23298762607644949 -0.16166141693144701 0 -0.23027625512900771 -0.14038968038200661 0 -0.21857773706564601 -0.15035376025423469 0 -0.21847321588446131 -0.13523758168827291 0 -0.23027625512900771 -0.14038968038200661 0 -0.21857773706564601 -0.15035376025423469 0 -0.23298762607644949 -0.16166141693144701 0 -0.23027625512900771 -0.14038968038200661 0 -0.22756488418156301 -0.1191179438325666 0 -0.21847321588446131 -0.13523758168827291 0 -0.21177935499124451 -0.127280420395537 0 -0.22756488418156301 -0.1191179438325666 0 -0.21847321588446131 -0.13523758168827291 0 -0.23027625512900771 -0.14038968038200661 0 -0.22756488418156301 -0.1191179438325666 0 -0.23027625512900771 -0.14038968038200661 0 -0.24047074079390249 -0.13628936881773729 0 -0.22756488418156301 -0.1191179438325666 0 -0.24047074079390249 -0.13628936881773729 0 -0.22756488418156301 -0.1191179438325666 0 -0.25105915277174212 -0.12645053818584689 0 -0.24047074079390249 -0.13628936881773729 0 -0.25226948237231878 -0.14577558056299589 0 -0.25105915277174212 -0.12645053818584689 0 -0.24351454682149651 -0.1077484974027736 0 -0.22756488418156301 -0.1191179438325666 0 -0.25105915277174212 -0.12645053818584689 0 -0.24351454682149651 -0.1077484974027736 0 -0.22485351323411831 -0.097846207283126679 0 -0.24135216777875909 -0.085280492916284589 0 -0.24351454682149651 -0.1077484974027736 0 -0.24135216777875909 -0.085280492916284589 0 -0.25676893032515291 -0.094480841614869374 0 -0.22485351323411831 -0.097846207283126679 0 -0.22756488418156301 -0.1191179438325666 0 -0.21353013977832699 -0.1103405795268203 0 -0.24351454682149651 -0.1077484974027736 0 -0.22485351323411831 -0.097846207283126679 0 -0.22756488418156301 -0.1191179438325666 0 -0.22485351323411831 -0.097846207283126679 0 -0.22756488418156301 -0.1191179438325666 0 -0.24135216777875909 -0.085280492916284589 0 -0.22311430589614389 -0.075323232716075897 0 -0.24233609822145219 -0.058237331453030242 0 -0.24135216777875909 -0.085280492916284589 0 -0.24233609822145219 -0.058237331453030242 0 -0.26155460763057758 -0.077824379540083699 0 -0.22485351323411831 -0.097846207283126679 0 -0.24135216777875909 -0.085280492916284589 0 -0.22311430589614389 -0.075323232716075897 0 -0.22311430589614389 -0.075323232716075897 0 -0.24233609822145219 -0.058237331453030242 0 -0.22311430589614389 -0.075323232716075897 0 -0.21098371159239479 -0.06880252222983807 0 -0.22414020676582341 -0.048456265723668991 0 -0.21098371159239479 -0.06880252222983807 0 -0.19782721641896611 -0.089148778736007128 0 -0.22485351323411831 -0.097846207283126679 0 -0.22311430589614389 -0.075323232716075897 0 -0.20389251357083549 -0.092409133979121691 0 -0.22311430589614389 -0.075323232716075897 0 -0.21098371159239479 -0.06880252222983807 0 -0.20389251357083549 -0.092409133979121691 0 -0.21098371159239479 -0.06880252222983807 0 -0.20389251357083549 -0.092409133979121691 0 -0.19782721641896611 -0.089148778736007128 0 -0.22311430589614389 -0.075323232716075897 0 -0.20389251357083549 -0.092409133979121691 0 -0.19782721641896611 -0.089148778736007128 0 -0.19080279687348201 -0.06837870775413149 0 -0.17915115232828629 -0.091499098680575319 0 -0.21098371159239479 -0.06880252222983807 0 -0.19080279687348201 -0.06837870775413149 0 -0.20322939754739161 -0.051916170518571142 0 -0.21098371159239479 -0.06880252222983807 0 -0.19782721641896611 -0.089148778736007128 0 -0.19080279687348201 -0.06837870775413149 0 -0.21177935499124451 -0.127280420395537 0 -0.21353013977832699 -0.1103405795268203 0 -0.19956043291387349 -0.11504919214374951 0 -0.21177935499124451 -0.127280420395537 0 -0.22756488418156301 -0.1191179438325666 0 -0.21353013977832699 -0.1103405795268203 0 -0.22485351323411831 -0.097846207283126679 0 -0.20389251357083549 -0.092409133979121691 0 -0.21353013977832699 -0.1103405795268203 0 -0.20389251357083549 -0.092409133979121691 0 -0.21353013977832699 -0.1103405795268203 0 -0.19956043291387349 -0.11504919214374951 0 -0.20389251357083549 -0.092409133979121691 0 -0.1846707212455316 -0.1094950352421724 0 -0.20389251357083549 -0.092409133979121691 0 -0.19782721641896611 -0.089148778736007128 0 -0.1846707212455316 -0.1094950352421724 0 -0.19782721641896611 -0.089148778736007128 0 -0.1846707212455316 -0.1094950352421724 0 -0.20389251357083549 -0.092409133979121691 0 -0.19956043291387349 -0.11504919214374951 0 -0.1846707212455316 -0.1094950352421724 0 -0.21177935499124451 -0.127280420395537 0 -0.1913626164103934 -0.1289976456743151 0 -0.19956043291387349 -0.11504919214374951 0 -0.19956043291387349 -0.11504919214374951 0 -0.18890992455220351 -0.1189398392499621 0 -0.1846707212455316 -0.1094950352421724 0 -0.1913626164103934 -0.1289976456743151 0 -0.19956043291387349 -0.11504919214374951 0 -0.18890992455220351 -0.1189398392499621 0 -0.1629426820836482 -0.1288086936917312 0 -0.1846707212455316 -0.1094950352421724 0 -0.1629426820836482 -0.1288086936917312 0 -0.1846707212455316 -0.1094950352421724 0 -0.17855738476594171 -0.1189491877716108 0 -0.1913626164103934 -0.1289976456743151 0 -0.17855738476594171 -0.1189491877716108 0 -0.1913626164103934 -0.1289976456743151 0 -0.18890992455220351 -0.1189398392499621 0 -0.17855738476594171 -0.1189491877716108 0 -0.18890992455220351 -0.1189398392499621 0 -0.1846707212455316 -0.1094950352421724 0 -0.17855738476594171 -0.1189491877716108 0 -0.1846707212455316 -0.1094950352421724 0 -0.17855738476594171 -0.1189491877716108 0 -0.1629426820836482 -0.1288086936917312 0 -0.1846707212455316 -0.1094950352421724 0 -0.16527614989358769 -0.11151950345074089 0 -0.1629426820836482 -0.1288086936917312 0 -0.16527614989358769 -0.11151950345074089 0 -0.15090922595181491 -0.1214166074544633 0 -0.16527614989358769 -0.11151950345074089 0 -0.16060380898186341 -0.094710862767633602 0 -0.17915115232828629 -0.091499098680575319 0 -0.16527614989358769 -0.11151950345074089 0 -0.16060380898186341 -0.094710862767633602 0 -0.15090922595181491 -0.1214166074544633 0 -0.1846707212455316 -0.1094950352421724 0 -0.16527614989358769 -0.11151950345074089 0 -0.17915115232828629 -0.091499098680575319 0 -0.19782721641896611 -0.089148778736007128 0 -0.1846707212455316 -0.1094950352421724 0 -0.17915115232828629 -0.091499098680575319 0 -0.19080279687348201 -0.06837870775413149 0 -0.17915115232828629 -0.091499098680575319 0 -0.17029839201191191 -0.068005118080803853 0 -0.17029839201191191 -0.068005118080803853 0 -0.14947126672043459 -0.08020139684622038 0 -0.16286524072330241 -0.058326713365412473 0 -0.16060380898186341 -0.094710862767633602 0 -0.17029839201191191 -0.068005118080803853 0 -0.16060380898186341 -0.094710862767633602 0 -0.17915115232828629 -0.091499098680575319 0 -0.17029839201191191 -0.068005118080803853 0 -0.16060380898186341 -0.094710862767633602 0 -0.17029839201191191 -0.068005118080803853 0 -0.14947126672043459 -0.08020139684622038 0 -0.16060380898186341 -0.094710862767633602 0 -0.14947126672043459 -0.08020139684622038 0 -0.14532373886217501 -0.095486756951939186 0 -0.14947126672043459 -0.08020139684622038 0 -0.14872537345540929 -0.062596516304742167 0 -0.16286524072330241 -0.058326713365412473 0 -0.14947126672043459 -0.08020139684622038 0 -0.14872537345540929 -0.062596516304742167 0 -0.13753333126467879 -0.068895370949194262 0 -0.14947126672043459 -0.08020139684622038 0 -0.16286524072330241 -0.058326713365412473 0 -0.1199012792281063 -0.058405773875922648 0 -0.13753333126467879 -0.068895370949194262 0 -0.12638243194868881 -0.083655546040473414 0 -0.14947126672043459 -0.08020139684622038 0 -0.13753333126467879 -0.068895370949194262 0 -0.12638243194868881 -0.083655546040473414 0 -0.14947126672043459 -0.08020139684622038 0 -0.12638243194868881 -0.083655546040473414 0 -0.14532373886217501 -0.095486756951939186 0 -0.12638243194868881 -0.083655546040473414 0 -0.13250500536847801 -0.097949456068687463 0 -0.14532373886217501 -0.095486756951939186 0 -0.11882981078660131 -0.1073302274801098 0 -0.13250500536847801 -0.097949456068687463 0 -0.1368200167952365 -0.11001495894531391 0 -0.11882981078660131 -0.1073302274801098 0 -0.12638243194868881 -0.083655546040473414 0 -0.13250500536847801 -0.097949456068687463 0 -0.13250500536847801 -0.097949456068687463 0 -0.1368200167952365 -0.11001495894531391 0 -0.14532373886217501 -0.095486756951939186 0 -0.11882981078660131 -0.1073302274801098 0 -0.12860637303035399 -0.12227919341653321 0 -0.1368200167952365 -0.11001495894531391 0 -0.12860637303035399 -0.12227919341653321 0 -0.1368200167952365 -0.11001495894531391 0 -0.15090922595181491 -0.1214166074544633 0 -0.16060380898186341 -0.094710862767633602 0 -0.15090922595181491 -0.1214166074544633 0 -0.16060380898186341 -0.094710862767633602 0 -0.15090922595181491 -0.1214166074544633 0 -0.14532373886217501 -0.095486756951939186 0 -0.1368200167952365 -0.11001495894531391 0 -0.15090922595181491 -0.1214166074544633 0 -0.14532373886217501 -0.095486756951939186 0 -0.1400353745669117 -0.020157888040724541 0 -0.16485191476844699 -0.017372291018671059 0 -0.16189223126768451 -0.03010328301782492 0 -0.1400353745669117 -0.020157888040724541 0 -0.16485191476844699 -0.017372291018671059 0 -0.1400353745669117 -0.020157888040724541 0 -0.1494313359520196 -0.039457394005291982 0 -0.16189223126768451 -0.03010328301782492 0 -0.14481524972539569 -0.0053265192320544573 0 -0.1400353745669117 -0.020157888040724541 0 -0.16485191476844699 -0.017372291018671059 0 -0.14481524972539569 -0.0053265192320544573 0 -0.15948638931503409 -0.0022405599676112368 0 -0.14653031239023459 0.0061666081888149078 0 -0.1236889335263805 -0.0048356221156674456 0 -0.14481524972539569 -0.0053265192320544573 0 -0.1400353745669117 -0.020157888040724541 0 -0.1236889335263805 -0.0048356221156674456 0 -0.14481524972539569 -0.0053265192320544573 0 -0.13531749989930189 0.007516700803356092 0 -0.1152188343653765 -0.022943485062778012 0 -0.1400353745669117 -0.020157888040724541 0 -0.1236889335263805 -0.0048356221156674456 0 -0.1152188343653765 -0.022943485062778012 0 -0.1400353745669117 -0.020157888040724541 0 -0.1152188343653765 -0.022943485062778012 0 -0.1400353745669117 -0.020157888040724541 0 -0.1295015982488574 -0.038250320399701651 0 -0.1295015982488574 -0.038250320399701651 0 -0.14051944031904309 -0.053577223437144418 0 -0.1494313359520196 -0.039457394005291982 0 -0.1400353745669117 -0.020157888040724541 0 -0.1295015982488574 -0.038250320399701651 0 -0.1494313359520196 -0.039457394005291982 0 -0.1199012792281063 -0.058405773875922648 0 -0.13753333126467879 -0.068895370949194262 0 -0.14051944031904309 -0.053577223437144418 0 -0.1199012792281063 -0.058405773875922648 0 -0.1295015982488574 -0.038250320399701651 0 -0.14051944031904309 -0.053577223437144418 0 -0.14872537345540929 -0.062596516304742167 0 -0.14051944031904309 -0.053577223437144418 0 -0.15323758824958761 -0.051981876925739301 0 -0.14872537345540929 -0.062596516304742167 0 -0.13753333126467879 -0.068895370949194262 0 -0.14051944031904309 -0.053577223437144418 0 -0.14051944031904309 -0.053577223437144418 0 -0.15323758824958761 -0.051981876925739301 0 -0.1494313359520196 -0.039457394005291982 0 -0.14872537345540929 -0.062596516304742167 0 -0.15323758824958761 -0.051981876925739301 0 -0.16286524072330241 -0.058326713365412473 0 -0.15323758824958761 -0.051981876925739301 0 -0.1494313359520196 -0.039457394005291982 0 -0.16241134870831611 -0.042840872305474058 0 -0.16241134870831611 -0.042840872305474058 0 -0.16286524072330241 -0.058326713365412473 0 -0.17625921472617009 -0.036452029884604609 0 -0.1494313359520196 -0.039457394005291982 0 -0.16241134870831611 -0.042840872305474058 0 -0.16189223126768451 -0.03010328301782492 0 -0.16241134870831611 -0.042840872305474058 0 -0.17625921472617009 -0.036452029884604609 0 -0.16189223126768451 -0.03010328301782492 0 -0.17029839201191191 -0.068005118080803853 0 -0.16286524072330241 -0.058326713365412473 0 -0.17999297504196049 -0.041299373393974097 0 -0.16286524072330241 -0.058326713365412473 0 -0.17625921472617009 -0.036452029884604609 0 -0.15323758824958761 -0.051981876925739301 0 -0.16241134870831611 -0.042840872305474058 0 -0.16286524072330241 -0.058326713365412473 0 -0.19080279687348201 -0.06837870775413149 0 -0.17029839201191191 -0.068005118080803853 0 -0.17999297504196049 -0.041299373393974097 0 -0.17029839201191191 -0.068005118080803853 0 -0.17999297504196049 -0.041299373393974097 0 -0.16286524072330241 -0.058326713365412473 0 -0.17999297504196049 -0.041299373393974097 0 -0.17625921472617009 -0.036452029884604609 0 -0.16485191476844699 -0.017372291018671059 0 -0.1896684549699825 -0.014586693996620759 0 -0.17625921472617009 -0.036452029884604609 0 -0.1896684549699825 -0.014586693996620759 0 -0.1742372785755163 -0.0243450807688094 0 -0.16485191476844699 -0.017372291018671059 0 -0.1896684549699825 -0.014586693996620759 0 -0.17625921472617009 -0.036452029884604609 0 -0.1742372785755163 -0.0243450807688094 0 -0.1896684549699825 -0.014586693996620759 0 -0.17999297504196049 -0.041299373393974097 0 -0.1896684549699825 -0.014586693996620759 0 -0.17999297504196049 -0.041299373393974097 0 -0.17625921472617009 -0.036452029884604609 0 -0.1896684549699825 -0.014586693996620759 0 -0.1742372785755163 -0.0243450807688094 0 -0.16485191476844699 -0.017372291018671059 0 -0.16189223126768451 -0.03010328301782492 0 -0.17625921472617009 -0.036452029884604609 0 -0.1742372785755163 -0.0243450807688094 0 -0.16189223126768451 -0.03010328301782492 0 -0.14481524972539569 -0.0053265192320544573 0 -0.16485191476844699 -0.017372291018671059 0 -0.15948638931503409 -0.0022405599676112368 0 -0.16485191476844699 -0.017372291018671059 0 -0.15948638931503409 -0.0022405599676112368 0 -0.17922329853870261 -0.003379851448763294 0 -0.16485191476844699 -0.017372291018671059 0 -0.17922329853870261 -0.003379851448763294 0 -0.1896684549699825 -0.014586693996620759 0 -0.17922329853870261 -0.003379851448763294 0 -0.1896684549699825 -0.014586693996620759 0 -0.19624046134737319 0.0034577058667048109 0 -0.19265514027128081 -0.0096746386788729918 0 -0.1896684549699825 -0.014586693996620759 0 -0.19624046134737319 0.0034577058667048109 0 -0.19265514027128081 -0.0096746386788729918 0 -0.1896684549699825 -0.014586693996620759 0 -0.20993003568421531 -0.01231238023485591 0 -0.1896684549699825 -0.014586693996620759 0 -0.20993003568421531 -0.01231238023485591 0 -0.20278884112693071 -0.0033178485209027471 0 -0.19265514027128081 -0.0096746386788729918 0 -0.20993003568421531 -0.01231238023485591 0 -0.1896684549699825 -0.014586693996620759 0 -0.19624046134737319 0.0034577058667048109 0 -0.20278884112693071 -0.0033178485209027471 0 -0.19265514027128081 -0.0096746386788729918 0 -0.19624046134737319 0.0034577058667048109 0 -0.19265514027128081 -0.0096746386788729918 0 -0.1896684549699825 -0.014586693996620759 0 -0.1896684549699825 -0.014586693996620759 0 -0.20993003568421531 -0.01231238023485591 0 -0.20355942486333539 -0.033441613721204307 0 -0.17999297504196049 -0.041299373393974097 0 -0.1896684549699825 -0.014586693996620759 0 -0.20355942486333539 -0.033441613721204307 0 -0.20993003568421531 -0.01231238023485591 0 -0.20355942486333539 -0.033441613721204307 0 -0.22011027350536999 -0.027184876229259851 0 -0.21334360552032741 -8.7346979752025359e-05 0 -0.20993003568421531 -0.01231238023485591 0 -0.2301916163984484 -0.01003806647309422 0 -0.20278884112693071 -0.0033178485209027471 0 -0.21334360552032741 -8.7346979752025359e-05 0 -0.20993003568421531 -0.01231238023485591 0 -0.19080279687348201 -0.06837870775413149 0 -0.17999297504196049 -0.041299373393974097 0 -0.20322939754739161 -0.051916170518571142 0 -0.17999297504196049 -0.041299373393974097 0 -0.20355942486333539 -0.033441613721204307 0 -0.20322939754739161 -0.051916170518571142 0 -0.20355942486333539 -0.033441613721204307 0 -0.22414020676582341 -0.048456265723668991 0 -0.22011027350536999 -0.027184876229259851 0 -0.20355942486333539 -0.033441613721204307 0 -0.20322939754739161 -0.051916170518571142 0 -0.22414020676582341 -0.048456265723668991 0 -0.21098371159239479 -0.06880252222983807 0 -0.22414020676582341 -0.048456265723668991 0 -0.21098371159239479 -0.06880252222983807 0 -0.20322939754739161 -0.051916170518571142 0 -0.22414020676582341 -0.048456265723668991 0 -0.22311430589614389 -0.075323232716075897 0 -0.22414020676582341 -0.048456265723668991 0 -0.24233609822145219 -0.058237331453030242 0 -0.22414020676582341 -0.048456265723668991 0 -0.23729670193925209 -0.028110009217499971 0 -0.22414020676582341 -0.048456265723668991 0 -0.22011027350536999 -0.027184876229259851 0 -0.23729670193925209 -0.028110009217499971 0 -0.2456273109421454 -0.040381478381302342 0 -0.24233609822145219 -0.058237331453030242 0 -0.26155789054675982 -0.041151430189983851 0 -0.22414020676582341 -0.048456265723668991 0 -0.2456273109421454 -0.040381478381302342 0 -0.23729670193925209 -0.028110009217499971 0 -0.2456273109421454 -0.040381478381302342 0 -0.23729670193925209 -0.028110009217499971 0 -0.25248817489094338 -0.02641401357679549 0 -0.22414020676582341 -0.048456265723668991 0 -0.2456273109421454 -0.040381478381302342 0 -0.24233609822145219 -0.058237331453030242 0 -0.20993003568421531 -0.01231238023485591 0 -0.2301916163984484 -0.01003806647309422 0 -0.2301916163984484 -0.01003806647309422 0 -0.22295388725496909 0.0076185060063782874 0 -0.23972571187364261 5.0664829363198088e-06 0 -0.21334360552032741 -8.7346979752025359e-05 0 -0.2301916163984484 -0.01003806647309422 0 -0.22295388725496909 0.0076185060063782874 0 -0.20993003568421531 -0.01231238023485591 0 -0.2301916163984484 -0.01003806647309422 0 -0.22011027350536999 -0.027184876229259851 0 -0.2301916163984484 -0.01003806647309422 0 -0.22011027350536999 -0.027184876229259851 0 -0.23729670193925209 -0.028110009217499971 0 -0.23729670193925209 -0.028110009217499971 0 -0.25045319711268133 -0.0077637527113314014 0 -0.23729670193925209 -0.028110009217499971 0 -0.25045319711268133 -0.0077637527113314014 0 -0.25248817489094338 -0.02641401357679549 0 -0.2301916163984484 -0.01003806647309422 0 -0.23729670193925209 -0.028110009217499971 0 -0.25045319711268133 -0.0077637527113314014 0 -0.2301916163984484 -0.01003806647309422 0 -0.25045319711268133 -0.0077637527113314014 0 -0.25045319711268133 -0.0077637527113314014 0 -0.25875993515398521 0.0050824514403093237 0 -0.23972571187364261 5.0664829363198088e-06 0 -0.2301916163984484 -0.01003806647309422 0 -0.25045319711268133 -0.0077637527113314014 0 -0.23972571187364261 5.0664829363198088e-06 0 -0.25045319711268133 -0.0077637527113314014 0 -0.27830314079881441 -0.0046376634351307953 0 -0.25875993515398521 0.0050824514403093237 0 -0.25045319711268133 -0.0077637527113314014 0 -0.26715784804085813 -0.017614842381105118 0 -0.27830314079881441 -0.0046376634351307953 0 -0.25045319711268133 -0.0077637527113314014 0 -0.25875993515398521 0.0050824514403093237 0 -0.25045319711268133 -0.0077637527113314014 0 -0.27830314079881441 -0.0046376634351307953 0 -0.25045319711268133 -0.0077637527113314014 0 -0.25248817489094338 -0.02641401357679549 0 -0.26715784804085813 -0.017614842381105118 0 -0.25248817489094338 -0.02641401357679549 0 -0.26626485024860358 -0.02662794708058475 0 -0.26715784804085813 -0.017614842381105118 0 -0.2838554875158526 -0.021331502174453829 0 -0.26155789054675982 -0.041151430189983851 0 -0.26626485024860358 -0.02662794708058475 0 -0.2838554875158526 -0.021331502174453829 0 -0.26155789054675982 -0.041151430189983851 0 -0.26626485024860358 -0.02662794708058475 0 -0.26715784804085813 -0.017614842381105118 0 -0.2838554875158526 -0.021331502174453829 0 -0.26715784804085813 -0.017614842381105118 0 -0.27830314079881441 -0.0046376634351307953 0 -0.2838554875158526 -0.021331502174453829 0 -0.27830314079881441 -0.0046376634351307953 0 -0.2838554875158526 -0.021331502174453829 0 -0.30615308448494671 -0.00151157415892533 0 -0.27830314079881441 -0.0046376634351307953 0 -0.30615308448494671 -0.00151157415892533 0 -0.2838554875158526 -0.021331502174453829 0 -0.30615308448494671 -0.00151157415892533 0 -0.2838554875158526 -0.021331502174453829 0 -0.3075750684048586 -0.0265231511083069 0 -0.30615308448494671 -0.00151157415892533 0 -0.2838554875158526 -0.021331502174453829 0 -0.3075750684048586 -0.0265231511083069 0 -0.30228888941275128 -0.039680995329252067 0 -0.3075750684048586 -0.0265231511083069 0 -0.30615308448494671 -0.00151157415892533 0 -0.31602774351526169 -0.015682818132849781 0 -0.2990325438874914 -0.059609912021670472 0 -0.30228888941275128 -0.039680995329252067 0 -0.32145147368557497 -0.051112478970573527 0 -0.3075750684048586 -0.0265231511083069 0 -0.30228888941275128 -0.039680995329252067 0 -0.32063335821453681 -0.037547440319327073 0 -0.2838554875158526 -0.021331502174453829 0 -0.30228888941275128 -0.039680995329252067 0 -0.28394876341148972 -0.042809610721969787 0 -0.2990325438874914 -0.059609912021670472 0 -0.30228888941275128 -0.039680995329252067 0 -0.28394876341148972 -0.042809610721969787 0 -0.2990325438874914 -0.059609912021670472 0 -0.28394876341148972 -0.042809610721969787 0 -0.27332841887652692 -0.060277407931315433 0 -0.28394876341148972 -0.042809610721969787 0 -0.27332841887652692 -0.060277407931315433 0 -0.26155789054675982 -0.041151430189983851 0 -0.27332841887652692 -0.060277407931315433 0 -0.26155789054675982 -0.041151430189983851 0 -0.2838554875158526 -0.021331502174453829 0 -0.28394876341148972 -0.042809610721969787 0 -0.26155789054675982 -0.041151430189983851 0 -0.2456273109421454 -0.040381478381302342 0 -0.25248817489094338 -0.02641401357679549 0 -0.26155789054675982 -0.041151430189983851 0 -0.25248817489094338 -0.02641401357679549 0 -0.26626485024860358 -0.02662794708058475 0 -0.26155789054675982 -0.041151430189983851 0 -0.25248817489094338 -0.02641401357679549 0 -0.26155789054675982 -0.041151430189983851 0 -0.24233609822145219 -0.058237331453030242 0 -0.27332841887652692 -0.060277407931315433 0 -0.26155789054675982 -0.041151430189983851 0 -0.24233609822145219 -0.058237331453030242 0 -0.26155789054675982 -0.041151430189983851 0 -0.24233609822145219 -0.058237331453030242 0 -0.27332841887652692 -0.060277407931315433 0 -0.26155460763057758 -0.077824379540083699 0 -0.26155460763057758 -0.077824379540083699 0 -0.27212183148210323 -0.089174122865797026 0 -0.25676893032515291 -0.094480841614869374 0 -0.24135216777875909 -0.085280492916284589 0 -0.26155460763057758 -0.077824379540083699 0 -0.25676893032515291 -0.094480841614869374 0 -0.26155460763057758 -0.077824379540083699 0 -0.27212183148210323 -0.089174122865797026 0 -0.28509894720629908 -0.079403385672643934 0 -0.27332841887652692 -0.060277407931315433 0 -0.26155460763057758 -0.077824379540083699 0 -0.28509894720629908 -0.079403385672643934 0 -0.27332841887652692 -0.060277407931315433 0 -0.28509894720629908 -0.079403385672643934 0 -0.2586656048408652 -0.1112892078246982 0 -0.26744648876325072 -0.1238102492272139 0 -0.25105915277174212 -0.12645053818584689 0 -0.24351454682149651 -0.1077484974027736 0 -0.2586656048408652 -0.1112892078246982 0 -0.25105915277174212 -0.12645053818584689 0 -0.24351454682149651 -0.1077484974027736 0 -0.2586656048408652 -0.1112892078246982 0 -0.25676893032515291 -0.094480841614869374 0 -0.2586656048408652 -0.1112892078246982 0 -0.25676893032515291 -0.094480841614869374 0 -0.27247653667451338 -0.1056842243416905 0 -0.27212183148210323 -0.089174122865797026 0 -0.25676893032515291 -0.094480841614869374 0 -0.27247653667451338 -0.1056842243416905 0 -0.27212183148210323 -0.089174122865797026 0 -0.27247653667451338 -0.1056842243416905 0 -0.29686947553607129 -0.098529363413972476 0 -0.27247653667451338 -0.1056842243416905 0 -0.26744648876325072 -0.1238102492272139 0 -0.28552644284483381 -0.1166692254700471 0 -0.2586656048408652 -0.1112892078246982 0 -0.27247653667451338 -0.1056842243416905 0 -0.26744648876325072 -0.1238102492272139 0 -0.26744648876325072 -0.1238102492272139 0 -0.28552644284483381 -0.1166692254700471 0 -0.28132383256407112 -0.13256777432191849 0 -0.28552644284483381 -0.1166692254700471 0 -0.29686947553607129 -0.098529363413972476 0 -0.30037796667069427 -0.1136295548070315 0 -0.28552644284483381 -0.1166692254700471 0 -0.30037796667069427 -0.1136295548070315 0 -0.29466435686040232 -0.12579418670845591 0 -0.27247653667451338 -0.1056842243416905 0 -0.28552644284483381 -0.1166692254700471 0 -0.29686947553607129 -0.098529363413972476 0 -0.29686947553607129 -0.098529363413972476 0 -0.30037796667069427 -0.1136295548070315 0 -0.31754770868112342 -0.1011320097416417 0 -0.30037796667069427 -0.1136295548070315 0 -0.31754770868112342 -0.1011320097416417 0 -0.31085258760032258 -0.12500649724304419 0 -0.30037796667069427 -0.1136295548070315 0 -0.29466435686040232 -0.12579418670845591 0 -0.31085258760032258 -0.12500649724304419 0 -0.2990325438874914 -0.059609912021670472 0 -0.27332841887652692 -0.060277407931315433 0 -0.28509894720629908 -0.079403385672643934 0 -0.29686947553607129 -0.098529363413972476 0 -0.28509894720629908 -0.079403385672643934 0 -0.30723926026413662 -0.077768093692996393 0 -0.29686947553607129 -0.098529363413972476 0 -0.28509894720629908 -0.079403385672643934 0 -0.27212183148210323 -0.089174122865797026 0 -0.29686947553607129 -0.098529363413972476 0 -0.28509894720629908 -0.079403385672643934 0 -0.29686947553607129 -0.098529363413972476 0 -0.30723926026413662 -0.077768093692996393 0 -0.31754770868112342 -0.1011320097416417 0 -0.30723926026413662 -0.077768093692996393 0 -0.31754770868112342 -0.1011320097416417 0 -0.2990325438874914 -0.059609912021670472 0 -0.30723926026413662 -0.077768093692996393 0 -0.31822308107322511 -0.067568280736684055 0 -0.2990325438874914 -0.059609912021670472 0 -0.28509894720629908 -0.079403385672643934 0 -0.30723926026413662 -0.077768093692996393 0 -0.30723926026413662 -0.077768093692996393 0 -0.31822308107322511 -0.067568280736684055 0 -0.3228661016849681 -0.080507470411216864 0 -0.31822308107322511 -0.067568280736684055 0 -0.3228661016849681 -0.080507470411216864 0 -0.33434955033442848 -0.067487203044020283 0 -0.30723926026413662 -0.077768093692996393 0 -0.3228661016849681 -0.080507470411216864 0 -0.31754770868112342 -0.1011320097416417 0 -0.3228661016849681 -0.080507470411216864 0 -0.33697090807192692 -0.088581764840741817 0 -0.31754770868112342 -0.1011320097416417 0 -0.3228661016849681 -0.080507470411216864 0 -0.33697090807192692 -0.088581764840741817 0 -0.33434955033442848 -0.067487203044020283 0 -0.33697090807192692 -0.088581764840741817 0 -0.33434955033442848 -0.067487203044020283 0 -0.3448001204008232 -0.076131753486802664 0 -0.32785615709811022 -0.12449592579028711 0 -0.31754770868112342 -0.1011320097416417 0 -0.33405866190045408 -0.1078032386163576 0 -0.32785615709811022 -0.12449592579028711 0 -0.31754770868112342 -0.1011320097416417 0 -0.31085258760032258 -0.12500649724304419 0 -0.32785615709811022 -0.12449592579028711 0 -0.31754770868112342 -0.1011320097416417 0 -0.33697090807192692 -0.088581764840741817 0 -0.31754770868112342 -0.1011320097416417 0 -0.33405866190045408 -0.1078032386163576 0 -0.33697090807192692 -0.088581764840741817 0 -0.33405866190045408 -0.1078032386163576 0 -0.35173712915830591 -0.10994535586871131 0 -0.32785615709811022 -0.12449592579028711 0 -0.33405866190045408 -0.1078032386163576 0 -0.34349025405940181 -0.1338629397463946 0 -0.33405866190045408 -0.1078032386163576 0 -0.35173712915830591 -0.10994535586871131 0 -0.34349025405940181 -0.1338629397463946 0 -0.35173712915830591 -0.10994535586871131 0 -0.34349025405940181 -0.1338629397463946 0 -0.36174700703944462 -0.1288075327930423 0 -0.35173712915830591 -0.10994535586871131 0 -0.34349025405940181 -0.1338629397463946 0 -0.35173712915830591 -0.10994535586871131 0 -0.35998400425720989 -0.086027771991027929 0 -0.33697090807192692 -0.088581764840741817 0 -0.35173712915830591 -0.10994535586871131 0 -0.35998400425720989 -0.086027771991027929 0 -0.35173712915830591 -0.10994535586871131 0 -0.37464530513107502 -0.091745860019957257 0 -0.37837852883294448 -0.10929118033642379 0 -0.35173712915830591 -0.10994535586871131 0 -0.35998400425720989 -0.086027771991027929 0 -0.37464530513107502 -0.091745860019957257 0 -0.35173712915830591 -0.10994535586871131 0 -0.36174700703944462 -0.1288075327930423 0 -0.37837852883294448 -0.10929118033642379 0 -0.33434955033442848 -0.067487203044020283 0 -0.3448001204008232 -0.076131753486802664 0 -0.35242724884581511 -0.064101154696089124 0 -0.3448001204008232 -0.076131753486802664 0 -0.35242724884581511 -0.064101154696089124 0 -0.35998400425720989 -0.086027771991027929 0 -0.33697090807192692 -0.088581764840741817 0 -0.3448001204008232 -0.076131753486802664 0 -0.35998400425720989 -0.086027771991027929 0 -0.35998400425720989 -0.086027771991027929 0 -0.37464530513107502 -0.091745860019957257 0 -0.37466540422413602 -0.077272455440070026 0 -0.35998400425720989 -0.086027771991027929 0 -0.36823087935611409 -0.062110188113344587 0 -0.35998400425720989 -0.086027771991027929 0 -0.37466540422413602 -0.077272455440070026 0 -0.36823087935611409 -0.062110188113344587 0 -0.37466540422413602 -0.077272455440070026 0 -0.36823087935611409 -0.062110188113344587 0 -0.38130722322244981 -0.060814147249523547 0 -0.35242724884581511 -0.064101154696089124 0 -0.35998400425720989 -0.086027771991027929 0 -0.36823087935611409 -0.062110188113344587 0 -0.36823087935611409 -0.062110188113344587 0 -0.36465397452537129 -0.049833170626983427 0 -0.38130722322244981 -0.060814147249523547 0 -0.36465397452537129 -0.049833170626983427 0 -0.37345483729106832 -0.035963984672550131 0 -0.38130722322244981 -0.060814147249523547 0 -0.35242724884581511 -0.064101154696089124 0 -0.36823087935611409 -0.062110188113344587 0 -0.36465397452537129 -0.049833170626983427 0 -0.35242724884581511 -0.064101154696089124 0 -0.36465397452537129 -0.049833170626983427 0 -0.35122831788622788 -0.047363250794669971 0 -0.35242724884581511 -0.064101154696089124 0 -0.35122831788622788 -0.047363250794669971 0 -0.33695643699859462 -0.048859549786912378 0 -0.34502286307327129 -0.037454651628760868 0 -0.35778804056722718 -0.037058266850394712 0 -0.35077136603677977 -0.026542320787956639 0 -0.35122831788622788 -0.047363250794669971 0 -0.34502286307327129 -0.037454651628760868 0 -0.33695643699859462 -0.048859549786912378 0 -0.35122831788622788 -0.047363250794669971 0 -0.34502286307327129 -0.037454651628760868 0 -0.35778804056722718 -0.037058266850394712 0 -0.36465397452537129 -0.049833170626983427 0 -0.35122831788622788 -0.047363250794669971 0 -0.35778804056722718 -0.037058266850394712 0 -0.35778804056722718 -0.037058266850394712 0 -0.37345483729106832 -0.035963984672550131 0 -0.360983850486993 -0.02621756388366012 0 -0.36465397452537129 -0.049833170626983427 0 -0.35778804056722718 -0.037058266850394712 0 -0.37345483729106832 -0.035963984672550131 0 -0.37345483729106832 -0.035963984672550131 0 -0.36560245135968789 -0.01111382209557662 0 -0.37345483729106832 -0.035963984672550131 0 -0.360983850486993 -0.02621756388366012 0 -0.36560245135968789 -0.01111382209557662 0 -0.360983850486993 -0.02621756388366012 0 -0.36560245135968789 -0.01111382209557662 0 -0.35723628449333877 -0.01661561526048496 0 -0.36560245135968789 -0.01111382209557662 0 -0.37633130262232178 -0.0011392083640457871 0 -0.3608061661732665 0.0040648086657769072 0 -0.36560245135968789 -0.01111382209557662 0 -0.3589373425424538 -0.0098464461455073649 0 -0.35723628449333877 -0.01661561526048496 0 -0.36560245135968789 -0.01111382209557662 0 -0.35722308376327788 -0.0033923917127087031 0 -0.3589373425424538 -0.0098464461455073649 0 -0.36560245135968789 -0.01111382209557662 0 -0.3589373425424538 -0.0098464461455073649 0 -0.36560245135968789 -0.01111382209557662 0 -0.3608061661732665 0.0040648086657769072 0 -0.36560245135968789 -0.01111382209557662 0 -0.35722308376327788 -0.0033923917127087031 0 -0.3608061661732665 0.0040648086657769072 0 -0.35722308376327788 -0.0033923917127087031 0 -0.35680499281032169 0.0023741935967281601 0 -0.35085896474106359 0.00053038070144817277 0 -0.35722308376327788 -0.0033923917127087031 0 -0.35233394844089411 -0.0057449652305494358 0 -0.35085896474106359 0.00053038070144817277 0 -0.35722308376327788 -0.0033923917127087031 0 -0.35233394844089411 -0.0057449652305494358 0 -0.3589373425424538 -0.0098464461455073649 0 -0.35233394844089411 -0.0057449652305494358 0 -0.3589373425424538 -0.0098464461455073649 0 -0.35163479123325569 -0.011906493652184 0 -0.3589373425424538 -0.0098464461455073649 0 -0.35163479123325569 -0.011906493652184 0 -0.35723628449333877 -0.01661561526048496 0 -0.35163479123325569 -0.011906493652184 0 -0.35723628449333877 -0.01661561526048496 0 -0.35017322467149647 -0.018061567839899172 0 -0.35163479123325569 -0.011906493652184 0 -0.34566052763929689 -0.014365316215796861 0 -0.35017322467149647 -0.018061567839899172 0 -0.35163479123325569 -0.011906493652184 0 -0.34566052763929689 -0.014365316215796861 0 -0.34502894766491188 -0.0073618140805120731 0 -0.35233394844089411 -0.0057449652305494358 0 -0.35163479123325569 -0.011906493652184 0 -0.34502894766491188 -0.0073618140805120731 0 -0.35233394844089411 -0.0057449652305494358 0 -0.34502894766491188 -0.0073618140805120731 0 -0.34838612765558608 -0.0031337778614502002 0 -0.34502894766491188 -0.0073618140805120731 0 -0.34450736716406322 -0.001412688875958127 0 -0.34838612765558608 -0.0031337778614502002 0 -0.35233394844089411 -0.0057449652305494358 0 -0.34838612765558608 -0.0031337778614502002 0 -0.35085896474106359 0.00053038070144817277 0 -0.34450736716406322 -0.001412688875958127 0 -0.34838612765558608 -0.0031337778614502002 0 -0.35085896474106359 0.00053038070144817277 0 -0.35778804056722718 -0.037058266850394712 0 -0.360983850486993 -0.02621756388366012 0 -0.35077136603677977 -0.026542320787956639 0 -0.360983850486993 -0.02621756388366012 0 -0.35723628449333877 -0.01661561526048496 0 -0.35077136603677977 -0.026542320787956639 0 -0.35723628449333877 -0.01661561526048496 0 -0.35017322467149647 -0.018061567839899172 0 -0.35077136603677977 -0.026542320787956639 0 -0.35017322467149647 -0.018061567839899172 0 -0.35077136603677977 -0.026542320787956639 0 -0.34342292981133499 -0.021188404450691131 0 -0.34566052763929689 -0.014365316215796861 0 -0.35017322467149647 -0.018061567839899172 0 -0.34342292981133499 -0.021188404450691131 0 -0.35077136603677977 -0.026542320787956639 0 -0.34145732572441911 -0.028587273135166479 0 -0.34342292981133499 -0.021188404450691131 0 -0.34502286307327129 -0.037454651628760868 0 -0.35077136603677977 -0.026542320787956639 0 -0.34145732572441911 -0.028587273135166479 0 -0.34145732572441911 -0.028587273135166479 0 -0.34342292981133499 -0.021188404450691131 0 -0.33468443128372372 -0.02375756861148787 0 -0.34145732572441911 -0.028587273135166479 0 -0.33468443128372372 -0.02375756861148787 0 -0.33338503841698608 -0.033993420196935867 0 -0.34342292981133499 -0.021188404450691131 0 -0.33468443128372372 -0.02375756861148787 0 -0.33864183656190328 -0.01447194588557105 0 -0.34566052763929689 -0.014365316215796861 0 -0.34342292981133499 -0.021188404450691131 0 -0.33864183656190328 -0.01447194588557105 0 -0.33007132553540469 -0.016824238680653639 0 -0.33468443128372372 -0.02375756861148787 0 -0.33864183656190328 -0.01447194588557105 0 -0.33007132553540469 -0.016824238680653639 0 -0.33468443128372372 -0.02375756861148787 0 -0.32214324236845548 -0.02511504652398169 0 -0.33468443128372372 -0.02375756861148787 0 -0.32214324236845548 -0.02511504652398169 0 -0.33338503841698608 -0.033993420196935867 0 -0.34502894766491188 -0.0073618140805120731 0 -0.34450736716406322 -0.001412688875958127 0 -0.33957610646907882 -0.0022158958374036992 0 -0.34502894766491188 -0.0073618140805120731 0 -0.33957610646907882 -0.0022158958374036992 0 -0.33821219863378948 -0.0073009226959558447 0 -0.33957610646907882 -0.0022158958374036992 0 -0.33821219863378948 -0.0073009226959558447 0 -0.33179475256466162 -0.0039384903929363183 0 -0.33821219863378948 -0.0073009226959558447 0 -0.33864183656190328 -0.01447194588557105 0 -0.33309455067826599 -0.0098713574891240198 0 -0.34502894766491188 -0.0073618140805120731 0 -0.33821219863378948 -0.0073009226959558447 0 -0.33864183656190328 -0.01447194588557105 0 -0.34566052763929689 -0.014365316215796861 0 -0.34502894766491188 -0.0073618140805120731 0 -0.33864183656190328 -0.01447194588557105 0 -0.33007132553540469 -0.016824238680653639 0 -0.33864183656190328 -0.01447194588557105 0 -0.33309455067826599 -0.0098713574891240198 0 -0.33007132553540469 -0.016824238680653639 0 -0.33309455067826599 -0.0098713574891240198 0 -0.32738367409486591 -0.0105266408230107 0 -0.33309455067826599 -0.0098713574891240198 0 -0.32974857035196431 -0.0067385105770255676 0 -0.32738367409486591 -0.0105266408230107 0 -0.33179475256466162 -0.0039384903929363183 0 -0.3212421938264165 0.00018214211681657591 0 -0.33633130316788579 0.001875858392562216 0 -0.33821219863378948 -0.0073009226959558447 0 -0.33309455067826599 -0.0098713574891240198 0 -0.33179475256466162 -0.0039384903929363183 0 -0.32974857035196431 -0.0067385105770255676 0 -0.33179475256466162 -0.0039384903929363183 0 -0.32537796145425119 -0.004929373122996723 0 -0.33309455067826599 -0.0098713574891240198 0 -0.32974857035196431 -0.0067385105770255676 0 -0.33179475256466162 -0.0039384903929363183 0 -0.33957610646907882 -0.0022158958374036992 0 -0.33179475256466162 -0.0039384903929363183 0 -0.33633130316788579 0.001875858392562216 0 -0.32537796145425119 -0.004929373122996723 0 -0.32105759867370642 -0.0082644857657975298 0 -0.3212421938264165 0.00018214211681657591 0 -0.33179475256466162 -0.0039384903929363183 0 -0.32537796145425119 -0.004929373122996723 0 -0.3212421938264165 0.00018214211681657591 0 -0.32974857035196431 -0.0067385105770255676 0 -0.32537796145425119 -0.004929373122996723 0 -0.32738367409486591 -0.0105266408230107 0 -0.32105759867370642 -0.0082644857657975298 0 -0.32738367409486591 -0.0105266408230107 0 -0.32295160864662359 -0.016329864079986711 0 -0.32537796145425119 -0.004929373122996723 0 -0.32105759867370642 -0.0082644857657975298 0 -0.32738367409486591 -0.0105266408230107 0 -0.33007132553540469 -0.016824238680653639 0 -0.32738367409486591 -0.0105266408230107 0 -0.32295160864662359 -0.016329864079986711 0 -0.32105759867370642 -0.0082644857657975298 0 -0.32295160864662359 -0.016329864079986711 0 -0.31602774351526169 -0.015682818132849781 0 -0.30615308448494671 -0.00151157415892533 0 -0.32105759867370642 -0.0082644857657975298 0 -0.31602774351526169 -0.015682818132849781 0 -0.30615308448494671 -0.00151157415892533 0 -0.32105759867370642 -0.0082644857657975298 0 -0.3212421938264165 0.00018214211681657591 0 -0.30615308448494671 -0.00151157415892533 0 -0.3212421938264165 0.00018214211681657591 0 -0.32214324236845548 -0.02511504652398169 0 -0.32295160864662359 -0.016329864079986711 0 -0.31602774351526169 -0.015682818132849781 0 -0.33007132553540469 -0.016824238680653639 0 -0.32214324236845548 -0.02511504652398169 0 -0.32295160864662359 -0.016329864079986711 0 -0.3075750684048586 -0.0265231511083069 0 -0.32214324236845548 -0.02511504652398169 0 -0.31602774351526169 -0.015682818132849781 0 -0.3075750684048586 -0.0265231511083069 0 -0.32214324236845548 -0.02511504652398169 0 -0.32063335821453681 -0.037547440319327073 0 -0.32063335821453681 -0.037547440319327073 0 -0.32145147368557497 -0.051112478970573527 0 -0.33695643699859462 -0.048859549786912378 0 -0.30228888941275128 -0.039680995329252067 0 -0.32063335821453681 -0.037547440319327073 0 -0.32145147368557497 -0.051112478970573527 0 -0.32214324236845548 -0.02511504652398169 0 -0.32063335821453681 -0.037547440319327073 0 -0.33338503841698608 -0.033993420196935867 0 -0.31822308107322511 -0.067568280736684055 0 -0.33434955033442848 -0.067487203044020283 0 -0.32145147368557497 -0.051112478970573527 0 -0.2990325438874914 -0.059609912021670472 0 -0.31822308107322511 -0.067568280736684055 0 -0.32145147368557497 -0.051112478970573527 0 -0.33434955033442848 -0.067487203044020283 0 -0.32145147368557497 -0.051112478970573527 0 -0.33695643699859462 -0.048859549786912378 0 -0.33434955033442848 -0.067487203044020283 0 -0.35242724884581511 -0.064101154696089124 0 -0.33695643699859462 -0.048859549786912378 0 -0.34502286307327129 -0.037454651628760868 0 -0.33695643699859462 -0.048859549786912378 0 -0.33338503841698608 -0.033993420196935867 0 -0.32063335821453681 -0.037547440319327073 0 -0.33695643699859462 -0.048859549786912378 0 -0.33338503841698608 -0.033993420196935867 0 -0.34502286307327129 -0.037454651628760868 0 -0.34145732572441911 -0.028587273135166479 0 -0.33338503841698608 -0.033993420196935867 0 -0.30994815942337223 -0.26365692149475661 0 -0.30918975616523298 -0.23514873747991599 0 -0.2997034517118089 -0.25399963940206571 0 -0.30918975616523298 -0.23514873747991599 0 -0.29139257051757511 -0.2561694058516813 0 -0.30914768671980281 -0.23356735781302931 0 -0.29470988889923688 -0.24381762551379499 0 -0.29139257051757511 -0.2561694058516813 0 -0.30918975616523298 -0.23514873747991599 0 -0.30914768671980281 -0.23356735781302931 0 -0.29139257051757511 -0.2561694058516813 0 -0.2997034517118089 -0.25399963940206571 0 -0.30918975616523298 -0.23514873747991599 0 -0.29139257051757511 -0.2561694058516813 0 -0.30914768671980281 -0.23356735781302931 0 -0.30994815942337223 -0.26365692149475661 0 -0.30918975616523298 -0.23514873747991599 0 -0.31463666262515572 -0.24470528053627741 0 -0.30914768671980281 -0.23356735781302931 0 -0.29386811972806609 -0.23848388765337949 0 -0.29470988889923688 -0.24381762551379499 0 -0.30914768671980281 -0.23356735781302931 0 -0.31147899444205968 -0.23059963129797151 0 -0.30845399902759552 -0.20749181532821229 0 -0.30914768671980281 -0.23356735781302931 0 -0.30845399902759552 -0.20749181532821229 0 -0.30918975616523298 -0.23514873747991599 0 -0.31147899444205968 -0.23059963129797151 0 -0.30914768671980281 -0.23356735781302931 0 -0.30524505396052087 -0.2183629075730037 0 -0.30845399902759552 -0.20749181532821229 0 -0.30918975616523298 -0.23514873747991599 0 -0.30914768671980281 -0.23356735781302931 0 -0.31147899444205968 -0.23059963129797151 0 -0.30918975616523298 -0.23514873747991599 0 -0.30914768671980281 -0.23356735781302931 0 -0.30914768671980281 -0.23356735781302931 0 -0.31147899444205968 -0.23059963129797151 0 -0.29798153725246118 -0.22833036845699681 0 -0.29375496294734732 -0.21837174622994779 0 -0.30524505396052087 -0.2183629075730037 0 -0.30914768671980281 -0.23356735781302931 0 -0.29798153725246118 -0.22833036845699681 0 -0.29386811972806609 -0.23848388765337949 0 -0.30914768671980281 -0.23356735781302931 0 -0.29798153725246118 -0.22833036845699681 0 -0.30524505396052087 -0.2183629075730037 0 -0.29798153725246118 -0.22833036845699681 0 -0.28451015471305729 -0.2336902271834016 0 -0.29386811972806609 -0.23848388765337949 0 -0.29798153725246118 -0.22833036845699681 0 -0.28512111612163832 -0.22300524280142439 0 -0.28451015471305729 -0.2336902271834016 0 -0.29798153725246118 -0.22833036845699681 0 -0.28512111612163832 -0.22300524280142439 0 -0.29375496294734732 -0.21837174622994779 0 -0.28451015471305729 -0.2336902271834016 0 -0.29386811972806609 -0.23848388765337949 0 -0.28443117863150441 -0.2470498507370901 0 -0.28451015471305729 -0.2336902271834016 0 -0.28443117863150441 -0.2470498507370901 0 -0.27758515877932999 -0.24085286118613919 0 -0.29386811972806609 -0.23848388765337949 0 -0.29470988889923688 -0.24381762551379499 0 -0.28443117863150441 -0.2470498507370901 0 -0.29139257051757511 -0.2561694058516813 0 -0.29470988889923688 -0.24381762551379499 0 -0.28443117863150441 -0.2470498507370901 0 -0.27570558938939488 -0.25475375310074461 0 -0.28443117863150441 -0.2470498507370901 0 -0.273972840182588 -0.24696089302480309 0 -0.28443117863150441 -0.2470498507370901 0 -0.273972840182588 -0.24696089302480309 0 -0.27758515877932999 -0.24085286118613919 0 -0.273972840182588 -0.24696089302480309 0 -0.27758515877932999 -0.24085286118613919 0 -0.2693073200022425 -0.24079325067212931 0 -0.28451015471305729 -0.2336902271834016 0 -0.27758515877932999 -0.24085286118613919 0 -0.27053530581642138 -0.23399300385549479 0 -0.27758515877932999 -0.24085286118613919 0 -0.2693073200022425 -0.24079325067212931 0 -0.27053530581642138 -0.23399300385549479 0 -0.2693073200022425 -0.24079325067212931 0 -0.26316547514432459 -0.23492279926079759 0 -0.27053530581642138 -0.23399300385549479 0 -0.26914506214054601 -0.25217494541183971 0 -0.273972840182588 -0.24696089302480309 0 -0.26777743880631449 -0.24637708046681719 0 -0.273972840182588 -0.24696089302480309 0 -0.2693073200022425 -0.24079325067212931 0 -0.26777743880631449 -0.24637708046681719 0 -0.2693073200022425 -0.24079325067212931 0 -0.26777743880631449 -0.24637708046681719 0 -0.26272369718598992 -0.2414945900113005 0 -0.26914506214054601 -0.25217494541183971 0 -0.26777743880631449 -0.24637708046681719 0 -0.26440038254346598 -0.24923453919678179 0 -0.26440038254346598 -0.24923453919678179 0 -0.25901141734507621 -0.24900710031127299 0 -0.26228699708034042 -0.24602202066650339 0 -0.26777743880631449 -0.24637708046681719 0 -0.26440038254346598 -0.24923453919678179 0 -0.26228699708034042 -0.24602202066650339 0 -0.25901141734507621 -0.24900710031127299 0 -0.26228699708034042 -0.24602202066650339 0 -0.25752204952085572 -0.24399679334634461 0 -0.26228699708034042 -0.24602202066650339 0 -0.26272369718598992 -0.2414945900113005 0 -0.25752204952085572 -0.24399679334634461 0 -0.26777743880631449 -0.24637708046681719 0 -0.26228699708034042 -0.24602202066650339 0 -0.26272369718598992 -0.2414945900113005 0 -0.2693073200022425 -0.24079325067212931 0 -0.26272369718598992 -0.2414945900113005 0 -0.26316547514432459 -0.23492279926079759 0 -0.26272369718598992 -0.2414945900113005 0 -0.26316547514432459 -0.23492279926079759 0 -0.25687109024114008 -0.23760343589820759 0 -0.26272369718598992 -0.2414945900113005 0 -0.25687109024114008 -0.23760343589820759 0 -0.25752204952085572 -0.24399679334634461 0 -0.25687109024114008 -0.23760343589820759 0 -0.25094933974631878 -0.2429019344679007 0 -0.25752204952085572 -0.24399679334634461 0 -0.25687109024114008 -0.23760343589820759 0 -0.2505197249660438 -0.23485013370426719 0 -0.25094933974631878 -0.2429019344679007 0 -0.24946582583231791 -0.24785320630161661 0 -0.25094933974631878 -0.2429019344679007 0 -0.25383687152731699 -0.24830787689851239 0 -0.2497529842214796 -0.25220111039885162 0 -0.24946582583231791 -0.24785320630161661 0 -0.25383687152731699 -0.24830787689851239 0 -0.25901141734507621 -0.24900710031127299 0 -0.25383687152731699 -0.24830787689851239 0 -0.25752204952085572 -0.24399679334634461 0 -0.25094933974631878 -0.2429019344679007 0 -0.25383687152731699 -0.24830787689851239 0 -0.25752204952085572 -0.24399679334634461 0 -0.248711816598742 -0.2272228969322293 0 -0.25573374324722831 -0.22978911283236819 0 -0.25122865406170702 -0.21811373267599821 0 -0.25573374324722831 -0.22978911283236819 0 -0.2638216943729258 -0.22586340229528559 0 -0.25122865406170702 -0.21811373267599821 0 -0.25687109024114008 -0.23760343589820759 0 -0.2505197249660438 -0.23485013370426719 0 -0.25573374324722831 -0.22978911283236819 0 -0.248711816598742 -0.2272228969322293 0 -0.2505197249660438 -0.23485013370426719 0 -0.25573374324722831 -0.22978911283236819 0 -0.26316547514432459 -0.23492279926079759 0 -0.25687109024114008 -0.23760343589820759 0 -0.25573374324722831 -0.22978911283236819 0 -0.26316547514432459 -0.23492279926079759 0 -0.25573374324722831 -0.22978911283236819 0 -0.2638216943729258 -0.22586340229528559 0 -0.2638216943729258 -0.22586340229528559 0 -0.26276691720893208 -0.21613693118047361 0 -0.25122865406170702 -0.21811373267599821 0 -0.2638216943729258 -0.22586340229528559 0 -0.27294246407874567 -0.2235273262833386 0 -0.26276691720893208 -0.21613693118047361 0 -0.26316547514432459 -0.23492279926079759 0 -0.2638216943729258 -0.22586340229528559 0 -0.27053530581642138 -0.23399300385549479 0 -0.2638216943729258 -0.22586340229528559 0 -0.27294246407874567 -0.2235273262833386 0 -0.27053530581642138 -0.23399300385549479 0 -0.28451015471305729 -0.2336902271834016 0 -0.27294246407874567 -0.2235273262833386 0 -0.27053530581642138 -0.23399300385549479 0 -0.28512111612163832 -0.22300524280142439 0 -0.28451015471305729 -0.2336902271834016 0 -0.27294246407874567 -0.2235273262833386 0 -0.28512111612163832 -0.22300524280142439 0 -0.27294246407874567 -0.2235273262833386 0 -0.27173468583480193 -0.20978422757800599 0 -0.28512111612163832 -0.22300524280142439 0 -0.27173468583480193 -0.20978422757800599 0 -0.28667214445476868 -0.2037884660883664 0 -0.27294246407874567 -0.2235273262833386 0 -0.27173468583480193 -0.20978422757800599 0 -0.26276691720893208 -0.21613693118047361 0 -0.27173468583480193 -0.20978422757800599 0 -0.26276691720893208 -0.21613693118047361 0 -0.25410708769647983 -0.2033959670697395 0 -0.26276691720893208 -0.21613693118047361 0 -0.25410708769647983 -0.2033959670697395 0 -0.25122865406170702 -0.21811373267599821 0 -0.25410708769647983 -0.2033959670697395 0 -0.25120816251796563 -0.1894438163302814 0 -0.26809923494901639 -0.1892140246037291 0 -0.27173468583480193 -0.20978422757800599 0 -0.25410708769647983 -0.2033959670697395 0 -0.26809923494901639 -0.1892140246037291 0 -0.25410708769647983 -0.2033959670697395 0 -0.26809923494901639 -0.1892140246037291 0 -0.26809923494901639 -0.1892140246037291 0 -0.28667214445476868 -0.2037884660883664 0 -0.2801264333152973 -0.1770236843950859 0 -0.27173468583480193 -0.20978422757800599 0 -0.26809923494901639 -0.1892140246037291 0 -0.28667214445476868 -0.2037884660883664 0 -0.26809923494901639 -0.1892140246037291 0 -0.28667214445476868 -0.2037884660883664 0 -0.28667214445476868 -0.2037884660883664 0 -0.29942566429626088 -0.19468499779963711 0 -0.2801264333152973 -0.1770236843950859 0 -0.28667214445476868 -0.2037884660883664 0 -0.29375496294734732 -0.21837174622994779 0 -0.30524505396052087 -0.2183629075730037 0 -0.28512111612163832 -0.22300524280142439 0 -0.28667214445476868 -0.2037884660883664 0 -0.29375496294734732 -0.21837174622994779 0 -0.28667214445476868 -0.2037884660883664 0 -0.30524505396052087 -0.2183629075730037 0 -0.28667214445476868 -0.2037884660883664 0 -0.30524505396052087 -0.2183629075730037 0 -0.30845399902759552 -0.20749181532821229 0 -0.28667214445476868 -0.2037884660883664 0 -0.30845399902759552 -0.20749181532821229 0 -0.29942566429626088 -0.19468499779963711 0 -0.30845399902759552 -0.20749181532821229 0 -0.29942566429626088 -0.19468499779963711 0 -0.307760311335389 -0.1814162728433952 0 -0.30845399902759552 -0.20749181532821229 0 -0.307760311335389 -0.1814162728433952 0 -0.30845399902759552 -0.20749181532821229 0 -0.307760311335389 -0.1814162728433952 0 -0.31551275142774782 -0.19398980926938389 0 -0.29960543325592348 -0.17206170366441961 0 -0.307760311335389 -0.1814162728433952 0 -0.30762156796094609 -0.17620094497263461 0 -0.307760311335389 -0.1814162728433952 0 -0.30762156796094609 -0.17620094497263461 0 -0.31742247084302172 -0.1785497209703947 0 -0.307760311335389 -0.1814162728433952 0 -0.30762156796094609 -0.17620094497263461 0 -0.3059838917842449 -0.16713802958997859 0 -0.31044710375189971 -0.15920313284965529 0 -0.3145677515967405 -0.16898992235052379 0 -0.30762156796094609 -0.17620094497263461 0 -0.3059838917842449 -0.16713802958997859 0 -0.3145677515967405 -0.16898992235052379 0 -0.3059838917842449 -0.16713802958997859 0 -0.31044710375189971 -0.15920313284965529 0 -0.29767760235571472 -0.1592344441126595 0 -0.29960543325592348 -0.17206170366441961 0 -0.3059838917842449 -0.16713802958997859 0 -0.29767760235571472 -0.1592344441126595 0 -0.29960543325592348 -0.17206170366441961 0 -0.30762156796094609 -0.17620094497263461 0 -0.3059838917842449 -0.16713802958997859 0 -0.29960543325592348 -0.17206170366441961 0 -0.29767760235571472 -0.1592344441126595 0 -0.2801264333152973 -0.1770236843950859 0 -0.29767760235571472 -0.1592344441126595 0 -0.28186265195521409 -0.16143450175494631 0 -0.2801264333152973 -0.1770236843950859 0 -0.29767760235571472 -0.1592344441126595 0 -0.2801264333152973 -0.1770236843950859 0 -0.29767760235571472 -0.1592344441126595 0 -0.28186265195521409 -0.16143450175494631 0 -0.28155401551382842 -0.1486451463832518 0 -0.29960543325592348 -0.17206170366441961 0 -0.307760311335389 -0.1814162728433952 0 -0.2801264333152973 -0.1770236843950859 0 -0.29942566429626088 -0.19468499779963711 0 -0.307760311335389 -0.1814162728433952 0 -0.2801264333152973 -0.1770236843950859 0 -0.307760311335389 -0.1814162728433952 0 -0.2801264333152973 -0.1770236843950859 0 -0.26809923494901639 -0.1892140246037291 0 -0.2801264333152973 -0.1770236843950859 0 -0.26284479263387778 -0.1742766528286232 0 -0.26809923494901639 -0.1892140246037291 0 -0.2801264333152973 -0.1770236843950859 0 -0.2801264333152973 -0.1770236843950859 0 -0.26284479263387778 -0.1742766528286232 0 -0.24556315195245881 -0.1715296212621579 0 -0.26284479263387778 -0.1742766528286232 0 -0.24556315195245881 -0.1715296212621579 0 -0.26809923494901639 -0.1892140246037291 0 -0.24556315195245881 -0.1715296212621579 0 -0.25120816251796563 -0.1894438163302814 0 -0.26809923494901639 -0.1892140246037291 0 -0.24556315195245881 -0.1715296212621579 0 -0.26809923494901639 -0.1892140246037291 0 -0.26284479263387778 -0.1742766528286232 0 -0.26284479263387778 -0.1742766528286232 0 -0.25192155109906789 -0.16055113994692141 0 -0.26628559206178759 -0.15603713975466449 0 -0.24556315195245881 -0.1715296212621579 0 -0.26284479263387778 -0.1742766528286232 0 -0.25192155109906789 -0.16055113994692141 0 -0.28186265195521409 -0.16143450175494631 0 -0.26284479263387778 -0.1742766528286232 0 -0.26628559206178759 -0.15603713975466449 0 -0.28186265195521409 -0.16143450175494631 0 -0.2801264333152973 -0.1770236843950859 0 -0.26284479263387778 -0.1742766528286232 0 -0.28186265195521409 -0.16143450175494631 0 -0.26628559206178759 -0.15603713975466449 0 -0.28155401551382842 -0.1486451463832518 0 -0.26628559206178759 -0.15603713975466449 0 -0.2666564273411664 -0.13888107140598191 0 -0.28155401551382842 -0.1486451463832518 0 -0.26628559206178759 -0.15603713975466449 0 -0.25226948237231878 -0.14577558056299589 0 -0.2666564273411664 -0.13888107140598191 0 -0.25192155109906789 -0.16055113994692141 0 -0.26628559206178759 -0.15603713975466449 0 -0.25226948237231878 -0.14577558056299589 0 -0.26744648876325072 -0.1238102492272139 0 -0.25105915277174212 -0.12645053818584689 0 -0.2666564273411664 -0.13888107140598191 0 -0.25226948237231878 -0.14577558056299589 0 -0.25105915277174212 -0.12645053818584689 0 -0.2666564273411664 -0.13888107140598191 0 -0.26744648876325072 -0.1238102492272139 0 -0.2666564273411664 -0.13888107140598191 0 -0.28132383256407112 -0.13256777432191849 0 -0.2666564273411664 -0.13888107140598191 0 -0.28132383256407112 -0.13256777432191849 0 -0.28155401551382842 -0.1486451463832518 0 -0.28132383256407112 -0.13256777432191849 0 -0.28155401551382842 -0.1486451463832518 0 -0.29733334680521328 -0.1402676503807139 0 -0.28552644284483381 -0.1166692254700471 0 -0.28132383256407112 -0.13256777432191849 0 -0.29466435686040232 -0.12579418670845591 0 -0.28132383256407112 -0.13256777432191849 0 -0.29466435686040232 -0.12579418670845591 0 -0.29733334680521328 -0.1402676503807139 0 -0.29767760235571472 -0.1592344441126595 0 -0.28155401551382842 -0.1486451463832518 0 -0.29733334680521328 -0.1402676503807139 0 -0.29767760235571472 -0.1592344441126595 0 -0.29733334680521328 -0.1402676503807139 0 -0.31522877139613348 -0.14144520383023451 0 -0.31044710375189971 -0.15920313284965529 0 -0.29767760235571472 -0.1592344441126595 0 -0.31522877139613348 -0.14144520383023451 0 -0.29767760235571472 -0.1592344441126595 0 -0.31522877139613348 -0.14144520383023451 0 -0.29466435686040232 -0.12579418670845591 0 -0.29733334680521328 -0.1402676503807139 0 -0.31085258760032258 -0.12500649724304419 0 -0.29733334680521328 -0.1402676503807139 0 -0.31085258760032258 -0.12500649724304419 0 -0.31522877139613348 -0.14144520383023451 0 -0.32785615709811022 -0.12449592579028711 0 -0.31522877139613348 -0.14144520383023451 0 -0.32712038288542761 -0.14556800875694581 0 -0.32785615709811022 -0.12449592579028711 0 -0.31085258760032258 -0.12500649724304419 0 -0.31522877139613348 -0.14144520383023451 0 -0.32712038288542761 -0.14556800875694581 0 -0.33524337896049761 -0.15778052362407799 0 -0.31910900145729959 -0.15625854870119679 0 -0.31044710375189971 -0.15920313284965529 0 -0.31522877139613348 -0.14144520383023451 0 -0.31910900145729959 -0.15625854870119679 0 -0.31522877139613348 -0.14144520383023451 0 -0.32712038288542761 -0.14556800875694581 0 -0.31910900145729959 -0.15625854870119679 0 -0.33861099693334101 -0.14801375932032629 0 -0.35394643336547621 -0.1490705172717724 0 -0.33524337896049761 -0.15778052362407799 0 -0.32712038288542761 -0.14556800875694581 0 -0.33861099693334101 -0.14801375932032629 0 -0.33524337896049761 -0.15778052362407799 0 -0.33861099693334101 -0.14801375932032629 0 -0.33524337896049761 -0.15778052362407799 0 -0.33861099693334101 -0.14801375932032629 0 -0.34349025405940181 -0.1338629397463946 0 -0.32785615709811022 -0.12449592579028711 0 -0.33861099693334101 -0.14801375932032629 0 -0.34349025405940181 -0.1338629397463946 0 -0.32785615709811022 -0.12449592579028711 0 -0.33861099693334101 -0.14801375932032629 0 -0.32785615709811022 -0.12449592579028711 0 -0.32712038288542761 -0.14556800875694581 0 -0.33861099693334101 -0.14801375932032629 0 -0.34349025405940181 -0.1338629397463946 0 -0.36174700703944462 -0.1288075327930423 0 -0.35394643336547621 -0.1490705172717724 0 -0.36174700703944462 -0.1288075327930423 0 -0.38118268978109521 -0.1418676707419094 0 -0.37837852883294448 -0.10929118033642379 0 -0.36174700703944462 -0.1288075327930423 0 -0.35394643336547621 -0.1490705172717724 0 -0.38118268978109521 -0.1418676707419094 0 -0.36329806666364051 -0.16463457951624649 0 -0.38118268978109521 -0.1418676707419094 0 -0.35394643336547621 -0.1490705172717724 0 -0.36329806666364051 -0.16463457951624649 0 -0.38118268978109521 -0.1418676707419094 0 -0.35394643336547621 -0.1490705172717724 0 -0.34808657334393112 -0.16105949878367931 0 -0.33524337896049761 -0.15778052362407799 0 -0.33861099693334101 -0.14801375932032629 0 -0.34349025405940181 -0.1338629397463946 0 -0.35394643336547621 -0.1490705172717724 0 -0.34808657334393112 -0.16105949878367931 0 -0.36329806666364051 -0.16463457951624649 0 -0.33985841438611042 -0.17275237472262031 0 -0.35394643336547621 -0.1490705172717724 0 -0.34808657334393112 -0.16105949878367931 0 -0.36329806666364051 -0.16463457951624649 0 -0.36329806666364051 -0.16463457951624649 0 -0.37504142486822928 -0.17728741641446541 0 -0.38405954897129502 -0.16696147609360371 0 -0.36329806666364051 -0.16463457951624649 0 -0.34541344354619002 -0.18740148829058689 0 -0.37504142486822928 -0.17728741641446541 0 -0.34541344354619002 -0.18740148829058689 0 -0.37181882228665081 -0.19159879861902779 0 -0.37504142486822928 -0.17728741641446541 0 -0.36329806666364051 -0.16463457951624649 0 -0.34541344354619002 -0.18740148829058689 0 -0.33985841438611042 -0.17275237472262031 0 -0.36329806666364051 -0.16463457951624649 0 -0.34541344354619002 -0.18740148829058689 0 -0.34541344354619002 -0.18740148829058689 0 -0.335247906101521 -0.18132128021717689 0 -0.33985841438611042 -0.17275237472262031 0 -0.34541344354619002 -0.18740148829058689 0 -0.32790177958954381 -0.18461789299677531 0 -0.34541344354619002 -0.18740148829058689 0 -0.335247906101521 -0.18132128021717689 0 -0.32790177958954381 -0.18461789299677531 0 -0.335247906101521 -0.18132128021717689 0 -0.32790177958954381 -0.18461789299677531 0 -0.32699650386159179 -0.1816981075017608 0 -0.32608910140010161 -0.18432975575922589 0 -0.32790177958954381 -0.18461789299677531 0 -0.33046234465984442 -0.19287648264022139 0 -0.335247906101521 -0.18132128021717689 0 -0.33985841438611042 -0.17275237472262031 0 -0.32699650386159179 -0.1816981075017608 0 -0.33524337896049761 -0.15778052362407799 0 -0.32699650386159179 -0.1816981075017608 0 -0.33985841438611042 -0.17275237472262031 0 -0.33524337896049761 -0.15778052362407799 0 -0.32699650386159179 -0.1816981075017608 0 -0.34808657334393112 -0.16105949878367931 0 -0.33985841438611042 -0.17275237472262031 0 -0.33524337896049761 -0.15778052362407799 0 -0.31910900145729959 -0.15625854870119679 0 -0.32699650386159179 -0.1816981075017608 0 -0.31910900145729959 -0.15625854870119679 0 -0.3145677515967405 -0.16898992235052379 0 -0.32699650386159179 -0.1816981075017608 0 -0.33524337896049761 -0.15778052362407799 0 -0.31910900145729959 -0.15625854870119679 0 -0.32699650386159179 -0.1816981075017608 0 -0.31044710375189971 -0.15920313284965529 0 -0.31910900145729959 -0.15625854870119679 0 -0.3145677515967405 -0.16898992235052379 0 -0.3145677515967405 -0.16898992235052379 0 -0.31742247084302172 -0.1785497209703947 0 -0.32699650386159179 -0.1816981075017608 0 -0.30762156796094609 -0.17620094497263461 0 -0.3145677515967405 -0.16898992235052379 0 -0.31742247084302172 -0.1785497209703947 0 -0.307760311335389 -0.1814162728433952 0 -0.32608910140010161 -0.18432975575922589 0 -0.307760311335389 -0.1814162728433952 0 -0.32608910140010161 -0.18432975575922589 0 -0.31551275142774782 -0.19398980926938389 0 -0.307760311335389 -0.1814162728433952 0 -0.31742247084302172 -0.1785497209703947 0 -0.32608910140010161 -0.18432975575922589 0 -0.31742247084302172 -0.1785497209703947 0 -0.32608910140010161 -0.18432975575922589 0 -0.32699650386159179 -0.1816981075017608 0 -0.32608910140010161 -0.18432975575922589 0 -0.32790177958954381 -0.18461789299677531 0 -0.32790177958954381 -0.18461789299677531 0 -0.32699650386159179 -0.1816981075017608 0 -0.32608910140010161 -0.18432975575922589 0 -0.32699650386159179 -0.1816981075017608 0 -0.32608910140010161 -0.18432975575922589 0 -0.32790177958954381 -0.18461789299677531 0 -0.32699650386159179 -0.1816981075017608 0 -0.32608910140010161 -0.18432975575922589 0 -0.3197475939479052 -0.20272139314670221 0 -0.33046234465984442 -0.19287648264022139 0 -0.32097066955095149 -0.2117380569690962 0 -0.33046234465984442 -0.19287648264022139 0 -0.32608910140010161 -0.18432975575922589 0 -0.31551275142774782 -0.19398980926938389 0 -0.3197475939479052 -0.20272139314670221 0 -0.3197475939479052 -0.20272139314670221 0 -0.32097066955095149 -0.2117380569690962 0 -0.33046234465984442 -0.19287648264022139 0 -0.32608910140010161 -0.18432975575922589 0 -0.3197475939479052 -0.20272139314670221 0 -0.30845399902759552 -0.20749181532821229 0 -0.31551275142774782 -0.19398980926938389 0 -0.3197475939479052 -0.20272139314670221 0 -0.31147899444205968 -0.23059963129797151 0 -0.30845399902759552 -0.20749181532821229 0 -0.32097066955095149 -0.2117380569690962 0 -0.30845399902759552 -0.20749181532821229 0 -0.3197475939479052 -0.20272139314670221 0 -0.32097066955095149 -0.2117380569690962 0 -0.32247764008346458 -0.21659848851097249 0 -0.33347628572486721 -0.2025973457239717 0 -0.32097066955095149 -0.2117380569690962 0 -0.32247764008346458 -0.21659848851097249 0 -0.33347628572486721 -0.2025973457239717 0 -0.32247764008346458 -0.21659848851097249 0 -0.33347628572486721 -0.2025973457239717 0 -0.33029646975868959 -0.21952191925403999 0 -0.33347628572486721 -0.2025973457239717 0 -0.34132424886215201 -0.2279093785402394 0 -0.33347628572486721 -0.2025973457239717 0 -0.34132424886215201 -0.2279093785402394 0 -0.33029646975868959 -0.21952191925403999 0 -0.33347628572486721 -0.2025973457239717 0 -0.34965910985169579 -0.21057395093871151 0 -0.34132424886215201 -0.2279093785402394 0 -0.34541344354619002 -0.18740148829058689 0 -0.32790177958954381 -0.18461789299677531 0 -0.33046234465984442 -0.19287648264022139 0 -0.34541344354619002 -0.18740148829058689 0 -0.33347628572486721 -0.2025973457239717 0 -0.34965910985169579 -0.21057395093871151 0 -0.32097066955095149 -0.2117380569690962 0 -0.33347628572486721 -0.2025973457239717 0 -0.33046234465984442 -0.19287648264022139 0 -0.33347628572486721 -0.2025973457239717 0 -0.33046234465984442 -0.19287648264022139 0 -0.32790177958954381 -0.18461789299677531 0 -0.33046234465984442 -0.19287648264022139 0 -0.34541344354619002 -0.18740148829058689 0 -0.33347628572486721 -0.2025973457239717 0 -0.33046234465984442 -0.19287648264022139 0 -0.34541344354619002 -0.18740148829058689 0 -0.33347628572486721 -0.2025973457239717 0 -0.34541344354619002 -0.18740148829058689 0 -0.37181882228665081 -0.19159879861902779 0 -0.34541344354619002 -0.18740148829058689 0 -0.36461833708695651 -0.2058973924009424 0 -0.34965910985169579 -0.21057395093871151 0 -0.34541344354619002 -0.18740148829058689 0 -0.37181882228665081 -0.19159879861902779 0 -0.36461833708695651 -0.2058973924009424 0 -0.37181882228665081 -0.19159879861902779 0 -0.36461833708695651 -0.2058973924009424 0 -0.37669198655001479 -0.21432529006652651 0 -0.36461833708695651 -0.2058973924009424 0 -0.36138485461319553 -0.22951450150568811 0 -0.37669198655001479 -0.21432529006652651 0 -0.36461833708695651 -0.2058973924009424 0 -0.34965910985169579 -0.21057395093871151 0 -0.36138485461319553 -0.22951450150568811 0 -0.36138485461319553 -0.22951450150568811 0 -0.35103280662635122 -0.23593688042554839 0 -0.34132424886215201 -0.2279093785402394 0 -0.36138485461319553 -0.22951450150568811 0 -0.34132424886215201 -0.2279093785402394 0 -0.34965910985169579 -0.21057395093871151 0 -0.36138485461319553 -0.22951450150568811 0 -0.34132424886215201 -0.2279093785402394 0 -0.35103280662635122 -0.23593688042554839 0 -0.34362293040820457 -0.23532331534269141 0 -0.34132424886215201 -0.2279093785402394 0 -0.36138485461319553 -0.22951450150568811 0 -0.38144546036423899 -0.23111962447113699 0 -0.36138485461319553 -0.22951450150568811 0 -0.38144546036423899 -0.23111962447113699 0 -0.37669198655001479 -0.21432529006652651 0 -0.36138485461319553 -0.22951450150568811 0 -0.3710897063250192 -0.24549086766890671 0 -0.35799108228259019 -0.24211053401807439 0 -0.36138485461319553 -0.22951450150568811 0 -0.3710897063250192 -0.24549086766890671 0 -0.38144546036423899 -0.23111962447113699 0 -0.35680164887330151 -0.25202588794793468 0 -0.3710897063250192 -0.24549086766890671 0 -0.35799108228259019 -0.24211053401807439 0 -0.35680164887330151 -0.25202588794793468 0 -0.35799108228259019 -0.24211053401807439 0 -0.34672280578156511 -0.24412450819441839 0 -0.36138485461319553 -0.22951450150568811 0 -0.35799108228259019 -0.24211053401807439 0 -0.35103280662635122 -0.23593688042554839 0 -0.35799108228259019 -0.24211053401807439 0 -0.35103280662635122 -0.23593688042554839 0 -0.34672280578156511 -0.24412450819441839 0 -0.35103280662635122 -0.23593688042554839 0 -0.34672280578156511 -0.24412450819441839 0 -0.34362293040820457 -0.23532331534269141 0 -0.34357736444614539 -0.25421893888895541 0 -0.34672280578156511 -0.24412450819441839 0 -0.33643048387245028 -0.2467438411192806 0 -0.34672280578156511 -0.24412450819441839 0 -0.33643048387245028 -0.2467438411192806 0 -0.33803700831337491 -0.23950151777267439 0 -0.33242358686280787 -0.25466407808984032 0 -0.33643048387245028 -0.2467438411192806 0 -0.32631504982578291 -0.24710641401897079 0 -0.33643048387245028 -0.2467438411192806 0 -0.33002763217983522 -0.24060099075834779 0 -0.32631504982578291 -0.24710641401897079 0 -0.33643048387245028 -0.2467438411192806 0 -0.33002763217983522 -0.24060099075834779 0 -0.33803700831337491 -0.23950151777267439 0 -0.33002763217983522 -0.24060099075834779 0 -0.33274819462309652 -0.23646333648761411 0 -0.33803700831337491 -0.23950151777267439 0 -0.33274819462309652 -0.23646333648761411 0 -0.33384606656466709 -0.23325258242206079 0 -0.32583119877410771 -0.23399375338101289 0 -0.33002763217983522 -0.24060099075834779 0 -0.33274819462309652 -0.23646333648761411 0 -0.32583119877410771 -0.23399375338101289 0 -0.33274819462309652 -0.23646333648761411 0 -0.33803700831337491 -0.23950151777267439 0 -0.33384606656466709 -0.23325258242206079 0 -0.34672280578156511 -0.24412450819441839 0 -0.33803700831337491 -0.23950151777267439 0 -0.34362293040820457 -0.23532331534269141 0 -0.33803700831337491 -0.23950151777267439 0 -0.34362293040820457 -0.23532331534269141 0 -0.33384606656466709 -0.23325258242206079 0 -0.34362293040820457 -0.23532331534269141 0 -0.34132424886215201 -0.2279093785402394 0 -0.33384606656466709 -0.23325258242206079 0 -0.34132424886215201 -0.2279093785402394 0 -0.33029646975868959 -0.21952191925403999 0 -0.32151281840706719 -0.2263241930081325 0 -0.34132424886215201 -0.2279093785402394 0 -0.33384606656466709 -0.23325258242206079 0 -0.32151281840706719 -0.2263241930081325 0 -0.34362293040820457 -0.23532331534269141 0 -0.34132424886215201 -0.2279093785402394 0 -0.34132424886215201 -0.2279093785402394 0 -0.32151281840706719 -0.2263241930081325 0 -0.31147899444205968 -0.23059963129797151 0 -0.32097066955095149 -0.2117380569690962 0 -0.31147899444205968 -0.23059963129797151 0 -0.32097066955095149 -0.2117380569690962 0 -0.32247764008346458 -0.21659848851097249 0 -0.33384606656466709 -0.23325258242206079 0 -0.32583119877410771 -0.23399375338101289 0 -0.32151281840706719 -0.2263241930081325 0 -0.32583119877410771 -0.23399375338101289 0 -0.32151281840706719 -0.2263241930081325 0 -0.31707299286029711 -0.23486781174851229 0 -0.32247764008346458 -0.21659848851097249 0 -0.33029646975868959 -0.21952191925403999 0 -0.32151281840706719 -0.2263241930081325 0 -0.31147899444205968 -0.23059963129797151 0 -0.32247764008346458 -0.21659848851097249 0 -0.32151281840706719 -0.2263241930081325 0 -0.31147899444205968 -0.23059963129797151 0 -0.32247764008346458 -0.21659848851097249 0 -0.30918975616523298 -0.23514873747991599 0 -0.31147899444205968 -0.23059963129797151 0 -0.31707299286029711 -0.23486781174851229 0 -0.31147899444205968 -0.23059963129797151 0 -0.32151281840706719 -0.2263241930081325 0 -0.31707299286029711 -0.23486781174851229 0 -0.31707299286029711 -0.23486781174851229 0 -0.31463666262515572 -0.24470528053627741 0 -0.32080385767019892 -0.2397970817705338 0 -0.30918975616523298 -0.23514873747991599 0 -0.31707299286029711 -0.23486781174851229 0 -0.31463666262515572 -0.24470528053627741 0 -0.31463666262515572 -0.24470528053627741 0 -0.3185352298557616 -0.2496684481364129 0 -0.32080385767019892 -0.2397970817705338 0 -0.33002763217983522 -0.24060099075834779 0 -0.32631504982578291 -0.24710641401897079 0 -0.32080385767019892 -0.2397970817705338 0 -0.3185352298557616 -0.2496684481364129 0 -0.32631504982578291 -0.24710641401897079 0 -0.32080385767019892 -0.2397970817705338 0 -0.32583119877410771 -0.23399375338101289 0 -0.31707299286029711 -0.23486781174851229 0 -0.32080385767019892 -0.2397970817705338 0 -0.33002763217983522 -0.24060099075834779 0 -0.32583119877410771 -0.23399375338101289 0 -0.32080385767019892 -0.2397970817705338 0 -0.42767263362153179 -0.24798740519489279 0 -0.42427835426513971 -0.23013753564417819 0 -0.44397851549351619 -0.2284122902239564 0 -0.42767263362153179 -0.24798740519489279 0 -0.44397851549351619 -0.2284122902239564 0 -0.42427835426513971 -0.23013753564417819 0 -0.43525596007518852 -0.2220293918665395 0 -0.42331798689688588 -0.2124720996718116 0 -0.42427835426513971 -0.23013753564417819 0 -0.43525596007518852 -0.2220293918665395 0 -0.44397851549351619 -0.2284122902239564 0 -0.42427835426513971 -0.23013753564417819 0 -0.4083114180091113 -0.21974975494432311 0 -0.4015060661152825 -0.23272474743658589 0 -0.42427835426513971 -0.23013753564417819 0 -0.4083114180091113 -0.21974975494432311 0 -0.42331798689688588 -0.2124720996718116 0 -0.40809661003594849 -0.25043681316773753 0 -0.42427835426513971 -0.23013753564417819 0 -0.4015060661152825 -0.23272474743658589 0 -0.40809661003594849 -0.25043681316773753 0 -0.42767263362153179 -0.24798740519489279 0 -0.42427835426513971 -0.23013753564417819 0 -0.38752920617537062 -0.25267883187100432 0 -0.40809661003594849 -0.25043681316773753 0 -0.4015060661152825 -0.23272474743658589 0 -0.38752920617537062 -0.25267883187100432 0 -0.38144546036423899 -0.23111962447113699 0 -0.4015060661152825 -0.23272474743658589 0 -0.38752920617537062 -0.25267883187100432 0 -0.3710897063250192 -0.24549086766890671 0 -0.38144546036423899 -0.23111962447113699 0 -0.38144546036423899 -0.23111962447113699 0 -0.39187429009393843 -0.21942618433155389 0 -0.37669198655001479 -0.21432529006652651 0 -0.38144546036423899 -0.23111962447113699 0 -0.4015060661152825 -0.23272474743658589 0 -0.39187429009393843 -0.21942618433155389 0 -0.38144546036423899 -0.23111962447113699 0 -0.4015060661152825 -0.23272474743658589 0 -0.4083114180091113 -0.21974975494432311 0 -0.4015060661152825 -0.23272474743658589 0 -0.39187429009393843 -0.21942618433155389 0 -0.4083114180091113 -0.21974975494432311 0 -0.39187429009393843 -0.21942618433155389 0 -0.3971869901485594 -0.20784855741741129 0 -0.3971869901485594 -0.20784855741741129 0 -0.40164202134996968 -0.2021610945248552 0 -0.40883999511423103 -0.20278053850841149 0 -0.3971869901485594 -0.20784855741741129 0 -0.38568579221873128 -0.20631542871627651 0 -0.39085687201449321 -0.19837831314686311 0 -0.39187429009393843 -0.21942618433155389 0 -0.3971869901485594 -0.20784855741741129 0 -0.38568579221873128 -0.20631542871627651 0 -0.39187429009393843 -0.21942618433155389 0 -0.38568579221873128 -0.20631542871627651 0 -0.37669198655001479 -0.21432529006652651 0 -0.37181882228665081 -0.19159879861902779 0 -0.38568579221873128 -0.20631542871627651 0 -0.37669198655001479 -0.21432529006652651 0 -0.37181882228665081 -0.19159879861902779 0 -0.38568579221873128 -0.20631542871627651 0 -0.39085687201449321 -0.19837831314686311 0 -0.37181882228665081 -0.19159879861902779 0 -0.39822420102711242 -0.1957961089474641 0 -0.37181882228665081 -0.19159879861902779 0 -0.39822420102711242 -0.1957961089474641 0 -0.3860973412913899 -0.18692938405846529 0 -0.37181882228665081 -0.19159879861902779 0 -0.39085687201449321 -0.19837831314686311 0 -0.39822420102711242 -0.1957961089474641 0 -0.3950704710418611 -0.18798596504238069 0 -0.39822420102711242 -0.1957961089474641 0 -0.3860973412913899 -0.18692938405846529 0 -0.3950704710418611 -0.18798596504238069 0 -0.39822420102711242 -0.1957961089474641 0 -0.40094425307091158 -0.18922039866299639 0 -0.3971869901485594 -0.20784855741741129 0 -0.39085687201449321 -0.19837831314686311 0 -0.40164202134996968 -0.2021610945248552 0 -0.39085687201449321 -0.19837831314686311 0 -0.39822420102711242 -0.1957961089474641 0 -0.40164202134996968 -0.2021610945248552 0 -0.39085687201449321 -0.19837831314686311 0 -0.39822420102711242 -0.1957961089474641 0 -0.39822420102711242 -0.1957961089474641 0 -0.40164202134996968 -0.2021610945248552 0 -0.40883999511423103 -0.20278053850841149 0 -0.39822420102711242 -0.1957961089474641 0 -0.40094425307091158 -0.18922039866299639 0 -0.4127300674997848 -0.1907118906021795 0 -0.39822420102711242 -0.1957961089474641 0 -0.4127300674997848 -0.1907118906021795 0 -0.40094425307091158 -0.18922039866299639 0 -0.4127300674997848 -0.1907118906021795 0 -0.42723593397245768 -0.1856276722568963 0 -0.39822420102711242 -0.1957961089474641 0 -0.42109826818738239 -0.19943209384618199 0 -0.39822420102711242 -0.1957961089474641 0 -0.4127300674997848 -0.1907118906021795 0 -0.42109826818738239 -0.19943209384618199 0 -0.39822420102711242 -0.1957961089474641 0 -0.42109826818738239 -0.19943209384618199 0 -0.40883999511423103 -0.20278053850841149 0 -0.4127300674997848 -0.1907118906021795 0 -0.42109826818738239 -0.19943209384618199 0 -0.42723593397245768 -0.1856276722568963 0 -0.4127300674997848 -0.1907118906021795 0 -0.42723593397245768 -0.1856276722568963 0 -0.3971869901485594 -0.20784855741741129 0 -0.42331798689688588 -0.2124720996718116 0 -0.4083114180091113 -0.21974975494432311 0 -0.3971869901485594 -0.20784855741741129 0 -0.42331798689688588 -0.2124720996718116 0 -0.3971869901485594 -0.20784855741741129 0 -0.40883999511423103 -0.20278053850841149 0 -0.42331798689688588 -0.2124720996718116 0 -0.42109826818738239 -0.19943209384618199 0 -0.40883999511423103 -0.20278053850841149 0 -0.42331798689688588 -0.2124720996718116 0 -0.42109826818738239 -0.19943209384618199 0 -0.42331798689688588 -0.2124720996718116 0 -0.44397233534765268 -0.20306807874489791 0 -0.42331798689688588 -0.2124720996718116 0 -0.44944898364521241 -0.21709564192621189 0 -0.43525596007518852 -0.2220293918665395 0 -0.42331798689688588 -0.2124720996718116 0 -0.44944898364521241 -0.21709564192621189 0 -0.42109826818738239 -0.19943209384618199 0 -0.44123189163815379 -0.19062247474359659 0 -0.44397233534765268 -0.20306807874489791 0 -0.42109826818738239 -0.19943209384618199 0 -0.44397233534765268 -0.20306807874489791 0 -0.42109826818738239 -0.19943209384618199 0 -0.42723593397245768 -0.1856276722568963 0 -0.44123189163815379 -0.19062247474359659 0 -0.42723593397245768 -0.1856276722568963 0 -0.43670663194616138 -0.1712422920588432 0 -0.42309190228847771 -0.16997652538754579 0 -0.43670663194616138 -0.1712422920588432 0 -0.43238653210255218 -0.15942706648310989 0 -0.42309190228847771 -0.16997652538754579 0 -0.43238653210255218 -0.15942706648310989 0 -0.42309190228847771 -0.16997652538754579 0 -0.4179837888758518 -0.1559644628683847 0 -0.42309190228847771 -0.16997652538754579 0 -0.41156431792363651 -0.16894033296035221 0 -0.4179837888758518 -0.1559644628683847 0 -0.41156431792363651 -0.16894033296035221 0 -0.39974833152457517 -0.1569751718501835 0 -0.4179837888758518 -0.1559644628683847 0 -0.40094425307091158 -0.18922039866299639 0 -0.42723593397245768 -0.1856276722568963 0 -0.41243487825767627 -0.1786509680540562 0 -0.42723593397245768 -0.1856276722568963 0 -0.42309190228847771 -0.16997652538754579 0 -0.41243487825767627 -0.1786509680540562 0 -0.40094425307091158 -0.18922039866299639 0 -0.42723593397245768 -0.1856276722568963 0 -0.41156431792363651 -0.16894033296035221 0 -0.41243487825767627 -0.1786509680540562 0 -0.39794237279508038 -0.1769601627770914 0 -0.42309190228847771 -0.16997652538754579 0 -0.41156431792363651 -0.16894033296035221 0 -0.41243487825767627 -0.1786509680540562 0 -0.40094425307091158 -0.18922039866299639 0 -0.41243487825767627 -0.1786509680540562 0 -0.39794237279508038 -0.1769601627770914 0 -0.3950704710418611 -0.18798596504238069 0 -0.39794237279508038 -0.1769601627770914 0 -0.3860973412913899 -0.18692938405846529 0 -0.3950704710418611 -0.18798596504238069 0 -0.40094425307091158 -0.18922039866299639 0 -0.39794237279508038 -0.1769601627770914 0 -0.39794237279508038 -0.1769601627770914 0 -0.3860973412913899 -0.18692938405846529 0 -0.38405954897129502 -0.16696147609360371 0 -0.3860973412913899 -0.18692938405846529 0 -0.37504142486822928 -0.17728741641446541 0 -0.38405954897129502 -0.16696147609360371 0 -0.37181882228665081 -0.19159879861902779 0 -0.3860973412913899 -0.18692938405846529 0 -0.37504142486822928 -0.17728741641446541 0 -0.36329806666364051 -0.16463457951624649 0 -0.38405954897129502 -0.16696147609360371 0 -0.38118268978109521 -0.1418676707419094 0 -0.39794237279508038 -0.1769601627770914 0 -0.38405954897129502 -0.16696147609360371 0 -0.39974833152457517 -0.1569751718501835 0 -0.41156431792363651 -0.16894033296035221 0 -0.39794237279508038 -0.1769601627770914 0 -0.39974833152457517 -0.1569751718501835 0 -0.39974833152457517 -0.1569751718501835 0 -0.38118268978109521 -0.1418676707419094 0 -0.40811531686255359 -0.1394305069565924 0 -0.38405954897129502 -0.16696147609360371 0 -0.39974833152457517 -0.1569751718501835 0 -0.38118268978109521 -0.1418676707419094 0 -0.38118268978109521 -0.1418676707419094 0 -0.39906731289854991 -0.1191007619675724 0 -0.38118268978109521 -0.1418676707419094 0 -0.40811531686255359 -0.1394305069565924 0 -0.39906731289854991 -0.1191007619675724 0 -0.40811531686255359 -0.1394305069565924 0 -0.4289158406599401 -0.14092877829164771 0 -0.42168727451676979 -0.12145500175068311 0 -0.40811531686255359 -0.1394305069565924 0 -0.39906731289854991 -0.1191007619675724 0 -0.42168727451676979 -0.12145500175068311 0 -0.40811531686255359 -0.1394305069565924 0 -0.4179837888758518 -0.1559644628683847 0 -0.4289158406599401 -0.14092877829164771 0 -0.39974833152457517 -0.1569751718501835 0 -0.40811531686255359 -0.1394305069565924 0 -0.4179837888758518 -0.1559644628683847 0 -0.43238653210255218 -0.15942706648310989 0 -0.4179837888758518 -0.1559644628683847 0 -0.4289158406599401 -0.14092877829164771 0 -0.43238653210255218 -0.15942706648310989 0 -0.4289158406599401 -0.14092877829164771 0 -0.44141457277426732 -0.14911929966438711 0 -0.4289158406599401 -0.14092877829164771 0 -0.4448809395219212 -0.13582854561315019 0 -0.43514277130237772 -0.12332447836648899 0 -0.4289158406599401 -0.14092877829164771 0 -0.42168727451676979 -0.12145500175068311 0 -0.43514277130237772 -0.12332447836648899 0 -0.4448809395219212 -0.13582854561315019 0 -0.46147737606606121 -0.12742063858020569 0 -0.45192885730502269 -0.1195728193001149 0 -0.4289158406599401 -0.14092877829164771 0 -0.4448809395219212 -0.13582854561315019 0 -0.44141457277426732 -0.14911929966438711 0 -0.44141457277426732 -0.14911929966438711 0 -0.4542334142639271 -0.1474408332300382 0 -0.44665613732299592 -0.1619712747039892 0 -0.4448809395219212 -0.13582854561315019 0 -0.44141457277426732 -0.14911929966438711 0 -0.4542334142639271 -0.1474408332300382 0 -0.4542334142639271 -0.1474408332300382 0 -0.46988776385330649 -0.14757565639893061 0 -0.46052333803425288 -0.1607838557244618 0 -0.4542334142639271 -0.1474408332300382 0 -0.46147737606606121 -0.12742063858020569 0 -0.46988776385330649 -0.14757565639893061 0 -0.4448809395219212 -0.13582854561315019 0 -0.4542334142639271 -0.1474408332300382 0 -0.46147737606606121 -0.12742063858020569 0 -0.46147737606606121 -0.12742063858020569 0 -0.46988776385330649 -0.14757565639893061 0 -0.46147737606606121 -0.12742063858020569 0 -0.48146202118603521 -0.13001203220460361 0 -0.46988776385330649 -0.14757565639893061 0 -0.48146202118603521 -0.13001203220460361 0 -0.5 -0.1376658441777999 0 -0.4859283789994216 -0.15212924571688419 0 -0.48146202118603521 -0.13001203220460361 0 -0.5 -0.1376658441777999 0 -0.50000000000000133 -0.110598864366621 0 -0.5 -0.1376658441777999 0 -0.4859283789994216 -0.15212924571688419 0 -0.5 -0.16473282398897879 0 -0.4859283789994216 -0.15212924571688419 0 -0.46988776385330649 -0.14757565639893061 0 -0.478298151640554 -0.1677306742176545 0 -0.48146202118603521 -0.13001203220460361 0 -0.4859283789994216 -0.15212924571688419 0 -0.46988776385330649 -0.14757565639893061 0 -0.46988776385330649 -0.14757565639893061 0 -0.478298151640554 -0.1677306742176545 0 -0.46988776385330649 -0.14757565639893061 0 -0.478298151640554 -0.1677306742176545 0 -0.46052333803425288 -0.1607838557244618 0 -0.478298151640554 -0.1677306742176545 0 -0.4859223373166337 -0.16505844331333791 0 -0.4859283789994216 -0.15212924571688419 0 -0.478298151640554 -0.1677306742176545 0 -0.4859223373166337 -0.16505844331333791 0 -0.4859283789994216 -0.15212924571688419 0 -0.4859223373166337 -0.16505844331333791 0 -0.5 -0.16473282398897879 0 -0.478298151640554 -0.1677306742176545 0 -0.4859223373166337 -0.16505844331333791 0 -0.49040977804283931 -0.1759782245562789 0 -0.4859223373166337 -0.16505844331333791 0 -0.5 -0.16473282398897879 0 -0.49040977804283931 -0.1759782245562789 0 -0.49040977804283931 -0.1759782245562789 0 -0.48782840125700833 -0.19056937746126551 0 -0.5 -0.1917998038001576 0 -0.5 -0.16473282398897879 0 -0.49040977804283931 -0.1759782245562789 0 -0.5 -0.1917998038001576 0 -0.478298151640554 -0.1677306742176545 0 -0.49040977804283931 -0.1759782245562789 0 -0.48782840125700833 -0.19056937746126551 0 -0.478298151640554 -0.1677306742176545 0 -0.47751175330525231 -0.17875754233322641 0 -0.48782840125700833 -0.19056937746126551 0 -0.478298151640554 -0.1677306742176545 0 -0.48782840125700833 -0.19056937746126551 0 -0.478298151640554 -0.1677306742176545 0 -0.47751175330525231 -0.17875754233322641 0 -0.45276704280650593 -0.17667917323727569 0 -0.47751175330525231 -0.17875754233322641 0 -0.47650582827634302 -0.18843832799639409 0 -0.48782840125700833 -0.19056937746126551 0 -0.47751175330525231 -0.17875754233322641 0 -0.46677402940657392 -0.19084950023754541 0 -0.47650582827634302 -0.18843832799639409 0 -0.47751175330525231 -0.17875754233322641 0 -0.46065573085113898 -0.18729429961430979 0 -0.45237384363885502 -0.18219260729506101 0 -0.47751175330525231 -0.17875754233322641 0 -0.45276704280650593 -0.17667917323727569 0 -0.45237384363885502 -0.18219260729506101 0 -0.47751175330525231 -0.17875754233322641 0 -0.46065573085113898 -0.18729429961430979 0 -0.46677402940657392 -0.19084950023754541 0 -0.47751175330525231 -0.17875754233322641 0 -0.45237384363885502 -0.18219260729506101 0 -0.478298151640554 -0.1677306742176545 0 -0.45276704280650593 -0.17667917323727569 0 -0.46065573085113898 -0.18729429961430979 0 -0.45237384363885502 -0.18219260729506101 0 -0.4500805609112844 -0.1900879606993427 0 -0.46052333803425288 -0.1607838557244618 0 -0.44665613732299592 -0.1619712747039892 0 -0.45276704280650593 -0.17667917323727569 0 -0.478298151640554 -0.1677306742176545 0 -0.46052333803425288 -0.1607838557244618 0 -0.45276704280650593 -0.17667917323727569 0 -0.4542334142639271 -0.1474408332300382 0 -0.46052333803425288 -0.1607838557244618 0 -0.44665613732299592 -0.1619712747039892 0 -0.43670663194616138 -0.1712422920588432 0 -0.44665613732299592 -0.1619712747039892 0 -0.45276704280650593 -0.17667917323727569 0 -0.43238653210255218 -0.15942706648310989 0 -0.44141457277426732 -0.14911929966438711 0 -0.44665613732299592 -0.1619712747039892 0 -0.43670663194616138 -0.1712422920588432 0 -0.43238653210255218 -0.15942706648310989 0 -0.44665613732299592 -0.1619712747039892 0 -0.42723593397245768 -0.1856276722568963 0 -0.45276704280650593 -0.17667917323727569 0 -0.42723593397245768 -0.1856276722568963 0 -0.45237384363885502 -0.18219260729506101 0 -0.42723593397245768 -0.1856276722568963 0 -0.45276704280650593 -0.17667917323727569 0 -0.45237384363885502 -0.18219260729506101 0 -0.42723593397245768 -0.1856276722568963 0 -0.43670663194616138 -0.1712422920588432 0 -0.45276704280650593 -0.17667917323727569 0 -0.42723593397245768 -0.1856276722568963 0 -0.45237384363885502 -0.18219260729506101 0 -0.44123189163815379 -0.19062247474359659 0 -0.4500805609112844 -0.1900879606993427 0 -0.44397233534765268 -0.20306807874489791 0 -0.45710445972858837 -0.19553227408765919 0 -0.45237384363885502 -0.18219260729506101 0 -0.4500805609112844 -0.1900879606993427 0 -0.44123189163815379 -0.19062247474359659 0 -0.4500805609112844 -0.1900879606993427 0 -0.44123189163815379 -0.19062247474359659 0 -0.44397233534765268 -0.20306807874489791 0 -0.42331798689688588 -0.2124720996718116 0 -0.44397233534765268 -0.20306807874489791 0 -0.44944898364521241 -0.21709564192621189 0 -0.44944898364521241 -0.21709564192621189 0 -0.46684640250792292 -0.20670406364361391 0 -0.47557998039353883 -0.22171918418061209 0 -0.44397233534765268 -0.20306807874489791 0 -0.46684640250792292 -0.20670406364361391 0 -0.44397233534765268 -0.20306807874489791 0 -0.44944898364521241 -0.21709564192621189 0 -0.46684640250792292 -0.20670406364361391 0 -0.44397233534765268 -0.20306807874489791 0 -0.46684640250792292 -0.20670406364361391 0 -0.45710445972858837 -0.19553227408765919 0 -0.46684640250792292 -0.20670406364361391 0 -0.45710445972858837 -0.19553227408765919 0 -0.46677402940657392 -0.19084950023754541 0 -0.46065573085113898 -0.18729429961430979 0 -0.4500805609112844 -0.1900879606993427 0 -0.45710445972858837 -0.19553227408765919 0 -0.46065573085113898 -0.18729429961430979 0 -0.45710445972858837 -0.19553227408765919 0 -0.46677402940657392 -0.19084950023754541 0 -0.46677402940657392 -0.19084950023754541 0 -0.47650582827634302 -0.18843832799639409 0 -0.47705140806548418 -0.19566197491777321 0 -0.46684640250792292 -0.20670406364361391 0 -0.46677402940657392 -0.19084950023754541 0 -0.47705140806548418 -0.19566197491777321 0 -0.46684640250792292 -0.20670406364361391 0 -0.47705140806548418 -0.19566197491777321 0 -0.48299501785017251 -0.20599404314400629 0 -0.47705140806548418 -0.19566197491777321 0 -0.48782840125700833 -0.19056937746126551 0 -0.48299501785017251 -0.20599404314400629 0 -0.47650582827634302 -0.18843832799639409 0 -0.47705140806548418 -0.19566197491777321 0 -0.48782840125700833 -0.19056937746126551 0 -0.48782840125700833 -0.19056937746126551 0 -0.5 -0.1917998038001576 0 -0.49735865087346492 -0.21340808070487571 0 -0.48782840125700833 -0.19056937746126551 0 -0.49735865087346492 -0.21340808070487571 0 -0.5 -0.1917998038001576 0 -0.49735865087346492 -0.21340808070487571 0 -0.5 -0.21886678361133649 0 -0.48782840125700833 -0.19056937746126551 0 -0.49735865087346492 -0.21340808070487571 0 -0.48299501785017251 -0.20599404314400629 0 -0.49735865087346492 -0.21340808070487571 0 -0.48791310263840038 -0.22134697619663629 0 -0.5 -0.21886678361133649 0 -0.49735865087346492 -0.21340808070487571 0 -0.48728215198186581 -0.21416101591737011 0 -0.48791310263840038 -0.22134697619663629 0 -0.49735865087346492 -0.21340808070487571 0 -0.48728215198186581 -0.21416101591737011 0 -0.48299501785017251 -0.20599404314400629 0 -0.46684640250792292 -0.20670406364361391 0 -0.48299501785017251 -0.20599404314400629 0 -0.47557998039353883 -0.22171918418061209 0 -0.48728215198186581 -0.21416101591737011 0 -0.48299501785017251 -0.20599404314400629 0 -0.47557998039353883 -0.22171918418061209 0 -0.47557998039353883 -0.22171918418061209 0 -0.48791310263840038 -0.22134697619663629 0 -0.4822850952358293 -0.23937807317212151 0 -0.47557998039353883 -0.22171918418061209 0 -0.4822850952358293 -0.23937807317212151 0 -0.46457533397759981 -0.2407125258605749 0 -0.48728215198186581 -0.21416101591737011 0 -0.47557998039353883 -0.22171918418061209 0 -0.48791310263840038 -0.22134697619663629 0 -0.48791310263840038 -0.22134697619663629 0 -0.5 -0.21886678361133649 0 -0.5 -0.2459337634225153 0 -0.48791310263840038 -0.22134697619663629 0 -0.5 -0.2459337634225153 0 -0.4822850952358293 -0.23937807317212151 0 -0.48688102542376238 -0.25796138406543823 0 -0.5 -0.2459337634225153 0 -0.4822850952358293 -0.23937807317212151 0 -0.47286237098273382 -0.25426865576589458 0 -0.4822850952358293 -0.23937807317212151 0 -0.46457533397759981 -0.2407125258605749 0 -0.46457533397759981 -0.2407125258605749 0 -0.45601498815101832 -0.2304447931699207 0 -0.44649212724522441 -0.24428432365824809 0 -0.4532057695747912 -0.25757148026103982 0 -0.46457533397759981 -0.2407125258605749 0 -0.44649212724522441 -0.24428432365824809 0 -0.44944898364521241 -0.21709564192621189 0 -0.47557998039353883 -0.22171918418061209 0 -0.45601498815101832 -0.2304447931699207 0 -0.44944898364521241 -0.21709564192621189 0 -0.47557998039353883 -0.22171918418061209 0 -0.47557998039353883 -0.22171918418061209 0 -0.46457533397759981 -0.2407125258605749 0 -0.45601498815101832 -0.2304447931699207 0 -0.44944898364521241 -0.21709564192621189 0 -0.45601498815101832 -0.2304447931699207 0 -0.44397851549351619 -0.2284122902239564 0 -0.43525596007518852 -0.2220293918665395 0 -0.44944898364521241 -0.21709564192621189 0 -0.44397851549351619 -0.2284122902239564 0 -0.45601498815101832 -0.2304447931699207 0 -0.44397851549351619 -0.2284122902239564 0 -0.44649212724522441 -0.24428432365824809 0 -0.42767263362153179 -0.24798740519489279 0 -0.44397851549351619 -0.2284122902239564 0 -0.44649212724522441 -0.24428432365824809 0 -0.41787956845467888 -0.042838041189845417 0 -0.42078536602860422 -0.02160689892654144 0 -0.40294587777165458 -0.039024799088488049 0 -0.41787956845467888 -0.042838041189845417 0 -0.42204899578644911 -0.059221416474804112 0 -0.40127161183288068 -0.059028432495283133 0 -0.41787956845467888 -0.042838041189845417 0 -0.40294587777165458 -0.039024799088488049 0 -0.40127161183288068 -0.059028432495283133 0 -0.42204899578644911 -0.059221416474804112 0 -0.43529284350667757 -0.060288050798291297 0 -0.43423681296476602 -0.038567249455298283 0 -0.42204899578644911 -0.059221416474804112 0 -0.43423681296476602 -0.038567249455298283 0 -0.41787956845467888 -0.042838041189845417 0 -0.42204899578644911 -0.059221416474804112 0 -0.43423681296476602 -0.038567249455298283 0 -0.41787956845467888 -0.042838041189845417 0 -0.43423681296476602 -0.038567249455298283 0 -0.42078536602860422 -0.02160689892654144 0 -0.43423681296476602 -0.038567249455298283 0 -0.42078536602860422 -0.02160689892654144 0 -0.43423681296476602 -0.038567249455298283 0 -0.42078536602860422 -0.02160689892654144 0 -0.43894278690340932 -0.025059547512333719 0 -0.42078536602860422 -0.02160689892654144 0 -0.43894278690340932 -0.025059547512333719 0 -0.4339163732965573 -0.0119504183972845 0 -0.42078536602860422 -0.02160689892654144 0 -0.43894278690340932 -0.025059547512333719 0 -0.4339163732965573 -0.0119504183972845 0 -0.42082116754189841 -0.002179802964977909 0 -0.42078536602860422 -0.02160689892654144 0 -0.4339163732965573 -0.0119504183972845 0 -0.44367379183914468 -0.0042462596884624238 0 -0.43363110465584781 0.0037977822531307412 0 -0.4339163732965573 -0.0119504183972845 0 -0.42082116754189841 -0.002179802964977909 0 -0.43363110465584781 0.0037977822531307412 0 -0.42082116754189841 -0.002179802964977909 0 -0.42078536602860422 -0.02160689892654144 0 -0.40617307435295652 -0.0031828892253029412 0 -0.42078536602860422 -0.02160689892654144 0 -0.39319390869414622 -0.016360360511057982 0 -0.40617307435295652 -0.0031828892253029412 0 -0.42078536602860422 -0.02160689892654144 0 -0.40617307435295652 -0.0031828892253029412 0 -0.42078536602860422 -0.02160689892654144 0 -0.39319390869414622 -0.016360360511057982 0 -0.42078536602860422 -0.02160689892654144 0 -0.39319390869414622 -0.016360360511057982 0 -0.40294587777165458 -0.039024799088488049 0 -0.39319390869414622 -0.016360360511057982 0 -0.40617307435295652 -0.0031828892253029412 0 -0.38799531964371681 0.001336066879783144 0 -0.36560245135968789 -0.01111382209557662 0 -0.39319390869414622 -0.016360360511057982 0 -0.39319390869414622 -0.016360360511057982 0 -0.37633130262232178 -0.0011392083640457871 0 -0.38799531964371681 0.001336066879783144 0 -0.36560245135968789 -0.01111382209557662 0 -0.39319390869414622 -0.016360360511057982 0 -0.37633130262232178 -0.0011392083640457871 0 -0.37345483729106832 -0.035963984672550131 0 -0.36560245135968789 -0.01111382209557662 0 -0.39319390869414622 -0.016360360511057982 0 -0.37345483729106832 -0.035963984672550131 0 -0.39319390869414622 -0.016360360511057982 0 -0.38811508591943478 -0.043963594765895397 0 -0.39319390869414622 -0.016360360511057982 0 -0.38811508591943478 -0.043963594765895397 0 -0.40294587777165458 -0.039024799088488049 0 -0.38811508591943478 -0.043963594765895397 0 -0.40294587777165458 -0.039024799088488049 0 -0.40127161183288068 -0.059028432495283133 0 -0.37345483729106832 -0.035963984672550131 0 -0.38811508591943478 -0.043963594765895397 0 -0.38130722322244981 -0.060814147249523547 0 -0.38811508591943478 -0.043963594765895397 0 -0.40127161183288068 -0.059028432495283133 0 -0.38130722322244981 -0.060814147249523547 0 -0.37345483729106832 -0.035963984672550131 0 -0.38130722322244981 -0.060814147249523547 0 -0.37466540422413602 -0.077272455440070026 0 -0.38130722322244981 -0.060814147249523547 0 -0.38915960915383119 -0.085664309826496851 0 -0.38130722322244981 -0.060814147249523547 0 -0.38915960915383119 -0.085664309826496851 0 -0.40127161183288068 -0.059028432495283133 0 -0.38130722322244981 -0.060814147249523547 0 -0.38915960915383119 -0.085664309826496851 0 -0.37464530513107502 -0.091745860019957257 0 -0.37466540422413602 -0.077272455440070026 0 -0.38915960915383119 -0.085664309826496851 0 -0.38915960915383119 -0.085664309826496851 0 -0.39885194019390169 -0.098853337197147978 0 -0.40986117860813059 -0.079875583494308983 0 -0.40127161183288068 -0.059028432495283133 0 -0.38915960915383119 -0.085664309826496851 0 -0.40986117860813059 -0.079875583494308983 0 -0.38118268978109521 -0.1418676707419094 0 -0.37837852883294448 -0.10929118033642379 0 -0.39906731289854991 -0.1191007619675724 0 -0.37464530513107502 -0.091745860019957257 0 -0.38915960915383119 -0.085664309826496851 0 -0.37837852883294448 -0.10929118033642379 0 -0.38915960915383119 -0.085664309826496851 0 -0.37837852883294448 -0.10929118033642379 0 -0.39885194019390169 -0.098853337197147978 0 -0.39885194019390169 -0.098853337197147978 0 -0.39906731289854991 -0.1191007619675724 0 -0.4169519360160045 -0.0963338531932353 0 -0.37837852883294448 -0.10929118033642379 0 -0.39885194019390169 -0.098853337197147978 0 -0.39906731289854991 -0.1191007619675724 0 -0.39906731289854991 -0.1191007619675724 0 -0.42168727451676979 -0.12145500175068311 0 -0.4169519360160045 -0.0963338531932353 0 -0.39906731289854991 -0.1191007619675724 0 -0.4169519360160045 -0.0963338531932353 0 -0.42168727451676979 -0.12145500175068311 0 -0.4169519360160045 -0.0963338531932353 0 -0.43246980303825378 -0.1086313523268712 0 -0.4169519360160045 -0.0963338531932353 0 -0.43588514133106471 -0.095901862914280323 0 -0.43246980303825378 -0.1086313523268712 0 -0.42168727451676979 -0.12145500175068311 0 -0.43246980303825378 -0.1086313523268712 0 -0.43514277130237772 -0.12332447836648899 0 -0.42204899578644911 -0.059221416474804112 0 -0.40986117860813059 -0.079875583494308983 0 -0.42204899578644911 -0.059221416474804112 0 -0.40127161183288068 -0.059028432495283133 0 -0.40986117860813059 -0.079875583494308983 0 -0.39885194019390169 -0.098853337197147978 0 -0.4169519360160045 -0.0963338531932353 0 -0.40986117860813059 -0.079875583494308983 0 -0.4169519360160045 -0.0963338531932353 0 -0.40986117860813059 -0.079875583494308983 0 -0.4348365591334592 -0.073566944418898217 0 -0.4169519360160045 -0.0963338531932353 0 -0.4348365591334592 -0.073566944418898217 0 -0.4169519360160045 -0.0963338531932353 0 -0.43588514133106471 -0.095901862914280323 0 -0.43586533143506589 -0.085886452657535653 0 -0.4169519360160045 -0.0963338531932353 0 -0.43586533143506589 -0.085886452657535653 0 -0.4348365591334592 -0.073566944418898217 0 -0.42204899578644911 -0.059221416474804112 0 -0.40986117860813059 -0.079875583494308983 0 -0.4348365591334592 -0.073566944418898217 0 -0.42204899578644911 -0.059221416474804112 0 -0.43529284350667757 -0.060288050798291297 0 -0.4348365591334592 -0.073566944418898217 0 -0.45000252658127438 -0.080284230037179993 0 -0.45272118225091412 -0.050800035644561307 0 -0.43529284350667757 -0.060288050798291297 0 -0.4348365591334592 -0.073566944418898217 0 -0.44770610294310131 -0.055550097508032893 0 -0.4348365591334592 -0.073566944418898217 0 -0.44683597818452309 -0.078364277884198405 0 -0.45272118225091412 -0.050800035644561307 0 -0.44683597818452309 -0.078364277884198405 0 -0.45000252658127438 -0.080284230037179993 0 -0.45272118225091412 -0.050800035644561307 0 -0.43586533143506589 -0.085886452657535653 0 -0.4348365591334592 -0.073566944418898217 0 -0.44683597818452309 -0.078364277884198405 0 -0.44320614211670589 -0.089698642263671954 0 -0.45000252658127438 -0.080284230037179993 0 -0.4474417330515989 -0.1080563878251652 0 -0.43586533143506589 -0.085886452657535653 0 -0.44320614211670589 -0.089698642263671954 0 -0.44683597818452309 -0.078364277884198405 0 -0.43588514133106471 -0.095901862914280323 0 -0.43586533143506589 -0.085886452657535653 0 -0.44320614211670589 -0.089698642263671954 0 -0.44320614211670589 -0.089698642263671954 0 -0.44683597818452309 -0.078364277884198405 0 -0.45000252658127438 -0.080284230037179993 0 -0.44683597818452309 -0.078364277884198405 0 -0.45000252658127438 -0.080284230037179993 0 -0.45000252658127438 -0.080284230037179993 0 -0.46541599474073458 -0.070389140372882408 0 -0.4750012632906378 -0.095441547201900609 0 -0.45000252658127438 -0.080284230037179993 0 -0.46197494216229767 -0.098773689793986597 0 -0.4750012632906378 -0.095441547201900609 0 -0.45000252658127438 -0.080284230037179993 0 -0.4750012632906378 -0.095441547201900609 0 -0.45000252658127438 -0.080284230037179993 0 -0.46541599474073458 -0.070389140372882408 0 -0.45272118225091412 -0.050800035644561307 0 -0.4448809395219212 -0.13582854561315019 0 -0.45192885730502269 -0.1195728193001149 0 -0.4474417330515989 -0.1080563878251652 0 -0.4448809395219212 -0.13582854561315019 0 -0.43514277130237772 -0.12332447836648899 0 -0.4474417330515989 -0.1080563878251652 0 -0.4448809395219212 -0.13582854561315019 0 -0.4474417330515989 -0.1080563878251652 0 -0.43246980303825378 -0.1086313523268712 0 -0.43514277130237772 -0.12332447836648899 0 -0.4474417330515989 -0.1080563878251652 0 -0.45192885730502269 -0.1195728193001149 0 -0.4474417330515989 -0.1080563878251652 0 -0.45306698827881592 -0.1072656207614809 0 -0.45000252658127438 -0.080284230037179993 0 -0.4474417330515989 -0.1080563878251652 0 -0.45306698827881592 -0.1072656207614809 0 -0.43588514133106471 -0.095901862914280323 0 -0.44320614211670589 -0.089698642263671954 0 -0.4474417330515989 -0.1080563878251652 0 -0.45000252658127438 -0.080284230037179993 0 -0.4474417330515989 -0.1080563878251652 0 -0.43588514133106471 -0.095901862914280323 0 -0.43246980303825378 -0.1086313523268712 0 -0.4474417330515989 -0.1080563878251652 0 -0.45306698827881592 -0.1072656207614809 0 -0.46197494216229767 -0.098773689793986597 0 -0.46982899049846072 -0.1121033611753848 0 -0.45000252658127438 -0.080284230037179993 0 -0.45306698827881592 -0.1072656207614809 0 -0.46197494216229767 -0.098773689793986597 0 -0.46147737606606121 -0.12742063858020569 0 -0.45192885730502269 -0.1195728193001149 0 -0.45306698827881592 -0.1072656207614809 0 -0.46147737606606121 -0.12742063858020569 0 -0.45306698827881592 -0.1072656207614809 0 -0.46982899049846072 -0.1121033611753848 0 -0.46147737606606121 -0.12742063858020569 0 -0.45306698827881592 -0.1072656207614809 0 -0.46147737606606121 -0.12742063858020569 0 -0.48146202118603521 -0.13001203220460361 0 -0.46982899049846072 -0.1121033611753848 0 -0.48146202118603521 -0.13001203220460361 0 -0.46982899049846072 -0.1121033611753848 0 -0.50000000000000133 -0.110598864366621 0 -0.46197494216229767 -0.098773689793986597 0 -0.46982899049846072 -0.1121033611753848 0 -0.4750012632906378 -0.095441547201900609 0 -0.46982899049846072 -0.1121033611753848 0 -0.4750012632906378 -0.095441547201900609 0 -0.50000000000000133 -0.110598864366621 0 -0.4750012632906378 -0.095441547201900609 0 -0.50000000000000133 -0.110598864366621 0 -0.5 -0.084387772120729121 0 -0.4750012632906378 -0.095441547201900609 0 -0.50000000000000133 -0.110598864366621 0 -0.46541599474073458 -0.070389140372882408 0 -0.48142775397954979 -0.07470413980919928 0 -0.47474094441760978 -0.058446249808197397 0 -0.46541599474073458 -0.070389140372882408 0 -0.4750012632906378 -0.095441547201900609 0 -0.48142775397954979 -0.07470413980919928 0 -0.4750012632906378 -0.095441547201900609 0 -0.48142775397954979 -0.07470413980919928 0 -0.5 -0.084387772120729121 0 -0.48142775397954979 -0.07470413980919928 0 -0.5 -0.058176679874837101 0 -0.47474094441760978 -0.058446249808197397 0 -0.48142775397954979 -0.07470413980919928 0 -0.5 -0.084387772120729121 0 -0.5 -0.058176679874837101 0 -0.5 -0.058176679874837101 0 -0.47900969702377122 -0.042734402915069303 0 -0.47474094441760978 -0.058446249808197397 0 -0.5 -0.03196558762894508 0 -0.47900969702377122 -0.042734402915069303 0 -0.48282497932284818 -0.02724238276215481 0 -0.5 -0.058176679874837101 0 -0.5 -0.03196558762894508 0 -0.47900969702377122 -0.042734402915069303 0 -0.47900969702377122 -0.042734402915069303 0 -0.46650326142141529 -0.033255615662388521 0 -0.48282497932284818 -0.02724238276215481 0 -0.47900969702377122 -0.042734402915069303 0 -0.47474094441760978 -0.058446249808197397 0 -0.45272118225091412 -0.050800035644561307 0 -0.46541599474073458 -0.070389140372882408 0 -0.47474094441760978 -0.058446249808197397 0 -0.45272118225091412 -0.050800035644561307 0 -0.45272118225091412 -0.050800035644561307 0 -0.45510124563478987 -0.02498792112757604 0 -0.46650326142141529 -0.033255615662388521 0 -0.45272118225091412 -0.050800035644561307 0 -0.45510124563478987 -0.02498792112757604 0 -0.47900969702377122 -0.042734402915069303 0 -0.46650326142141529 -0.033255615662388521 0 -0.45272118225091412 -0.050800035644561307 0 -0.46650326142141529 -0.033255615662388521 0 -0.45272118225091412 -0.050800035644561307 0 -0.43423681296476602 -0.038567249455298283 0 -0.45272118225091412 -0.050800035644561307 0 -0.45510124563478987 -0.02498792112757604 0 -0.43423681296476602 -0.038567249455298283 0 -0.44770610294310131 -0.055550097508032893 0 -0.45272118225091412 -0.050800035644561307 0 -0.43529284350667757 -0.060288050798291297 0 -0.43423681296476602 -0.038567249455298283 0 -0.44770610294310131 -0.055550097508032893 0 -0.4348365591334592 -0.073566944418898217 0 -0.44770610294310131 -0.055550097508032893 0 -0.45272118225091412 -0.050800035644561307 0 -0.4348365591334592 -0.073566944418898217 0 -0.45272118225091412 -0.050800035644561307 0 -0.43423681296476602 -0.038567249455298283 0 -0.44770610294310131 -0.055550097508032893 0 -0.44367379183914468 -0.0042462596884624238 0 -0.44585906099171768 -0.018871528032945391 0 -0.45748130901866679 0.0008241933894090293 0 -0.44585906099171768 -0.018871528032945391 0 -0.45748130901866679 0.0008241933894090293 0 -0.44585906099171768 -0.018871528032945391 0 -0.45510124563478987 -0.02498792112757604 0 -0.45748130901866679 0.0008241933894090293 0 -0.4339163732965573 -0.0119504183972845 0 -0.44367379183914468 -0.0042462596884624238 0 -0.44585906099171768 -0.018871528032945391 0 -0.43423681296476602 -0.038567249455298283 0 -0.44585906099171768 -0.018871528032945391 0 -0.43423681296476602 -0.038567249455298283 0 -0.44585906099171768 -0.018871528032945391 0 -0.45510124563478987 -0.02498792112757604 0 -0.4339163732965573 -0.0119504183972845 0 -0.43894278690340932 -0.025059547512333719 0 -0.44585906099171768 -0.018871528032945391 0 -0.43423681296476602 -0.038567249455298283 0 -0.43894278690340932 -0.025059547512333719 0 -0.44585906099171768 -0.018871528032945391 0 -0.46650326142141529 -0.033255615662388521 0 -0.45510124563478987 -0.02498792112757604 0 -0.46904467606370581 -0.016109488073439329 0 -0.45510124563478987 -0.02498792112757604 0 -0.46904467606370581 -0.016109488073439329 0 -0.45748130901866679 0.0008241933894090293 0 -0.47128735140995948 -0.0007948994730678496 0 -0.46904467606370581 -0.016109488073439329 0 -0.45748130901866679 0.0008241933894090293 0 -0.45510124563478987 -0.02498792112757604 0 -0.45748130901866679 0.0008241933894090293 0 -0.47128735140995948 -0.0007948994730678496 0 -0.48106990957455698 -0.011200302804857931 0 -0.46904467606370581 -0.016109488073439329 0 -0.47128735140995948 -0.0007948994730678496 0 -0.48106990957455698 -0.011200302804857931 0 -0.48485956071918168 -0.00038621176508118311 0 -0.46650326142141529 -0.033255615662388521 0 -0.48282497932284818 -0.02724238276215481 0 -0.46904467606370581 -0.016109488073439329 0 -0.48106990957455698 -0.011200302804857931 0 -0.48282497932284818 -0.02724238276215481 0 -0.46904467606370581 -0.016109488073439329 0 -0.5 -0.03196558762894508 0 -0.48282497932284818 -0.02724238276215481 0 -0.5 -0.0057544953830529488 0 -0.48106990957455698 -0.011200302804857931 0 -0.48485956071918168 -0.00038621176508118311 0 -0.5 -0.0057544953830529488 0 -0.48106990957455698 -0.011200302804857931 0 -0.48282497932284818 -0.02724238276215481 0 -0.5 -0.0057544953830529488 0 -0.5 -0.0057544953830529488 0 -0.48879203433232682 0.0093403691763479148 0 -0.5 0.020456596862839179 0 -0.48485956071918168 -0.00038621176508118311 0 -0.5 -0.0057544953830529488 0 -0.48879203433232682 0.0093403691763479148 0 -0.48879203433232682 0.0093403691763479148 0 -0.5 0.020456596862839179 0 -0.48327289464657608 0.021459640824969251 0 -0.5 0.020456596862839179 0 -0.48327289464657608 0.021459640824969251 0 -0.48997990658265422 0.035557019151945687 0 -0.48327289464657608 0.021459640824969251 0 -0.47582771629587578 0.01092631534206528 0 -0.4666266382666967 0.016322387608564928 0 -0.48327289464657608 0.021459640824969251 0 -0.47775109217779721 0.035174518857251202 0 -0.4666266382666967 0.016322387608564928 0 -0.47775109217779721 0.035174518857251202 0 -0.4666266382666967 0.016322387608564928 0 -0.48327289464657608 0.021459640824969251 0 -0.48997990658265422 0.035557019151945687 0 -0.47775109217779721 0.035174518857251202 0 -0.47128735140995948 -0.0007948994730678496 0 -0.47582771629587578 0.01092631534206528 0 -0.4666266382666967 0.016322387608564928 0 -0.47582771629587578 0.01092631534206528 0 -0.4666266382666967 0.016322387608564928 0 -0.48485956071918168 -0.00038621176508118311 0 -0.48879203433232682 0.0093403691763479148 0 -0.47582771629587578 0.01092631534206528 0 -0.47128735140995948 -0.0007948994730678496 0 -0.48485956071918168 -0.00038621176508118311 0 -0.47582771629587578 0.01092631534206528 0 -0.48879203433232682 0.0093403691763479148 0 -0.48327289464657608 0.021459640824969251 0 -0.47582771629587578 0.01092631534206528 0 -0.48887554608889772 0.054026650105937532 0 -0.5 0.046667689108731258 0 -0.49999999999999889 0.072878781354623348 0 -0.48887554608889772 0.054026650105937532 0 -0.5 0.046667689108731258 0 -0.48997990658265422 0.035557019151945687 0 -0.5 0.020456596862839179 0 -0.5 0.046667689108731258 0 -0.48997990658265422 0.035557019151945687 0 -0.48887554608889772 0.054026650105937532 0 -0.48997990658265422 0.035557019151945687 0 -0.47775109217779721 0.035174518857251202 0 -0.48887554608889772 0.054026650105937532 0 -0.47775109217779721 0.035174518857251202 0 -0.48887554608889772 0.054026650105937532 0 -0.47775109217779721 0.035174518857251202 0 -0.47498198644257972 0.061064687323430317 0 -0.47775109217779721 0.035174518857251202 0 -0.47498198644257972 0.061064687323430317 0 -0.4599029847832784 0.053887341632327133 0 -0.47498198644257972 0.061064687323430317 0 -0.4599029847832784 0.053887341632327133 0 -0.46318079038244342 0.070106242187362403 0 -0.4599029847832784 0.053887341632327133 0 -0.46014365585202671 0.032856210691254571 0 -0.44180129509731969 0.050252311827419217 0 -0.47775109217779721 0.035174518857251202 0 -0.4599029847832784 0.053887341632327133 0 -0.46014365585202671 0.032856210691254571 0 -0.46014365585202671 0.032856210691254571 0 -0.44180129509731969 0.050252311827419217 0 -0.44254897615086958 0.030442994386758539 0 -0.4599029847832784 0.053887341632327133 0 -0.44180129509731969 0.050252311827419217 0 -0.44737284728411503 0.071325818020872969 0 -0.47128735140995948 -0.0007948994730678496 0 -0.45748130901866679 0.0008241933894090293 0 -0.4666266382666967 0.016322387608564928 0 -0.45774018451314091 0.003631733707164464 0 -0.4666266382666967 0.016322387608564928 0 -0.45153041334832789 0.01283982658604012 0 -0.45748130901866679 0.0008241933894090293 0 -0.45774018451314091 0.003631733707164464 0 -0.4666266382666967 0.016322387608564928 0 -0.45748130901866679 0.0008241933894090293 0 -0.45774018451314091 0.003631733707164464 0 -0.4474811112329331 0.0049686723453786167 0 -0.45748130901866679 0.0008241933894090293 0 -0.45774018451314091 0.003631733707164464 0 -0.45748130901866679 0.0008241933894090293 0 -0.4666266382666967 0.016322387608564928 0 -0.46014365585202671 0.032856210691254571 0 -0.4666266382666967 0.016322387608564928 0 -0.44254897615086958 0.030442994386758539 0 -0.47775109217779721 0.035174518857251202 0 -0.46014365585202671 0.032856210691254571 0 -0.4666266382666967 0.016322387608564928 0 -0.4666266382666967 0.016322387608564928 0 -0.44254897615086958 0.030442994386758539 0 -0.45153041334832789 0.01283982658604012 0 -0.4666266382666967 0.016322387608564928 0 -0.44254897615086958 0.030442994386758539 0 -0.44254897615086958 0.030442994386758539 0 -0.44004275368115631 0.01576697959347121 0 -0.45153041334832789 0.01283982658604012 0 -0.44004275368115631 0.01576697959347121 0 -0.4474811112329331 0.0049686723453786167 0 -0.43363110465584781 0.0037977822531307412 0 -0.44004275368115631 0.01576697959347121 0 -0.45153041334832789 0.01283982658604012 0 -0.4474811112329331 0.0049686723453786167 0 -0.45774018451314091 0.003631733707164464 0 -0.45153041334832789 0.01283982658604012 0 -0.4474811112329331 0.0049686723453786167 0 -0.44367379183914468 -0.0042462596884624238 0 -0.45748130901866679 0.0008241933894090293 0 -0.4474811112329331 0.0049686723453786167 0 -0.44367379183914468 -0.0042462596884624238 0 -0.4474811112329331 0.0049686723453786167 0 -0.43363110465584781 0.0037977822531307412 0 -0.44004275368115631 0.01576697959347121 0 -0.43363110465584781 0.0037977822531307412 0 -0.41628342790081219 0.020384848156250589 0 -0.42082116754189841 -0.002179802964977909 0 -0.43363110465584781 0.0037977822531307412 0 -0.41628342790081219 0.020384848156250589 0 -0.42082116754189841 -0.002179802964977909 0 -0.40617307435295652 -0.0031828892253029412 0 -0.41628342790081219 0.020384848156250589 0 -0.44254897615086958 0.030442994386758539 0 -0.44004275368115631 0.01576697959347121 0 -0.41628342790081219 0.020384848156250589 0 -0.44254897615086958 0.030442994386758539 0 -0.41847131403504068 0.044563601164948743 0 -0.44180129509731969 0.050252311827419217 0 -0.44254897615086958 0.030442994386758539 0 -0.41847131403504068 0.044563601164948743 0 -0.44254897615086958 0.030442994386758539 0 -0.41628342790081219 0.020384848156250589 0 -0.41847131403504068 0.044563601164948743 0 -0.44180129509731969 0.050252311827419217 0 -0.41847131403504068 0.044563601164948743 0 -0.42236799247858769 0.068437905068353386 0 -0.41847131403504068 0.044563601164948743 0 -0.39439365191921172 0.058684207943138937 0 -0.40944726568902368 0.060534508207909413 0 -0.41847131403504068 0.044563601164948743 0 -0.42236799247858769 0.068437905068353386 0 -0.40944726568902368 0.060534508207909413 0 -0.41847131403504068 0.044563601164948743 0 -0.39439365191921172 0.058684207943138937 0 -0.41628342790081219 0.020384848156250589 0 -0.41847131403504068 0.044563601164948743 0 -0.40031594915533181 0.03829972075087841 0 -0.40031594915533181 0.03829972075087841 0 -0.38494584446602759 0.033998958412337771 0 -0.38782217864590929 0.046225851683892288 0 -0.40031594915533181 0.03829972075087841 0 -0.38494584446602759 0.033998958412337771 0 -0.39933098448011872 0.025366125659733962 0 -0.40031594915533181 0.03829972075087841 0 -0.39439365191921172 0.058684207943138937 0 -0.38782217864590929 0.046225851683892288 0 -0.41847131403504068 0.044563601164948743 0 -0.40031594915533181 0.03829972075087841 0 -0.39439365191921172 0.058684207943138937 0 -0.38184358509593869 0.053620179155822123 0 -0.38461710870342392 0.068233668522376098 0 -0.36602567716328949 0.051708083485481497 0 -0.38461710870342392 0.068233668522376098 0 -0.36602567716328949 0.051708083485481497 0 -0.39439365191921172 0.058684207943138937 0 -0.38184358509593869 0.053620179155822123 0 -0.38461710870342392 0.068233668522376098 0 -0.39439365191921172 0.058684207943138937 0 -0.38184358509593869 0.053620179155822123 0 -0.38782217864590929 0.046225851683892288 0 -0.38184358509593869 0.053620179155822123 0 -0.38782217864590929 0.046225851683892288 0 -0.37693990598522409 0.04358577448047507 0 -0.38494584446602759 0.033998958412337771 0 -0.37693990598522409 0.04358577448047507 0 -0.36912504984877459 0.035311739396970028 0 -0.38494584446602759 0.033998958412337771 0 -0.38782217864590929 0.046225851683892288 0 -0.37693990598522409 0.04358577448047507 0 -0.38770252481556899 0.02010583176506479 0 -0.37547520536378909 0.01189439812751977 0 -0.39156078267730832 0.015241120475935271 0 -0.38494584446602759 0.033998958412337771 0 -0.37442213900746352 0.023865237419695561 0 -0.36912504984877459 0.035311739396970028 0 -0.38494584446602759 0.033998958412337771 0 -0.38770252481556899 0.02010583176506479 0 -0.37442213900746352 0.023865237419695561 0 -0.38770252481556899 0.02010583176506479 0 -0.39156078267730832 0.015241120475935271 0 -0.38770252481556899 0.02010583176506479 0 -0.37547520536378909 0.01189439812751977 0 -0.37442213900746352 0.023865237419695561 0 -0.37547520536378909 0.01189439812751977 0 -0.39156078267730832 0.015241120475935271 0 -0.37547520536378909 0.01189439812751977 0 -0.38799531964371681 0.001336066879783144 0 -0.39156078267730832 0.015241120475935271 0 -0.37633130262232178 -0.0011392083640457871 0 -0.37547520536378909 0.01189439812751977 0 -0.38799531964371681 0.001336066879783144 0 -0.40617307435295652 -0.0031828892253029412 0 -0.38799531964371681 0.001336066879783144 0 -0.39156078267730832 0.015241120475935271 0 -0.40617307435295652 -0.0031828892253029412 0 -0.41628342790081219 0.020384848156250589 0 -0.39156078267730832 0.015241120475935271 0 -0.40617307435295652 -0.0031828892253029412 0 -0.39156078267730832 0.015241120475935271 0 -0.41628342790081219 0.020384848156250589 0 -0.39156078267730832 0.015241120475935271 0 -0.39933098448011872 0.025366125659733962 0 -0.41628342790081219 0.020384848156250589 0 -0.40031594915533181 0.03829972075087841 0 -0.39933098448011872 0.025366125659733962 0 -0.41628342790081219 0.020384848156250589 0 -0.39156078267730832 0.015241120475935271 0 -0.38494584446602759 0.033998958412337771 0 -0.38770252481556899 0.02010583176506479 0 -0.39933098448011872 0.025366125659733962 0 -0.38770252481556899 0.02010583176506479 0 -0.39156078267730832 0.015241120475935271 0 -0.39933098448011872 0.025366125659733962 0 -0.38544602882170942 0.1058718960253416 0 -0.41291871607276698 0.1118411598292031 0 -0.38544602882170942 0.1058718960253416 0 -0.40320854024355818 0.084759253559270595 0 -0.41291871607276698 0.1118411598292031 0 -0.38544602882170942 0.1058718960253416 0 -0.41291871607276698 0.1118411598292031 0 -0.39412551368246868 0.12714648084756761 0 -0.37696668021098678 0.1226786306669 0 -0.38544602882170942 0.1058718960253416 0 -0.39412551368246868 0.12714648084756761 0 -0.38544602882170942 0.1058718960253416 0 -0.37510268843075489 0.087271449549262456 0 -0.40320854024355818 0.084759253559270595 0 -0.37510268843075489 0.087271449549262456 0 -0.38461710870342392 0.068233668522376098 0 -0.40320854024355818 0.084759253559270595 0 -0.38461710870342392 0.068233668522376098 0 -0.40262139156906529 0.069847776278325752 0 -0.40320854024355818 0.084759253559270595 0 -0.39439365191921172 0.058684207943138937 0 -0.38461710870342392 0.068233668522376098 0 -0.40262139156906529 0.069847776278325752 0 -0.38461710870342392 0.068233668522376098 0 -0.40320854024355818 0.084759253559270595 0 -0.40944726568902368 0.060534508207909413 0 -0.39439365191921172 0.058684207943138937 0 -0.40262139156906529 0.069847776278325752 0 -0.40320854024355818 0.084759253559270595 0 -0.42236799247858769 0.068437905068353386 0 -0.42770099526895988 0.083725014918945601 0 -0.40320854024355818 0.084759253559270595 0 -0.42770099526895988 0.083725014918945601 0 -0.42179997178369261 0.10128483859616511 0 -0.40320854024355818 0.084759253559270595 0 -0.42179997178369261 0.10128483859616511 0 -0.40262139156906529 0.069847776278325752 0 -0.40320854024355818 0.084759253559270595 0 -0.42236799247858769 0.068437905068353386 0 -0.40944726568902368 0.060534508207909413 0 -0.40262139156906529 0.069847776278325752 0 -0.42236799247858769 0.068437905068353386 0 -0.44180129509731969 0.050252311827419217 0 -0.42236799247858769 0.068437905068353386 0 -0.44737284728411503 0.071325818020872969 0 -0.42236799247858769 0.068437905068353386 0 -0.42770099526895988 0.083725014918945601 0 -0.44737284728411503 0.071325818020872969 0 -0.42770099526895988 0.083725014918945601 0 -0.42179997178369261 0.10128483859616511 0 -0.44375562455484602 0.092817259350066045 0 -0.42179997178369261 0.10128483859616511 0 -0.44456837568996471 0.10685026726133411 0 -0.44375562455484602 0.092817259350066045 0 -0.42179997178369261 0.10128483859616511 0 -0.44039140332382509 0.1178104236330615 0 -0.44456837568996471 0.10685026726133411 0 -0.40320854024355818 0.084759253559270595 0 -0.42179997178369261 0.10128483859616511 0 -0.41291871607276698 0.1118411598292031 0 -0.41291871607276698 0.1118411598292031 0 -0.41173049689463631 0.1261704564900557 0 -0.39412551368246868 0.12714648084756761 0 -0.41291871607276698 0.1118411598292031 0 -0.42619759641423027 0.122678209239922 0 -0.41173049689463631 0.1261704564900557 0 -0.41291871607276698 0.1118411598292031 0 -0.44039140332382509 0.1178104236330615 0 -0.42619759641423027 0.122678209239922 0 -0.44039140332382509 0.1178104236330615 0 -0.44413972867868529 0.1211422418022963 0 -0.42179997178369261 0.10128483859616511 0 -0.44039140332382509 0.1178104236330615 0 -0.42179997178369261 0.10128483859616511 0 -0.41291871607276698 0.1118411598292031 0 -0.44039140332382509 0.1178104236330615 0 -0.41291871607276698 0.1118411598292031 0 -0.42619759641423027 0.122678209239922 0 -0.44039140332382509 0.1178104236330615 0 -0.44039140332382509 0.1178104236330615 0 -0.44693154787683081 0.1192314658411171 0 -0.44039140332382509 0.1178104236330615 0 -0.44413972867868529 0.1211422418022963 0 -0.44693154787683081 0.1192314658411171 0 -0.44039140332382509 0.1178104236330615 0 -0.44413972867868529 0.1211422418022963 0 -0.44413972867868529 0.1211422418022963 0 -0.44693154787683081 0.1192314658411171 0 -0.44693154787683081 0.1192314658411171 0 -0.44456837568996471 0.10685026726133411 0 -0.45943466390835602 0.11067408735170881 0 -0.44039140332382509 0.1178104236330615 0 -0.44693154787683081 0.1192314658411171 0 -0.44456837568996471 0.10685026726133411 0 -0.44456837568996471 0.10685026726133411 0 -0.45836242156847479 0.097930602978914316 0 -0.44375562455484602 0.092817259350066045 0 -0.44456837568996471 0.10685026726133411 0 -0.45836242156847479 0.097930602978914316 0 -0.45943466390835602 0.11067408735170881 0 -0.45836242156847479 0.097930602978914316 0 -0.47144363874933842 0.090304042948112132 0 -0.47193777993987979 0.10211670886229871 0 -0.45943466390835602 0.11067408735170881 0 -0.47193777993987979 0.10211670886229871 0 -0.45836242156847479 0.097930602978914316 0 -0.45943466390835602 0.11067408735170881 0 -0.47193777993987979 0.10211670886229871 0 -0.44693154787683081 0.1192314658411171 0 -0.45943466390835602 0.11067408735170881 0 -0.47230496150076079 0.12474459959980411 0 -0.45943466390835602 0.11067408735170881 0 -0.47230496150076079 0.12474459959980411 0 -0.47193777993987979 0.10211670886229871 0 -0.44693154787683081 0.1192314658411171 0 -0.47230496150076079 0.12474459959980411 0 -0.44693154787683081 0.1192314658411171 0 -0.45943466390835602 0.11067408735170881 0 -0.42770099526895988 0.083725014918945601 0 -0.44737284728411503 0.071325818020872969 0 -0.44375562455484602 0.092817259350066045 0 -0.44737284728411503 0.071325818020872969 0 -0.44375562455484602 0.092817259350066045 0 -0.45903444656846432 0.084821252099966105 0 -0.45836242156847479 0.097930602978914316 0 -0.44375562455484602 0.092817259350066045 0 -0.45903444656846432 0.084821252099966105 0 -0.45836242156847479 0.097930602978914316 0 -0.45903444656846432 0.084821252099966105 0 -0.47144363874933842 0.090304042948112132 0 -0.45903444656846432 0.084821252099966105 0 -0.47322895445620872 0.079076553714506725 0 -0.47144363874933842 0.090304042948112132 0 -0.44737284728411503 0.071325818020872969 0 -0.45903444656846432 0.084821252099966105 0 -0.46318079038244342 0.070106242187362403 0 -0.4599029847832784 0.053887341632327133 0 -0.44737284728411503 0.071325818020872969 0 -0.46318079038244342 0.070106242187362403 0 -0.45903444656846432 0.084821252099966105 0 -0.46318079038244342 0.070106242187362403 0 -0.47322895445620872 0.079076553714506725 0 -0.47498198644257972 0.061064687323430317 0 -0.47322895445620872 0.079076553714506725 0 -0.4869525507668529 0.074116817443196994 0 -0.47498198644257972 0.061064687323430317 0 -0.46318079038244342 0.070106242187362403 0 -0.47322895445620872 0.079076553714506725 0 -0.48887554608889772 0.054026650105937532 0 -0.47498198644257972 0.061064687323430317 0 -0.4869525507668529 0.074116817443196994 0 -0.47322895445620872 0.079076553714506725 0 -0.48324608523586038 0.089607258584651489 0 -0.4869525507668529 0.074116817443196994 0 -0.47322895445620872 0.079076553714506725 0 -0.47144363874933842 0.090304042948112132 0 -0.48324608523586038 0.089607258584651489 0 -0.48324608523586038 0.089607258584651489 0 -0.50000000000000022 0.087691415430323827 0 -0.4869525507668529 0.074116817443196994 0 -0.50000000000000022 0.087691415430323827 0 -0.4869525507668529 0.074116817443196994 0 -0.49999999999999889 0.072878781354623348 0 -0.48887554608889772 0.054026650105937532 0 -0.49999999999999889 0.072878781354623348 0 -0.48887554608889772 0.054026650105937532 0 -0.4869525507668529 0.074116817443196994 0 -0.49999999999999889 0.072878781354623348 0 -0.47230496150076079 0.12474459959980411 0 -0.48747302222090821 0.1188141134570327 0 -0.49143464663249081 0.1289010964139877 0 -0.47230496150076079 0.12474459959980411 0 -0.47193777993987979 0.10211670886229871 0 -0.48615248075038081 0.10621800751506411 0 -0.47230496150076079 0.12474459959980411 0 -0.48615248075038081 0.10621800751506411 0 -0.48747302222090821 0.1188141134570327 0 -0.47230496150076079 0.12474459959980411 0 -0.48615248075038081 0.10621800751506411 0 -0.48324608523586038 0.089607258584651489 0 -0.47193777993987979 0.10211670886229871 0 -0.48615248075038081 0.10621800751506411 0 -0.47144363874933842 0.090304042948112132 0 -0.48324608523586038 0.089607258584651489 0 -0.47193777993987979 0.10211670886229871 0 -0.48324608523586038 0.089607258584651489 0 -0.50000000000000022 0.087691415430323827 0 -0.48615248075038081 0.10621800751506411 0 -0.50000000000000022 0.087691415430323827 0 -0.48615248075038081 0.10621800751506411 0 -0.50000000000000022 0.087691415430323827 0 -0.48615248075038081 0.10621800751506411 0 -0.5 0.11539275029927459 0 -0.48615248075038081 0.10621800751506411 0 -0.5 0.11539275029927459 0 -0.48747302222090821 0.1188141134570327 0 -0.5 0.11539275029927459 0 -0.48747302222090821 0.1188141134570327 0 -0.49143464663249081 0.1289010964139877 0 -0.5 0.11539275029927459 0 -0.49143464663249081 0.1289010964139877 0 -0.5 0.1430940851682253 0 -0.49143464663249081 0.1289010964139877 0 -0.48036879897980622 0.13766716687929589 0 -0.5 0.1430940851682253 0 -0.47230496150076079 0.12474459959980411 0 -0.49143464663249081 0.1289010964139877 0 -0.48036879897980622 0.13766716687929589 0 -0.47230496150076079 0.12474459959980411 0 -0.48036879897980622 0.13766716687929589 0 -0.46267976711474412 0.13762214444460219 0 -0.47230496150076079 0.12474459959980411 0 -0.49143464663249081 0.1289010964139877 0 -0.48036879897980622 0.13766716687929589 0 -0.47782799916967889 0.15108713214294159 0 -0.46267976711474412 0.13762214444460219 0 -0.47782799916967889 0.15108713214294159 0 -0.46299911933177718 0.146206634268641 0 -0.46706356284466649 0.1519923913362719 0 -0.47335474513902098 0.15594776828439899 0 -0.47782799916967889 0.15108713214294159 0 -0.46706356284466649 0.1519923913362719 0 -0.47335474513902098 0.15594776828439899 0 -0.46669414623103378 0.15767960561930339 0 -0.46706356284466649 0.1519923913362719 0 -0.47782799916967889 0.15108713214294159 0 -0.46267976711474412 0.13762214444460219 0 -0.48036879897980622 0.13766716687929589 0 -0.47782799916967889 0.15108713214294159 0 -0.4898934330163624 0.1527668531205594 0 -0.47782799916967889 0.15108713214294159 0 -0.48265491910385833 0.15537769339780741 0 -0.4898934330163624 0.1527668531205594 0 -0.47335474513902098 0.15594776828439899 0 -0.47782799916967889 0.15108713214294159 0 -0.48265491910385833 0.15537769339780741 0 -0.47782799916967889 0.15108713214294159 0 -0.48265491910385833 0.15537769339780741 0 -0.5 0.1430940851682253 0 -0.4898934330163624 0.1527668531205594 0 -0.49676119437760852 0.16282816567689751 0 -0.48036879897980622 0.13766716687929589 0 -0.5 0.1430940851682253 0 -0.4898934330163624 0.1527668531205594 0 -0.4898934330163624 0.1527668531205594 0 -0.49676119437760852 0.16282816567689751 0 -0.49297623122461132 0.16455211984128379 0 -0.5 0.1430940851682253 0 -0.49676119437760852 0.16282816567689751 0 -0.49999999999998052 0.1707954200371761 0 -0.49676119437760852 0.16282816567689751 0 -0.49297623122461132 0.16455211984128379 0 -0.49768844025194747 0.16953312929430089 0 -0.49297623122461132 0.16455211984128379 0 -0.48799279062484202 0.1753275189996992 0 -0.49999999999998052 0.1707954200371761 0 -0.49297623122461132 0.16455211984128379 0 -0.49676119437760852 0.16282816567689751 0 -0.49999999999998052 0.1707954200371761 0 -0.49297623122461132 0.16455211984128379 0 -0.49768844025194747 0.16953312929430089 0 -0.49999999999998052 0.1707954200371761 0 -0.49297623122461132 0.16455211984128379 0 -0.49297623122461132 0.16455211984128379 0 -0.48581641559995858 0.16781323321637251 0 -0.48799279062484202 0.1753275189996992 0 -0.49297623122461132 0.16455211984128379 0 -0.48581641559995858 0.16781323321637251 0 -0.48581641559995858 0.16781323321637251 0 -0.48799279062484202 0.1753275189996992 0 -0.48265491910385833 0.15537769339780741 0 -0.49297623122461132 0.16455211984128379 0 -0.48265491910385833 0.15537769339780741 0 -0.4898934330163624 0.1527668531205594 0 -0.49297623122461132 0.16455211984128379 0 -0.48265491910385833 0.15537769339780741 0 -0.49297623122461132 0.16455211984128379 0 -0.48581641559995858 0.16781323321637251 0 -0.48799279062484202 0.1753275189996992 0 -0.49399639531242062 0.19605593245638939 0 -0.49999999999998052 0.1707954200371761 0 -0.49555137879557642 0.17823857066785889 0 -0.5 0.19378988297512781 0 -0.49555137879557642 0.17823857066785889 0 -0.48799279062484202 0.1753275189996992 0 -0.49399639531242062 0.19605593245638939 0 -0.49768844025194747 0.16953312929430089 0 -0.49999999999998052 0.1707954200371761 0 -0.49555137879557642 0.17823857066785889 0 -0.49768844025194747 0.16953312929430089 0 -0.48799279062484202 0.1753275189996992 0 -0.49768844025194747 0.16953312929430089 0 -0.49555137879557642 0.17823857066785889 0 -0.48799279062484202 0.1753275189996992 0 -0.48581641559995858 0.16781323321637251 0 -0.45996711183038241 0.17958693168553819 0 -0.48799279062484202 0.1753275189996992 0 -0.46513732382351092 0.18898658122236181 0 -0.48799279062484202 0.1753275189996992 0 -0.49399639531242062 0.19605593245638939 0 -0.46513732382351092 0.18898658122236181 0 -0.48799279062484202 0.1753275189996992 0 -0.45996711183038241 0.17958693168553819 0 -0.46513732382351092 0.18898658122236181 0 -0.48581641559995858 0.16781323321637251 0 -0.48799279062484202 0.1753275189996992 0 -0.45996711183038241 0.17958693168553819 0 -0.48581641559995858 0.16781323321637251 0 -0.47286513695659138 0.16322847250742509 0 -0.45996711183038241 0.17958693168553819 0 -0.48265491910385833 0.15537769339780741 0 -0.48581641559995858 0.16781323321637251 0 -0.48265491910385833 0.15537769339780741 0 -0.48581641559995858 0.16781323321637251 0 -0.47286513695659138 0.16322847250742509 0 -0.47335474513902098 0.15594776828439899 0 -0.48265491910385833 0.15537769339780741 0 -0.47286513695659138 0.16322847250742509 0 -0.47335474513902098 0.15594776828439899 0 -0.47286513695659138 0.16322847250742509 0 -0.46669414623103378 0.15767960561930339 0 -0.47286513695659138 0.16322847250742509 0 -0.46227925630658617 0.16330902135073941 0 -0.45469282997766708 0.17445477700167869 0 -0.47286513695659138 0.16322847250742509 0 -0.46669414623103378 0.15767960561930339 0 -0.46227925630658617 0.16330902135073941 0 -0.47286513695659138 0.16322847250742509 0 -0.45469282997766708 0.17445477700167869 0 -0.46669414623103378 0.15767960561930339 0 -0.46227925630658617 0.16330902135073941 0 -0.46039659800448679 0.15505545925401279 0 -0.46227925630658617 0.16330902135073941 0 -0.45416593408879258 0.1659034173979452 0 -0.45469282997766708 0.17445477700167869 0 -0.46227925630658617 0.16330902135073941 0 -0.45739585750448192 0.16144386291986221 0 -0.46039659800448679 0.15505545925401279 0 -0.46227925630658617 0.16330902135073941 0 -0.45416593408879258 0.1659034173979452 0 -0.45739585750448192 0.16144386291986221 0 -0.45416593408879258 0.1659034173979452 0 -0.45739585750448192 0.16144386291986221 0 -0.45091940340287551 0.1608343908335626 0 -0.45537872938007412 0.15737405501863719 0 -0.45739585750448192 0.16144386291986221 0 -0.45091940340287551 0.1608343908335626 0 -0.45537872938007412 0.15737405501863719 0 -0.45739585750448192 0.16144386291986221 0 -0.46039659800448679 0.15505545925401279 0 -0.47286513695659138 0.16322847250742509 0 -0.45996711183038241 0.17958693168553819 0 -0.45469282997766708 0.17445477700167869 0 -0.45996711183038241 0.17958693168553819 0 -0.46513732382351092 0.18898658122236181 0 -0.45071159012106998 0.1907996115483078 0 -0.45469282997766708 0.17445477700167869 0 -0.44500869692345157 0.17536704050777641 0 -0.43652052299874289 0.18568108149593221 0 -0.45469282997766708 0.17445477700167869 0 -0.44145891267454812 0.1842622500174434 0 -0.43652052299874289 0.18568108149593221 0 -0.45996711183038241 0.17958693168553819 0 -0.43411780806080591 0.1913606301547032 0 -0.45996711183038241 0.17958693168553819 0 -0.45469282997766708 0.17445477700167869 0 -0.44145891267454812 0.1842622500174434 0 -0.45996711183038241 0.17958693168553819 0 -0.44145891267454812 0.1842622500174434 0 -0.43411780806080591 0.1913606301547032 0 -0.45996711183038241 0.17958693168553819 0 -0.45071159012106998 0.1907996115483078 0 -0.43411780806080591 0.1913606301547032 0 -0.45469282997766708 0.17445477700167869 0 -0.43652052299874289 0.18568108149593221 0 -0.45469282997766708 0.17445477700167869 0 -0.44500869692345157 0.17536704050777641 0 -0.4493127990130158 0.1703178585796985 0 -0.44500869692345157 0.17536704050777641 0 -0.4493127990130158 0.1703178585796985 0 -0.44325058905680181 0.17074942921044109 0 -0.44500869692345157 0.17536704050777641 0 -0.44006048272278397 0.17633107179199109 0 -0.43652052299874289 0.18568108149593221 0 -0.44500869692345157 0.17536704050777641 0 -0.44006048272278397 0.17633107179199109 0 -0.44325058905680181 0.17074942921044109 0 -0.44006048272278397 0.17633107179199109 0 -0.44325058905680181 0.17074942921044109 0 -0.43724224217250113 0.17228545182451691 0 -0.44006048272278397 0.17633107179199109 0 -0.43665245990502988 0.18009394286874669 0 -0.43724224217250113 0.17228545182451691 0 -0.44006048272278397 0.17633107179199109 0 -0.43652052299874289 0.18568108149593221 0 -0.43665245990502988 0.18009394286874669 0 -0.44145891267454812 0.1842622500174434 0 -0.43652052299874289 0.18568108149593221 0 -0.45416593408879258 0.1659034173979452 0 -0.45091940340287551 0.1608343908335626 0 -0.44574738420849369 0.16515266460857941 0 -0.45091940340287551 0.1608343908335626 0 -0.44574738420849369 0.16515266460857941 0 -0.44355548573713272 0.15927065496033399 0 -0.45091940340287551 0.1608343908335626 0 -0.44355548573713272 0.15927065496033399 0 -0.44784054385231409 0.15554270509540899 0 -0.45537872938007412 0.15737405501863719 0 -0.45091940340287551 0.1608343908335626 0 -0.44784054385231409 0.15554270509540899 0 -0.45416593408879258 0.1659034173979452 0 -0.45469282997766708 0.17445477700167869 0 -0.4493127990130158 0.1703178585796985 0 -0.45416593408879258 0.1659034173979452 0 -0.4493127990130158 0.1703178585796985 0 -0.44574738420849369 0.16515266460857941 0 -0.4493127990130158 0.1703178585796985 0 -0.44574738420849369 0.16515266460857941 0 -0.44325058905680181 0.17074942921044109 0 -0.44574738420849369 0.16515266460857941 0 -0.43968977424508099 0.16684023058665701 0 -0.43913875680995562 0.16183807185573049 0 -0.44574738420849369 0.16515266460857941 0 -0.44325058905680181 0.17074942921044109 0 -0.43968977424508099 0.16684023058665701 0 -0.44325058905680181 0.17074942921044109 0 -0.43968977424508099 0.16684023058665701 0 -0.43724224217250113 0.17228545182451691 0 -0.43968977424508099 0.16684023058665701 0 -0.43913875680995562 0.16183807185573049 0 -0.43408987984365088 0.1620103547138266 0 -0.44574738420849369 0.16515266460857941 0 -0.43913875680995562 0.16183807185573049 0 -0.44355548573713272 0.15927065496033399 0 -0.43913875680995562 0.16183807185573049 0 -0.44355548573713272 0.15927065496033399 0 -0.4366870383101259 0.15741208252378841 0 -0.44355548573713272 0.15927065496033399 0 -0.44011502423460291 0.15374320714550049 0 -0.4366870383101259 0.15741208252378841 0 -0.44011502423460291 0.15374320714550049 0 -0.43823382620800438 0.1490286895898594 0 -0.44492937912686709 0.15049650922187641 0 -0.44355548573713272 0.15927065496033399 0 -0.44011502423460291 0.15374320714550049 0 -0.44784054385231409 0.15554270509540899 0 -0.44011502423460291 0.15374320714550049 0 -0.44492937912686709 0.15049650922187641 0 -0.44784054385231409 0.15554270509540899 0 -0.44492937912686709 0.15049650922187641 0 -0.44784054385231409 0.15554270509540899 0 -0.45288737337224277 0.15212475356809521 0 -0.44492937912686709 0.15049650922187641 0 -0.45288737337224277 0.15212475356809521 0 -0.44973464041875388 0.14727645559437649 0 -0.45288737337224277 0.15212475356809521 0 -0.44973464041875388 0.14727645559437649 0 -0.45385555253433307 0.14808403688354221 0 -0.45537872938007412 0.15737405501863719 0 -0.44784054385231409 0.15554270509540899 0 -0.45288737337224277 0.15212475356809521 0 -0.44854183205943637 0.14128637022381549 0 -0.4551883365673593 0.13962562067518419 0 -0.45480742989410877 0.14399404498930859 0 -0.44973464041875388 0.14727645559437649 0 -0.44854183205943637 0.14128637022381549 0 -0.45480742989410877 0.14399404498930859 0 -0.44973464041875388 0.14727645559437649 0 -0.45385555253433307 0.14808403688354221 0 -0.45480742989410877 0.14399404498930859 0 -0.44492937912686709 0.15049650922187641 0 -0.44973464041875388 0.14727645559437649 0 -0.44223345441255962 0.14519209332964431 0 -0.44973464041875388 0.14727645559437649 0 -0.44854183205943637 0.14128637022381549 0 -0.44223345441255962 0.14519209332964431 0 -0.44854183205943637 0.14128637022381549 0 -0.44223345441255962 0.14519209332964431 0 -0.43853138602676478 0.13800588646656811 0 -0.43823382620800438 0.1490286895898594 0 -0.44492937912686709 0.15049650922187641 0 -0.44223345441255962 0.14519209332964431 0 -0.43823382620800438 0.1490286895898594 0 -0.44223345441255962 0.14519209332964431 0 -0.4363330378271309 0.1451072259379923 0 -0.44223345441255962 0.14519209332964431 0 -0.43853138602676478 0.13800588646656811 0 -0.4363330378271309 0.1451072259379923 0 -0.44413972867868529 0.1211422418022963 0 -0.44914207414645929 0.13452484626166769 0 -0.46267976711474412 0.13762214444460219 0 -0.44413972867868529 0.1211422418022963 0 -0.43853138602676478 0.13800588646656811 0 -0.44914207414645929 0.13452484626166769 0 -0.44413972867868529 0.1211422418022963 0 -0.44693154787683081 0.1192314658411171 0 -0.46267976711474412 0.13762214444460219 0 -0.44854183205943637 0.14128637022381549 0 -0.43853138602676478 0.13800588646656811 0 -0.44914207414645929 0.13452484626166769 0 -0.44854183205943637 0.14128637022381549 0 -0.44914207414645929 0.13452484626166769 0 -0.4551883365673593 0.13962562067518419 0 -0.44914207414645929 0.13452484626166769 0 -0.4551883365673593 0.13962562067518419 0 -0.46267976711474412 0.13762214444460219 0 -0.44693154787683081 0.1192314658411171 0 -0.47230496150076079 0.12474459959980411 0 -0.46267976711474412 0.13762214444460219 0 -0.44413972867868529 0.1211422418022963 0 -0.46267976711474412 0.13762214444460219 0 -0.4551883365673593 0.13962562067518419 0 -0.46267976711474412 0.13762214444460219 0 -0.46009821675095902 0.1410759999456343 0 -0.47230496150076079 0.12474459959980411 0 -0.46267976711474412 0.13762214444460219 0 -0.46267976711474412 0.13762214444460219 0 -0.46009821675095902 0.1410759999456343 0 -0.47782799916967889 0.15108713214294159 0 -0.46267976711474412 0.13762214444460219 0 -0.46299911933177718 0.146206634268641 0 -0.46267976711474412 0.13762214444460219 0 -0.46299911933177718 0.146206634268641 0 -0.46009821675095902 0.1410759999456343 0 -0.46299911933177718 0.146206634268641 0 -0.46706356284466649 0.1519923913362719 0 -0.46039659800448679 0.15505545925401279 0 -0.46669414623103378 0.15767960561930339 0 -0.46706356284466649 0.1519923913362719 0 -0.46039659800448679 0.15505545925401279 0 -0.46299911933177718 0.146206634268641 0 -0.45790643257282232 0.14919079410897401 0 -0.46039659800448679 0.15505545925401279 0 -0.45288737337224277 0.15212475356809521 0 -0.45790643257282232 0.14919079410897401 0 -0.46039659800448679 0.15505545925401279 0 -0.45537872938007412 0.15737405501863719 0 -0.45288737337224277 0.15212475356809521 0 -0.46039659800448679 0.15505545925401279 0 -0.45288737337224277 0.15212475356809521 0 -0.45790643257282232 0.14919079410897401 0 -0.45385555253433307 0.14808403688354221 0 -0.45790643257282232 0.14919079410897401 0 -0.45385555253433307 0.14808403688354221 0 -0.4588614505899663 0.14508904288908239 0 -0.45385555253433307 0.14808403688354221 0 -0.45480742989410877 0.14399404498930859 0 -0.4588614505899663 0.14508904288908239 0 -0.4551883365673593 0.13962562067518419 0 -0.45480742989410877 0.14399404498930859 0 -0.46009821675095902 0.1410759999456343 0 -0.45480742989410877 0.14399404498930859 0 -0.46009821675095902 0.1410759999456343 0 -0.4588614505899663 0.14508904288908239 0 -0.46299911933177718 0.146206634268641 0 -0.46009821675095902 0.1410759999456343 0 -0.4588614505899663 0.14508904288908239 0 -0.46299911933177718 0.146206634268641 0 -0.45790643257282232 0.14919079410897401 0 -0.4588614505899663 0.14508904288908239 0 -0.47016689874894602 0.2448031454803179 0 -0.5 0.24575440790523281 0 -0.48343441512888707 0.22915501472691921 0 -0.48343441512888707 0.22915501472691921 0 -0.4797118605998687 0.2109788743111515 0 -0.49999999999999978 0.21678434591307949 0 -0.5 0.24575440790523281 0 -0.48343441512888707 0.22915501472691921 0 -0.49999999999999978 0.21678434591307949 0 -0.48343441512888707 0.22915501472691921 0 -0.4797118605998687 0.2109788743111515 0 -0.46502840604514423 0.22616561681583469 0 -0.47016689874894602 0.2448031454803179 0 -0.48343441512888707 0.22915501472691921 0 -0.46502840604514423 0.22616561681583469 0 -0.4797118605998687 0.2109788743111515 0 -0.49999999999999978 0.21678434591307949 0 -0.49399639531242062 0.19605593245638939 0 -0.49999999999999978 0.21678434591307949 0 -0.49399639531242062 0.19605593245638939 0 -0.49999999999999978 0.21678434591307949 0 -0.5 0.19378988297512781 0 -0.49399639531242062 0.19605593245638939 0 -0.49555137879557642 0.17823857066785889 0 -0.5 0.19378988297512781 0 -0.49399639531242062 0.19605593245638939 0 -0.4797118605998687 0.2109788743111515 0 -0.49399639531242062 0.19605593245638939 0 -0.46513732382351092 0.18898658122236181 0 -0.46513732382351092 0.18898658122236181 0 -0.44228185702217881 0.202645643445023 0 -0.46043750237047032 0.2095039411052628 0 -0.46513732382351092 0.18898658122236181 0 -0.44228185702217881 0.202645643445023 0 -0.44228185702217881 0.202645643445023 0 -0.45071159012106998 0.1907996115483078 0 -0.43411780806080591 0.1913606301547032 0 -0.46513732382351092 0.18898658122236181 0 -0.44228185702217881 0.202645643445023 0 -0.45071159012106998 0.1907996115483078 0 -0.44228185702217881 0.202645643445023 0 -0.46043750237047032 0.2095039411052628 0 -0.44650502689929777 0.22245666866153621 0 -0.44228185702217881 0.202645643445023 0 -0.44650502689929777 0.22245666866153621 0 -0.43229222072198342 0.2216256293069491 0 -0.4797118605998687 0.2109788743111515 0 -0.46043750237047032 0.2095039411052628 0 -0.46502840604514423 0.22616561681583469 0 -0.4797118605998687 0.2109788743111515 0 -0.46513732382351092 0.18898658122236181 0 -0.46043750237047032 0.2095039411052628 0 -0.46502840604514423 0.22616561681583469 0 -0.44650502689929777 0.22245666866153621 0 -0.44908104117122538 0.24097150656087341 0 -0.46043750237047032 0.2095039411052628 0 -0.46502840604514423 0.22616561681583469 0 -0.44650502689929777 0.22245666866153621 0 -0.44650502689929777 0.22245666866153621 0 -0.44908104117122538 0.24097150656087341 0 -0.42957812536533091 0.23694974054588769 0 -0.47016689874894602 0.2448031454803179 0 -0.46502840604514423 0.22616561681583469 0 -0.44908104117122538 0.24097150656087341 0 -0.47016689874894602 0.2448031454803179 0 -0.44908104117122538 0.24097150656087341 0 -0.45399038678029879 0.26022436416969003 0 -0.41436209227414211 0.23692412942927571 0 -0.41519658925457292 0.24974068203376851 0 -0.4060246323189704 0.24156285999332949 0 -0.41436209227414211 0.23692412942927571 0 -0.40740122897642689 0.23012439594443171 0 -0.4060246323189704 0.24156285999332949 0 -0.41436209227414211 0.23692412942927571 0 -0.41519658925457292 0.24974068203376851 0 -0.42957812536533091 0.23694974054588769 0 -0.41519658925457292 0.24974068203376851 0 -0.42957812536533091 0.23694974054588769 0 -0.43265062726446629 0.25826604692193472 0 -0.44908104117122538 0.24097150656087341 0 -0.42957812536533091 0.23694974054588769 0 -0.43265062726446629 0.25826604692193472 0 -0.44650502689929777 0.22245666866153621 0 -0.42957812536533091 0.23694974054588769 0 -0.43229222072198342 0.2216256293069491 0 -0.42957812536533091 0.23694974054588769 0 -0.43229222072198342 0.2216256293069491 0 -0.42074905363310849 0.2288170595376052 0 -0.43229222072198342 0.2216256293069491 0 -0.42074905363310849 0.2288170595376052 0 -0.41942639022084688 0.21630470566768409 0 -0.41942639022084688 0.21630470566768409 0 -0.39657092341951528 0.22996376789034551 0 -0.42074905363310849 0.2288170595376052 0 -0.40740122897642689 0.23012439594443171 0 -0.41942639022084688 0.21630470566768409 0 -0.40740122897642689 0.23012439594443171 0 -0.41942639022084688 0.21630470566768409 0 -0.39657092341951528 0.22996376789034551 0 -0.41942639022084688 0.21630470566768409 0 -0.40520720562171469 0.21696537585594061 0 -0.39657092341951528 0.22996376789034551 0 -0.41436209227414211 0.23692412942927571 0 -0.42957812536533091 0.23694974054588769 0 -0.42074905363310849 0.2288170595376052 0 -0.41436209227414211 0.23692412942927571 0 -0.42074905363310849 0.2288170595376052 0 -0.40740122897642689 0.23012439594443171 0 -0.40826850429122941 0.2031343286238686 0 -0.41942639022084688 0.21630470566768409 0 -0.43411780806080591 0.1913606301547032 0 -0.40826850429122941 0.2031343286238686 0 -0.41942639022084688 0.21630470566768409 0 -0.40520720562171469 0.21696537585594061 0 -0.44228185702217881 0.202645643445023 0 -0.41942639022084688 0.21630470566768409 0 -0.43411780806080591 0.1913606301547032 0 -0.44228185702217881 0.202645643445023 0 -0.41942639022084688 0.21630470566768409 0 -0.44228185702217881 0.202645643445023 0 -0.43229222072198342 0.2216256293069491 0 -0.41942639022084688 0.21630470566768409 0 -0.42239451364498631 0.19440770505990049 0 -0.41546643247382059 0.19173005866232809 0 -0.43652052299874289 0.18568108149593221 0 -0.41546643247382059 0.19173005866232809 0 -0.43652052299874289 0.18568108149593221 0 -0.43411780806080591 0.1913606301547032 0 -0.42239451364498631 0.19440770505990049 0 -0.43652052299874289 0.18568108149593221 0 -0.42239451364498631 0.19440770505990049 0 -0.43652052299874289 0.18568108149593221 0 -0.40826850429122941 0.2031343286238686 0 -0.43411780806080591 0.1913606301547032 0 -0.42239451364498631 0.19440770505990049 0 -0.41546643247382059 0.19173005866232809 0 -0.39441234194889829 0.19777903582872439 0 -0.40907804898115041 0.184845101298375 0 -0.40826850429122941 0.2031343286238686 0 -0.43411780806080591 0.1913606301547032 0 -0.40826850429122941 0.2031343286238686 0 -0.42239451364498631 0.19440770505990049 0 -0.41546643247382059 0.19173005866232809 0 -0.40826850429122941 0.2031343286238686 0 -0.42239451364498631 0.19440770505990049 0 -0.40826850429122941 0.2031343286238686 0 -0.41546643247382059 0.19173005866232809 0 -0.39441234194889829 0.19777903582872439 0 -0.41546643247382059 0.19173005866232809 0 -0.39441234194889829 0.19777903582872439 0 -0.40826850429122941 0.2031343286238686 0 -0.39441234194889829 0.19777903582872439 0 -0.39941086509340901 0.2071687573262202 0 -0.39441234194889829 0.19777903582872439 0 -0.37569804807996082 0.2031557741952863 0 -0.38088741733117781 0.18596102381446389 0 -0.39441234194889829 0.19777903582872439 0 -0.37569804807996082 0.2031557741952863 0 -0.3858054159708969 0.2170113487324227 0 -0.37265216607917712 0.22513703076854119 0 -0.36802729079060059 0.21171379692026709 0 -0.37569804807996082 0.2031557741952863 0 -0.3858054159708969 0.2170113487324227 0 -0.36802729079060059 0.21171379692026709 0 -0.39441234194889829 0.19777903582872439 0 -0.37569804807996082 0.2031557741952863 0 -0.3858054159708969 0.2170113487324227 0 -0.39441234194889829 0.19777903582872439 0 -0.3858054159708969 0.2170113487324227 0 -0.3858054159708969 0.2170113487324227 0 -0.38466894264450507 0.21955081644432201 0 -0.40826850429122941 0.2031343286238686 0 -0.3858054159708969 0.2170113487324227 0 -0.39441234194889829 0.19777903582872439 0 -0.3858054159708969 0.2170113487324227 0 -0.39941086509340901 0.2071687573262202 0 -0.40826850429122941 0.2031343286238686 0 -0.3858054159708969 0.2170113487324227 0 -0.39656300455526738 0.2184587012418642 0 -0.40826850429122941 0.2031343286238686 0 -0.3858054159708969 0.2170113487324227 0 -0.39941086509340901 0.2071687573262202 0 -0.40826850429122941 0.2031343286238686 0 -0.39941086509340901 0.2071687573262202 0 -0.40826850429122941 0.2031343286238686 0 -0.39656300455526738 0.2184587012418642 0 -0.40520720562171469 0.21696537585594061 0 -0.39656300455526738 0.2184587012418642 0 -0.40520720562171469 0.21696537585594061 0 -0.39657092341951528 0.22996376789034551 0 -0.40740122897642689 0.23012439594443171 0 -0.39657409584625902 0.23457288606106491 0 -0.40740122897642689 0.23012439594443171 0 -0.39657092341951528 0.22996376789034551 0 -0.39657409584625902 0.23457288606106491 0 -0.39657092341951528 0.22996376789034551 0 -0.39657409584625902 0.23457288606106491 0 -0.39657092341951528 0.22996376789034551 0 -0.3889864629378556 0.23066892629250829 0 -0.39657409584625902 0.23457288606106491 0 -0.39312497353259668 0.228786156021061 0 -0.39108577907483127 0.22412133939470791 0 -0.3889864629378556 0.23066892629250829 0 -0.39657092341951528 0.22996376789034551 0 -0.39312497353259668 0.228786156021061 0 -0.39108577907483127 0.22412133939470791 0 -0.39657092341951528 0.22996376789034551 0 -0.39312497353259668 0.228786156021061 0 -0.3889864629378556 0.23066892629250829 0 -0.39656300455526738 0.2184587012418642 0 -0.39108577907483127 0.22412133939470791 0 -0.38811502352201732 0.22145478389358189 0 -0.39656300455526738 0.2184587012418642 0 -0.39657092341951528 0.22996376789034551 0 -0.39656300455526738 0.2184587012418642 0 -0.39657092341951528 0.22996376789034551 0 -0.39108577907483127 0.22412133939470791 0 -0.3858054159708969 0.2170113487324227 0 -0.39656300455526738 0.2184587012418642 0 -0.38811502352201732 0.22145478389358189 0 -0.39108577907483127 0.22412133939470791 0 -0.38811502352201732 0.22145478389358189 0 -0.38414582389905738 0.2255250167159909 0 -0.38811502352201732 0.22145478389358189 0 -0.38414582389905738 0.2255250167159909 0 -0.38466894264450507 0.21955081644432201 0 -0.3858054159708969 0.2170113487324227 0 -0.38811502352201732 0.22145478389358189 0 -0.38466894264450507 0.21955081644432201 0 -0.38414582389905738 0.2255250167159909 0 -0.38466894264450507 0.21955081644432201 0 -0.37265216607917712 0.22513703076854119 0 -0.3858054159708969 0.2170113487324227 0 -0.38466894264450507 0.21955081644432201 0 -0.37265216607917712 0.22513703076854119 0 -0.3858054159708969 0.2170113487324227 0 -0.37265216607917712 0.22513703076854119 0 -0.38414582389905738 0.2255250167159909 0 -0.37971945424730652 0.23167414164007541 0 -0.37265216607917712 0.22513703076854119 0 -0.38414582389905738 0.2255250167159909 0 -0.37971945424730652 0.23167414164007541 0 -0.3889864629378556 0.23066892629250829 0 -0.39108577907483127 0.22412133939470791 0 -0.38414582389905738 0.2255250167159909 0 -0.3889864629378556 0.23066892629250829 0 -0.38097751480364228 0.24098097542204691 0 -0.39657409584625902 0.23457288606106491 0 -0.3889864629378556 0.23066892629250829 0 -0.38097751480364228 0.24098097542204691 0 -0.39657409584625902 0.23457288606106491 0 -0.37971945424730652 0.23167414164007541 0 -0.3889864629378556 0.23066892629250829 0 -0.38097751480364228 0.24098097542204691 0 -0.37971945424730652 0.23167414164007541 0 -0.38097751480364228 0.24098097542204691 0 -0.37050715338362739 0.23637343618309239 0 -0.38097751480364228 0.24098097542204691 0 -0.36538093376102537 0.24738906478302841 0 -0.37951823372626892 0.25390340485737012 0 -0.39657409584625902 0.23457288606106491 0 -0.4060246323189704 0.24156285999332949 0 -0.39658915524345062 0.25645220649810591 0 -0.41519658925457292 0.24974068203376851 0 -0.4060246323189704 0.24156285999332949 0 -0.39658915524345062 0.25645220649810591 0 -0.38097751480364228 0.24098097542204691 0 -0.39657409584625902 0.23457288606106491 0 -0.39658915524345062 0.25645220649810591 0 -0.39657409584625902 0.23457288606106491 0 -0.39658915524345062 0.25645220649810591 0 -0.40740122897642689 0.23012439594443171 0 -0.39657409584625902 0.23457288606106491 0 -0.4060246323189704 0.24156285999332949 0 -0.42106840953537938 0.138215629112378 0 -0.40914754667877179 0.16485298664586531 0 -0.39947554552380349 0.15171128708770379 0 -0.42180763710123881 0.1364267644449918 0 -0.42106840953537938 0.138215629112378 0 -0.39947554552380349 0.15171128708770379 0 -0.42106840953537938 0.138215629112378 0 -0.40914754667877179 0.16485298664586531 0 -0.4186089233168841 0.1541198781493939 0 -0.42106840953537938 0.138215629112378 0 -0.42223371817607608 0.14661968268145961 0 -0.42180763710123881 0.1364267644449918 0 -0.39947554552380349 0.15171128708770379 0 -0.4186089233168841 0.1541198781493939 0 -0.42106840953537938 0.138215629112378 0 -0.40914754667877179 0.16485298664586531 0 -0.4186089233168841 0.1541198781493939 0 -0.42223371817607608 0.14661968268145961 0 -0.42240433378244419 0.15221529967772729 0 -0.4186089233168841 0.1541198781493939 0 -0.42240433378244419 0.15221529967772729 0 -0.42441249637303702 0.1578136896974579 0 -0.41173049689463631 0.1261704564900557 0 -0.42180763710123881 0.1364267644449918 0 -0.39947554552380349 0.15171128708770379 0 -0.42619759641423027 0.122678209239922 0 -0.41173049689463631 0.1261704564900557 0 -0.42180763710123881 0.1364267644449918 0 -0.44413972867868529 0.1211422418022963 0 -0.43853138602676478 0.13800588646656811 0 -0.42180763710123881 0.1364267644449918 0 -0.42180763710123881 0.1364267644449918 0 -0.42988020892464718 0.14288131927135711 0 -0.4245816613377108 0.14132858665514009 0 -0.42180763710123881 0.1364267644449918 0 -0.42106840953537938 0.138215629112378 0 -0.4245816613377108 0.14132858665514009 0 -0.42619759641423027 0.122678209239922 0 -0.44413972867868529 0.1211422418022963 0 -0.42180763710123881 0.1364267644449918 0 -0.44413972867868529 0.1211422418022963 0 -0.42180763710123881 0.1364267644449918 0 -0.43853138602676478 0.13800588646656811 0 -0.42180763710123881 0.1364267644449918 0 -0.42988020892464718 0.14288131927135711 0 -0.43853138602676478 0.13800588646656811 0 -0.4363330378271309 0.1451072259379923 0 -0.42988020892464718 0.14288131927135711 0 -0.43823382620800438 0.1490286895898594 0 -0.4363330378271309 0.1451072259379923 0 -0.43318214019335871 0.1504147952359132 0 -0.4363330378271309 0.1451072259379923 0 -0.42988020892464718 0.14288131927135711 0 -0.43318214019335871 0.1504147952359132 0 -0.42988020892464718 0.14288131927135711 0 -0.42648891214127449 0.1470553598794527 0 -0.43318214019335871 0.1504147952359132 0 -0.42106840953537938 0.138215629112378 0 -0.42223371817607608 0.14661968268145961 0 -0.4245816613377108 0.14132858665514009 0 -0.42988020892464718 0.14288131927135711 0 -0.42648891214127449 0.1470553598794527 0 -0.4245816613377108 0.14132858665514009 0 -0.42648891214127449 0.1470553598794527 0 -0.42223371817607608 0.14661968268145961 0 -0.4245816613377108 0.14132858665514009 0 -0.42648891214127449 0.1470553598794527 0 -0.42223371817607608 0.14661968268145961 0 -0.42382406740493089 0.1495693553604473 0 -0.42240433378244419 0.15221529967772729 0 -0.42539614739856518 0.1518202659064212 0 -0.42441249637303702 0.1578136896974579 0 -0.42223371817607608 0.14661968268145961 0 -0.42240433378244419 0.15221529967772729 0 -0.42382406740493089 0.1495693553604473 0 -0.42648891214127449 0.1470553598794527 0 -0.42382406740493089 0.1495693553604473 0 -0.42539614739856518 0.1518202659064212 0 -0.42240433378244419 0.15221529967772729 0 -0.42382406740493089 0.1495693553604473 0 -0.42539614739856518 0.1518202659064212 0 -0.42648891214127449 0.1470553598794527 0 -0.42539614739856518 0.1518202659064212 0 -0.42937645843452921 0.15333154595887741 0 -0.42648891214127449 0.1470553598794527 0 -0.42937645843452921 0.15333154595887741 0 -0.43318214019335871 0.1504147952359132 0 -0.42539614739856518 0.1518202659064212 0 -0.42937645843452921 0.15333154595887741 0 -0.42441249637303702 0.1578136896974579 0 -0.42937645843452921 0.15333154595887741 0 -0.43180986580986208 0.1575928044064725 0 -0.42441249637303702 0.1578136896974579 0 -0.42937645843452921 0.15333154595887741 0 -0.43318214019335871 0.1504147952359132 0 -0.43180986580986208 0.1575928044064725 0 -0.44011502423460291 0.15374320714550049 0 -0.43823382620800438 0.1490286895898594 0 -0.43318214019335871 0.1504147952359132 0 -0.44011502423460291 0.15374320714550049 0 -0.43318214019335871 0.1504147952359132 0 -0.4366870383101259 0.15741208252378841 0 -0.43318214019335871 0.1504147952359132 0 -0.4366870383101259 0.15741208252378841 0 -0.43180986580986208 0.1575928044064725 0 -0.4366870383101259 0.15741208252378841 0 -0.43180986580986208 0.1575928044064725 0 -0.43408987984365088 0.1620103547138266 0 -0.43180986580986208 0.1575928044064725 0 -0.43408987984365088 0.1620103547138266 0 -0.42955718040191132 0.16232351005486931 0 -0.43408987984365088 0.1620103547138266 0 -0.43223684358055309 0.16739979186665169 0 -0.42955718040191132 0.16232351005486931 0 -0.43913875680995562 0.16183807185573049 0 -0.4366870383101259 0.15741208252378841 0 -0.43408987984365088 0.1620103547138266 0 -0.43968977424508099 0.16684023058665701 0 -0.43408987984365088 0.1620103547138266 0 -0.43223684358055309 0.16739979186665169 0 -0.43968977424508099 0.16684023058665701 0 -0.43223684358055309 0.16739979186665169 0 -0.43724224217250113 0.17228545182451691 0 -0.43223684358055309 0.16739979186665169 0 -0.43724224217250113 0.17228545182451691 0 -0.43053114253313912 0.1726623606682508 0 -0.43223684358055309 0.16739979186665169 0 -0.42549553987197403 0.1668775322576074 0 -0.42955718040191132 0.16232351005486931 0 -0.43223684358055309 0.16739979186665169 0 -0.42549553987197403 0.1668775322576074 0 -0.43053114253313912 0.1726623606682508 0 -0.42549553987197403 0.1668775322576074 0 -0.42441249637303702 0.1578136896974579 0 -0.41730586464282088 0.1631742189632025 0 -0.42549553987197403 0.1668775322576074 0 -0.42441249637303702 0.1578136896974579 0 -0.42955718040191132 0.16232351005486931 0 -0.43180986580986208 0.1575928044064725 0 -0.42441249637303702 0.1578136896974579 0 -0.42955718040191132 0.16232351005486931 0 -0.41546643247382059 0.19173005866232809 0 -0.43652052299874289 0.18568108149593221 0 -0.4210286271356376 0.1766550845237316 0 -0.43652052299874289 0.18568108149593221 0 -0.43665245990502988 0.18009394286874669 0 -0.4210286271356376 0.1766550845237316 0 -0.44145891267454812 0.1842622500174434 0 -0.43411780806080591 0.1913606301547032 0 -0.43652052299874289 0.18568108149593221 0 -0.43665245990502988 0.18009394286874669 0 -0.43724224217250113 0.17228545182451691 0 -0.43053114253313912 0.1726623606682508 0 -0.43665245990502988 0.18009394286874669 0 -0.4210286271356376 0.1766550845237316 0 -0.42549553987197403 0.1668775322576074 0 -0.43053114253313912 0.1726623606682508 0 -0.4210286271356376 0.1766550845237316 0 -0.43665245990502988 0.18009394286874669 0 -0.43053114253313912 0.1726623606682508 0 -0.4210286271356376 0.1766550845237316 0 -0.41546643247382059 0.19173005866232809 0 -0.4210286271356376 0.1766550845237316 0 -0.40907804898115041 0.184845101298375 0 -0.4210286271356376 0.1766550845237316 0 -0.40540479436624521 0.17321622617871629 0 -0.4210286271356376 0.1766550845237316 0 -0.40907804898115041 0.184845101298375 0 -0.40540479436624521 0.17321622617871629 0 -0.4186089233168841 0.1541198781493939 0 -0.42441249637303702 0.1578136896974579 0 -0.41730586464282088 0.1631742189632025 0 -0.4186089233168841 0.1541198781493939 0 -0.41730586464282088 0.1631742189632025 0 -0.40914754667877179 0.16485298664586531 0 -0.4210286271356376 0.1766550845237316 0 -0.41730586464282088 0.1631742189632025 0 -0.40914754667877179 0.16485298664586531 0 -0.42549553987197403 0.1668775322576074 0 -0.4210286271356376 0.1766550845237316 0 -0.41730586464282088 0.1631742189632025 0 -0.4210286271356376 0.1766550845237316 0 -0.40914754667877179 0.16485298664586531 0 -0.40540479436624521 0.17321622617871629 0 -0.40914754667877179 0.16485298664586531 0 -0.40540479436624521 0.17321622617871629 0 -0.41730586464282088 0.1631742189632025 0 -0.40914754667877179 0.16485298664586531 0 -0.40914754667877179 0.16485298664586531 0 -0.40540479436624521 0.17321622617871629 0 -0.38757552183828242 0.1692919430963703 0 -0.40914754667877179 0.16485298664586531 0 -0.38757552183828242 0.1692919430963703 0 -0.40914754667877179 0.16485298664586531 0 -0.38757552183828242 0.1692919430963703 0 -0.39947554552380349 0.15171128708770379 0 -0.40540479436624521 0.17321622617871629 0 -0.38757552183828242 0.1692919430963703 0 -0.39441234194889829 0.19777903582872439 0 -0.40540479436624521 0.17321622617871629 0 -0.38088741733117781 0.18596102381446389 0 -0.40540479436624521 0.17321622617871629 0 -0.38088741733117781 0.18596102381446389 0 -0.38757552183828242 0.1692919430963703 0 -0.39441234194889829 0.19777903582872439 0 -0.40540479436624521 0.17321622617871629 0 -0.39441234194889829 0.19777903582872439 0 -0.40907804898115041 0.184845101298375 0 -0.40540479436624521 0.17321622617871629 0 -0.38088741733117781 0.18596102381446389 0 -0.38757552183828242 0.1692919430963703 0 -0.36786147961415622 0.1733485754961262 0 -0.38757552183828242 0.1692919430963703 0 -0.3771434539463685 0.16699580973041631 0 -0.36786147961415622 0.1733485754961262 0 -0.38757552183828242 0.1692919430963703 0 -0.3771434539463685 0.16699580973041631 0 -0.39947554552380349 0.15171128708770379 0 -0.38757552183828242 0.1692919430963703 0 -0.36786147961415622 0.1733485754961262 0 -0.3771434539463685 0.16699580973041631 0 -0.39947554552380349 0.15171128708770379 0 -0.38757552183828242 0.1692919430963703 0 -0.3771434539463685 0.16699580973041631 0 -0.37821561457090941 0.14460545498620139 0 -0.39947554552380349 0.15171128708770379 0 -0.39412551368246868 0.12714648084756761 0 -0.3771434539463685 0.16699580973041631 0 -0.37821561457090941 0.14460545498620139 0 -0.39947554552380349 0.15171128708770379 0 -0.41173049689463631 0.1261704564900557 0 -0.39947554552380349 0.15171128708770379 0 -0.39412551368246868 0.12714648084756761 0 -0.37696668021098678 0.1226786306669 0 -0.37821561457090941 0.14460545498620139 0 -0.39412551368246868 0.12714648084756761 0 -0.37696668021098678 0.1226786306669 0 -0.37821561457090941 0.14460545498620139 0 -0.36020909280437258 0.13125469890844299 0 -0.36020909280437258 0.13125469890844299 0 -0.34256754351591329 0.13985873972998111 0 -0.34404635216407298 0.12144594435859959 0 -0.36020909280437258 0.13125469890844299 0 -0.35664148414004332 0.16248325695298041 0 -0.34256754351591329 0.13985873972998111 0 -0.35664148414004332 0.16248325695298041 0 -0.3361395143337183 0.15797070417554371 0 -0.34256754351591329 0.13985873972998111 0 -0.37821561457090941 0.14460545498620139 0 -0.36020909280437258 0.13125469890844299 0 -0.35664148414004332 0.16248325695298041 0 -0.3771434539463685 0.16699580973041631 0 -0.36786147961415622 0.1733485754961262 0 -0.35664148414004332 0.16248325695298041 0 -0.3771434539463685 0.16699580973041631 0 -0.37821561457090941 0.14460545498620139 0 -0.35664148414004332 0.16248325695298041 0 -0.3771434539463685 0.16699580973041631 0 -0.35664148414004332 0.16248325695298041 0 -0.3771434539463685 0.16699580973041631 0 -0.36786147961415622 0.1733485754961262 0 -0.36786147961415622 0.1733485754961262 0 -0.35664148414004332 0.16248325695298041 0 -0.35569233861273042 0.17185991926318139 0 -0.38088741733117781 0.18596102381446389 0 -0.36786147961415622 0.1733485754961262 0 -0.36379220581784238 0.19697314574166219 0 -0.36786147961415622 0.1733485754961262 0 -0.34854944119506381 0.18656611436703591 0 -0.36379220581784238 0.19697314574166219 0 -0.36786147961415622 0.1733485754961262 0 -0.34469964863851982 0.17811467231713041 0 -0.34854944119506381 0.18656611436703591 0 -0.36786147961415622 0.1733485754961262 0 -0.34469964863851982 0.17811467231713041 0 -0.35569233861273042 0.17185991926318139 0 -0.36786147961415622 0.1733485754961262 0 -0.34469964863851982 0.17811467231713041 0 -0.36786147961415622 0.1733485754961262 0 -0.34854944119506381 0.18656611436703591 0 -0.35262147256532539 0.17242891605172361 0 -0.34469964863851982 0.17811467231713041 0 -0.35569233861273042 0.17185991926318139 0 -0.34469964863851982 0.17811467231713041 0 -0.35569233861273042 0.17185991926318139 0 -0.35262147256532539 0.17242891605172361 0 -0.35664148414004332 0.16248325695298041 0 -0.3361395143337183 0.15797070417554371 0 -0.35664148414004332 0.16248325695298041 0 -0.3361395143337183 0.15797070417554371 0 -0.35262147256532539 0.17242891605172361 0 -0.35664148414004332 0.16248325695298041 0 -0.35569233861273042 0.17185991926318139 0 -0.35262147256532539 0.17242891605172361 0 -0.3361395143337183 0.15797070417554371 0 -0.32375319841077732 0.1811026850420826 0 -0.34469964863851982 0.17811467231713041 0 -0.32599964979971191 0.188754822737113 0 -0.34469964863851982 0.17811467231713041 0 -0.34854944119506381 0.18656611436703591 0 -0.32599964979971191 0.188754822737113 0 -0.35262147256532539 0.17242891605172361 0 -0.34469964863851982 0.17811467231713041 0 -0.32375319841077732 0.1811026850420826 0 -0.34469964863851982 0.17811467231713041 0 -0.32496618525680249 0.18523450931114269 0 -0.32599964979971191 0.188754822737113 0 -0.34469964863851982 0.17811467231713041 0 -0.32496618525680249 0.18523450931114269 0 -0.32375319841077732 0.1811026850420826 0 -0.34469964863851982 0.17811467231713041 0 -0.32375319841077732 0.1811026850420826 0 -0.35262147256532539 0.17242891605172361 0 -0.32375319841077732 0.1811026850420826 0 -0.32496618525680249 0.18523450931114269 0 -0.32599964979971191 0.188754822737113 0 -0.30978904474990782 0.1852983582005048 0 -0.32375319841077732 0.1811026850420826 0 -0.30702526004411929 0.17118135768722709 0 -0.30961101192292773 0.1806020624839596 0 -0.32496618525680249 0.18523450931114269 0 -0.32599964979971191 0.188754822737113 0 -0.32496618525680249 0.18523450931114269 0 -0.32375319841077732 0.1811026850420826 0 -0.32496618525680249 0.18523450931114269 0 -0.32375319841077732 0.1811026850420826 0 -0.30978904474990782 0.1852983582005048 0 -0.32375319841077732 0.1811026850420826 0 -0.30978904474990782 0.1852983582005048 0 -0.30961101192292773 0.1806020624839596 0 -0.32375319841077732 0.1811026850420826 0 -0.30978904474990782 0.1852983582005048 0 -0.32375319841077732 0.1811026850420826 0 -0.31563754452739362 0.15345815139810601 0 -0.32375319841077732 0.1811026850420826 0 -0.31563754452739362 0.15345815139810601 0 -0.30702526004411929 0.17118135768722709 0 -0.3361395143337183 0.15797070417554371 0 -0.32375319841077732 0.1811026850420826 0 -0.31563754452739362 0.15345815139810601 0 -0.31563754452739362 0.15345815139810601 0 -0.30949181529677622 0.13252381623252579 0 -0.31563754452739362 0.15345815139810601 0 -0.32696068772062992 0.1420618675598469 0 -0.30949181529677622 0.13252381623252579 0 -0.3361395143337183 0.15797070417554371 0 -0.31563754452739362 0.15345815139810601 0 -0.3361395143337183 0.15797070417554371 0 -0.31563754452739362 0.15345815139810601 0 -0.32696068772062992 0.1420618675598469 0 -0.32696068772062992 0.1420618675598469 0 -0.32919424525671392 0.12615274823067929 0 -0.30949181529677622 0.13252381623252579 0 -0.32919424525671392 0.12615274823067929 0 -0.34256754351591329 0.13985873972998111 0 -0.34404635216407298 0.12144594435859959 0 -0.32696068772062992 0.1420618675598469 0 -0.32919424525671392 0.12615274823067929 0 -0.34256754351591329 0.13985873972998111 0 -0.3361395143337183 0.15797070417554371 0 -0.32696068772062992 0.1420618675598469 0 -0.34256754351591329 0.13985873972998111 0 -0.35091207529327179 0.2457170307560255 0 -0.36538093376102537 0.24738906478302841 0 -0.34593977208817378 0.25537675778705993 0 -0.35091207529327179 0.2457170307560255 0 -0.3412644087772494 0.24081082129136461 0 -0.34593977208817378 0.25537675778705993 0 -0.34933812361751609 0.2390503600114961 0 -0.35537377099290851 0.23581110339098979 0 -0.34719966820383091 0.23282983090597839 0 -0.34933812361751609 0.2390503600114961 0 -0.34719966820383091 0.23282983090597839 0 -0.3412644087772494 0.24081082129136461 0 -0.35091207529327179 0.2457170307560255 0 -0.34933812361751609 0.2390503600114961 0 -0.3412644087772494 0.24081082129136461 0 -0.34933812361751609 0.2390503600114961 0 -0.35537377099290851 0.23581110339098979 0 -0.35610076397043638 0.24024605434924001 0 -0.35091207529327179 0.2457170307560255 0 -0.34933812361751609 0.2390503600114961 0 -0.35610076397043638 0.24024605434924001 0 -0.35537377099290851 0.23581110339098979 0 -0.35610076397043638 0.24024605434924001 0 -0.359498916187458 0.2332627128046611 0 -0.35537377099290851 0.23581110339098979 0 -0.359498916187458 0.2332627128046611 0 -0.35091207529327179 0.2457170307560255 0 -0.35610076397043638 0.24024605434924001 0 -0.36538093376102537 0.24738906478302841 0 -0.38097751480364228 0.24098097542204691 0 -0.36538093376102537 0.24738906478302841 0 -0.38097751480364228 0.24098097542204691 0 -0.36538093376102537 0.24738906478302841 0 -0.37050715338362739 0.23637343618309239 0 -0.36538093376102537 0.24738906478302841 0 -0.359498916187458 0.2332627128046611 0 -0.36538093376102537 0.24738906478302841 0 -0.37050715338362739 0.23637343618309239 0 -0.359498916187458 0.2332627128046611 0 -0.35610076397043638 0.24024605434924001 0 -0.36538093376102537 0.24738906478302841 0 -0.359498916187458 0.2332627128046611 0 -0.359498916187458 0.2332627128046611 0 -0.37265216607917712 0.22513703076854119 0 -0.37050715338362739 0.23637343618309239 0 -0.359498916187458 0.2332627128046611 0 -0.37265216607917712 0.22513703076854119 0 -0.37971945424730652 0.23167414164007541 0 -0.37050715338362739 0.23637343618309239 0 -0.37265216607917712 0.22513703076854119 0 -0.37265216607917712 0.22513703076854119 0 -0.36119009969839022 0.22018430247372031 0 -0.36802729079060059 0.21171379692026709 0 -0.359498916187458 0.2332627128046611 0 -0.37265216607917712 0.22513703076854119 0 -0.36119009969839022 0.22018430247372031 0 -0.359498916187458 0.2332627128046611 0 -0.35149162972141029 0.22491404730863029 0 -0.35005088746063517 0.21057216867970749 0 -0.359498916187458 0.2332627128046611 0 -0.36119009969839022 0.22018430247372031 0 -0.35005088746063517 0.21057216867970749 0 -0.359498916187458 0.2332627128046611 0 -0.35005088746063517 0.21057216867970749 0 -0.35537377099290851 0.23581110339098979 0 -0.35339099627640203 0.2317044236025648 0 -0.34719966820383091 0.23282983090597839 0 -0.359498916187458 0.2332627128046611 0 -0.35339099627640203 0.2317044236025648 0 -0.35149162972141029 0.22491404730863029 0 -0.35537377099290851 0.23581110339098979 0 -0.359498916187458 0.2332627128046611 0 -0.35339099627640203 0.2317044236025648 0 -0.35339099627640203 0.2317044236025648 0 -0.34719966820383091 0.23282983090597839 0 -0.35149162972141029 0.22491404730863029 0 -0.34719966820383091 0.23282983090597839 0 -0.35149162972141029 0.22491404730863029 0 -0.33996412580244229 0.22588022819859471 0 -0.34554647435888008 0.21918516943631669 0 -0.35149162972141029 0.22491404730863029 0 -0.33996412580244229 0.22588022819859471 0 -0.34554647435888008 0.21918516943631669 0 -0.35149162972141029 0.22491404730863029 0 -0.35005088746063517 0.21057216867970749 0 -0.35005088746063517 0.21057216867970749 0 -0.34306574877486962 0.20848588072758989 0 -0.34067925445103259 0.2153742335583344 0 -0.34554647435888008 0.21918516943631669 0 -0.35005088746063517 0.21057216867970749 0 -0.34067925445103259 0.2153742335583344 0 -0.35005088746063517 0.21057216867970749 0 -0.35106005138583679 0.2011999906744186 0 -0.34306574877486962 0.20848588072758989 0 -0.35106005138583679 0.2011999906744186 0 -0.34163470386423472 0.20133767323603829 0 -0.34306574877486962 0.20848588072758989 0 -0.35005088746063517 0.21057216867970749 0 -0.35698375421102352 0.2085325125618486 0 -0.35106005138583679 0.2011999906744186 0 -0.35005088746063517 0.21057216867970749 0 -0.35698375421102352 0.2085325125618486 0 -0.36023328834720508 0.21325445981082489 0 -0.36119009969839022 0.22018430247372031 0 -0.35005088746063517 0.21057216867970749 0 -0.36023328834720508 0.21325445981082489 0 -0.35698375421102352 0.2085325125618486 0 -0.36023328834720508 0.21325445981082489 0 -0.36802729079060059 0.21171379692026709 0 -0.37569804807996082 0.2031557741952863 0 -0.35698375421102352 0.2085325125618486 0 -0.36119009969839022 0.22018430247372031 0 -0.36023328834720508 0.21325445981082489 0 -0.36802729079060059 0.21171379692026709 0 -0.37569804807996082 0.2031557741952863 0 -0.35698375421102352 0.2085325125618486 0 -0.36802729079060059 0.21171379692026709 0 -0.37569804807996082 0.2031557741952863 0 -0.38088741733117781 0.18596102381446389 0 -0.36379220581784238 0.19697314574166219 0 -0.37569804807996082 0.2031557741952863 0 -0.35698375421102352 0.2085325125618486 0 -0.36379220581784238 0.19697314574166219 0 -0.34854944119506381 0.18656611436703591 0 -0.36379220581784238 0.19697314574166219 0 -0.35106005138583679 0.2011999906744186 0 -0.35698375421102352 0.2085325125618486 0 -0.36379220581784238 0.19697314574166219 0 -0.35106005138583679 0.2011999906744186 0 -0.34854944119506381 0.18656611436703591 0 -0.35106005138583679 0.2011999906744186 0 -0.34163470386423472 0.20133767323603829 0 -0.34854944119506381 0.18656611436703591 0 -0.32923740277597408 0.19978365323794961 0 -0.34854944119506381 0.18656611436703591 0 -0.34163470386423472 0.20133767323603829 0 -0.32923740277597408 0.19978365323794961 0 -0.34854944119506381 0.18656611436703591 0 -0.32923740277597408 0.19978365323794961 0 -0.32599964979971191 0.188754822737113 0 -0.32923740277597408 0.19978365323794961 0 -0.32599964979971191 0.188754822737113 0 -0.32599964979971191 0.188754822737113 0 -0.30212712151720428 0.19282965852557851 0 -0.30978904474990782 0.1852983582005048 0 -0.32923740277597408 0.19978365323794961 0 -0.32599964979971191 0.188754822737113 0 -0.31062387848756889 0.21252311530133311 0 -0.32599964979971191 0.188754822737113 0 -0.30024750493865748 0.20340758808329179 0 -0.32923740277597408 0.19978365323794961 0 -0.31062387848756889 0.21252311530133311 0 -0.32923740277597408 0.19978365323794961 0 -0.32421241913582899 0.21355588919408919 0 -0.31062387848756889 0.21252311530133311 0 -0.32421241913582899 0.21355588919408919 0 -0.32128225029325791 0.22410426543406839 0 -0.31062387848756889 0.21252311530133311 0 -0.3320447897249128 0.20934651829808759 0 -0.34067925445103259 0.2153742335583344 0 -0.33124694068259058 0.22033492876331309 0 -0.32421241913582899 0.21355588919408919 0 -0.3320447897249128 0.20934651829808759 0 -0.33124694068259058 0.22033492876331309 0 -0.32923740277597408 0.19978365323794961 0 -0.3320447897249128 0.20934651829808759 0 -0.34163470386423472 0.20133767323603829 0 -0.32923740277597408 0.19978365323794961 0 -0.3320447897249128 0.20934651829808759 0 -0.32923740277597408 0.19978365323794961 0 -0.32421241913582899 0.21355588919408919 0 -0.3320447897249128 0.20934651829808759 0 -0.34163470386423472 0.20133767323603829 0 -0.3320447897249128 0.20934651829808759 0 -0.34306574877486962 0.20848588072758989 0 -0.3320447897249128 0.20934651829808759 0 -0.34306574877486962 0.20848588072758989 0 -0.34067925445103259 0.2153742335583344 0 -0.34067925445103259 0.2153742335583344 0 -0.33996412580244229 0.22588022819859471 0 -0.33124694068259058 0.22033492876331309 0 -0.34554647435888008 0.21918516943631669 0 -0.34067925445103259 0.2153742335583344 0 -0.33996412580244229 0.22588022819859471 0 -0.33996412580244229 0.22588022819859471 0 -0.33000154766414419 0.23339698686843441 0 -0.3412644087772494 0.24081082129136461 0 -0.34719966820383091 0.23282983090597839 0 -0.33996412580244229 0.22588022819859471 0 -0.3412644087772494 0.24081082129136461 0 -0.33996412580244229 0.22588022819859471 0 -0.33000154766414419 0.23339698686843441 0 -0.33124694068259058 0.22033492876331309 0 -0.33000154766414419 0.23339698686843441 0 -0.33124694068259058 0.22033492876331309 0 -0.32128225029325791 0.22410426543406839 0 -0.32128225029325791 0.22410426543406839 0 -0.30658550017990721 0.23057494493947189 0 -0.31062387848756889 0.21252311530133311 0 -0.32421241913582899 0.21355588919408919 0 -0.33124694068259058 0.22033492876331309 0 -0.32128225029325791 0.22410426543406839 0 -0.33000154766414419 0.23339698686843441 0 -0.32128225029325791 0.22410426543406839 0 -0.31599319826106281 0.23992904613062779 0 -0.32128225029325791 0.22410426543406839 0 -0.31599319826106281 0.23992904613062779 0 -0.30658550017990721 0.23057494493947189 0 -0.33000154766414419 0.23339698686843441 0 -0.31599319826106281 0.23992904613062779 0 -0.32834908835428561 0.24805843641034281 0 -0.31599319826106281 0.23992904613062779 0 -0.32834908835428561 0.24805843641034281 0 -0.31039699291976119 0.25547255559347831 0 -0.32834908835428561 0.24805843641034281 0 -0.3412644087772494 0.24081082129136461 0 -0.34593977208817378 0.25537675778705993 0 -0.33000154766414419 0.23339698686843441 0 -0.32834908835428561 0.24805843641034281 0 -0.3412644087772494 0.24081082129136461 0 -0.2920103541991641 0.22526257736471719 0 -0.27250550403760959 0.23861208038387241 0 -0.29301781965848311 0.25105572046661268 0 -0.2920103541991641 0.22526257736471719 0 -0.29301781965848311 0.25105572046661268 0 -0.31599319826106281 0.23992904613062779 0 -0.31039699291976119 0.25547255559347831 0 -0.29301781965848311 0.25105572046661268 0 -0.31599319826106281 0.23992904613062779 0 -0.30658550017990721 0.23057494493947189 0 -0.29301781965848311 0.25105572046661268 0 -0.30658550017990721 0.23057494493947189 0 -0.2920103541991641 0.22526257736471719 0 -0.29301781965848311 0.25105572046661268 0 -0.2918687413301011 0.22163700294625521 0 -0.2920103541991641 0.22526257736471719 0 -0.31062387848756889 0.21252311530133311 0 -0.2920103541991641 0.22526257736471719 0 -0.31062387848756889 0.21252311530133311 0 -0.30658550017990721 0.23057494493947189 0 -0.2920103541991641 0.22526257736471719 0 -0.31062387848756889 0.21252311530133311 0 -0.2918687413301011 0.22163700294625521 0 -0.2920103541991641 0.22526257736471719 0 -0.27449536007760278 0.21806035342946989 0 -0.2920103541991641 0.22526257736471719 0 -0.27250550403760959 0.23861208038387241 0 -0.2918687413301011 0.22163700294625521 0 -0.2920103541991641 0.22526257736471719 0 -0.30024750493865748 0.20340758808329179 0 -0.27337706713657323 0.19623871024958531 0 -0.27449536007760278 0.21806035342946989 0 -0.30024750493865748 0.20340758808329179 0 -0.27449536007760278 0.21806035342946989 0 -0.2918687413301011 0.22163700294625521 0 -0.30024750493865748 0.20340758808329179 0 -0.27449536007760278 0.21806035342946989 0 -0.2918687413301011 0.22163700294625521 0 -0.31062387848756889 0.21252311530133311 0 -0.30024750493865748 0.20340758808329179 0 -0.32599964979971191 0.188754822737113 0 -0.30024750493865748 0.20340758808329179 0 -0.30212712151720428 0.19282965852557851 0 -0.30212712151720428 0.19282965852557851 0 -0.29158305594324041 0.19076853422504489 0 -0.30813309677207718 0.1857959047508409 0 -0.32599964979971191 0.188754822737113 0 -0.31062387848756889 0.21252311530133311 0 -0.30024750493865748 0.20340758808329179 0 -0.30024750493865748 0.20340758808329179 0 -0.30212712151720428 0.19282965852557851 0 -0.29158305594324041 0.19076853422504489 0 -0.29158305594324041 0.19076853422504489 0 -0.30813309677207718 0.1857959047508409 0 -0.30212712151720428 0.19282965852557851 0 -0.30813309677207718 0.1857959047508409 0 -0.30978904474990782 0.1852983582005048 0 -0.30024750493865748 0.20340758808329179 0 -0.29158305594324041 0.19076853422504489 0 -0.27337706713657323 0.19623871024958531 0 -0.29158305594324041 0.19076853422504489 0 -0.27337706713657323 0.19623871024958531 0 -0.29158305594324041 0.19076853422504489 0 -0.27337706713657323 0.19623871024958531 0 -0.28510299576325793 0.18144088967301339 0 -0.27337706713657323 0.19623871024958531 0 -0.25683875806440798 0.19031699238642741 0 -0.27254111731122072 0.180245211987724 0 -0.25683875806440798 0.19031699238642741 0 -0.25568771852091837 0.20844756879335449 0 -0.2436038893282205 0.19741598228019611 0 -0.27337706713657323 0.19623871024958531 0 -0.25683875806440798 0.19031699238642741 0 -0.25568771852091837 0.20844756879335449 0 -0.27337706713657323 0.19623871024958531 0 -0.25568771852091837 0.20844756879335449 0 -0.27449536007760278 0.21806035342946989 0 -0.2920103541991641 0.22526257736471719 0 -0.27449536007760278 0.21806035342946989 0 -0.27250550403760959 0.23861208038387241 0 -0.27449536007760278 0.21806035342946989 0 -0.27250550403760959 0.23861208038387241 0 -0.24874321521654799 0.23271311877564799 0 -0.27449536007760278 0.21806035342946989 0 -0.24874321521654799 0.23271311877564799 0 -0.25568771852091837 0.20844756879335449 0 -0.27449536007760278 0.21806035342946989 0 -0.24874321521654799 0.23271311877564799 0 -0.27250550403760959 0.23861208038387241 0 -0.2530006538760543 0.25196158340302638 0 -0.24874321521654799 0.23271311877564799 0 -0.27250550403760959 0.23861208038387241 0 -0.2530006538760543 0.25196158340302638 0 -0.28858942308599 0.14750476854329481 0 -0.3023742023122219 0.16190187604890019 0 -0.27594419932617981 0.15020917371072259 0 -0.3023742023122219 0.16190187604890019 0 -0.27594419932617981 0.15020917371072259 0 -0.28858942308599 0.14750476854329481 0 -0.29170685494087001 0.13392843861348941 0 -0.30048542951472029 0.14152213046007819 0 -0.28858942308599 0.14750476854329481 0 -0.29170685494087001 0.13392843861348941 0 -0.27782639063593861 0.13543395053595689 0 -0.29170685494087001 0.13392843861348941 0 -0.27782639063593861 0.13543395053595689 0 -0.28158154151920511 0.1249003602040248 0 -0.29170685494087001 0.13392843861348941 0 -0.28158154151920511 0.1249003602040248 0 -0.29349521898337011 0.1227078005366906 0 -0.31563754452739362 0.15345815139810601 0 -0.30949181529677622 0.13252381623252579 0 -0.30724339381778382 0.13146910063569631 0 -0.29170685494087001 0.13392843861348941 0 -0.30724339381778382 0.13146910063569631 0 -0.30048542951472029 0.14152213046007819 0 -0.30949181529677622 0.13252381623252579 0 -0.30724339381778382 0.13146910063569631 0 -0.30334608606615682 0.1115894810669462 0 -0.29170685494087001 0.13392843861348941 0 -0.30724339381778382 0.13146910063569631 0 -0.29349521898337011 0.1227078005366906 0 -0.31563754452739362 0.15345815139810601 0 -0.28858942308599 0.14750476854329481 0 -0.30048542951472029 0.14152213046007819 0 -0.31563754452739362 0.15345815139810601 0 -0.30724339381778382 0.13146910063569631 0 -0.31563754452739362 0.15345815139810601 0 -0.30724339381778382 0.13146910063569631 0 -0.30048542951472029 0.14152213046007819 0 -0.31563754452739362 0.15345815139810601 0 -0.28858942308599 0.14750476854329481 0 -0.3023742023122219 0.16190187604890019 0 -0.31563754452739362 0.15345815139810601 0 -0.28858942308599 0.14750476854329481 0 -0.31563754452739362 0.15345815139810601 0 -0.30702526004411929 0.17118135768722709 0 -0.3023742023122219 0.16190187604890019 0 -0.30702526004411929 0.17118135768722709 0 -0.3023742023122219 0.16190187604890019 0 -0.29260961026114352 0.1707807651503723 0 -0.29158305594324041 0.19076853422504489 0 -0.30813309677207718 0.1857959047508409 0 -0.29953439475733667 0.17973894034611471 0 -0.30813309677207718 0.1857959047508409 0 -0.30961101192292773 0.1806020624839596 0 -0.29953439475733667 0.17973894034611471 0 -0.30813309677207718 0.1857959047508409 0 -0.30978904474990782 0.1852983582005048 0 -0.30961101192292773 0.1806020624839596 0 -0.30813309677207718 0.1857959047508409 0 -0.30978904474990782 0.1852983582005048 0 -0.30702526004411929 0.17118135768722709 0 -0.30961101192292773 0.1806020624839596 0 -0.29953439475733667 0.17973894034611471 0 -0.30702526004411929 0.17118135768722709 0 -0.29953439475733667 0.17973894034611471 0 -0.29260961026114352 0.1707807651503723 0 -0.29158305594324041 0.19076853422504489 0 -0.29953439475733667 0.17973894034611471 0 -0.28510299576325793 0.18144088967301339 0 -0.29953439475733667 0.17973894034611471 0 -0.28510299576325793 0.18144088967301339 0 -0.29260961026114352 0.1707807651503723 0 -0.28510299576325793 0.18144088967301339 0 -0.29260961026114352 0.1707807651503723 0 -0.28097272917003302 0.1708731760792393 0 -0.3023742023122219 0.16190187604890019 0 -0.29260961026114352 0.1707807651503723 0 -0.28443485093090559 0.16342331954323161 0 -0.3023742023122219 0.16190187604890019 0 -0.28443485093090559 0.16342331954323161 0 -0.27594419932617981 0.15020917371072259 0 -0.29260961026114352 0.1707807651503723 0 -0.28443485093090559 0.16342331954323161 0 -0.28097272917003302 0.1708731760792393 0 -0.28443485093090559 0.16342331954323161 0 -0.27027351358494978 0.16335160672692359 0 -0.27594419932617981 0.15020917371072259 0 -0.28097272917003302 0.1708731760792393 0 -0.27027351358494978 0.16335160672692359 0 -0.27254111731122072 0.180245211987724 0 -0.27027351358494978 0.16335160672692359 0 -0.25804606196624269 0.15628292259204199 0 -0.27594419932617981 0.15020917371072259 0 -0.28443485093090559 0.16342331954323161 0 -0.28097272917003302 0.1708731760792393 0 -0.27027351358494978 0.16335160672692359 0 -0.27027351358494978 0.16335160672692359 0 -0.27254111731122072 0.180245211987724 0 -0.26108930561218929 0.17252599432053109 0 -0.27337706713657323 0.19623871024958531 0 -0.28510299576325793 0.18144088967301339 0 -0.27254111731122072 0.180245211987724 0 -0.28510299576325793 0.18144088967301339 0 -0.28097272917003302 0.1708731760792393 0 -0.27254111731122072 0.180245211987724 0 -0.25683875806440798 0.19031699238642741 0 -0.26108930561218929 0.17252599432053109 0 -0.24651557840257199 0.18112305419710981 0 -0.25683875806440798 0.19031699238642741 0 -0.27254111731122072 0.180245211987724 0 -0.26108930561218929 0.17252599432053109 0 -0.26108930561218929 0.17252599432053109 0 -0.2483937334623729 0.16797966462465649 0 -0.24651557840257199 0.18112305419710981 0 -0.27027351358494978 0.16335160672692359 0 -0.26108930561218929 0.17252599432053109 0 -0.25804606196624269 0.15628292259204199 0 -0.26108930561218929 0.17252599432053109 0 -0.25804606196624269 0.15628292259204199 0 -0.2483937334623729 0.16797966462465649 0 -0.26277679995774189 0.14182332303875761 0 -0.27594419932617981 0.15020917371072259 0 -0.24951419634013769 0.13851647137254511 0 -0.25804606196624269 0.15628292259204199 0 -0.27594419932617981 0.15020917371072259 0 -0.24951419634013769 0.13851647137254511 0 -0.27594419932617981 0.15020917371072259 0 -0.24951419634013769 0.13851647137254511 0 -0.28858942308599 0.14750476854329481 0 -0.26277679995774189 0.14182332303875761 0 -0.28858942308599 0.14750476854329481 0 -0.26277679995774189 0.14182332303875761 0 -0.27594419932617981 0.15020917371072259 0 -0.28858942308599 0.14750476854329481 0 -0.26277679995774189 0.14182332303875761 0 -0.27782639063593861 0.13543395053595689 0 -0.27782639063593861 0.13543395053595689 0 -0.26758771073313092 0.12799855554244879 0 -0.28158154151920511 0.1249003602040248 0 -0.26277679995774189 0.14182332303875761 0 -0.27782639063593861 0.13543395053595689 0 -0.26758771073313092 0.12799855554244879 0 -0.25965111893067638 0.1155994061492934 0 -0.2491767795964778 0.12797988526709289 0 -0.24951419634013769 0.13851647137254511 0 -0.25965111893067638 0.1155994061492934 0 -0.24951419634013769 0.13851647137254511 0 -0.26758771073313092 0.12799855554244879 0 -0.25965111893067638 0.1155994061492934 0 -0.24951419634013769 0.13851647137254511 0 -0.26277679995774189 0.14182332303875761 0 -0.26758771073313092 0.12799855554244879 0 -0.24951419634013769 0.13851647137254511 0 -0.25965111893067638 0.1155994061492934 0 -0.2467472784329543 0.1151230730857508 0 -0.2491767795964778 0.12797988526709289 0 -0.25965111893067638 0.1155994061492934 0 -0.25113245245569499 0.104490526495797 0 -0.2467472784329543 0.1151230730857508 0 -0.25965111893067638 0.1155994061492934 0 -0.26978804152121949 0.09268234092604391 0 -0.25965111893067638 0.1155994061492934 0 -0.25861383373411501 0.098356599662679872 0 -0.26978804152121949 0.09268234092604391 0 -0.25965111893067638 0.1155994061492934 0 -0.25113245245569499 0.104490526495797 0 -0.25861383373411501 0.098356599662679872 0 -0.2511028424937089 0.095659961921056635 0 -0.25113245245569499 0.104490526495797 0 -0.25861383373411501 0.098356599662679872 0 -0.25965111893067638 0.1155994061492934 0 -0.27506739456552792 0.1126478238172159 0 -0.26978804152121949 0.09268234092604391 0 -0.27506739456552792 0.1126478238172159 0 -0.28493639147127531 0.1012171640748015 0 -0.26978804152121949 0.09268234092604391 0 -0.28493639147127531 0.1012171640748015 0 -0.28002601366044882 0.092122109670382341 0 -0.26978804152121949 0.09268234092604391 0 -0.28493639147127531 0.1012171640748015 0 -0.26978804152121949 0.09268234092604391 0 -0.26758771073313092 0.12799855554244879 0 -0.25965111893067638 0.1155994061492934 0 -0.27506739456552792 0.1126478238172159 0 -0.27506739456552792 0.1126478238172159 0 -0.28158154151920511 0.1249003602040248 0 -0.28692279003051802 0.1137645938363388 0 -0.26758771073313092 0.12799855554244879 0 -0.27506739456552792 0.1126478238172159 0 -0.28158154151920511 0.1249003602040248 0 -0.28158154151920511 0.1249003602040248 0 -0.29349521898337011 0.1227078005366906 0 -0.28692279003051802 0.1137645938363388 0 -0.29349521898337011 0.1227078005366906 0 -0.28692279003051802 0.1137645938363388 0 -0.30008474142133063 0.1097519872235601 0 -0.27506739456552792 0.1126478238172159 0 -0.28692279003051802 0.1137645938363388 0 -0.28493639147127531 0.1012171640748015 0 -0.28493639147127531 0.1012171640748015 0 -0.28982434183182182 0.092594092870788597 0 -0.28002601366044882 0.092122109670382341 0 -0.28493639147127531 0.1012171640748015 0 -0.30018051500952159 0.1008065254560897 0 -0.28982434183182182 0.092594092870788597 0 -0.28493639147127531 0.1012171640748015 0 -0.30008474142133063 0.1097519872235601 0 -0.28493639147127531 0.1012171640748015 0 -0.29959655180873002 0.10827097255818641 0 -0.30008474142133063 0.1097519872235601 0 -0.28692279003051802 0.1137645938363388 0 -0.28493639147127531 0.1012171640748015 0 -0.30008474142133063 0.1097519872235601 0 -0.28493639147127531 0.1012171640748015 0 -0.29959655180873002 0.10827097255818641 0 -0.30018051500952159 0.1008065254560897 0 -0.30018051500952159 0.1008065254560897 0 -0.30334608606615682 0.1115894810669462 0 -0.30018051500952159 0.1008065254560897 0 -0.30759287795840767 0.1032595375253155 0 -0.30334608606615682 0.1115894810669462 0 -0.29959655180873002 0.10827097255818641 0 -0.30018051500952159 0.1008065254560897 0 -0.30334608606615682 0.1115894810669462 0 -0.29959655180873002 0.10827097255818641 0 -0.30008474142133063 0.1097519872235601 0 -0.30018051500952159 0.1008065254560897 0 -0.30302796706853619 0.087964104613757074 0 -0.28982434183182182 0.092594092870788597 0 -0.30018051500952159 0.1008065254560897 0 -0.31071448705396199 0.097455330526183881 0 -0.30302796706853619 0.087964104613757074 0 -0.30018051500952159 0.1008065254560897 0 -0.31071448705396199 0.097455330526183881 0 -0.30759287795840767 0.1032595375253155 0 -0.31071448705396199 0.097455330526183881 0 -0.30759287795840767 0.1032595375253155 0 -0.3161304237039918 0.1031868130520404 0 -0.30759287795840767 0.1032595375253155 0 -0.30334608606615682 0.1115894810669462 0 -0.3161304237039918 0.1031868130520404 0 -0.30949181529677622 0.13252381623252579 0 -0.30334608606615682 0.1115894810669462 0 -0.30724339381778382 0.13146910063569631 0 -0.29349521898337011 0.1227078005366906 0 -0.30008474142133063 0.1097519872235601 0 -0.30724339381778382 0.13146910063569631 0 -0.30008474142133063 0.1097519872235601 0 -0.30724339381778382 0.13146910063569631 0 -0.30008474142133063 0.1097519872235601 0 -0.30334608606615682 0.1115894810669462 0 -0.29959655180873002 0.10827097255818641 0 -0.30008474142133063 0.1097519872235601 0 -0.30334608606615682 0.1115894810669462 0 -0.30008474142133063 0.1097519872235601 0 -0.30334608606615682 0.1115894810669462 0 -0.30342199339418741 0.075659034804773068 0 -0.29425549722558358 0.078543856762836303 0 -0.29678317068290377 0.069678635820054416 0 -0.30342199339418741 0.075659034804773068 0 -0.3075997272060948 0.065580669267511327 0 -0.29678317068290377 0.069678635820054416 0 -0.3075997272060948 0.065580669267511327 0 -0.29678317068290377 0.069678635820054416 0 -0.29793721737997458 0.058807151932370648 0 -0.30342199339418741 0.075659034804773068 0 -0.3075997272060948 0.065580669267511327 0 -0.31544360478781852 0.076527907559706218 0 -0.30342199339418741 0.075659034804773068 0 -0.30302796706853619 0.087964104613757074 0 -0.31544360478781852 0.076527907559706218 0 -0.30342199339418741 0.075659034804773068 0 -0.30302796706853619 0.087964104613757074 0 -0.29425549722558358 0.078543856762836303 0 -0.30302796706853619 0.087964104613757074 0 -0.29425549722558358 0.078543856762836303 0 -0.27555527981747852 0.081994840809895553 0 -0.30302796706853619 0.087964104613757074 0 -0.28982434183182182 0.092594092870788597 0 -0.27555527981747852 0.081994840809895553 0 -0.30302796706853619 0.087964104613757074 0 -0.27555527981747852 0.081994840809895553 0 -0.29425549722558358 0.078543856762836303 0 -0.28734849125078332 0.074265002795597473 0 -0.27555527981747852 0.081994840809895553 0 -0.28982434183182182 0.092594092870788597 0 -0.28002601366044882 0.092122109670382341 0 -0.27555527981747852 0.081994840809895553 0 -0.28734849125078332 0.074265002795597473 0 -0.28960757938246262 0.06606926263551742 0 -0.27832923051686498 0.073372833178588337 0 -0.28960757938246262 0.06606926263551742 0 -0.27832923051686498 0.073372833178588337 0 -0.28687041951251319 0.054063325431133999 0 -0.27832923051686498 0.073372833178588337 0 -0.28687041951251319 0.054063325431133999 0 -0.27832923051686498 0.073372833178588337 0 -0.2787194602110793 0.062001674640735679 0 -0.28687041951251319 0.054063325431133999 0 -0.29425549722558358 0.078543856762836303 0 -0.28734849125078332 0.074265002795597473 0 -0.29678317068290377 0.069678635820054416 0 -0.28960757938246262 0.06606926263551742 0 -0.29678317068290377 0.069678635820054416 0 -0.29793721737997458 0.058807151932370648 0 -0.28734849125078332 0.074265002795597473 0 -0.28960757938246262 0.06606926263551742 0 -0.29678317068290377 0.069678635820054416 0 -0.27832923051686498 0.073372833178588337 0 -0.27283127959574099 0.067053677867186467 0 -0.2787194602110793 0.062001674640735679 0 -0.28734849125078332 0.074265002795597473 0 -0.27832923051686498 0.073372833178588337 0 -0.27555527981747852 0.081994840809895553 0 -0.2687187040643727 0.077595469041451523 0 -0.27283127959574099 0.067053677867186467 0 -0.2641414743730332 0.067905784658130644 0 -0.27832923051686498 0.073372833178588337 0 -0.2687187040643727 0.077595469041451523 0 -0.27283127959574099 0.067053677867186467 0 -0.27832923051686498 0.073372833178588337 0 -0.26978804152121949 0.09268234092604391 0 -0.27832923051686498 0.073372833178588337 0 -0.27555527981747852 0.081994840809895553 0 -0.26978804152121949 0.09268234092604391 0 -0.27832923051686498 0.073372833178588337 0 -0.2687187040643727 0.077595469041451523 0 -0.26978804152121949 0.09268234092604391 0 -0.28002601366044882 0.092122109670382341 0 -0.27555527981747852 0.081994840809895553 0 -0.26978804152121949 0.09268234092604391 0 -0.2687187040643727 0.077595469041451523 0 -0.26978804152121949 0.09268234092604391 0 -0.25888160560962631 0.086537480132913625 0 -0.25888160560962631 0.086537480132913625 0 -0.25069707599120428 0.085094857188689046 0 -0.2641414743730332 0.067905784658130644 0 -0.25861383373411501 0.098356599662679872 0 -0.26978804152121949 0.09268234092604391 0 -0.25888160560962631 0.086537480132913625 0 -0.26978804152121949 0.09268234092604391 0 -0.25888160560962631 0.086537480132913625 0 -0.2511028424937089 0.095659961921056635 0 -0.25861383373411501 0.098356599662679872 0 -0.25888160560962631 0.086537480132913625 0 -0.2511028424937089 0.095659961921056635 0 -0.25888160560962631 0.086537480132913625 0 -0.25069707599120428 0.085094857188689046 0 -0.2687187040643727 0.077595469041451523 0 -0.25888160560962631 0.086537480132913625 0 -0.2641414743730332 0.067905784658130644 0 -0.25069707599120428 0.085094857188689046 0 -0.2641414743730332 0.067905784658130644 0 -0.25069707599120428 0.085094857188689046 0 -0.2641414743730332 0.067905784658130644 0 -0.24984059136411041 0.071379812532672213 0 -0.2641414743730332 0.067905784658130644 0 -0.25229799311518492 0.060429424602911959 0 -0.24984059136411041 0.071379812532672213 0 -0.2641414743730332 0.067905784658130644 0 -0.25229799311518492 0.060429424602911959 0 -0.26335251444409752 0.054015897373426817 0 -0.26335251444409752 0.054015897373426817 0 -0.25547499500466953 0.04688317697863658 0 -0.26730345042514347 0.044176464845551648 0 -0.25229799311518492 0.060429424602911959 0 -0.26335251444409752 0.054015897373426817 0 -0.25547499500466953 0.04688317697863658 0 -0.25547499500466953 0.04688317697863658 0 -0.25943096531606852 0.032516810858682563 0 -0.24502344638864151 0.041465211720260353 0 -0.25547499500466953 0.04688317697863658 0 -0.25943096531606852 0.032516810858682563 0 -0.26730345042514347 0.044176464845551648 0 -0.26730345042514347 0.044176464845551648 0 -0.27171404692866891 0.034727902183592188 0 -0.27772630444966839 0.038694469174764642 0 -0.25943096531606852 0.032516810858682563 0 -0.26730345042514347 0.044176464845551648 0 -0.27171404692866891 0.034727902183592188 0 -0.27171404692866891 0.034727902183592188 0 -0.27772630444966839 0.038694469174764642 0 -0.28112152136019303 0.030419856157100109 0 -0.26730345042514347 0.044176464845551648 0 -0.27772630444966839 0.038694469174764642 0 -0.27754465930245659 0.050684635781903298 0 -0.2641414743730332 0.067905784658130644 0 -0.26335251444409752 0.054015897373426817 0 -0.27754465930245659 0.050684635781903298 0 -0.2641414743730332 0.067905784658130644 0 -0.27754465930245659 0.050684635781903298 0 -0.27283127959574099 0.067053677867186467 0 -0.27754465930245659 0.050684635781903298 0 -0.2787194602110793 0.062001674640735679 0 -0.27283127959574099 0.067053677867186467 0 -0.2641414743730332 0.067905784658130644 0 -0.27754465930245659 0.050684635781903298 0 -0.27754465930245659 0.050684635781903298 0 -0.2787194602110793 0.062001674640735679 0 -0.28687041951251319 0.054063325431133999 0 -0.26335251444409752 0.054015897373426817 0 -0.26730345042514347 0.044176464845551648 0 -0.27754465930245659 0.050684635781903298 0 -0.25875993515398521 0.0050824514403093237 0 -0.25324820044567231 0.01951733263261406 0 -0.2410929367991789 0.013166632831364201 0 -0.25875993515398521 0.0050824514403093237 0 -0.26706667319528982 0.017928655591949689 0 -0.25875993515398521 0.0050824514403093237 0 -0.25324820044567231 0.01951733263261406 0 -0.26706667319528982 0.017928655591949689 0 -0.25943096531606852 0.032516810858682563 0 -0.25324820044567231 0.01951733263261406 0 -0.23931349992830589 0.031380685303211288 0 -0.25943096531606852 0.032516810858682563 0 -0.25324820044567231 0.01951733263261406 0 -0.26706667319528982 0.017928655591949689 0 -0.25943096531606852 0.032516810858682563 0 -0.27433157767790212 0.02512797013756473 0 -0.26706667319528982 0.017928655591949689 0 -0.25943096531606852 0.032516810858682563 0 -0.27171404692866891 0.034727902183592188 0 -0.27433157767790212 0.02512797013756473 0 -0.27171404692866891 0.034727902183592188 0 -0.27433157767790212 0.02512797013756473 0 -0.28112152136019303 0.030419856157100109 0 -0.27433157767790212 0.02512797013756473 0 -0.28112152136019303 0.030419856157100109 0 -0.28443897689800418 0.01972623627789909 0 -0.27433157767790212 0.02512797013756473 0 -0.27623905827040451 0.01138202969297558 0 -0.28443897689800418 0.01972623627789909 0 -0.27433157767790212 0.02512797013756473 0 -0.26706667319528982 0.017928655591949689 0 -0.27623905827040451 0.01138202969297558 0 -0.27830314079881441 -0.0046376634351307953 0 -0.27623905827040451 0.01138202969297558 0 -0.28852944222736199 0.0084048840342337682 0 -0.27830314079881441 -0.0046376634351307953 0 -0.25875993515398521 0.0050824514403093237 0 -0.27623905827040451 0.01138202969297558 0 -0.25875993515398521 0.0050824514403093237 0 -0.26706667319528982 0.017928655591949689 0 -0.27623905827040451 0.01138202969297558 0 -0.27830314079881441 -0.0046376634351307953 0 -0.30615308448494671 -0.00151157415892533 0 -0.28852944222736199 0.0084048840342337682 0 -0.27623905827040451 0.01138202969297558 0 -0.28852944222736199 0.0084048840342337682 0 -0.28443897689800418 0.01972623627789909 0 -0.28852944222736199 0.0084048840342337682 0 -0.28443897689800418 0.01972623627789909 0 -0.29751295068464229 0.017065391794348021 0 -0.28443897689800418 0.01972623627789909 0 -0.28854357427059169 0.02651598695719825 0 -0.29751295068464229 0.017065391794348021 0 -0.28112152136019303 0.030419856157100109 0 -0.28443897689800418 0.01972623627789909 0 -0.28854357427059169 0.02651598695719825 0 -0.28112152136019303 0.030419856157100109 0 -0.28854357427059169 0.02651598695719825 0 -0.29094784423188008 0.033463486905675938 0 -0.28854357427059169 0.02651598695719825 0 -0.29540694747692992 0.028417618665220759 0 -0.29094784423188008 0.033463486905675938 0 -0.28854357427059169 0.02651598695719825 0 -0.29540694747692992 0.028417618665220759 0 -0.29751295068464229 0.017065391794348021 0 -0.29540694747692992 0.028417618665220759 0 -0.30421246145604391 0.029856102140632189 0 -0.29541160850816151 0.034753817683679668 0 -0.29540694747692992 0.028417618665220759 0 -0.30421246145604391 0.029856102140632189 0 -0.29751295068464229 0.017065391794348021 0 -0.30421246145604391 0.029856102140632189 0 -0.31054200846455948 0.01893199929411897 0 -0.31401959178702771 0.033554129979124277 0 -0.30421246145604391 0.029856102140632189 0 -0.31054200846455948 0.01893199929411897 0 -0.29751295068464229 0.017065391794348021 0 -0.30615308448494671 -0.00151157415892533 0 -0.31054200846455948 0.01893199929411897 0 -0.29751295068464229 0.017065391794348021 0 -0.30615308448494671 -0.00151157415892533 0 -0.28852944222736199 0.0084048840342337682 0 -0.29751295068464229 0.017065391794348021 0 -0.28687041951251319 0.054063325431133999 0 -0.29877540079875431 0.049085119578095207 0 -0.29793721737997458 0.058807151932370648 0 -0.28687041951251319 0.054063325431133999 0 -0.29612568096183661 0.044374487602035863 0 -0.29877540079875431 0.049085119578095207 0 -0.28960757938246262 0.06606926263551742 0 -0.28687041951251319 0.054063325431133999 0 -0.29793721737997458 0.058807151932370648 0 -0.28687041951251319 0.054063325431133999 0 -0.29094784423188008 0.033463486905675938 0 -0.29541160850816151 0.034753817683679668 0 -0.27754465930245659 0.050684635781903298 0 -0.28687041951251319 0.054063325431133999 0 -0.29094784423188008 0.033463486905675938 0 -0.27754465930245659 0.050684635781903298 0 -0.29094784423188008 0.033463486905675938 0 -0.28687041951251319 0.054063325431133999 0 -0.29541160850816151 0.034753817683679668 0 -0.28687041951251319 0.054063325431133999 0 -0.29541160850816151 0.034753817683679668 0 -0.29612568096183661 0.044374487602035863 0 -0.27772630444966839 0.038694469174764642 0 -0.27754465930245659 0.050684635781903298 0 -0.29094784423188008 0.033463486905675938 0 -0.27772630444966839 0.038694469174764642 0 -0.28112152136019303 0.030419856157100109 0 -0.29094784423188008 0.033463486905675938 0 -0.29540694747692992 0.028417618665220759 0 -0.29094784423188008 0.033463486905675938 0 -0.29541160850816151 0.034753817683679668 0 -0.30344529502791739 0.039595687715234522 0 -0.31007078005836403 0.051013658083698538 0 -0.31401959178702771 0.033554129979124277 0 -0.29541160850816151 0.034753817683679668 0 -0.29612568096183661 0.044374487602035863 0 -0.30344529502791739 0.039595687715234522 0 -0.29612568096183661 0.044374487602035863 0 -0.30344529502791739 0.039595687715234522 0 -0.29877540079875431 0.049085119578095207 0 -0.30344529502791739 0.039595687715234522 0 -0.31007078005836403 0.051013658083698538 0 -0.29877540079875431 0.049085119578095207 0 -0.30421246145604391 0.029856102140632189 0 -0.29541160850816151 0.034753817683679668 0 -0.30344529502791739 0.039595687715234522 0 -0.30421246145604391 0.029856102140632189 0 -0.30344529502791739 0.039595687715234522 0 -0.31401959178702771 0.033554129979124277 0 -0.31007078005836403 0.051013658083698538 0 -0.29877540079875431 0.049085119578095207 0 -0.29793721737997458 0.058807151932370648 0 -0.3075997272060948 0.065580669267511327 0 -0.31007078005836403 0.051013658083698538 0 -0.29793721737997458 0.058807151932370648 0 -0.3075997272060948 0.065580669267511327 0 -0.31007078005836403 0.051013658083698538 0 -0.32122441027653859 0.061971131976551817 0 -0.31007078005836403 0.051013658083698538 0 -0.32122441027653859 0.061971131976551817 0 -0.32663789799985687 0.045228320366369083 0 -0.32663789799985687 0.045228320366369083 0 -0.31401959178702771 0.033554129979124277 0 -0.32679366505404978 0.016835462144831951 0 -0.31007078005836403 0.051013658083698538 0 -0.32663789799985687 0.045228320366369083 0 -0.31401959178702771 0.033554129979124277 0 -0.32663789799985687 0.045228320366369083 0 -0.32679366505404978 0.016835462144831951 0 -0.34743424562315828 0.035182498448583371 0 -0.32663789799985687 0.045228320366369083 0 -0.33847066156238992 0.05660630283478587 0 -0.34743424562315828 0.035182498448583371 0 -0.33847066156238992 0.05660630283478587 0 -0.34743424562315828 0.035182498448583371 0 -0.32122441027653859 0.061971131976551817 0 -0.32663789799985687 0.045228320366369083 0 -0.33847066156238992 0.05660630283478587 0 -0.30615308448494671 -0.00151157415892533 0 -0.3212421938264165 0.00018214211681657591 0 -0.32679366505404978 0.016835462144831951 0 -0.30615308448494671 -0.00151157415892533 0 -0.31054200846455948 0.01893199929411897 0 -0.32679366505404978 0.016835462144831951 0 -0.30615308448494671 -0.00151157415892533 0 -0.32679366505404978 0.016835462144831951 0 -0.32452106508932649 0.0012930154928125161 0 -0.3212421938264165 0.00018214211681657591 0 -0.32679366505404978 0.016835462144831951 0 -0.32452106508932649 0.0012930154928125161 0 -0.3212421938264165 0.00018214211681657591 0 -0.33633130316788579 0.001875858392562216 0 -0.31054200846455948 0.01893199929411897 0 -0.31401959178702771 0.033554129979124277 0 -0.32679366505404978 0.016835462144831951 0 -0.32679366505404978 0.016835462144831951 0 -0.34158206961916121 0.0048426826283779513 0 -0.34743424562315828 0.035182498448583371 0 -0.32679366505404978 0.016835462144831951 0 -0.34743424562315828 0.035182498448583371 0 -0.32452106508932649 0.0012930154928125161 0 -0.34158206961916121 0.0048426826283779513 0 -0.32452106508932649 0.0012930154928125161 0 -0.32679366505404978 0.016835462144831951 0 -0.34158206961916121 0.0048426826283779513 0 -0.32452106508932649 0.0012930154928125161 0 -0.34158206961916121 0.0048426826283779513 0 -0.33633130316788579 0.001875858392562216 0 -0.34450736716406322 -0.001412688875958127 0 -0.33957610646907882 -0.0022158958374036992 0 -0.34158206961916121 0.0048426826283779513 0 -0.33957610646907882 -0.0022158958374036992 0 -0.34158206961916121 0.0048426826283779513 0 -0.33633130316788579 0.001875858392562216 0 -0.3212421938264165 0.00018214211681657591 0 -0.33633130316788579 0.001875858392562216 0 -0.34158206961916121 0.0048426826283779513 0 -0.35085896474106359 0.00053038070144817277 0 -0.35938962805027019 0.0085476757791031286 0 -0.34158206961916121 0.0048426826283779513 0 -0.35938962805027019 0.0085476757791031286 0 -0.35680499281032169 0.0023741935967281601 0 -0.35085896474106359 0.00053038070144817277 0 -0.35938962805027019 0.0085476757791031286 0 -0.35722308376327788 -0.0033923917127087031 0 -0.35680499281032169 0.0023741935967281601 0 -0.3608061661732665 0.0040648086657769072 0 -0.35680499281032169 0.0023741935967281601 0 -0.35938962805027019 0.0085476757791031286 0 -0.3608061661732665 0.0040648086657769072 0 -0.34450736716406322 -0.001412688875958127 0 -0.34158206961916121 0.0048426826283779513 0 -0.35085896474106359 0.00053038070144817277 0 -0.356942258150307 0.016292779042178501 0 -0.35938962805027019 0.0085476757791031286 0 -0.356942258150307 0.016292779042178501 0 -0.36285643110020999 0.02550911745508639 0 -0.34743424562315828 0.035182498448583371 0 -0.356942258150307 0.016292779042178501 0 -0.35938962805027019 0.0085476757791031286 0 -0.34743424562315828 0.035182498448583371 0 -0.34158206961916121 0.0048426826283779513 0 -0.35938962805027019 0.0085476757791031286 0 -0.34743424562315828 0.035182498448583371 0 -0.35938962805027019 0.0085476757791031286 0 -0.34743424562315828 0.035182498448583371 0 -0.36285643110020999 0.02550911745508639 0 -0.37442213900746352 0.023865237419695561 0 -0.36912504984877459 0.035311739396970028 0 -0.36285643110020999 0.02550911745508639 0 -0.37442213900746352 0.023865237419695561 0 -0.366358462871333 0.01689333296799873 0 -0.37547520536378909 0.01189439812751977 0 -0.37442213900746352 0.023865237419695561 0 -0.366358462871333 0.01689333296799873 0 -0.356942258150307 0.016292779042178501 0 -0.36285643110020999 0.02550911745508639 0 -0.366358462871333 0.01689333296799873 0 -0.37633130262232178 -0.0011392083640457871 0 -0.35938962805027019 0.0085476757791031286 0 -0.3608061661732665 0.0040648086657769072 0 -0.37633130262232178 -0.0011392083640457871 0 -0.37547520536378909 0.01189439812751977 0 -0.35938962805027019 0.0085476757791031286 0 -0.37547520536378909 0.01189439812751977 0 -0.35938962805027019 0.0085476757791031286 0 -0.37547520536378909 0.01189439812751977 0 -0.366358462871333 0.01689333296799873 0 -0.35938962805027019 0.0085476757791031286 0 -0.356942258150307 0.016292779042178501 0 -0.366358462871333 0.01689333296799873 0 -0.35938962805027019 0.0085476757791031286 0 -0.35938962805027019 0.0085476757791031286 0 -0.3608061661732665 0.0040648086657769072 0 -0.33847066156238992 0.05660630283478587 0 -0.36602567716328949 0.051708083485481497 0 -0.35395517367853668 0.075671980219929255 0 -0.33847066156238992 0.05660630283478587 0 -0.34743424562315828 0.035182498448583371 0 -0.36602567716328949 0.051708083485481497 0 -0.34743424562315828 0.035182498448583371 0 -0.36602567716328949 0.051708083485481497 0 -0.36285643110020999 0.02550911745508639 0 -0.34743424562315828 0.035182498448583371 0 -0.36912504984877459 0.035311739396970028 0 -0.34743424562315828 0.035182498448583371 0 -0.36912504984877459 0.035311739396970028 0 -0.36602567716328949 0.051708083485481497 0 -0.37693990598522409 0.04358577448047507 0 -0.36912504984877459 0.035311739396970028 0 -0.36602567716328949 0.051708083485481497 0 -0.38184358509593869 0.053620179155822123 0 -0.37693990598522409 0.04358577448047507 0 -0.36602567716328949 0.051708083485481497 0 -0.37510268843075489 0.087271449549262456 0 -0.38461710870342392 0.068233668522376098 0 -0.35395517367853668 0.075671980219929255 0 -0.38461710870342392 0.068233668522376098 0 -0.36602567716328949 0.051708083485481497 0 -0.35395517367853668 0.075671980219929255 0 -0.35395517367853668 0.075671980219929255 0 -0.35797334157065169 0.099902632221480103 0 -0.34253629953330711 0.085198757814978723 0 -0.37510268843075489 0.087271449549262456 0 -0.35395517367853668 0.075671980219929255 0 -0.35797334157065169 0.099902632221480103 0 -0.36020909280437258 0.13125469890844299 0 -0.34404635216407298 0.12144594435859959 0 -0.35797334157065169 0.099902632221480103 0 -0.38544602882170942 0.1058718960253416 0 -0.35797334157065169 0.099902632221480103 0 -0.38544602882170942 0.1058718960253416 0 -0.37510268843075489 0.087271449549262456 0 -0.35797334157065169 0.099902632221480103 0 -0.37696668021098678 0.1226786306669 0 -0.36020909280437258 0.13125469890844299 0 -0.35797334157065169 0.099902632221480103 0 -0.37696668021098678 0.1226786306669 0 -0.38544602882170942 0.1058718960253416 0 -0.35797334157065169 0.099902632221480103 0 -0.34404635216407298 0.12144594435859959 0 -0.35797334157065169 0.099902632221480103 0 -0.33028753767271363 0.1100609027024142 0 -0.35797334157065169 0.099902632221480103 0 -0.33050065431959402 0.093933368417618596 0 -0.35797334157065169 0.099902632221480103 0 -0.33050065431959402 0.093933368417618596 0 -0.33028753767271363 0.1100609027024142 0 -0.32919424525671392 0.12615274823067929 0 -0.34404635216407298 0.12144594435859959 0 -0.33028753767271363 0.1100609027024142 0 -0.32919424525671392 0.12615274823067929 0 -0.30949181529677622 0.13252381623252579 0 -0.30334608606615682 0.1115894810669462 0 -0.32919424525671392 0.12615274823067929 0 -0.30334608606615682 0.1115894810669462 0 -0.32919424525671392 0.12615274823067929 0 -0.30334608606615682 0.1115894810669462 0 -0.33028753767271363 0.1100609027024142 0 -0.33050065431959402 0.093933368417618596 0 -0.33028753767271363 0.1100609027024142 0 -0.3161304237039918 0.1031868130520404 0 -0.31071448705396199 0.097455330526183881 0 -0.33050065431959402 0.093933368417618596 0 -0.3161304237039918 0.1031868130520404 0 -0.30334608606615682 0.1115894810669462 0 -0.33028753767271363 0.1100609027024142 0 -0.3161304237039918 0.1031868130520404 0 -0.31071448705396199 0.097455330526183881 0 -0.30302796706853619 0.087964104613757074 0 -0.33050065431959402 0.093933368417618596 0 -0.30302796706853619 0.087964104613757074 0 -0.33050065431959402 0.093933368417618596 0 -0.30302796706853619 0.087964104613757074 0 -0.33050065431959402 0.093933368417618596 0 -0.31544360478781852 0.076527907559706218 0 -0.33050065431959402 0.093933368417618596 0 -0.31544360478781852 0.076527907559706218 0 -0.32950707750160768 0.078030107220982581 0 -0.32122441027653859 0.061971131976551817 0 -0.31544360478781852 0.076527907559706218 0 -0.32950707750160768 0.078030107220982581 0 -0.3075997272060948 0.065580669267511327 0 -0.32122441027653859 0.061971131976551817 0 -0.31544360478781852 0.076527907559706218 0 -0.33847066156238992 0.05660630283478587 0 -0.35395517367853668 0.075671980219929255 0 -0.32950707750160768 0.078030107220982581 0 -0.33847066156238992 0.05660630283478587 0 -0.32950707750160768 0.078030107220982581 0 -0.32122441027653859 0.061971131976551817 0 -0.33847066156238992 0.05660630283478587 0 -0.32950707750160768 0.078030107220982581 0 -0.33050065431959402 0.093933368417618596 0 -0.32950707750160768 0.078030107220982581 0 -0.34253629953330711 0.085198757814978723 0 -0.35797334157065169 0.099902632221480103 0 -0.33050065431959402 0.093933368417618596 0 -0.34253629953330711 0.085198757814978723 0 -0.35395517367853668 0.075671980219929255 0 -0.32950707750160768 0.078030107220982581 0 -0.34253629953330711 0.085198757814978723 0 -0.39872677383659688 0.48040165920583089 0 -0.38255924817062459 0.46080331841165961 0 -0.39872677383659688 0.48040165920583089 0 -0.38488220387054561 0.5 0 -0.41489429950257017 0.50000000000000167 0 -0.39872677383659688 0.48040165920583089 0 -0.38488220387054561 0.5 0 -0.3715286205093305 0.48032760134987018 0 -0.39872677383659688 0.48040165920583089 0 -0.38255924817062459 0.46080331841165961 0 -0.3715286205093305 0.48032760134987018 0 -0.38255924817062459 0.46080331841165961 0 -0.38098279297321208 0.43423249819269188 0 -0.3663917225046523 0.44120497761748823 0 -0.38255924817062459 0.46080331841165961 0 -0.39716607514996721 0.44050888962185991 0 -0.38098279297321208 0.43423249819269188 0 -0.39716607514996721 0.44050888962185991 0 -0.40195586364554592 0.45820045151873229 0 -0.41499150522969408 0.4436033402828114 0 -0.39872677383659688 0.48040165920583089 0 -0.38255924817062459 0.46080331841165961 0 -0.40195586364554592 0.45820045151873229 0 -0.38255924817062459 0.46080331841165961 0 -0.39716607514996721 0.44050888962185991 0 -0.40195586364554592 0.45820045151873229 0 -0.39872677383659688 0.48040165920583089 0 -0.40195586364554592 0.45820045151873229 0 -0.42066528114180518 0.4639416452007894 0 -0.40195586364554592 0.45820045151873229 0 -0.42066528114180518 0.4639416452007894 0 -0.41499150522969408 0.4436033402828114 0 -0.42066528114180518 0.4639416452007894 0 -0.41499150522969408 0.4436033402828114 0 -0.41499150522969408 0.4436033402828114 0 -0.43368905677243402 0.43825932829388181 0 -0.43170721570183263 0.4535603685620922 0 -0.42066528114180518 0.4639416452007894 0 -0.41499150522969408 0.4436033402828114 0 -0.43170721570183263 0.4535603685620922 0 -0.42066528114180518 0.4639416452007894 0 -0.43170721570183263 0.4535603685620922 0 -0.43638275608230498 0.46924517572324409 0 -0.42066528114180518 0.4639416452007894 0 -0.43638275608230498 0.46924517572324409 0 -0.42633905705391639 0.48427995011876729 0 -0.42066528114180518 0.4639416452007894 0 -0.42633905705391639 0.48427995011876729 0 -0.43638275608230498 0.46924517572324409 0 -0.42633905705391639 0.48427995011876729 0 -0.44064047967927789 0.48642876478222691 0 -0.39872677383659688 0.48040165920583089 0 -0.42066528114180518 0.4639416452007894 0 -0.42633905705391639 0.48427995011876729 0 -0.39872677383659688 0.48040165920583089 0 -0.42633905705391639 0.48427995011876729 0 -0.41489429950257017 0.50000000000000167 0 -0.39872677383659688 0.48040165920583089 0 -0.41489429950257017 0.50000000000000167 0 -0.42633905705391639 0.48427995011876729 0 -0.41489429950257017 0.50000000000000167 0 -0.43743040444771591 0.5 0 -0.42633905705391639 0.48427995011876729 0 -0.43743040444771591 0.5 0 -0.44064047967927789 0.48642876478222691 0 -0.43743040444771591 0.5 0 -0.44064047967927789 0.48642876478222691 0 -0.45996650939286149 0.5 0 -0.44064047967927789 0.48642876478222691 0 -0.45155744408158038 0.47670739467527962 0 -0.45996650939286149 0.5 0 -0.43638275608230498 0.46924517572324409 0 -0.44064047967927789 0.48642876478222691 0 -0.45155744408158038 0.47670739467527962 0 -0.45155744408158038 0.47670739467527962 0 -0.46456387866923798 0.48041163814935461 0 -0.47192590179341543 0.4672453783255871 0 -0.46456387866923798 0.48041163814935461 0 -0.45996650939286149 0.5 0 -0.47721425806571011 0.48362268916279599 0 -0.45155744408158038 0.47670739467527962 0 -0.46456387866923798 0.48041163814935461 0 -0.45996650939286149 0.5 0 -0.45996650939286149 0.5 0 -0.48250261433800717 0.50000000000000411 0 -0.47721425806571011 0.48362268916279599 0 -0.48250261433800717 0.50000000000000411 0 -0.47721425806571011 0.48362268916279599 0 -0.4906451081342883 0.48612028197681473 0 -0.48250261433800717 0.50000000000000411 0 -0.47721425806571011 0.48362268916279599 0 -0.5 0.5 0 -0.4906451081342883 0.48612028197681473 0 -0.5 0.46110798040080681 0 -0.48024528160847529 0.47355201684191089 0 -0.47721425806571011 0.48362268916279599 0 -0.47192590179341543 0.4672453783255871 0 -0.46456387866923798 0.48041163814935461 0 -0.47721425806571011 0.48362268916279599 0 -0.47192590179341543 0.4672453783255871 0 -0.47721425806571011 0.48362268916279599 0 -0.47192590179341543 0.4672453783255871 0 -0.48024528160847529 0.47355201684191089 0 -0.47192590179341543 0.4672453783255871 0 -0.47721425806571011 0.48362268916279599 0 -0.48500797344101942 0.47837244245145272 0 -0.4906451081342883 0.48612028197681473 0 -0.48024528160847529 0.47355201684191089 0 -0.47721425806571011 0.48362268916279599 0 -0.48500797344101942 0.47837244245145272 0 -0.48500797344101942 0.47837244245145272 0 -0.48915778090504752 0.471264923898848 0 -0.4906451081342883 0.48612028197681473 0 -0.48915778090504752 0.471264923898848 0 -0.4906451081342883 0.48612028197681473 0 -0.5 0.46110798040080681 0 -0.48024528160847529 0.47355201684191089 0 -0.48500797344101942 0.47837244245145272 0 -0.48915778090504752 0.471264923898848 0 -0.48250261433800717 0.50000000000000411 0 -0.5 0.5 0 -0.4906451081342883 0.48612028197681473 0 -0.4866935411200668 0.44521738854727722 0 -0.5 0.46110798040080681 0 -0.50000000000000111 0.43191855433575549 0 -0.4866935411200668 0.44521738854727722 0 -0.5 0.46110798040080681 0 -0.48435161124034209 0.45931218197237261 0 -0.48915778090504752 0.471264923898848 0 -0.5 0.46110798040080681 0 -0.48435161124034209 0.45931218197237261 0 -0.48024528160847529 0.47355201684191089 0 -0.48915778090504752 0.471264923898848 0 -0.48435161124034209 0.45931218197237261 0 -0.48435161124034209 0.45931218197237261 0 -0.47192590179341543 0.4672453783255871 0 -0.46559462361561382 0.44763828202274042 0 -0.47192590179341543 0.4672453783255871 0 -0.46559462361561382 0.44763828202274042 0 -0.48024528160847529 0.47355201684191089 0 -0.48435161124034209 0.45931218197237261 0 -0.47192590179341543 0.4672453783255871 0 -0.4866935411200668 0.44521738854727722 0 -0.46559462361561382 0.44763828202274042 0 -0.47963167271890572 0.42997487002782547 0 -0.4866935411200668 0.44521738854727722 0 -0.48435161124034209 0.45931218197237261 0 -0.46559462361561382 0.44763828202274042 0 -0.46559462361561382 0.44763828202274042 0 -0.45926334543781039 0.42803118571989418 0 -0.46559462361561382 0.44763828202274042 0 -0.45280747928292497 0.45275235330973412 0 -0.44859752635124878 0.43844938567005232 0 -0.46559462361561382 0.44763828202274042 0 -0.44859752635124878 0.43844938567005232 0 -0.45926334543781039 0.42803118571989418 0 -0.45155744408158038 0.47670739467527962 0 -0.47192590179341543 0.4672453783255871 0 -0.45280747928292497 0.45275235330973412 0 -0.47192590179341543 0.4672453783255871 0 -0.45280747928292497 0.45275235330973412 0 -0.47192590179341543 0.4672453783255871 0 -0.46559462361561382 0.44763828202274042 0 -0.45280747928292497 0.45275235330973412 0 -0.43170721570183263 0.4535603685620922 0 -0.43638275608230498 0.46924517572324409 0 -0.45280747928292497 0.45275235330973412 0 -0.43638275608230498 0.46924517572324409 0 -0.45155744408158038 0.47670739467527962 0 -0.45280747928292497 0.45275235330973412 0 -0.43368905677243402 0.43825932829388181 0 -0.43170721570183263 0.4535603685620922 0 -0.45280747928292497 0.45275235330973412 0 -0.43368905677243402 0.43825932829388181 0 -0.45280747928292497 0.45275235330973412 0 -0.44859752635124878 0.43844938567005232 0 -0.43368905677243402 0.43825932829388181 0 -0.45280747928292497 0.45275235330973412 0 -0.43368905677243402 0.43825932829388181 0 -0.44859752635124878 0.43844938567005232 0 -0.43691698984987709 0.42589874449896131 0 -0.44777262404166718 0.42146814955566603 0 -0.45926334543781039 0.42803118571989418 0 -0.43691698984987709 0.42589874449896131 0 -0.45926334543781039 0.42803118571989418 0 -0.43691698984987709 0.42589874449896131 0 -0.44859752635124878 0.43844938567005232 0 -0.45926334543781039 0.42803118571989418 0 -0.43691698984987709 0.42589874449896131 0 -0.43956494656451878 0.413999337066699 0 -0.44777262404166718 0.42146814955566603 0 -0.44827225197800002 0.4093954771506943 0 -0.43956494656451878 0.413999337066699 0 -0.44777262404166718 0.42146814955566603 0 -0.43691698984987709 0.42589874449896131 0 -0.44777262404166718 0.42146814955566603 0 -0.44827225197800002 0.4093954771506943 0 -0.45645302863417769 0.41415873805858999 0 -0.45645302863417769 0.41415873805858999 0 -0.46422260175508268 0.41208455636805491 0 -0.45924427879312968 0.4010565120348335 0 -0.44827225197800002 0.4093954771506943 0 -0.45645302863417769 0.41415873805858999 0 -0.45924427879312968 0.4010565120348335 0 -0.44777262404166718 0.42146814955566603 0 -0.45645302863417769 0.41415873805858999 0 -0.45622943091351048 0.4203763442262885 0 -0.45645302863417769 0.41415873805858999 0 -0.46209380418841373 0.41990696052094267 0 -0.46422260175508268 0.41208455636805491 0 -0.45645302863417769 0.41415873805858999 0 -0.45622943091351048 0.4203763442262885 0 -0.46209380418841373 0.41990696052094267 0 -0.46209380418841373 0.41990696052094267 0 -0.46422260175508268 0.41208455636805491 0 -0.47012415462810059 0.41877810800180298 0 -0.46422260175508268 0.41208455636805491 0 -0.47319774253159141 0.40652246322410529 0 -0.45924427879312968 0.4010565120348335 0 -0.46559462361561382 0.44763828202274042 0 -0.45926334543781039 0.42803118571989418 0 -0.47963167271890572 0.42997487002782547 0 -0.44777262404166718 0.42146814955566603 0 -0.45622943091351048 0.4203763442262885 0 -0.45859826678978333 0.42597152876995542 0 -0.46209380418841373 0.41990696052094267 0 -0.45859826678978333 0.42597152876995542 0 -0.45926334543781039 0.42803118571989418 0 -0.44777262404166718 0.42146814955566603 0 -0.45859826678978333 0.42597152876995542 0 -0.45926334543781039 0.42803118571989418 0 -0.45622943091351048 0.4203763442262885 0 -0.46209380418841373 0.41990696052094267 0 -0.45859826678978333 0.42597152876995542 0 -0.45859826678978333 0.42597152876995542 0 -0.45926334543781039 0.42803118571989418 0 -0.46209380418841373 0.41990696052094267 0 -0.45926334543781039 0.42803118571989418 0 -0.47012415462810059 0.41877810800180298 0 -0.45926334543781039 0.42803118571989418 0 -0.47963167271890572 0.42997487002782547 0 -0.45926334543781039 0.42803118571989418 0 -0.47963167271890572 0.42997487002782547 0 -0.47012415462810059 0.41877810800180298 0 -0.46422260175508268 0.41208455636805491 0 -0.47012415462810059 0.41877810800180298 0 -0.47319774253159141 0.40652246322410529 0 -0.47012415462810059 0.41877810800180298 0 -0.47319774253159141 0.40652246322410529 0 -0.48422817109754751 0.41520025630975388 0 -0.47963167271890572 0.42997487002782547 0 -0.47012415462810059 0.41877810800180298 0 -0.48422817109754751 0.41520025630975388 0 -0.48422817109754751 0.41520025630975388 0 -0.5 0.40627374984651221 0 -0.50000000000000111 0.43191855433575549 0 -0.47963167271890572 0.42997487002782547 0 -0.50000000000000111 0.43191855433575549 0 -0.47963167271890572 0.42997487002782547 0 -0.48422817109754751 0.41520025630975388 0 -0.50000000000000111 0.43191855433575549 0 -0.4866935411200668 0.44521738854727722 0 -0.47963167271890572 0.42997487002782547 0 -0.50000000000000111 0.43191855433575549 0 -0.5 0.38062894535726888 0 -0.48640122307564471 0.39541347745496008 0 -0.47334798041721959 0.38220398730310767 0 -0.48422817109754751 0.41520025630975388 0 -0.5 0.40627374984651221 0 -0.48640122307564471 0.39541347745496008 0 -0.5 0.40627374984651221 0 -0.5 0.38062894535726888 0 -0.48640122307564471 0.39541347745496008 0 -0.47319774253159141 0.40652246322410529 0 -0.48640122307564471 0.39541347745496008 0 -0.47334798041721959 0.38220398730310767 0 -0.47319774253159141 0.40652246322410529 0 -0.48422817109754751 0.41520025630975388 0 -0.48640122307564471 0.39541347745496008 0 -0.5 0.38062894535726888 0 -0.47334798041721959 0.38220398730310767 0 -0.47671588323141922 0.36236688459188998 0 -0.47334798041721959 0.38220398730310767 0 -0.45499862068909969 0.38601453968777583 0 -0.44907146474827803 0.36807814827709912 0 -0.47334798041721959 0.38220398730310767 0 -0.44907146474827803 0.36807814827709912 0 -0.47334798041721959 0.38220398730310767 0 -0.45499862068909969 0.38601453968777583 0 -0.45924427879312968 0.4010565120348335 0 -0.47319774253159141 0.40652246322410529 0 -0.47334798041721959 0.38220398730310767 0 -0.45924427879312968 0.4010565120348335 0 -0.45499862068909969 0.38601453968777583 0 -0.45924427879312968 0.4010565120348335 0 -0.43833075879777161 0.39271951113606313 0 -0.43956494656451878 0.413999337066699 0 -0.44827225197800002 0.4093954771506943 0 -0.43833075879777161 0.39271951113606313 0 -0.44827225197800002 0.4093954771506943 0 -0.45924427879312968 0.4010565120348335 0 -0.43833075879777161 0.39271951113606313 0 -0.45499862068909969 0.38601453968777583 0 -0.43833075879777161 0.39271951113606313 0 -0.44907146474827803 0.36807814827709912 0 -0.43833075879777161 0.39271951113606313 0 -0.44907146474827803 0.36807814827709912 0 -0.43833075879777161 0.39271951113606313 0 -0.43129113220221071 0.37342547543281229 0 -0.44907146474827803 0.36807814827709912 0 -0.43833075879777161 0.39271951113606313 0 -0.41803276551735769 0.38625425562208687 0 -0.43129113220221071 0.37342547543281229 0 -0.41803276551735769 0.38625425562208687 0 -0.41604397324595949 0.37344814332614767 0 -0.43129113220221071 0.37342547543281229 0 -0.41803276551735769 0.38625425562208687 0 -0.40442257624320482 0.37711609607538638 0 -0.40120509358461459 0.39418435579950351 0 -0.41803276551735769 0.38625425562208687 0 -0.40442257624320482 0.37711609607538638 0 -0.41604397324595949 0.37344814332614767 0 -0.41803276551735769 0.38625425562208687 0 -0.41669616330801701 0.40315581950853202 0 -0.40120509358461459 0.39418435579950351 0 -0.41669616330801701 0.40315581950853202 0 -0.40808627011243598 0.41885072764519909 0 -0.40120509358461459 0.39418435579950351 0 -0.43833075879777161 0.39271951113606313 0 -0.42759005284726742 0.41736087399502803 0 -0.43833075879777161 0.39271951113606313 0 -0.41669616330801701 0.40315581950853202 0 -0.42759005284726742 0.41736087399502803 0 -0.43833075879777161 0.39271951113606313 0 -0.41803276551735769 0.38625425562208687 0 -0.41669616330801701 0.40315581950853202 0 -0.43956494656451878 0.413999337066699 0 -0.43833075879777161 0.39271951113606313 0 -0.42759005284726742 0.41736087399502803 0 -0.43956494656451878 0.413999337066699 0 -0.42759005284726742 0.41736087399502803 0 -0.43691698984987709 0.42589874449896131 0 -0.43368905677243402 0.43825932829388181 0 -0.43691698984987709 0.42589874449896131 0 -0.41457063426194368 0.4237663032780285 0 -0.43368905677243402 0.43825932829388181 0 -0.41457063426194368 0.4237663032780285 0 -0.42759005284726742 0.41736087399502803 0 -0.43691698984987709 0.42589874449896131 0 -0.41457063426194368 0.4237663032780285 0 -0.43691698984987709 0.42589874449896131 0 -0.41457063426194368 0.4237663032780285 0 -0.41499150522969408 0.4436033402828114 0 -0.41457063426194368 0.4237663032780285 0 -0.40931772931758242 0.42326503536483351 0 -0.41499150522969408 0.4436033402828114 0 -0.40931772931758242 0.42326503536483351 0 -0.39716607514996721 0.44050888962185991 0 -0.41499150522969408 0.4436033402828114 0 -0.40931772931758242 0.42326503536483351 0 -0.41499150522969408 0.4436033402828114 0 -0.43368905677243402 0.43825932829388181 0 -0.41457063426194368 0.4237663032780285 0 -0.41457063426194368 0.4237663032780285 0 -0.40931772931758242 0.42326503536483351 0 -0.41457063426194368 0.4237663032780285 0 -0.40931772931758242 0.42326503536483351 0 -0.40808627011243598 0.41885072764519909 0 -0.41669616330801701 0.40315581950853202 0 -0.41715813841774829 0.41361830556151141 0 -0.40808627011243598 0.41885072764519909 0 -0.41669616330801701 0.40315581950853202 0 -0.42759005284726742 0.41736087399502803 0 -0.41715813841774829 0.41361830556151141 0 -0.42759005284726742 0.41736087399502803 0 -0.41457063426194368 0.4237663032780285 0 -0.41715813841774829 0.41361830556151141 0 -0.41457063426194368 0.4237663032780285 0 -0.41715813841774829 0.41361830556151141 0 -0.40808627011243598 0.41885072764519909 0 -0.41457063426194368 0.4237663032780285 0 -0.40808627011243598 0.41885072764519909 0 -0.40931772931758242 0.42326503536483351 0 -0.40808627011243598 0.41885072764519909 0 -0.40808627011243598 0.41885072764519909 0 -0.39204526993230332 0.40669059169452881 0 -0.40120509358461459 0.39418435579950351 0 -0.40808627011243598 0.41885072764519909 0 -0.39204526993230332 0.40669059169452881 0 -0.40931772931758242 0.42326503536483351 0 -0.40808627011243598 0.41885072764519909 0 -0.39183464845396121 0.42159668089173952 0 -0.40808627011243598 0.41885072764519909 0 -0.39183464845396121 0.42159668089173952 0 -0.39204526993230332 0.40669059169452881 0 -0.40808627011243598 0.41885072764519909 0 -0.40120509358461459 0.39418435579950351 0 -0.40931772931758242 0.42326503536483351 0 -0.39183464845396121 0.42159668089173952 0 -0.39716607514996721 0.44050888962185991 0 -0.40931772931758242 0.42326503536483351 0 -0.39183464845396121 0.42159668089173952 0 -0.39716607514996721 0.44050888962185991 0 -0.39183464845396121 0.42159668089173952 0 -0.38098279297321208 0.43423249819269188 0 -0.38098279297321208 0.43423249819269188 0 -0.38163749542847658 0.41399806355973851 0 -0.37004774792218292 0.41780965130782122 0 -0.39183464845396121 0.42159668089173952 0 -0.38098279297321208 0.43423249819269188 0 -0.38163749542847658 0.41399806355973851 0 -0.39183464845396121 0.42159668089173952 0 -0.39204526993230332 0.40669059169452881 0 -0.38163749542847658 0.41399806355973851 0 -0.39204526993230332 0.40669059169452881 0 -0.39006377384368007 0.39454710641585078 0 -0.37600426975217122 0.39453045574385759 0 -0.39204526993230332 0.40669059169452881 0 -0.38163749542847658 0.41399806355973851 0 -0.37600426975217122 0.39453045574385759 0 -0.39204526993230332 0.40669059169452881 0 -0.37600426975217122 0.39453045574385759 0 -0.38163749542847658 0.41399806355973851 0 -0.37600426975217122 0.39453045574385759 0 -0.3714645052430397 0.40639293073194521 0 -0.37600426975217122 0.39453045574385759 0 -0.3773789331183981 0.37519569641813622 0 -0.39100046210563127 0.3827830224255136 0 -0.39006377384368007 0.39454710641585078 0 -0.37600426975217122 0.39453045574385759 0 -0.39100046210563127 0.3827830224255136 0 -0.39100046210563127 0.3827830224255136 0 -0.40442257624320482 0.37711609607538638 0 -0.39240442659180352 0.36618252314448912 0 -0.39006377384368007 0.39454710641585078 0 -0.39100046210563127 0.3827830224255136 0 -0.40120509358461459 0.39418435579950351 0 -0.39100046210563127 0.3827830224255136 0 -0.40442257624320482 0.37711609607538638 0 -0.40120509358461459 0.39418435579950351 0 -0.39204526993230332 0.40669059169452881 0 -0.39006377384368007 0.39454710641585078 0 -0.40120509358461459 0.39418435579950351 0 -0.39861098185989918 0.35451077114446322 0 -0.4060069351108247 0.34302007891965308 0 -0.40784873641386199 0.35984427613457759 0 -0.39861098185989918 0.35451077114446322 0 -0.38818382932310691 0.34899620637913298 0 -0.4060069351108247 0.34302007891965308 0 -0.39861098185989918 0.35451077114446322 0 -0.39240442659180352 0.36618252314448912 0 -0.38818382932310691 0.34899620637913298 0 -0.40442257624320482 0.37711609607538638 0 -0.39240442659180352 0.36618252314448912 0 -0.40784873641386199 0.35984427613457759 0 -0.39861098185989918 0.35451077114446322 0 -0.39240442659180352 0.36618252314448912 0 -0.40784873641386199 0.35984427613457759 0 -0.3773789331183981 0.37519569641813622 0 -0.39100046210563127 0.3827830224255136 0 -0.39240442659180352 0.36618252314448912 0 -0.3773789331183981 0.37519569641813622 0 -0.39240442659180352 0.36618252314448912 0 -0.38000971293702962 0.36108796553894462 0 -0.39240442659180352 0.36618252314448912 0 -0.38000971293702962 0.36108796553894462 0 -0.38818382932310691 0.34899620637913298 0 -0.38000971293702962 0.36108796553894462 0 -0.38818382932310691 0.34899620637913298 0 -0.36855122810454999 0.34173320964151588 0 -0.38818382932310691 0.34899620637913298 0 -0.38447467029209798 0.33049104424093018 0 -0.36855122810454999 0.34173320964151588 0 -0.39461412576881688 0.31759598861284227 0 -0.36999166853722693 0.32084393836059749 0 -0.38447467029209798 0.33049104424093018 0 -0.39461412576881688 0.31759598861284227 0 -0.36999166853722693 0.32084393836059749 0 -0.39461412576881688 0.31759598861284227 0 -0.40072738297147098 0.33227768955964532 0 -0.41656668131986108 0.33129452473358217 0 -0.38447467029209798 0.33049104424093018 0 -0.39461412576881688 0.31759598861284227 0 -0.40072738297147098 0.33227768955964532 0 -0.39461412576881688 0.31759598861284227 0 -0.40072738297147098 0.33227768955964532 0 -0.38447467029209798 0.33049104424093018 0 -0.4060069351108247 0.34302007891965308 0 -0.40072738297147098 0.33227768955964532 0 -0.38447467029209798 0.33049104424093018 0 -0.4060069351108247 0.34302007891965308 0 -0.38818382932310691 0.34899620637913298 0 -0.38447467029209798 0.33049104424093018 0 -0.4060069351108247 0.34302007891965308 0 -0.4060069351108247 0.34302007891965308 0 -0.40072738297147098 0.33227768955964532 0 -0.41656668131986108 0.33129452473358217 0 -0.4060069351108247 0.34302007891965308 0 -0.41656668131986108 0.33129452473358217 0 -0.42753919992955142 0.35554911359837588 0 -0.39461412576881688 0.31759598861284227 0 -0.41656668131986108 0.33129452473358217 0 -0.42096059432661342 0.31412062443201583 0 -0.39461412576881688 0.31759598861284227 0 -0.42096059432661342 0.31412062443201583 0 -0.41656668131986108 0.33129452473358217 0 -0.42096059432661342 0.31412062443201583 0 -0.43922006028520771 0.3316710010333877 0 -0.42096059432661342 0.31412062443201583 0 -0.43922006028520771 0.3316710010333877 0 -0.44730706288441019 0.31064526025119038 0 -0.41656668131986108 0.33129452473358217 0 -0.42753919992955142 0.35554911359837588 0 -0.43922006028520771 0.3316710010333877 0 -0.4060069351108247 0.34302007891965308 0 -0.42753919992955142 0.35554911359837588 0 -0.40784873641386199 0.35984427613457759 0 -0.4060069351108247 0.34302007891965308 0 -0.42753919992955142 0.35554911359837588 0 -0.40442257624320482 0.37711609607538638 0 -0.40784873641386199 0.35984427613457759 0 -0.41604397324595949 0.37344814332614767 0 -0.42753919992955142 0.35554911359837588 0 -0.40784873641386199 0.35984427613457759 0 -0.41604397324595949 0.37344814332614767 0 -0.42753919992955142 0.35554911359837588 0 -0.41604397324595949 0.37344814332614767 0 -0.43129113220221071 0.37342547543281229 0 -0.42753919992955142 0.35554911359837588 0 -0.43129113220221071 0.37342547543281229 0 -0.44907146474827803 0.36807814827709912 0 -0.42753919992955142 0.35554911359837588 0 -0.44907146474827803 0.36807814827709912 0 -0.42753919992955142 0.35554911359837588 0 -0.44907146474827803 0.36807814827709912 0 -0.45796153311759852 0.34768252423348489 0 -0.42753919992955142 0.35554911359837588 0 -0.45796153311759852 0.34768252423348489 0 -0.43922006028520771 0.3316710010333877 0 -0.44907146474827803 0.36807814827709912 0 -0.45796153311759852 0.34768252423348489 0 -0.44907146474827803 0.36807814827709912 0 -0.45796153311759852 0.34768252423348489 0 -0.47671588323141922 0.36236688459188998 0 -0.47334798041721959 0.38220398730310767 0 -0.44907146474827803 0.36807814827709912 0 -0.47671588323141922 0.36236688459188998 0 -0.45796153311759852 0.34768252423348489 0 -0.47671588323141922 0.36236688459188998 0 -0.47991432110541937 0.3406235615123539 0 -0.47671588323141922 0.36236688459188998 0 -0.5 0.35498414086802571 0 -0.47991432110541937 0.3406235615123539 0 -0.5 0.38062894535726888 0 -0.47671588323141922 0.36236688459188998 0 -0.5 0.35498414086802571 0 -0.5 0.32933933637878249 0 -0.48408389080690961 0.32162284520818257 0 -0.50000000000000377 0.30369453188953938 0 -0.5 0.32933933637878249 0 -0.47991432110541937 0.3406235615123539 0 -0.48408389080690961 0.32162284520818257 0 -0.5 0.35498414086802571 0 -0.5 0.32933933637878249 0 -0.47991432110541937 0.3406235615123539 0 -0.47991432110541937 0.3406235615123539 0 -0.48408389080690961 0.32162284520818257 0 -0.46685160148692112 0.32728690018987178 0 -0.48408389080690961 0.32162284520818257 0 -0.46685160148692112 0.32728690018987178 0 -0.47365353144220701 0.30716989607036521 0 -0.46685160148692112 0.32728690018987178 0 -0.44730706288441019 0.31064526025119038 0 -0.47365353144220701 0.30716989607036521 0 -0.45796153311759852 0.34768252423348489 0 -0.46685160148692112 0.32728690018987178 0 -0.43922006028520771 0.3316710010333877 0 -0.45796153311759852 0.34768252423348489 0 -0.46685160148692112 0.32728690018987178 0 -0.45796153311759852 0.34768252423348489 0 -0.47991432110541937 0.3406235615123539 0 -0.46685160148692112 0.32728690018987178 0 -0.46685160148692112 0.32728690018987178 0 -0.43922006028520771 0.3316710010333877 0 -0.44730706288441019 0.31064526025119038 0 -0.44730706288441019 0.31064526025119038 0 -0.44126658531935942 0.28966550726547341 0 -0.42632553384702632 0.29806145980568388 0 -0.44730706288441019 0.31064526025119038 0 -0.44126658531935942 0.28966550726547341 0 -0.45973063835907679 0.28438658335893652 0 -0.44126658531935942 0.28966550726547341 0 -0.45973063835907679 0.28438658335893652 0 -0.44363306255685447 0.27414960481775791 0 -0.44126658531935942 0.28966550726547341 0 -0.44363306255685447 0.27414960481775791 0 -0.42933662894942892 0.28108462809379792 0 -0.44730706288441019 0.31064526025119038 0 -0.45973063835907679 0.28438658335893652 0 -0.47365353144220701 0.30716989607036521 0 -0.44730706288441019 0.31064526025119038 0 -0.47365353144220701 0.30716989607036521 0 -0.45973063835907679 0.28438658335893652 0 -0.47365353144220701 0.30716989607036521 0 -0.48206980854476572 0.28718805392286151 0 -0.48206980854476572 0.28718805392286151 0 -0.50000000000000377 0.30369453188953938 0 -0.5 0.27472446989738608 0 -0.47365353144220701 0.30716989607036521 0 -0.48206980854476572 0.28718805392286151 0 -0.50000000000000377 0.30369453188953938 0 -0.48408389080690961 0.32162284520818257 0 -0.47365353144220701 0.30716989607036521 0 -0.50000000000000377 0.30369453188953938 0 -0.47365353144220701 0.30716989607036521 0 -0.50000000000000377 0.30369453188953938 0 -0.5 0.24575440790523281 0 -0.5 0.27472446989738608 0 -0.47696487292254469 0.2659647883980803 0 -0.48206980854476572 0.28718805392286151 0 -0.5 0.27472446989738608 0 -0.47696487292254469 0.2659647883980803 0 -0.45973063835907679 0.28438658335893652 0 -0.48206980854476572 0.28718805392286151 0 -0.47696487292254469 0.2659647883980803 0 -0.47016689874894602 0.2448031454803179 0 -0.5 0.24575440790523281 0 -0.47696487292254469 0.2659647883980803 0 -0.47016689874894602 0.2448031454803179 0 -0.47696487292254469 0.2659647883980803 0 -0.45399038678029879 0.26022436416969003 0 -0.45973063835907679 0.28438658335893652 0 -0.47696487292254469 0.2659647883980803 0 -0.45399038678029879 0.26022436416969003 0 -0.45973063835907679 0.28438658335893652 0 -0.45399038678029879 0.26022436416969003 0 -0.44363306255685447 0.27414960481775791 0 -0.45399038678029879 0.26022436416969003 0 -0.44363306255685447 0.27414960481775791 0 -0.43265062726446629 0.25826604692193472 0 -0.44908104117122538 0.24097150656087341 0 -0.45399038678029879 0.26022436416969003 0 -0.43265062726446629 0.25826604692193472 0 -0.41519658925457292 0.24974068203376851 0 -0.41379874015320189 0.26827595724491871 0 -0.39658915524345062 0.25645220649810591 0 -0.41519658925457292 0.24974068203376851 0 -0.43265062726446629 0.25826604692193472 0 -0.41379874015320189 0.26827595724491871 0 -0.41379874015320189 0.26827595724491871 0 -0.41227130180460408 0.28926040877979498 0 -0.39660421464064383 0.27833152693514679 0 -0.41379874015320189 0.26827595724491871 0 -0.42933662894942892 0.28108462809379792 0 -0.41227130180460408 0.28926040877979498 0 -0.44363306255685447 0.27414960481775791 0 -0.43265062726446629 0.25826604692193472 0 -0.42933662894942892 0.28108462809379792 0 -0.43265062726446629 0.25826604692193472 0 -0.41379874015320189 0.26827595724491871 0 -0.42933662894942892 0.28108462809379792 0 -0.42933662894942892 0.28108462809379792 0 -0.42632553384702632 0.29806145980568388 0 -0.41227130180460408 0.28926040877979498 0 -0.44126658531935942 0.28966550726547341 0 -0.42933662894942892 0.28108462809379792 0 -0.42632553384702632 0.29806145980568388 0 -0.42096059432661342 0.31412062443201583 0 -0.44730706288441019 0.31064526025119038 0 -0.42632553384702632 0.29806145980568388 0 -0.42096059432661342 0.31412062443201583 0 -0.44730706288441019 0.31064526025119038 0 -0.41015816595697951 0.30384986580050499 0 -0.41227130180460408 0.28926040877979498 0 -0.39661927403783681 0.30021084737218778 0 -0.39461412576881688 0.31759598861284227 0 -0.42096059432661342 0.31412062443201583 0 -0.41015816595697951 0.30384986580050499 0 -0.42096059432661342 0.31412062443201583 0 -0.42632553384702632 0.29806145980568388 0 -0.41015816595697951 0.30384986580050499 0 -0.42632553384702632 0.29806145980568388 0 -0.41015816595697951 0.30384986580050499 0 -0.41227130180460408 0.28926040877979498 0 -0.39661927403783681 0.30021084737218778 0 -0.3848697284328868 0.29419368066957069 0 -0.39660421464064383 0.27833152693514679 0 -0.39661927403783681 0.30021084737218778 0 -0.39660421464064383 0.27833152693514679 0 -0.41227130180460408 0.28926040877979498 0 -0.39661927403783681 0.30021084737218778 0 -0.39660421464064383 0.27833152693514679 0 -0.39461412576881688 0.31759598861284227 0 -0.39661927403783681 0.30021084737218778 0 -0.3848697284328868 0.29419368066957069 0 -0.39461412576881688 0.31759598861284227 0 -0.41015816595697951 0.30384986580050499 0 -0.39661927403783681 0.30021084737218778 0 -0.39461412576881688 0.31759598861284227 0 -0.3848697284328868 0.29419368066957069 0 -0.36999166853722693 0.32084393836059749 0 -0.39461412576881688 0.31759598861284227 0 -0.3848697284328868 0.29419368066957069 0 -0.3848697284328868 0.29419368066957069 0 -0.37512533109695723 0.27079137272629922 0 -0.37512533109695723 0.27079137272629922 0 -0.39658915524345062 0.25645220649810591 0 -0.39660421464064383 0.27833152693514679 0 -0.3848697284328868 0.29419368066957069 0 -0.37512533109695723 0.27079137272629922 0 -0.39660421464064383 0.27833152693514679 0 -0.37512533109695723 0.27079137272629922 0 -0.37951823372626892 0.25390340485737012 0 -0.39658915524345062 0.25645220649810591 0 -0.38097751480364228 0.24098097542204691 0 -0.37951823372626892 0.25390340485737012 0 -0.39658915524345062 0.25645220649810591 0 -0.41379874015320189 0.26827595724491871 0 -0.39658915524345062 0.25645220649810591 0 -0.39660421464064383 0.27833152693514679 0 -0.39658915524345062 0.25645220649810591 0 -0.39660421464064383 0.27833152693514679 0 -0.35506035310444212 0.27379789236337948 0 -0.34707471762046949 0.28998150293136171 0 -0.33333225555960272 0.27953780674019679 0 -0.35506035310444212 0.27379789236337948 0 -0.34593977208817378 0.25537675778705993 0 -0.33333225555960272 0.27953780674019679 0 -0.36538093376102537 0.24738906478302841 0 -0.34593977208817378 0.25537675778705993 0 -0.36538093376102537 0.24738906478302841 0 -0.35506035310444212 0.27379789236337948 0 -0.34593977208817378 0.25537675778705993 0 -0.36538093376102537 0.24738906478302841 0 -0.37512533109695723 0.27079137272629922 0 -0.35506035310444212 0.27379789236337948 0 -0.36538093376102537 0.24738906478302841 0 -0.37512533109695723 0.27079137272629922 0 -0.36538093376102537 0.24738906478302841 0 -0.37512533109695723 0.27079137272629922 0 -0.37951823372626892 0.25390340485737012 0 -0.37512533109695723 0.27079137272629922 0 -0.35506035310444212 0.27379789236337948 0 -0.36350910850042212 0.29971084921233232 0 -0.3848697284328868 0.29419368066957069 0 -0.37512533109695723 0.27079137272629922 0 -0.36350910850042212 0.29971084921233232 0 -0.3848697284328868 0.29419368066957069 0 -0.36350910850042212 0.29971084921233232 0 -0.36999166853722693 0.32084393836059749 0 -0.36350910850042212 0.29971084921233232 0 -0.33341433807493631 0.30641920450884219 0 -0.34536921130563708 0.32409188810835399 0 -0.36350910850042212 0.29971084921233232 0 -0.34707471762046949 0.28998150293136171 0 -0.33341433807493631 0.30641920450884219 0 -0.35506035310444212 0.27379789236337948 0 -0.36350910850042212 0.29971084921233232 0 -0.34707471762046949 0.28998150293136171 0 -0.34707471762046949 0.28998150293136171 0 -0.33341433807493631 0.30641920450884219 0 -0.33333225555960272 0.27953780674019679 0 -0.33341433807493631 0.30641920450884219 0 -0.3135944001707065 0.29148491948663768 0 -0.31179091602845638 0.31191001500833232 0 -0.33341433807493631 0.30641920450884219 0 -0.3135944001707065 0.29148491948663768 0 -0.33333225555960272 0.27953780674019679 0 -0.3135944001707065 0.29148491948663768 0 -0.31556950883663909 0.27334171923598238 0 -0.33333225555960272 0.27953780674019679 0 -0.31556950883663909 0.27334171923598238 0 -0.33333225555960272 0.27953780674019679 0 -0.32649861041532208 0.2633644507910915 0 -0.34593977208817378 0.25537675778705993 0 -0.33333225555960272 0.27953780674019679 0 -0.32649861041532208 0.2633644507910915 0 -0.32834908835428561 0.24805843641034281 0 -0.34593977208817378 0.25537675778705993 0 -0.32649861041532208 0.2633644507910915 0 -0.34593977208817378 0.25537675778705993 0 -0.32649861041532208 0.2633644507910915 0 -0.32834908835428561 0.24805843641034281 0 -0.32649861041532208 0.2633644507910915 0 -0.31039699291976119 0.25547255559347831 0 -0.31556950883663909 0.27334171923598238 0 -0.32649861041532208 0.2633644507910915 0 -0.31039699291976119 0.25547255559347831 0 -0.31039699291976119 0.25547255559347831 0 -0.29410152484142921 0.27684588568838409 0 -0.29301781965848311 0.25105572046661268 0 -0.3135944001707065 0.29148491948663768 0 -0.31556950883663909 0.27334171923598238 0 -0.29410152484142921 0.27684588568838409 0 -0.31556950883663909 0.27334171923598238 0 -0.31039699291976119 0.25547255559347831 0 -0.29410152484142921 0.27684588568838409 0 -0.29410152484142921 0.27684588568838409 0 -0.27399593669917588 0.26441107173967721 0 -0.27724878365365607 0.29257111321808321 0 -0.29410152484142921 0.27684588568838409 0 -0.29301781965848311 0.25105572046661268 0 -0.27399593669917588 0.26441107173967721 0 -0.29410152484142921 0.27684588568838409 0 -0.29301781965848311 0.25105572046661268 0 -0.27250550403760959 0.23861208038387241 0 -0.29301781965848311 0.25105572046661268 0 -0.27399593669917588 0.26441107173967721 0 -0.27250550403760959 0.23861208038387241 0 -0.27399593669917588 0.26441107173967721 0 -0.2530006538760543 0.25196158340302638 0 -0.27399593669917588 0.26441107173967721 0 -0.25410133412782288 0.27542004727808478 0 -0.27724878365365607 0.29257111321808321 0 -0.27399593669917588 0.26441107173967721 0 -0.25410133412782288 0.27542004727808478 0 -0.2530006538760543 0.25196158340302638 0 -0.26039604246588288 0.30829634074778228 0 -0.27724878365365607 0.29257111321808321 0 -0.24858375307643399 0.29415840385460079 0 -0.25410133412782288 0.27542004727808478 0 -0.27724878365365607 0.29257111321808321 0 -0.24858375307643399 0.29415840385460079 0 -0.26039604246588288 0.30829634074778228 0 -0.27724878365365607 0.29257111321808321 0 -0.27791803430639561 0.3152162555781346 0 -0.26039604246588288 0.30829634074778228 0 -0.27724878365365607 0.29257111321808321 0 -0.27724878365365607 0.29257111321808321 0 -0.29507479098013151 0.30371832558619299 0 -0.27791803430639561 0.3152162555781346 0 -0.29410152484142921 0.27684588568838409 0 -0.27724878365365607 0.29257111321808321 0 -0.29410152484142921 0.27684588568838409 0 -0.27724878365365607 0.29257111321808321 0 -0.29507479098013151 0.30371832558619299 0 -0.29410152484142921 0.27684588568838409 0 -0.29507479098013151 0.30371832558619299 0 -0.3135944001707065 0.29148491948663768 0 -0.29410152484142921 0.27684588568838409 0 -0.29507479098013151 0.30371832558619299 0 -0.3135944001707065 0.29148491948663768 0 -0.29507479098013151 0.30371832558619299 0 -0.31179091602845638 0.31191001500833232 0 -0.29507479098013151 0.30371832558619299 0 -0.31179091602845638 0.31191001500833232 0 -0.29612429684245911 0.33058778760387791 0 -0.31179091602845638 0.31191001500833232 0 -0.29612429684245911 0.33058778760387791 0 -0.3207467540740474 0.32733983785611043 0 -0.29612429684245911 0.33058778760387791 0 -0.3207467540740474 0.32733983785611043 0 -0.29612429684245911 0.33058778760387791 0 -0.31849290276985531 0.3545417165988477 0 -0.3207467540740474 0.32733983785611043 0 -0.29612429684245911 0.33058778760387791 0 -0.2729797179250838 0.3336407903383044 0 -0.29612429684245911 0.33058778760387791 0 -0.2729797179250838 0.3336407903383044 0 -0.28271346041165041 0.34710160874505852 0 -0.29507479098013151 0.30371832558619299 0 -0.29612429684245911 0.33058778760387791 0 -0.27791803430639561 0.3152162555781346 0 -0.29612429684245911 0.33058778760387791 0 -0.27791803430639561 0.3152162555781346 0 -0.2729797179250838 0.3336407903383044 0 -0.29507479098013151 0.30371832558619299 0 -0.29612429684245911 0.33058778760387791 0 -0.27791803430639561 0.3152162555781346 0 -0.2729797179250838 0.3336407903383044 0 -0.25997418170369052 0.32430195823124952 0 -0.26039604246588288 0.30829634074778228 0 -0.27791803430639561 0.3152162555781346 0 -0.25997418170369052 0.32430195823124952 0 -0.2729797179250838 0.3336407903383044 0 -0.25997418170369052 0.32430195823124952 0 -0.24983513900771001 0.33669379307274189 0 -0.2729797179250838 0.3336407903383044 0 -0.24983513900771001 0.33669379307274189 0 -0.2729797179250838 0.3336407903383044 0 -0.26590780566577321 0.35946608178397732 0 -0.24983513900771001 0.33669379307274189 0 -0.25997418170369052 0.32430195823124952 0 -0.2435433012781098 0.32402156827748152 0 -0.24983513900771001 0.33669379307274189 0 -0.26039604246588288 0.30829634074778228 0 -0.25997418170369052 0.32430195823124952 0 -0.2435433012781098 0.32402156827748152 0 -0.26039604246588288 0.30829634074778228 0 -0.2435433012781098 0.32402156827748152 0 -0.26590780566577321 0.35946608178397732 0 -0.29727970547882371 0.36016857374717082 0 -0.27344440860878672 0.38515960698657881 0 -0.26590780566577321 0.35946608178397732 0 -0.24845370310238429 0.38056985408269389 0 -0.24188731814099471 0.35963734991337148 0 -0.26590780566577321 0.35946608178397732 0 -0.24188731814099471 0.35963734991337148 0 -0.24983513900771001 0.33669379307274189 0 -0.2729797179250838 0.3336407903383044 0 -0.26590780566577321 0.35946608178397732 0 -0.28271346041165041 0.34710160874505852 0 -0.26590780566577321 0.35946608178397732 0 -0.28271346041165041 0.34710160874505852 0 -0.29727970547882371 0.36016857374717082 0 -0.29612429684245911 0.33058778760387791 0 -0.29727970547882371 0.36016857374717082 0 -0.29612429684245911 0.33058778760387791 0 -0.28271346041165041 0.34710160874505852 0 -0.29727970547882371 0.36016857374717082 0 -0.29612429684245911 0.33058778760387791 0 -0.29727970547882371 0.36016857374717082 0 -0.31849290276985531 0.3545417165988477 0 -0.29727970547882371 0.36016857374717082 0 -0.31849290276985531 0.3545417165988477 0 -0.30915601656791608 0.37664185695615732 0 -0.29727970547882371 0.36016857374717082 0 -0.29843511411518903 0.38974935989046389 0 -0.33651940769333011 0.36459832649772128 0 -0.31849290276985531 0.3545417165988477 0 -0.32478740921875232 0.37719165057972448 0 -0.31849290276985531 0.3545417165988477 0 -0.32478740921875232 0.37719165057972448 0 -0.30915601656791608 0.37664185695615732 0 -0.33651940769333011 0.36459832649772128 0 -0.31849290276985531 0.3545417165988477 0 -0.34483672951365701 0.34526398295117228 0 -0.31849290276985531 0.3545417165988477 0 -0.3207467540740474 0.32733983785611043 0 -0.34483672951365701 0.34526398295117228 0 -0.33341433807493631 0.30641920450884219 0 -0.31179091602845638 0.31191001500833232 0 -0.3207467540740474 0.32733983785611043 0 -0.3207467540740474 0.32733983785611043 0 -0.34536921130563708 0.32409188810835399 0 -0.33341433807493631 0.30641920450884219 0 -0.3207467540740474 0.32733983785611043 0 -0.34536921130563708 0.32409188810835399 0 -0.3207467540740474 0.32733983785611043 0 -0.34536921130563708 0.32409188810835399 0 -0.34483672951365701 0.34526398295117228 0 -0.34536921130563708 0.32409188810835399 0 -0.36855122810454999 0.34173320964151588 0 -0.34483672951365701 0.34526398295117228 0 -0.34536921130563708 0.32409188810835399 0 -0.36999166853722693 0.32084393836059749 0 -0.36350910850042212 0.29971084921233232 0 -0.34536921130563708 0.32409188810835399 0 -0.36999166853722693 0.32084393836059749 0 -0.34536921130563708 0.32409188810835399 0 -0.36999166853722693 0.32084393836059749 0 -0.36855122810454999 0.34173320964151588 0 -0.38447467029209798 0.33049104424093018 0 -0.36999166853722693 0.32084393836059749 0 -0.36855122810454999 0.34173320964151588 0 -0.38000971293702962 0.36108796553894462 0 -0.36855122810454999 0.34173320964151588 0 -0.36566307094619499 0.36113539348154849 0 -0.36855122810454999 0.34173320964151588 0 -0.36566307094619499 0.36113539348154849 0 -0.34483672951365701 0.34526398295117228 0 -0.3773789331183981 0.37519569641813622 0 -0.36566307094619499 0.36113539348154849 0 -0.35996326957203928 0.38237031979318642 0 -0.36566307094619499 0.36113539348154849 0 -0.35996326957203928 0.38237031979318642 0 -0.3773789331183981 0.37519569641813622 0 -0.38000971293702962 0.36108796553894462 0 -0.36566307094619499 0.36113539348154849 0 -0.33651940769333011 0.36459832649772128 0 -0.36566307094619499 0.36113539348154849 0 -0.35996326957203928 0.38237031979318642 0 -0.33651940769333011 0.36459832649772128 0 -0.35996326957203928 0.38237031979318642 0 -0.33651940769333011 0.36459832649772128 0 -0.36566307094619499 0.36113539348154849 0 -0.34483672951365701 0.34526398295117228 0 -0.35429584181354601 0.40348463640320431 0 -0.3392449345428899 0.40134817840760501 0 -0.34104359176005078 0.38736340953107279 0 -0.35429584181354601 0.40348463640320431 0 -0.35996326957203928 0.38237031979318642 0 -0.35429584181354601 0.40348463640320431 0 -0.35996326957203928 0.38237031979318642 0 -0.34104359176005078 0.38736340953107279 0 -0.35429584181354601 0.40348463640320431 0 -0.34193715493665389 0.41333169099697081 0 -0.3392449345428899 0.40134817840760501 0 -0.33651940769333011 0.36459832649772128 0 -0.35996326957203928 0.38237031979318642 0 -0.34104359176005078 0.38736340953107279 0 -0.37600426975217122 0.39453045574385759 0 -0.35996326957203928 0.38237031979318642 0 -0.37600426975217122 0.39453045574385759 0 -0.3773789331183981 0.37519569641813622 0 -0.35996326957203928 0.38237031979318642 0 -0.37600426975217122 0.39453045574385759 0 -0.35429584181354601 0.40348463640320431 0 -0.3714645052430397 0.40639293073194521 0 -0.37600426975217122 0.39453045574385759 0 -0.35429584181354601 0.40348463640320431 0 -0.35996326957203928 0.38237031979318642 0 -0.35429584181354601 0.40348463640320431 0 -0.37004774792218292 0.41780965130782122 0 -0.36115994778376442 0.42700142629519461 0 -0.38163749542847658 0.41399806355973851 0 -0.3714645052430397 0.40639293073194521 0 -0.37004774792218292 0.41780965130782122 0 -0.35429584181354601 0.40348463640320431 0 -0.3714645052430397 0.40639293073194521 0 -0.37004774792218292 0.41780965130782122 0 -0.38098279297321208 0.43423249819269188 0 -0.36115994778376442 0.42700142629519461 0 -0.3663917225046523 0.44120497761748823 0 -0.38098279297321208 0.43423249819269188 0 -0.37004774792218292 0.41780965130782122 0 -0.36115994778376442 0.42700142629519461 0 -0.36115994778376442 0.42700142629519461 0 -0.35437178974791389 0.43728319596041981 0 -0.3663917225046523 0.44120497761748823 0 -0.34862841405505263 0.4245989530132222 0 -0.34296098629655919 0.44571326962324009 0 -0.35437178974791389 0.43728319596041981 0 -0.34862841405505263 0.4245989530132222 0 -0.34296098629655919 0.44571326962324009 0 -0.36115994778376442 0.42700142629519461 0 -0.35437178974791389 0.43728319596041981 0 -0.34862841405505263 0.4245989530132222 0 -0.35429584181354601 0.40348463640320431 0 -0.34862841405505263 0.4245989530132222 0 -0.34193715493665389 0.41333169099697081 0 -0.35429584181354601 0.40348463640320431 0 -0.34862841405505263 0.4245989530132222 0 -0.35429584181354601 0.40348463640320431 0 -0.36115994778376442 0.42700142629519461 0 -0.34862841405505263 0.4245989530132222 0 -0.34193715493665389 0.41333169099697081 0 -0.32956234679876428 0.40712745336821932 0 -0.33588928715870348 0.43034559002616452 0 -0.32956234679876428 0.40712745336821932 0 -0.33588928715870348 0.43034559002616452 0 -0.34193715493665389 0.41333169099697081 0 -0.32956234679876428 0.40712745336821932 0 -0.3392449345428899 0.40134817840760501 0 -0.34862841405505263 0.4245989530132222 0 -0.34193715493665389 0.41333169099697081 0 -0.33588928715870348 0.43034559002616452 0 -0.34862841405505263 0.4245989530132222 0 -0.33588928715870348 0.43034559002616452 0 -0.34296098629655919 0.44571326962324009 0 -0.33588928715870348 0.43034559002616452 0 -0.32232861513860123 0.43634100893640981 0 -0.33058585011417357 0.44522294630575099 0 -0.33588928715870348 0.43034559002616452 0 -0.31726479956590709 0.42360401558436728 0 -0.32232861513860123 0.43634100893640981 0 -0.31726479956590709 0.42360401558436728 0 -0.32232861513860123 0.43634100893640981 0 -0.30058827767767821 0.44487467994522439 0 -0.32956234679876428 0.40712745336821932 0 -0.31726479956590709 0.42360401558436728 0 -0.3143771009019008 0.40696215300746141 0 -0.32956234679876428 0.40712745336821932 0 -0.33588928715870348 0.43034559002616452 0 -0.31726479956590709 0.42360401558436728 0 -0.3143771009019008 0.40696215300746141 0 -0.3139104257603117 0.3925915308145107 0 -0.32938573740543442 0.39543370173855802 0 -0.3139104257603117 0.3925915308145107 0 -0.32938573740543442 0.39543370173855802 0 -0.32956234679876428 0.40712745336821932 0 -0.3143771009019008 0.40696215300746141 0 -0.32938573740543442 0.39543370173855802 0 -0.32956234679876428 0.40712745336821932 0 -0.32938573740543442 0.39543370173855802 0 -0.3392449345428899 0.40134817840760501 0 -0.32938573740543442 0.39543370173855802 0 -0.3392449345428899 0.40134817840760501 0 -0.34104359176005078 0.38736340953107279 0 -0.33651940769333011 0.36459832649772128 0 -0.34104359176005078 0.38736340953107279 0 -0.32478740921875232 0.37719165057972448 0 -0.32938573740543442 0.39543370173855802 0 -0.34104359176005078 0.38736340953107279 0 -0.32478740921875232 0.37719165057972448 0 -0.3139104257603117 0.3925915308145107 0 -0.32478740921875232 0.37719165057972448 0 -0.30915601656791608 0.37664185695615732 0 -0.3139104257603117 0.3925915308145107 0 -0.32938573740543442 0.39543370173855802 0 -0.32478740921875232 0.37719165057972448 0 -0.29727970547882371 0.36016857374717082 0 -0.30915601656791608 0.37664185695615732 0 -0.29843511411518903 0.38974935989046389 0 -0.3139104257603117 0.3925915308145107 0 -0.30915601656791608 0.37664185695615732 0 -0.29843511411518903 0.38974935989046389 0 -0.3143771009019008 0.40696215300746141 0 -0.3139104257603117 0.3925915308145107 0 -0.29843511411518903 0.38974935989046389 0 -0.29843511411518903 0.38974935989046389 0 -0.29951169589643267 0.41731201991784422 0 -0.3143771009019008 0.40696215300746141 0 -0.29843511411518903 0.38974935989046389 0 -0.29951169589643267 0.41731201991784422 0 -0.3139104257603117 0.3925915308145107 0 -0.29843511411518903 0.38974935989046389 0 -0.29843511411518903 0.38974935989046389 0 -0.27585015282712982 0.40592909306332292 0 -0.29951169589643267 0.41731201991784422 0 -0.29843511411518903 0.38974935989046389 0 -0.27344440860878672 0.38515960698657881 0 -0.27585015282712982 0.40592909306332292 0 -0.29727970547882371 0.36016857374717082 0 -0.29843511411518903 0.38974935989046389 0 -0.27344440860878672 0.38515960698657881 0 -0.29843511411518903 0.38974935989046389 0 -0.27344440860878672 0.38515960698657881 0 -0.27344440860878672 0.38515960698657881 0 -0.27585015282712982 0.40592909306332292 0 -0.2562373864728309 0.40082911238957819 0 -0.27344440860878672 0.38515960698657881 0 -0.2562373864728309 0.40082911238957819 0 -0.24845370310238429 0.38056985408269389 0 -0.27344440860878672 0.38515960698657881 0 -0.24845370310238429 0.38056985408269389 0 -0.26590780566577321 0.35946608178397732 0 -0.27344440860878672 0.38515960698657881 0 -0.24845370310238429 0.38056985408269389 0 -0.25904966188224088 0.42167139770751239 0 -0.26539854054665901 0.4468433087504235 0 -0.24873190447060811 0.43315478939237478 0 -0.2562373864728309 0.40082911238957819 0 -0.25904966188224088 0.42167139770751239 0 -0.24141887647674229 0.41105030794036729 0 -0.27585015282712982 0.40592909306332292 0 -0.2562373864728309 0.40082911238957819 0 -0.25904966188224088 0.42167139770751239 0 -0.27585015282712982 0.40592909306332292 0 -0.25904966188224088 0.42167139770751239 0 -0.27477689517956128 0.42543289880422352 0 -0.25904966188224088 0.42167139770751239 0 -0.27477689517956128 0.42543289880422352 0 -0.26539854054665901 0.4468433087504235 0 -0.27477689517956128 0.42543289880422352 0 -0.28448672830946781 0.43900426540140708 0 -0.26539854054665901 0.4468433087504235 0 -0.27477689517956128 0.42543289880422352 0 -0.29951169589643267 0.41731201991784422 0 -0.28448672830946781 0.43900426540140708 0 -0.29951169589643267 0.41731201991784422 0 -0.30058827767767821 0.44487467994522439 0 -0.28448672830946781 0.43900426540140708 0 -0.27585015282712982 0.40592909306332292 0 -0.27477689517956128 0.42543289880422352 0 -0.29951169589643267 0.41731201991784422 0 -0.31726479956590709 0.42360401558436728 0 -0.3143771009019008 0.40696215300746141 0 -0.29951169589643267 0.41731201991784422 0 -0.31726479956590709 0.42360401558436728 0 -0.29951169589643267 0.41731201991784422 0 -0.30058827767767821 0.44487467994522439 0 -0.29951169589643267 0.41731201991784422 0 -0.30058827767767821 0.44487467994522439 0 -0.30058827767767821 0.44487467994522439 0 -0.31500146132616103 0.4595478623778822 0 -0.32041491460294358 0.44857589857727409 0 -0.30058827767767821 0.44487467994522439 0 -0.30166485945892368 0.47243733997260462 0 -0.31500146132616103 0.4595478623778822 0 -0.30058827767767821 0.44487467994522439 0 -0.30166485945892368 0.47243733997260462 0 -0.30058827767767821 0.44487467994522439 0 -0.28468268532625701 0.45827044807350248 0 -0.30166485945892368 0.47243733997260462 0 -0.30058827767767821 0.44487467994522439 0 -0.28468268532625701 0.45827044807350248 0 -0.28448672830946781 0.43900426540140708 0 -0.28468268532625701 0.45827044807350248 0 -0.28448672830946781 0.43900426540140708 0 -0.26539854054665901 0.4468433087504235 0 -0.28468268532625701 0.45827044807350248 0 -0.26539854054665901 0.4468433087504235 0 -0.27217234476874019 0.47314560239823988 0 -0.25500413859051219 0.4680941148695173 0 -0.26539854054665901 0.4468433087504235 0 -0.2456360009372027 0.45543652626158249 0 -0.25500413859051219 0.4680941148695173 0 -0.26539854054665901 0.4468433087504235 0 -0.27217234476874019 0.47314560239823988 0 -0.26539854054665901 0.4468433087504235 0 -0.2456360009372027 0.45543652626158249 0 -0.24873190447060811 0.43315478939237478 0 -0.26054327632698437 0.5 0 -0.25814303810870892 0.48352537736724349 0 -0.23944419387039231 0.499999999999998 0 -0.25500413859051219 0.4680941148695173 0 -0.25814303810870892 0.48352537736724349 0 -0.27217234476874019 0.47314560239823988 0 -0.25500413859051219 0.4680941148695173 0 -0.25814303810870892 0.48352537736724349 0 -0.24254009740379739 0.47771826313079008 0 -0.25814303810870892 0.48352537736724349 0 -0.27217234476874019 0.47314560239823988 0 -0.28164235878357652 0.5 0 -0.27217234476874019 0.47314560239823988 0 -0.28164235878357652 0.5 0 -0.2876001908313493 0.48163343415661658 0 -0.26054327632698437 0.5 0 -0.25814303810870892 0.48352537736724349 0 -0.28164235878357652 0.5 0 -0.28164235878357652 0.5 0 -0.2876001908313493 0.48163343415661658 0 -0.30274144124016861 0.4999999999999849 0 -0.28468268532625701 0.45827044807350248 0 -0.2876001908313493 0.48163343415661658 0 -0.30166485945892368 0.47243733997260462 0 -0.28468268532625701 0.45827044807350248 0 -0.27217234476874019 0.47314560239823988 0 -0.2876001908313493 0.48163343415661658 0 -0.30166485945892368 0.47243733997260462 0 -0.30274144124016861 0.4999999999999849 0 -0.30166485945892368 0.47243733997260462 0 -0.30274144124016861 0.4999999999999849 0 -0.31442783594040108 0.48611680630140619 0 -0.2876001908313493 0.48163343415661658 0 -0.30166485945892368 0.47243733997260462 0 -0.30274144124016861 0.4999999999999849 0 -0.31442783594040108 0.48611680630140619 0 -0.32880577473934491 0.5 0 -0.32449926832316772 0.47202988523302009 0 -0.30274144124016861 0.4999999999999849 0 -0.31442783594040108 0.48611680630140619 0 -0.32880577473934491 0.5 0 -0.32449926832316772 0.47202988523302009 0 -0.33064271728247741 0.45956310850411608 0 -0.34854316787858203 0.47678186334205502 0 -0.32880577473934491 0.5 0 -0.32449926832316772 0.47202988523302009 0 -0.34854316787858203 0.47678186334205502 0 -0.30166485945892368 0.47243733997260462 0 -0.31442783594040108 0.48611680630140619 0 -0.32449926832316772 0.47202988523302009 0 -0.32449926832316772 0.47202988523302009 0 -0.31500146132616103 0.4595478623778822 0 -0.33064271728247741 0.45956310850411608 0 -0.30166485945892368 0.47243733997260462 0 -0.32449926832316772 0.47202988523302009 0 -0.31500146132616103 0.4595478623778822 0 -0.31500146132616103 0.4595478623778822 0 -0.32041491460294358 0.44857589857727409 0 -0.33064271728247741 0.45956310850411608 0 -0.32232861513860123 0.43634100893640981 0 -0.30058827767767821 0.44487467994522439 0 -0.32041491460294358 0.44857589857727409 0 -0.32041491460294358 0.44857589857727409 0 -0.33058585011417357 0.44522294630575099 0 -0.33064271728247741 0.45956310850411608 0 -0.32232861513860123 0.43634100893640981 0 -0.32041491460294358 0.44857589857727409 0 -0.33058585011417357 0.44522294630575099 0 -0.33588928715870348 0.43034559002616452 0 -0.33058585011417357 0.44522294630575099 0 -0.34221622751864272 0.45356372668410971 0 -0.33588928715870348 0.43034559002616452 0 -0.34221622751864272 0.45356372668410971 0 -0.33588928715870348 0.43034559002616452 0 -0.34296098629655919 0.44571326962324009 0 -0.34221622751864272 0.45356372668410971 0 -0.33058585011417357 0.44522294630575099 0 -0.33064271728247741 0.45956310850411608 0 -0.34221622751864272 0.45356372668410971 0 -0.33064271728247741 0.45956310850411608 0 -0.34221622751864272 0.45356372668410971 0 -0.34854316787858203 0.47678186334205502 0 -0.34221622751864272 0.45356372668410971 0 -0.34854316787858203 0.47678186334205502 0 -0.34221622751864272 0.45356372668410971 0 -0.36082030706571461 0.46079152000724888 0 -0.34854316787858203 0.47678186334205502 0 -0.34221622751864272 0.45356372668410971 0 -0.35317293993758869 0.44769824915219392 0 -0.36082030706571461 0.46079152000724888 0 -0.35437178974791389 0.43728319596041981 0 -0.34296098629655919 0.44571326962324009 0 -0.35317293993758869 0.44769824915219392 0 -0.34296098629655919 0.44571326962324009 0 -0.34221622751864272 0.45356372668410971 0 -0.35317293993758869 0.44769824915219392 0 -0.35437178974791389 0.43728319596041981 0 -0.35317293993758869 0.44769824915219392 0 -0.3663917225046523 0.44120497761748823 0 -0.35317293993758869 0.44769824915219392 0 -0.3663917225046523 0.44120497761748823 0 -0.36082030706571461 0.46079152000724888 0 -0.38255924817062459 0.46080331841165961 0 -0.3663917225046523 0.44120497761748823 0 -0.38255924817062459 0.46080331841165961 0 -0.3663917225046523 0.44120497761748823 0 -0.36082030706571461 0.46079152000724888 0 -0.38255924817062459 0.46080331841165961 0 -0.36082030706571461 0.46079152000724888 0 -0.3715286205093305 0.48032760134987018 0 -0.36082030706571461 0.46079152000724888 0 -0.3715286205093305 0.48032760134987018 0 -0.34854316787858203 0.47678186334205502 0 -0.38488220387054561 0.5 0 -0.3715286205093305 0.48032760134987018 0 -0.35487010823852128 0.50000000000000033 0 -0.35487010823852128 0.50000000000000033 0 -0.34854316787858203 0.47678186334205502 0 -0.32880577473934491 0.5 0 -0.35487010823852128 0.50000000000000033 0 -0.34854316787858203 0.47678186334205502 0 -0.3715286205093305 0.48032760134987018 0 -0.35487010823852128 0.50000000000000033 0 -0.34854316787858203 0.47678186334205502 0 -0.1522423770027384 0.48172584704233062 0 -0.13868413740602051 0.46867420698139561 0 -0.16304684618541709 0.46476026311917118 0 -0.1522423770027384 0.48172584704233062 0 -0.12947676071499509 0.5 0 -0.1569686190038444 0.5 0 -0.1522423770027384 0.48172584704233062 0 -0.12947676071499509 0.5 0 -0.12966352707213161 0.48155880838476062 0 -0.12966352707213161 0.48155880838476062 0 -0.13868413740602051 0.46867420698139561 0 -0.1144336571574586 0.46940026920988942 0 -0.1522423770027384 0.48172584704233062 0 -0.12966352707213161 0.48155880838476062 0 -0.13868413740602051 0.46867420698139561 0 -0.1267958359843202 0.45867097568239579 0 -0.13868413740602051 0.46867420698139561 0 -0.1474683405610715 0.45413014247026168 0 -0.1267958359843202 0.45867097568239579 0 -0.13868413740602051 0.46867420698139561 0 -0.1144336571574586 0.46940026920988942 0 -0.1267958359843202 0.45867097568239579 0 -0.13377526940030929 0.44557972276089131 0 -0.1474683405610715 0.45413014247026168 0 -0.1267958359843202 0.45867097568239579 0 -0.13377526940030929 0.44557972276089131 0 -0.1160332318979071 0.44897771251094198 0 -0.13377526940030929 0.44557972276089131 0 -0.12082010792306611 0.43042569887905707 0 -0.13377526940030929 0.44557972276089131 0 -0.15397771904471591 0.43759525711320663 0 -0.1474683405610715 0.45413014247026168 0 -0.13868413740602051 0.46867420698139561 0 -0.1474683405610715 0.45413014247026168 0 -0.16304684618541709 0.46476026311917118 0 -0.1474683405610715 0.45413014247026168 0 -0.16304684618541709 0.46476026311917118 0 -0.16853023534564621 0.44950042916451011 0 -0.15397771904471591 0.43759525711320663 0 -0.1474683405610715 0.45413014247026168 0 -0.16853023534564621 0.44950042916451011 0 -0.15397771904471591 0.43759525711320663 0 -0.16853023534564621 0.44950042916451011 0 -0.17477394416907929 0.43329222753905722 0 -0.18542603523752491 0.45502271909489922 0 -0.19337975204716559 0.43306565967744121 0 -0.17477394416907929 0.43329222753905722 0 -0.16853023534564621 0.44950042916451011 0 -0.18542603523752491 0.45502271909489922 0 -0.17477394416907929 0.43329222753905722 0 -0.16304684618541709 0.46476026311917118 0 -0.16853023534564621 0.44950042916451011 0 -0.18542603523752491 0.45502271909489922 0 -0.16304684618541709 0.46476026311917118 0 -0.18542603523752491 0.45502271909489922 0 -0.18002378105623981 0.47804074750249897 0 -0.1522423770027384 0.48172584704233062 0 -0.16304684618541709 0.46476026311917118 0 -0.18002378105623981 0.47804074750249897 0 -0.1522423770027384 0.48172584704233062 0 -0.18002378105623981 0.47804074750249897 0 -0.1569686190038444 0.5 0 -0.18002378105623981 0.47804074750249897 0 -0.1569686190038444 0.5 0 -0.18446047729269369 0.5 0 -0.18446047729269369 0.5 0 -0.2065034836442243 0.47863539416015061 0 -0.21195233558154289 0.5 0 -0.18002378105623981 0.47804074750249897 0 -0.18446047729269369 0.5 0 -0.2065034836442243 0.47863539416015061 0 -0.18002378105623981 0.47804074750249897 0 -0.2065034836442243 0.47863539416015061 0 -0.1981647620429598 0.46409301078233989 0 -0.2065034836442243 0.47863539416015061 0 -0.21206334637821939 0.45890428878586398 0 -0.2065034836442243 0.47863539416015061 0 -0.22522218222811971 0.46887116523827033 0 -0.21206334637821939 0.45890428878586398 0 -0.2065034836442243 0.47863539416015061 0 -0.21195233558154289 0.5 0 -0.22513245854561531 0.48504496450584222 0 -0.21195233558154289 0.5 0 -0.22513245854561531 0.48504496450584222 0 -0.23944419387039231 0.499999999999998 0 -0.22513245854561531 0.48504496450584222 0 -0.22522218222811971 0.46887116523827033 0 -0.24254009740379739 0.47771826313079008 0 -0.2065034836442243 0.47863539416015061 0 -0.22513245854561531 0.48504496450584222 0 -0.22522218222811971 0.46887116523827033 0 -0.25814303810870892 0.48352537736724349 0 -0.24254009740379739 0.47771826313079008 0 -0.23944419387039231 0.499999999999998 0 -0.24254009740379739 0.47771826313079008 0 -0.23944419387039231 0.499999999999998 0 -0.22513245854561531 0.48504496450584222 0 -0.24254009740379739 0.47771826313079008 0 -0.23944419387039231 0.499999999999998 0 -0.2456360009372027 0.45543652626158249 0 -0.23368144854744369 0.43766116555807189 0 -0.24873190447060811 0.43315478939237478 0 -0.2456360009372027 0.45543652626158249 0 -0.22684523744064 0.45200926585107332 0 -0.23368144854744369 0.43766116555807189 0 -0.2456360009372027 0.45543652626158249 0 -0.24873190447060811 0.43315478939237478 0 -0.22522218222811971 0.46887116523827033 0 -0.24254009740379739 0.47771826313079008 0 -0.2456360009372027 0.45543652626158249 0 -0.25500413859051219 0.4680941148695173 0 -0.24254009740379739 0.47771826313079008 0 -0.2456360009372027 0.45543652626158249 0 -0.24254009740379739 0.47771826313079008 0 -0.2456360009372027 0.45543652626158249 0 -0.22522218222811971 0.46887116523827033 0 -0.22684523744064 0.45200926585107332 0 -0.21206334637821939 0.45890428878586398 0 -0.22522218222811971 0.46887116523827033 0 -0.2456360009372027 0.45543652626158249 0 -0.22684523744064 0.45200926585107332 0 -0.22684523744064 0.45200926585107332 0 -0.23368144854744369 0.43766116555807189 0 -0.2176232091122145 0.43917318341157741 0 -0.22684523744064 0.45200926585107332 0 -0.2176232091122145 0.43917318341157741 0 -0.21206334637821939 0.45890428878586398 0 -0.2176232091122145 0.43917318341157741 0 -0.21206334637821939 0.45890428878586398 0 -0.2035464096017445 0.4467462122422311 0 -0.2176232091122145 0.43917318341157741 0 -0.20802320536481889 0.43049691720305711 0 -0.2035464096017445 0.4467462122422311 0 -0.2176232091122145 0.43917318341157741 0 -0.21206334637821939 0.45890428878586398 0 -0.2035464096017445 0.4467462122422311 0 -0.21206334637821939 0.45890428878586398 0 -0.1981647620429598 0.46409301078233989 0 -0.2065034836442243 0.47863539416015061 0 -0.21206334637821939 0.45890428878586398 0 -0.1981647620429598 0.46409301078233989 0 -0.18542603523752491 0.45502271909489922 0 -0.2035464096017445 0.4467462122422311 0 -0.1981647620429598 0.46409301078233989 0 -0.18542603523752491 0.45502271909489922 0 -0.18002378105623981 0.47804074750249897 0 -0.1981647620429598 0.46409301078233989 0 -0.18542603523752491 0.45502271909489922 0 -0.2035464096017445 0.4467462122422311 0 -0.19337975204716559 0.43306565967744121 0 -0.19337975204716559 0.43306565967744121 0 -0.20327009004426061 0.41868353390577379 0 -0.18290654173431581 0.41478559815108779 0 -0.2035464096017445 0.4467462122422311 0 -0.19337975204716559 0.43306565967744121 0 -0.20802320536481889 0.43049691720305711 0 -0.19337975204716559 0.43306565967744121 0 -0.20327009004426061 0.41868353390577379 0 -0.20802320536481889 0.43049691720305711 0 -0.20327009004426061 0.41868353390577379 0 -0.19996978581271979 0.40530766202793062 0 -0.18290654173431581 0.41478559815108779 0 -0.20940008801467169 0.41051012066930381 0 -0.22318307184620861 0.4194420780372905 0 -0.21117740435549801 0.39860720870622018 0 -0.22318307184620861 0.4194420780372905 0 -0.21117740435549801 0.39860720870622018 0 -0.20940008801467169 0.41051012066930381 0 -0.20327009004426061 0.41868353390577379 0 -0.22318307184620861 0.4194420780372905 0 -0.20940008801467169 0.41051012066930381 0 -0.20327009004426061 0.41868353390577379 0 -0.19996978581271979 0.40530766202793062 0 -0.2176232091122145 0.43917318341157741 0 -0.20802320536481889 0.43049691720305711 0 -0.22318307184620861 0.4194420780372905 0 -0.20327009004426061 0.41868353390577379 0 -0.20802320536481889 0.43049691720305711 0 -0.22318307184620861 0.4194420780372905 0 -0.23368144854744369 0.43766116555807189 0 -0.2176232091122145 0.43917318341157741 0 -0.22318307184620861 0.4194420780372905 0 -0.23368144854744369 0.43766116555807189 0 -0.22318307184620861 0.4194420780372905 0 -0.24121299264464871 0.42459594772712328 0 -0.23368144854744369 0.43766116555807189 0 -0.22318307184620861 0.4194420780372905 0 -0.2176232091122145 0.43917318341157741 0 -0.22318307184620861 0.4194420780372905 0 -0.22318307184620861 0.4194420780372905 0 -0.24141887647674229 0.41105030794036729 0 -0.22891086136973951 0.39911502608338523 0 -0.22318307184620861 0.4194420780372905 0 -0.22891086136973951 0.39911502608338523 0 -0.25904966188224088 0.42167139770751239 0 -0.24141887647674229 0.41105030794036729 0 -0.24121299264464871 0.42459594772712328 0 -0.22318307184620861 0.4194420780372905 0 -0.24141887647674229 0.41105030794036729 0 -0.24121299264464871 0.42459594772712328 0 -0.25904966188224088 0.42167139770751239 0 -0.24873190447060811 0.43315478939237478 0 -0.24121299264464871 0.42459594772712328 0 -0.23368144854744369 0.43766116555807189 0 -0.24873190447060811 0.43315478939237478 0 -0.24121299264464871 0.42459594772712328 0 -0.2362418319263867 0.38727070151104981 0 -0.24845370310238429 0.38056985408269389 0 -0.242417826312576 0.39684498769721338 0 -0.2362418319263867 0.38727070151104981 0 -0.24845370310238429 0.38056985408269389 0 -0.23297606140753579 0.37379621613183378 0 -0.2562373864728309 0.40082911238957819 0 -0.24845370310238429 0.38056985408269389 0 -0.242417826312576 0.39684498769721338 0 -0.2562373864728309 0.40082911238957819 0 -0.24141887647674229 0.41105030794036729 0 -0.242417826312576 0.39684498769721338 0 -0.24141887647674229 0.41105030794036729 0 -0.242417826312576 0.39684498769721338 0 -0.22891086136973951 0.39911502608338523 0 -0.2362418319263867 0.38727070151104981 0 -0.242417826312576 0.39684498769721338 0 -0.22891086136973951 0.39911502608338523 0 -0.22318307184620861 0.4194420780372905 0 -0.22891086136973951 0.39911502608338523 0 -0.2163878446198198 0.39920940400501981 0 -0.2362418319263867 0.38727070151104981 0 -0.22891086136973951 0.39911502608338523 0 -0.22608352042917179 0.3856885042311084 0 -0.22891086136973951 0.39911502608338523 0 -0.22608352042917179 0.3856885042311084 0 -0.2163878446198198 0.39920940400501981 0 -0.22608352042917179 0.3856885042311084 0 -0.2169372578135669 0.37008514267490972 0 -0.23297606140753579 0.37379621613183378 0 -0.22608352042917179 0.3856885042311084 0 -0.2163878446198198 0.39920940400501981 0 -0.2169372578135669 0.37008514267490972 0 -0.2362418319263867 0.38727070151104981 0 -0.22608352042917179 0.3856885042311084 0 -0.23297606140753579 0.37379621613183378 0 -0.2163878446198198 0.39920940400501981 0 -0.2169372578135669 0.37008514267490972 0 -0.21141119613187351 0.38408248711004328 0 -0.21117740435549801 0.39860720870622018 0 -0.19917173686478881 0.37777233937514909 0 -0.21117740435549801 0.39860720870622018 0 -0.20033951658313981 0.39449154471810449 0 -0.19917173686478881 0.37777233937514909 0 -0.21141119613187351 0.38408248711004328 0 -0.20867859820700879 0.37286407442207681 0 -0.2169372578135669 0.37008514267490972 0 -0.21117740435549801 0.39860720870622018 0 -0.19917173686478881 0.37777233937514909 0 -0.21141119613187351 0.38408248711004328 0 -0.2163878446198198 0.39920940400501981 0 -0.2169372578135669 0.37008514267490972 0 -0.21141119613187351 0.38408248711004328 0 -0.19917173686478881 0.37777233937514909 0 -0.20867859820700879 0.37286407442207681 0 -0.22318307184620861 0.4194420780372905 0 -0.2163878446198198 0.39920940400501981 0 -0.21117740435549801 0.39860720870622018 0 -0.21141119613187351 0.38408248711004328 0 -0.2163878446198198 0.39920940400501981 0 -0.21117740435549801 0.39860720870622018 0 -0.20940008801467169 0.41051012066930381 0 -0.21117740435549801 0.39860720870622018 0 -0.19996978581271979 0.40530766202793062 0 -0.21117740435549801 0.39860720870622018 0 -0.19996978581271979 0.40530766202793062 0 -0.20033951658313981 0.39449154471810449 0 -0.19996978581271979 0.40530766202793062 0 -0.19103913929955241 0.39627896876311852 0 -0.18290654173431581 0.41478559815108779 0 -0.19996978581271979 0.40530766202793062 0 -0.20033951658313981 0.39449154471810449 0 -0.19103913929955241 0.39627896876311852 0 -0.19103913929955241 0.39627896876311852 0 -0.19917173686478881 0.37777233937514909 0 -0.1893899989584672 0.37880801403202818 0 -0.19103913929955241 0.39627896876311852 0 -0.19917173686478881 0.37777233937514909 0 -0.20033951658313981 0.39449154471810449 0 -0.19103913929955241 0.39627896876311852 0 -0.19917173686478881 0.37777233937514909 0 -0.19103913929955241 0.39627896876311852 0 -0.18069231337234631 0.38172311694951599 0 -0.17206204292899269 0.39087930797309017 0 -0.1893899989584672 0.37880801403202818 0 -0.18069231337234631 0.38172311694951599 0 -0.1824188184201799 0.3701140375352665 0 -0.19103913929955241 0.39627896876311852 0 -0.1893899989584672 0.37880801403202818 0 -0.18069231337234631 0.38172311694951599 0 -0.18069231337234631 0.38172311694951599 0 -0.1674309299229256 0.37532015818575121 0 -0.17206204292899269 0.39087930797309017 0 -0.18069231337234631 0.38172311694951599 0 -0.1674309299229256 0.37532015818575121 0 -0.1824188184201799 0.3701140375352665 0 -0.1674309299229256 0.37532015818575121 0 -0.17206204292899269 0.39087930797309017 0 -0.1529385870839535 0.38737130825222782 0 -0.16303303954714829 0.40200977532569943 0 -0.17206204292899269 0.39087930797309017 0 -0.1529385870839535 0.38737130825222782 0 -0.16303303954714829 0.40200977532569943 0 -0.17669602595815509 0.40305619904349721 0 -0.17206204292899269 0.39087930797309017 0 -0.19103913929955241 0.39627896876311852 0 -0.17669602595815509 0.40305619904349721 0 -0.17206204292899269 0.39087930797309017 0 -0.19103913929955241 0.39627896876311852 0 -0.18290654173431581 0.41478559815108779 0 -0.19103913929955241 0.39627896876311852 0 -0.17669602595815509 0.40305619904349721 0 -0.18290654173431581 0.41478559815108779 0 -0.17669602595815509 0.40305619904349721 0 -0.18290654173431581 0.41478559815108779 0 -0.16673547056542029 0.41819945170794548 0 -0.19337975204716559 0.43306565967744121 0 -0.18290654173431581 0.41478559815108779 0 -0.17477394416907929 0.43329222753905722 0 -0.18290654173431581 0.41478559815108779 0 -0.17477394416907929 0.43329222753905722 0 -0.16673547056542029 0.41819945170794548 0 -0.18290654173431581 0.41478559815108779 0 -0.17477394416907929 0.43329222753905722 0 -0.15397771904471591 0.43759525711320663 0 -0.16673547056542029 0.41819945170794548 0 -0.14848333054923241 0.41894133175639298 0 -0.15397771904471591 0.43759525711320663 0 -0.17477394416907929 0.43329222753905722 0 -0.16673547056542029 0.41819945170794548 0 -0.16303303954714829 0.40200977532569943 0 -0.16673547056542029 0.41819945170794548 0 -0.14848333054923241 0.41894133175639298 0 -0.16303303954714829 0.40200977532569943 0 -0.17669602595815509 0.40305619904349721 0 -0.16673547056542029 0.41819945170794548 0 -0.16303303954714829 0.40200977532569943 0 -0.14848333054923241 0.41894133175639298 0 -0.1472819566861148 0.40301337469763032 0 -0.14848333054923241 0.41894133175639298 0 -0.1313213532090734 0.41113001782904529 0 -0.1472819566861148 0.40301337469763032 0 -0.15397771904471591 0.43759525711320663 0 -0.14848333054923241 0.41894133175639298 0 -0.13724985773566831 0.42929242893404529 0 -0.13377526940030929 0.44557972276089131 0 -0.15397771904471591 0.43759525711320663 0 -0.13724985773566831 0.42929242893404529 0 -0.13377526940030929 0.44557972276089131 0 -0.13724985773566831 0.42929242893404529 0 -0.12082010792306611 0.43042569887905707 0 -0.13724985773566831 0.42929242893404529 0 -0.1313213532090734 0.41113001782904529 0 -0.12082010792306611 0.43042569887905707 0 -0.14848333054923241 0.41894133175639298 0 -0.13724985773566831 0.42929242893404529 0 -0.1313213532090734 0.41113001782904529 0 -0.1313213532090734 0.41113001782904529 0 -0.13807505776363979 0.39085552694517778 0 -0.11973758243547 0.38919386831498792 0 -0.1313213532090734 0.41113001782904529 0 -0.13807505776363979 0.39085552694517778 0 -0.1472819566861148 0.40301337469763032 0 -0.13807505776363979 0.39085552694517778 0 -0.11650959400802351 0.37472458362809219 0 -0.13807505776363979 0.39085552694517778 0 -0.13734942174675069 0.37802100291371399 0 -0.11650959400802351 0.37472458362809219 0 -0.13734942174675069 0.37802100291371399 0 -0.1529385870839535 0.38737130825222782 0 -0.14798387188802969 0.37151765472768861 0 -0.1674309299229256 0.37532015818575121 0 -0.1529385870839535 0.38737130825222782 0 -0.14798387188802969 0.37151765472768861 0 -0.13807505776363979 0.39085552694517778 0 -0.13734942174675069 0.37802100291371399 0 -0.1529385870839535 0.38737130825222782 0 -0.16303303954714829 0.40200977532569943 0 -0.1529385870839535 0.38737130825222782 0 -0.1472819566861148 0.40301337469763032 0 -0.13807505776363979 0.39085552694517778 0 -0.1529385870839535 0.38737130825222782 0 -0.1472819566861148 0.40301337469763032 0 -0.1366108547457911 0.35162921491344268 0 -0.16281279222080239 0.34817291583604959 0 -0.1366108547457911 0.35162921491344268 0 -0.15363378597220001 0.333345633030809 0 -0.16281279222080239 0.34817291583604959 0 -0.14777357290790069 0.35995868575400319 0 -0.1366108547457911 0.35162921491344268 0 -0.16281279222080239 0.34817291583604959 0 -0.14798387188802969 0.37151765472768861 0 -0.14777357290790069 0.35995868575400319 0 -0.1312399979901071 0.36563594101538333 0 -0.14798387188802969 0.37151765472768861 0 -0.14777357290790069 0.35995868575400319 0 -0.16022034769477361 0.36283770227745182 0 -0.13734942174675069 0.37802100291371399 0 -0.14798387188802969 0.37151765472768861 0 -0.1312399979901071 0.36563594101538333 0 -0.13734942174675069 0.37802100291371399 0 -0.1312399979901071 0.36563594101538333 0 -0.11650959400802351 0.37472458362809219 0 -0.1366108547457911 0.35162921491344268 0 -0.12791978000772619 0.33479897463764569 0 -0.11591733192179279 0.35343262078539323 0 -0.1312399979901071 0.36563594101538333 0 -0.1366108547457911 0.35162921491344268 0 -0.11591733192179279 0.35343262078539323 0 -0.14777357290790069 0.35995868575400319 0 -0.1312399979901071 0.36563594101538333 0 -0.1366108547457911 0.35162921491344268 0 -0.1366108547457911 0.35162921491344268 0 -0.12791978000772619 0.33479897463764569 0 -0.15363378597220001 0.333345633030809 0 -0.12791978000772619 0.33479897463764569 0 -0.13791580228826081 0.31499264972333441 0 -0.14983227072413191 0.32057296941148561 0 -0.12791978000772619 0.33479897463764569 0 -0.12560240457010119 0.31710595248074119 0 -0.13791580228826081 0.31499264972333441 0 -0.13791580228826081 0.31499264972333441 0 -0.14983227072413191 0.32057296941148561 0 -0.14720636284460301 0.3057338663989726 0 -0.14983227072413191 0.32057296941148561 0 -0.1620393192720527 0.31217089240228268 0 -0.14720636284460301 0.3057338663989726 0 -0.12791978000772619 0.33479897463764569 0 -0.15363378597220001 0.333345633030809 0 -0.12791978000772619 0.33479897463764569 0 -0.14983227072413191 0.32057296941148561 0 -0.15363378597220001 0.333345633030809 0 -0.15363378597220001 0.333345633030809 0 -0.17934779193667369 0.33189229142397231 0 -0.15363378597220001 0.333345633030809 0 -0.16654032997903059 0.32239562426095958 0 -0.17934779193667369 0.33189229142397231 0 -0.15363378597220001 0.333345633030809 0 -0.17934779193667369 0.33189229142397231 0 -0.16281279222080239 0.34817291583604959 0 -0.16654032997903059 0.32239562426095958 0 -0.1803719940282586 0.31399598300642911 0 -0.1620393192720527 0.31217089240228268 0 -0.14983227072413191 0.32057296941148561 0 -0.15363378597220001 0.333345633030809 0 -0.16654032997903059 0.32239562426095958 0 -0.14983227072413191 0.32057296941148561 0 -0.16654032997903059 0.32239562426095958 0 -0.1620393192720527 0.31217089240228268 0 -0.1803719940282586 0.31399598300642911 0 -0.17934779193667369 0.33189229142397231 0 -0.1930596858885143 0.32014456029893229 0 -0.16654032997903059 0.32239562426095958 0 -0.1803719940282586 0.31399598300642911 0 -0.17934779193667369 0.33189229142397231 0 -0.17934779193667369 0.33189229142397231 0 -0.16281279222080239 0.34817291583604959 0 -0.18901472969581351 0.34471661675865661 0 -0.16281279222080239 0.34817291583604959 0 -0.17492962826200731 0.3598591886413785 0 -0.18901472969581351 0.34471661675865661 0 -0.16281279222080239 0.34817291583604959 0 -0.18901472969581351 0.34471661675865661 0 -0.17492962826200731 0.3598591886413785 0 -0.18901472969581351 0.34471661675865661 0 -0.18768390313205141 0.35906575872370661 0 -0.16281279222080239 0.34817291583604959 0 -0.16022034769477361 0.36283770227745182 0 -0.17492962826200731 0.3598591886413785 0 -0.14777357290790069 0.35995868575400319 0 -0.16281279222080239 0.34817291583604959 0 -0.16022034769477361 0.36283770227745182 0 -0.1674309299229256 0.37532015818575121 0 -0.14798387188802969 0.37151765472768861 0 -0.16022034769477361 0.36283770227745182 0 -0.1674309299229256 0.37532015818575121 0 -0.16022034769477361 0.36283770227745182 0 -0.17492962826200731 0.3598591886413785 0 -0.1674309299229256 0.37532015818575121 0 -0.17492962826200731 0.3598591886413785 0 -0.1824188184201799 0.3701140375352665 0 -0.17492962826200731 0.3598591886413785 0 -0.1824188184201799 0.3701140375352665 0 -0.18768390313205141 0.35906575872370661 0 -0.19917173686478881 0.37777233937514909 0 -0.1893899989584672 0.37880801403202818 0 -0.19362798683546861 0.36815160753709109 0 -0.19917173686478881 0.37777233937514909 0 -0.19362798683546861 0.36815160753709109 0 -0.20719420201780619 0.35951632852820498 0 -0.1893899989584672 0.37880801403202818 0 -0.1824188184201799 0.3701140375352665 0 -0.19362798683546861 0.36815160753709109 0 -0.19362798683546861 0.36815160753709109 0 -0.18768390313205141 0.35906575872370661 0 -0.1970909899899797 0.35608021679234758 0 -0.1824188184201799 0.3701140375352665 0 -0.19362798683546861 0.36815160753709109 0 -0.18768390313205141 0.35906575872370661 0 -0.19362798683546861 0.36815160753709109 0 -0.1970909899899797 0.35608021679234758 0 -0.20719420201780619 0.35951632852820498 0 -0.19917173686478881 0.37777233937514909 0 -0.19362798683546861 0.36815160753709109 0 -0.18901472969581351 0.34471661675865661 0 -0.20212914721860589 0.35039336994011772 0 -0.21521666717082441 0.34126031768126142 0 -0.18901472969581351 0.34471661675865661 0 -0.18768390313205141 0.35906575872370661 0 -0.1970909899899797 0.35608021679234758 0 -0.1970909899899797 0.35608021679234758 0 -0.20212914721860589 0.35039336994011772 0 -0.20719420201780619 0.35951632852820498 0 -0.18901472969581351 0.34471661675865661 0 -0.1970909899899797 0.35608021679234758 0 -0.20212914721860589 0.35039336994011772 0 -0.20719420201780619 0.35951632852820498 0 -0.21521666717082441 0.34126031768126142 0 -0.2169372578135669 0.37008514267490972 0 -0.21748667100731431 0.34096088134479963 0 -0.20212914721860589 0.35039336994011772 0 -0.20719420201780619 0.35951632852820498 0 -0.21521666717082441 0.34126031768126142 0 -0.20719420201780619 0.35951632852820498 0 -0.2169372578135669 0.37008514267490972 0 -0.21748667100731431 0.34096088134479963 0 -0.2169372578135669 0.37008514267490972 0 -0.22045922708976129 0.34556122849534537 0 -0.21748667100731431 0.34096088134479963 0 -0.20719420201780619 0.35951632852820498 0 -0.21748667100731431 0.34096088134479963 0 -0.21521666717082441 0.34126031768126142 0 -0.19917173686478881 0.37777233937514909 0 -0.20867859820700879 0.37286407442207681 0 -0.20719420201780619 0.35951632852820498 0 -0.19917173686478881 0.37777233937514909 0 -0.20719420201780619 0.35951632852820498 0 -0.20867859820700879 0.37286407442207681 0 -0.20719420201780619 0.35951632852820498 0 -0.2169372578135669 0.37008514267490972 0 -0.2169372578135669 0.37008514267490972 0 -0.23297606140753579 0.37379621613183378 0 -0.22825273703271051 0.35952574437787022 0 -0.23297606140753579 0.37379621613183378 0 -0.22825273703271051 0.35952574437787022 0 -0.24188731814099471 0.35963734991337148 0 -0.2169372578135669 0.37008514267490972 0 -0.22825273703271051 0.35952574437787022 0 -0.22045922708976129 0.34556122849534537 0 -0.22045922708976129 0.34556122849534537 0 -0.23342499627230259 0.34823298233330191 0 -0.22669056009033631 0.33974679580718009 0 -0.22825273703271051 0.35952574437787022 0 -0.22045922708976129 0.34556122849534537 0 -0.23342499627230259 0.34823298233330191 0 -0.22825273703271051 0.35952574437787022 0 -0.23342499627230259 0.34823298233330191 0 -0.24188731814099471 0.35963734991337148 0 -0.23342499627230259 0.34823298233330191 0 -0.24188731814099471 0.35963734991337148 0 -0.24983513900771001 0.33669379307274189 0 -0.24845370310238429 0.38056985408269389 0 -0.23297606140753579 0.37379621613183378 0 -0.24188731814099471 0.35963734991337148 0 -0.2435433012781098 0.32402156827748152 0 -0.22779468389383911 0.32626011208661437 0 -0.23335823039036399 0.30723765731741848 0 -0.26039604246588288 0.30829634074778228 0 -0.2435433012781098 0.32402156827748152 0 -0.23335823039036399 0.30723765731741848 0 -0.24983513900771001 0.33669379307274189 0 -0.22669056009033631 0.33974679580718009 0 -0.23342499627230259 0.34823298233330191 0 -0.24983513900771001 0.33669379307274189 0 -0.22669056009033631 0.33974679580718009 0 -0.2435433012781098 0.32402156827748152 0 -0.22669056009033631 0.33974679580718009 0 -0.2435433012781098 0.32402156827748152 0 -0.24983513900771001 0.33669379307274189 0 -0.22669056009033631 0.33974679580718009 0 -0.2435433012781098 0.32402156827748152 0 -0.22669056009033631 0.33974679580718009 0 -0.22779468389383911 0.32626011208661437 0 -0.22779468389383911 0.32626011208661437 0 -0.21789465670307051 0.31933365768619187 0 -0.21748667100731431 0.34096088134479963 0 -0.22045922708976129 0.34556122849534537 0 -0.22669056009033631 0.33974679580718009 0 -0.21748667100731431 0.34096088134479963 0 -0.22669056009033631 0.33974679580718009 0 -0.21748667100731431 0.34096088134479963 0 -0.22045922708976129 0.34556122849534537 0 -0.22669056009033631 0.33974679580718009 0 -0.22669056009033631 0.33974679580718009 0 -0.22779468389383911 0.32626011208661437 0 -0.21748667100731431 0.34096088134479963 0 -0.22779468389383911 0.32626011208661437 0 -0.21789465670307051 0.31933365768619187 0 -0.23335823039036399 0.30723765731741848 0 -0.21789465670307051 0.31933365768619187 0 -0.20512104286413141 0.31497801071883208 0 -0.2050617979011474 0.33043894981713562 0 -0.21789465670307051 0.31933365768619187 0 -0.21748667100731431 0.34096088134479963 0 -0.21691464507151589 0.33739638030270402 0 -0.21789465670307051 0.31933365768619187 0 -0.21691464507151589 0.33739638030270402 0 -0.2050617979011474 0.33043894981713562 0 -0.21789465670307051 0.31933365768619187 0 -0.21748667100731431 0.34096088134479963 0 -0.21521666717082441 0.34126031768126142 0 -0.21691464507151589 0.33739638030270402 0 -0.2050617979011474 0.33043894981713562 0 -0.21748667100731431 0.34096088134479963 0 -0.21521666717082441 0.34126031768126142 0 -0.21691464507151589 0.33739638030270402 0 -0.21748667100731431 0.34096088134479963 0 -0.21521666717082441 0.34126031768126142 0 -0.21521666717082441 0.34126031768126142 0 -0.21691464507151589 0.33739638030270402 0 -0.18901472969581351 0.34471661675865661 0 -0.21521666717082441 0.34126031768126142 0 -0.2050617979011474 0.33043894981713562 0 -0.17934779193667369 0.33189229142397231 0 -0.2050617979011474 0.33043894981713562 0 -0.18901472969581351 0.34471661675865661 0 -0.21521666717082441 0.34126031768126142 0 -0.17934779193667369 0.33189229142397231 0 -0.18901472969581351 0.34471661675865661 0 -0.2050617979011474 0.33043894981713562 0 -0.17934779193667369 0.33189229142397231 0 -0.2050617979011474 0.33043894981713562 0 -0.1930596858885143 0.32014456029893229 0 -0.20512104286413141 0.31497801071883208 0 -0.1930596858885143 0.32014456029893229 0 -0.19491793065776619 0.30630318623352659 0 -0.20512104286413141 0.31497801071883208 0 -0.2050617979011474 0.33043894981713562 0 -0.1930596858885143 0.32014456029893229 0 -0.1803719940282586 0.31399598300642911 0 -0.1930596858885143 0.32014456029893229 0 -0.19491793065776619 0.30630318623352659 0 -0.19491793065776619 0.30630318623352659 0 -0.19816668555922179 0.28564370920804588 0 -0.2146711431701587 0.29866969955837391 0 -0.19491793065776619 0.30630318623352659 0 -0.19816668555922179 0.28564370920804588 0 -0.17827906456921899 0.29619299193246279 0 -0.19816668555922179 0.28564370920804588 0 -0.18629286406406589 0.28013169135567367 0 -0.17827906456921899 0.29619299193246279 0 -0.19816668555922179 0.28564370920804588 0 -0.2146711431701587 0.29866969955837391 0 -0.21720884445778599 0.27396335271732403 0 -0.20512104286413141 0.31497801071883208 0 -0.19491793065776619 0.30630318623352659 0 -0.2146711431701587 0.29866969955837391 0 -0.21789465670307051 0.31933365768619187 0 -0.20512104286413141 0.31497801071883208 0 -0.2146711431701587 0.29866969955837391 0 -0.21789465670307051 0.31933365768619187 0 -0.2146711431701587 0.29866969955837391 0 -0.23335823039036399 0.30723765731741848 0 -0.2146711431701587 0.29866969955837391 0 -0.23335823039036399 0.30723765731741848 0 -0.23350549252519001 0.28470222544348178 0 -0.2146711431701587 0.29866969955837391 0 -0.23350549252519001 0.28470222544348178 0 -0.21720884445778599 0.27396335271732403 0 -0.23335823039036399 0.30723765731741848 0 -0.23350549252519001 0.28470222544348178 0 -0.24858375307643399 0.29415840385460079 0 -0.25410133412782288 0.27542004727808478 0 -0.23350549252519001 0.28470222544348178 0 -0.24858375307643399 0.29415840385460079 0 -0.26039604246588288 0.30829634074778228 0 -0.23335823039036399 0.30723765731741848 0 -0.24858375307643399 0.29415840385460079 0 -0.2530006538760543 0.25196158340302638 0 -0.2366797496422135 0.26537994850421232 0 -0.22299107035549329 0.24736588412182611 0 -0.25410133412782288 0.27542004727808478 0 -0.2530006538760543 0.25196158340302638 0 -0.2366797496422135 0.26537994850421232 0 -0.25410133412782288 0.27542004727808478 0 -0.23350549252519001 0.28470222544348178 0 -0.2366797496422135 0.26537994850421232 0 -0.23350549252519001 0.28470222544348178 0 -0.2366797496422135 0.26537994850421232 0 -0.21720884445778599 0.27396335271732403 0 -0.2366797496422135 0.26537994850421232 0 -0.21720884445778599 0.27396335271732403 0 -0.22299107035549329 0.24736588412182611 0 -0.19723892549443869 0.26201864946800402 0 -0.22299107035549329 0.24736588412182611 0 -0.21720884445778599 0.27396335271732403 0 -0.19723892549443869 0.26201864946800402 0 -0.22299107035549329 0.24736588412182611 0 -0.19816668555922179 0.28564370920804588 0 -0.21720884445778599 0.27396335271732403 0 -0.19723892549443869 0.26201864946800402 0 -0.19816668555922179 0.28564370920804588 0 -0.19723892549443869 0.26201864946800402 0 -0.18629286406406589 0.28013169135567367 0 -0.19723892549443869 0.26201864946800402 0 -0.1647280614283719 0.25724630546540889 0 -0.17148678063338441 0.27667141481418223 0 -0.19723892549443869 0.26201864946800402 0 -0.1647280614283719 0.25724630546540889 0 -0.18073738231189571 0.23274069252881391 0 -0.1647280614283719 0.25724630546540889 0 -0.1618093319770971 0.26171403115596009 0 -0.16234452356569831 0.26710305351785563 0 -0.1647280614283719 0.25724630546540889 0 -0.1618093319770971 0.26171403115596009 0 -0.15534159207770651 0.25734982888074609 0 -0.1647280614283719 0.25724630546540889 0 -0.1618093319770971 0.26171403115596009 0 -0.1618093319770971 0.26171403115596009 0 -0.1571819741535293 0.26460921420691902 0 -0.16234452356569831 0.26710305351785563 0 -0.1618093319770971 0.26171403115596009 0 -0.1571819741535293 0.26460921420691902 0 -0.15534159207770651 0.25734982888074609 0 -0.1647280614283719 0.25724630546540889 0 -0.15534159207770651 0.25734982888074609 0 -0.15244529568731141 0.2456186582450039 0 -0.16234452356569831 0.26710305351785563 0 -0.17148678063338441 0.27667141481418223 0 -0.15551869393229481 0.27245093240960511 0 -0.17148678063338441 0.27667141481418223 0 -0.15818016793864839 0.28424277146895549 0 -0.15551869393229481 0.27245093240960511 0 -0.1647280614283719 0.25724630546540889 0 -0.17148678063338441 0.27667141481418223 0 -0.1647280614283719 0.25724630546540889 0 -0.16234452356569831 0.26710305351785563 0 -0.17148678063338441 0.27667141481418223 0 -0.1571819741535293 0.26460921420691902 0 -0.16234452356569831 0.26710305351785563 0 -0.15551869393229481 0.27245093240960511 0 -0.17148678063338441 0.27667141481418223 0 -0.15818016793864839 0.28424277146895549 0 -0.19723892549443869 0.26201864946800402 0 -0.17148678063338441 0.27667141481418223 0 -0.19723892549443869 0.26201864946800402 0 -0.17148678063338441 0.27667141481418223 0 -0.18629286406406589 0.28013169135567367 0 -0.17148678063338441 0.27667141481418223 0 -0.17827906456921899 0.29619299193246279 0 -0.17148678063338441 0.27667141481418223 0 -0.18629286406406589 0.28013169135567367 0 -0.17827906456921899 0.29619299193246279 0 -0.1803719940282586 0.31399598300642911 0 -0.17827906456921899 0.29619299193246279 0 -0.1620393192720527 0.31217089240228268 0 -0.1803719940282586 0.31399598300642911 0 -0.19491793065776619 0.30630318623352659 0 -0.17827906456921899 0.29619299193246279 0 -0.17827906456921899 0.29619299193246279 0 -0.15752175826818621 0.29856444378815289 0 -0.1620393192720527 0.31217089240228268 0 -0.17827906456921899 0.29619299193246279 0 -0.15752175826818621 0.29856444378815289 0 -0.15818016793864839 0.28424277146895549 0 -0.17148678063338441 0.27667141481418223 0 -0.17827906456921899 0.29619299193246279 0 -0.15818016793864839 0.28424277146895549 0 -0.15818016793864839 0.28424277146895549 0 -0.14487355524391249 0.29181412812372909 0 -0.15818016793864839 0.28424277146895549 0 -0.14487355524391249 0.29181412812372909 0 -0.1472286482583271 0.28037498245946668 0 -0.15752175826818621 0.29856444378815289 0 -0.15818016793864839 0.28424277146895549 0 -0.14487355524391249 0.29181412812372909 0 -0.14487355524391249 0.29181412812372909 0 -0.13673650905890189 0.28362872943460737 0 -0.1472286482583271 0.28037498245946668 0 -0.14487355524391249 0.29181412812372909 0 -0.14720636284460301 0.3057338663989726 0 -0.13142167136880831 0.30037372416196773 0 -0.15752175826818621 0.29856444378815289 0 -0.1620393192720527 0.31217089240228268 0 -0.14720636284460301 0.3057338663989726 0 -0.15752175826818621 0.29856444378815289 0 -0.14487355524391249 0.29181412812372909 0 -0.14720636284460301 0.3057338663989726 0 -0.12560240457010119 0.31710595248074119 0 -0.13791580228826081 0.31499264972333441 0 -0.13142167136880831 0.30037372416196773 0 -0.13791580228826081 0.31499264972333441 0 -0.14720636284460301 0.3057338663989726 0 -0.13142167136880831 0.30037372416196773 0 -0.14487355524391249 0.29181412812372909 0 -0.13142167136880831 0.30037372416196773 0 -0.13673650905890189 0.28362872943460737 0 -0.13142167136880831 0.30037372416196773 0 -0.13673650905890189 0.28362872943460737 0 -0.1245450117034464 0.28523830594245703 0 -0.13673650905890189 0.28362872943460737 0 -0.12996504357304201 0.27582052397415607 0 -0.1245450117034464 0.28523830594245703 0 -0.13673650905890189 0.28362872943460737 0 -0.12996504357304201 0.27582052397415607 0 -0.14083431511787811 0.26973835086043629 0 -0.12996504357304201 0.27582052397415607 0 -0.12709937098009819 0.26602307212284992 0 -0.11982782470504739 0.27514175530748203 0 -0.12996504357304201 0.27582052397415607 0 -0.12709937098009819 0.26602307212284992 0 -0.14083431511787811 0.26973835086043629 0 -0.12709937098009819 0.26602307212284992 0 -0.13494953976473431 0.2580624313833057 0 -0.12151647300554019 0.2488115675466257 0 -0.13494953976473431 0.2580624313833057 0 -0.14532928779913701 0.25203100187456401 0 -0.13603303445140921 0.24151472931209039 0 -0.13494953976473431 0.2580624313833057 0 -0.142877496011173 0.26071208110503308 0 -0.14083431511787811 0.26973835086043629 0 -0.12709937098009819 0.26602307212284992 0 -0.13494953976473431 0.2580624313833057 0 -0.14083431511787811 0.26973835086043629 0 -0.142877496011173 0.26071208110503308 0 -0.15039684136294279 0.26301654030182642 0 -0.14083431511787811 0.26973835086043629 0 -0.142877496011173 0.26071208110503308 0 -0.14532928779913701 0.25203100187456401 0 -0.15039684136294279 0.26301654030182642 0 -0.13494953976473431 0.2580624313833057 0 -0.142877496011173 0.26071208110503308 0 -0.14532928779913701 0.25203100187456401 0 -0.14532928779913701 0.25203100187456401 0 -0.15534159207770651 0.25734982888074609 0 -0.15039684136294279 0.26301654030182642 0 -0.14532928779913701 0.25203100187456401 0 -0.15534159207770651 0.25734982888074609 0 -0.15244529568731141 0.2456186582450039 0 -0.1571819741535293 0.26460921420691902 0 -0.15534159207770651 0.25734982888074609 0 -0.15039684136294279 0.26301654030182642 0 -0.1571819741535293 0.26460921420691902 0 -0.15039684136294279 0.26301654030182642 0 -0.15551869393229481 0.27245093240960511 0 -0.15039684136294279 0.26301654030182642 0 -0.15551869393229481 0.27245093240960511 0 -0.14083431511787811 0.26973835086043629 0 -0.15818016793864839 0.28424277146895549 0 -0.15551869393229481 0.27245093240960511 0 -0.1472286482583271 0.28037498245946668 0 -0.13673650905890189 0.28362872943460737 0 -0.1472286482583271 0.28037498245946668 0 -0.14083431511787811 0.26973835086043629 0 -0.15551869393229481 0.27245093240960511 0 -0.1472286482583271 0.28037498245946668 0 -0.14083431511787811 0.26973835086043629 0 -0.1072247409791717 0.26499644201613221 0 -0.096828956481073147 0.28849854763646232 0 -0.1090212964191065 0.27077885550697189 0 -0.1072247409791717 0.26499644201613221 0 -0.096828956481073147 0.28849854763646232 0 -0.095098304611199655 0.2706376803127965 0 -0.1072247409791717 0.26499644201613221 0 -0.096828956481073147 0.28849854763646232 0 -0.095098304611199655 0.2706376803127965 0 -0.1072247409791717 0.26499644201613221 0 -0.092512938390583027 0.25732677711441437 0 -0.1072247409791717 0.26499644201613221 0 -0.092512938390583027 0.25732677711441437 0 -0.10454249684798821 0.24741704717438909 0 -0.12709937098009819 0.26602307212284992 0 -0.1193662412774481 0.26518881262098237 0 -0.12151647300554019 0.2488115675466257 0 -0.1090212964191065 0.27077885550697189 0 -0.1072247409791717 0.26499644201613221 0 -0.12151647300554019 0.2488115675466257 0 -0.1072247409791717 0.26499644201613221 0 -0.10454249684798821 0.24741704717438909 0 -0.12151647300554019 0.2488115675466257 0 -0.1090212964191065 0.27077885550697189 0 -0.1193662412774481 0.26518881262098237 0 -0.12151647300554019 0.2488115675466257 0 -0.1090212964191065 0.27077885550697189 0 -0.12151647300554019 0.2488115675466257 0 -0.12709937098009819 0.26602307212284992 0 -0.1193662412774481 0.26518881262098237 0 -0.11982782470504739 0.27514175530748203 0 -0.1090212964191065 0.27077885550697189 0 -0.1193662412774481 0.26518881262098237 0 -0.11982782470504739 0.27514175530748203 0 -0.1090212964191065 0.27077885550697189 0 -0.11982782470504739 0.27514175530748203 0 -0.1112112864924087 0.28568415954375992 0 -0.12996504357304201 0.27582052397415607 0 -0.11982782470504739 0.27514175530748203 0 -0.1245450117034464 0.28523830594245703 0 -0.11982782470504739 0.27514175530748203 0 -0.1245450117034464 0.28523830594245703 0 -0.1112112864924087 0.28568415954375992 0 -0.1174244540609595 0.29666650085378149 0 -0.1112112864924087 0.28568415954375992 0 -0.1049827821717582 0.3017589901757386 0 -0.1245450117034464 0.28523830594245703 0 -0.1174244540609595 0.29666650085378149 0 -0.1112112864924087 0.28568415954375992 0 -0.13142167136880831 0.30037372416196773 0 -0.1245450117034464 0.28523830594245703 0 -0.1174244540609595 0.29666650085378149 0 -0.12560240457010119 0.31710595248074119 0 -0.13142167136880831 0.30037372416196773 0 -0.1158645485492677 0.31003532632197373 0 -0.13142167136880831 0.30037372416196773 0 -0.1174244540609595 0.29666650085378149 0 -0.1158645485492677 0.31003532632197373 0 -0.1174244540609595 0.29666650085378149 0 -0.1158645485492677 0.31003532632197373 0 -0.1049827821717582 0.3017589901757386 0 -0.1158645485492677 0.31003532632197373 0 -0.1049827821717582 0.3017589901757386 0 -0.1028621059510563 0.31768744295199952 0 -0.1049827821717582 0.3017589901757386 0 -0.096828956481073147 0.28849854763646232 0 -0.086433171982974538 0.3120006532567926 0 -0.1049827821717582 0.3017589901757386 0 -0.086433171982974538 0.3120006532567926 0 -0.1028621059510563 0.31768744295199952 0 -0.1112112864924087 0.28568415954375992 0 -0.1049827821717582 0.3017589901757386 0 -0.096828956481073147 0.28849854763646232 0 -0.1090212964191065 0.27077885550697189 0 -0.1112112864924087 0.28568415954375992 0 -0.096828956481073147 0.28849854763646232 0 -0.096828956481073147 0.28849854763646232 0 -0.078934557818118797 0.29406002429558631 0 -0.083826582593970717 0.27172895448417722 0 -0.096828956481073147 0.28849854763646232 0 -0.086433171982974538 0.3120006532567926 0 -0.096828956481073147 0.28849854763646232 0 -0.078934557818118797 0.29406002429558631 0 -0.086433171982974538 0.3120006532567926 0 -0.086433171982974538 0.3120006532567926 0 -0.065528933077790064 0.30480392394187911 0 -0.072929844010617972 0.32015708057024572 0 -0.078934557818118797 0.29406002429558631 0 -0.086433171982974538 0.3120006532567926 0 -0.065528933077790064 0.30480392394187911 0 -0.078934557818118797 0.29406002429558631 0 -0.064175336619530093 0.28364407543330938 0 -0.083826582593970717 0.27172895448417722 0 -0.078934557818118797 0.29406002429558631 0 -0.065528933077790064 0.30480392394187911 0 -0.064175336619530093 0.28364407543330938 0 -0.064175336619530093 0.28364407543330938 0 -0.083826582593970717 0.27172895448417722 0 -0.067117974488434817 0.25502661309482322 0 -0.064175336619530093 0.28364407543330938 0 -0.067117974488434817 0.25502661309482322 0 -0.095098304611199655 0.2706376803127965 0 -0.096828956481073147 0.28849854763646232 0 -0.083826582593970717 0.27172895448417722 0 -0.095098304611199655 0.2706376803127965 0 -0.083826582593970717 0.27172895448417722 0 -0.092512938390583027 0.25732677711441437 0 -0.092512938390583027 0.25732677711441437 0 -0.067117974488434817 0.25502661309482322 0 -0.090092302489835033 0.23819805138573319 0 -0.083826582593970717 0.27172895448417722 0 -0.092512938390583027 0.25732677711441437 0 -0.067117974488434817 0.25502661309482322 0 -0.067117974488434817 0.25502661309482322 0 -0.051007852468435547 0.26677464674581047 0 -0.049059418264459767 0.24979235789117971 0 -0.064175336619530093 0.28364407543330938 0 -0.067117974488434817 0.25502661309482322 0 -0.051007852468435547 0.26677464674581047 0 -0.064175336619530093 0.28364407543330938 0 -0.051007852468435547 0.26677464674581047 0 -0.04190049752675782 0.28029511973750909 0 -0.04190049752675782 0.28029511973750909 0 -0.0351981976243676 0.26532601736871952 0 -0.023310066035906941 0.27436951727329828 0 -0.051007852468435547 0.26677464674581047 0 -0.04190049752675782 0.28029511973750909 0 -0.0351981976243676 0.26532601736871952 0 -0.0351981976243676 0.26532601736871952 0 -0.022740694452122321 0.25009111567474029 0 -0.049059418264459767 0.24979235789117971 0 -0.051007852468435547 0.26677464674581047 0 -0.0351981976243676 0.26532601736871952 0 -0.049059418264459767 0.24979235789117971 0 -0.022740694452122321 0.25009111567474029 0 -0.02401742696758653 0.26533199694215359 0 -0.0154751768155609 0.26592478074331638 0 -0.0351981976243676 0.26532601736871952 0 -0.022740694452122321 0.25009111567474029 0 -0.02401742696758653 0.26533199694215359 0 -0.0351981976243676 0.26532601736871952 0 -0.02401742696758653 0.26533199694215359 0 -0.023310066035906941 0.27436951727329828 0 -0.023310066035906941 0.27436951727329828 0 -0.0050118586796505521 0.27485745674011308 0 -0.02342441490593903 0.29231943464685572 0 -0.02401742696758653 0.26533199694215359 0 -0.023310066035906941 0.27436951727329828 0 -0.0154751768155609 0.26592478074331638 0 -0.023310066035906941 0.27436951727329828 0 -0.0154751768155609 0.26592478074331638 0 -0.0050118586796505521 0.27485745674011308 0 -0.0050118586796505521 0.27485745674011308 0 -0.0022958379425381419 0.2649738170862771 0 0.0039859999487342314 0.28783446656013029 0 -0.0154751768155609 0.26592478074331638 0 -0.0050118586796505521 0.27485745674011308 0 -0.0022958379425381419 0.2649738170862771 0 -0.022740694452122321 0.25009111567474029 0 -0.0022958379425381419 0.2649738170862771 0 -0.0085776758338105413 0.2421131676124238 0 -0.0022958379425381419 0.2649738170862771 0 -0.0085776758338105413 0.2421131676124238 0 0.0039009629746646879 0.24812698552186049 0 -0.0022958379425381419 0.2649738170862771 0 -0.0085776758338105413 0.2421131676124238 0 -0.022740694452122321 0.25009111567474029 0 -0.0154751768155609 0.26592478074331638 0 -0.0022958379425381419 0.2649738170862771 0 -0.0050223389618732914 0.30289487337329102 0 -0.022399706267976841 0.31273550098146552 0 -0.0075456184803399306 0.31933960369318359 0 -0.0050118586796505521 0.27485745674011308 0 -0.0073681531496821587 0.28947655783009751 0 -0.02342441490593903 0.29231943464685572 0 -0.0050118586796505521 0.27485745674011308 0 -0.02342441490593903 0.29231943464685572 0 -0.0050223389618732914 0.30289487337329102 0 -0.0073681531496821587 0.28947655783009751 0 -0.02342441490593903 0.29231943464685572 0 -0.0050223389618732914 0.30289487337329102 0 -0.0073681531496821587 0.28947655783009751 0 0.0039859999487342314 0.28783446656013029 0 -0.0050118586796505521 0.27485745674011308 0 -0.0073681531496821587 0.28947655783009751 0 0.0039859999487342314 0.28783446656013029 0 -0.04190049752675782 0.28029511973750909 0 -0.023310066035906941 0.27436951727329828 0 -0.02342441490593903 0.29231943464685572 0 -0.02342441490593903 0.29231943464685572 0 -0.041836971132227507 0.30978141255359831 0 -0.022399706267976841 0.31273550098146552 0 -0.0050223389618732914 0.30289487337329102 0 -0.02342441490593903 0.29231943464685572 0 -0.022399706267976841 0.31273550098146552 0 -0.02342441490593903 0.29231943464685572 0 -0.041836971132227507 0.30978141255359831 0 -0.048202851050990488 0.29467105678299671 0 -0.02342441490593903 0.29231943464685572 0 -0.041836971132227507 0.30978141255359831 0 -0.04190049752675782 0.28029511973750909 0 -0.02342441490593903 0.29231943464685572 0 -0.048202851050990488 0.29467105678299671 0 -0.065528933077790064 0.30480392394187911 0 -0.064175336619530093 0.28364407543330938 0 -0.048202851050990488 0.29467105678299671 0 -0.064175336619530093 0.28364407543330938 0 -0.04190049752675782 0.28029511973750909 0 -0.048202851050990488 0.29467105678299671 0 -0.065528933077790064 0.30480392394187911 0 -0.041836971132227507 0.30978141255359831 0 -0.048202851050990488 0.29467105678299671 0 -0.065528933077790064 0.30480392394187911 0 -0.041836971132227507 0.30978141255359831 0 -0.060136318894787877 0.31549645188151598 0 -0.041836971132227507 0.30978141255359831 0 -0.060136318894787877 0.31549645188151598 0 -0.060249527358515978 0.3272433904603409 0 -0.041836971132227507 0.30978141255359831 0 -0.060249527358515978 0.3272433904603409 0 -0.051813202741174173 0.32633175367683542 0 -0.041836971132227507 0.30978141255359831 0 -0.060249527358515978 0.3272433904603409 0 -0.051813202741174173 0.32633175367683542 0 -0.059221379747728481 0.33840067686214642 0 -0.073378666496790618 0.34246269699392101 0 -0.060249527358515978 0.3272433904603409 0 -0.051813202741174173 0.32633175367683542 0 -0.073378666496790618 0.34246269699392101 0 -0.059221379747728481 0.33840067686214642 0 -0.049998993533827842 0.34083420042558599 0 -0.059696315431710327 0.34828501826123692 0 -0.051813202741174173 0.32633175367683542 0 -0.059221379747728481 0.33840067686214642 0 -0.051112321829132543 0.33431343756514909 0 -0.051112321829132543 0.33431343756514909 0 -0.049998993533827842 0.34083420042558599 0 -0.04341571129379964 0.33168711929602879 0 -0.051813202741174173 0.32633175367683542 0 -0.051112321829132543 0.33431343756514909 0 -0.04341571129379964 0.33168711929602879 0 -0.059221379747728481 0.33840067686214642 0 -0.051112321829132543 0.33431343756514909 0 -0.049998993533827842 0.34083420042558599 0 -0.049998993533827842 0.34083420042558599 0 -0.04341571129379964 0.33168711929602879 0 -0.036237433437042443 0.33859147520626132 0 -0.04341571129379964 0.33168711929602879 0 -0.036237433437042443 0.33859147520626132 0 -0.037236428339360153 0.32383644458597999 0 -0.041836971132227507 0.30978141255359831 0 -0.037236428339360153 0.32383644458597999 0 -0.022399706267976841 0.31273550098146552 0 -0.041836971132227507 0.30978141255359831 0 -0.051813202741174173 0.32633175367683542 0 -0.037236428339360153 0.32383644458597999 0 -0.051813202741174173 0.32633175367683542 0 -0.04341571129379964 0.33168711929602879 0 -0.037236428339360153 0.32383644458597999 0 -0.037236428339360153 0.32383644458597999 0 -0.022399706267976841 0.31273550098146552 0 -0.019332465788121141 0.32824123703588459 0 -0.022399706267976841 0.31273550098146552 0 -0.019332465788121141 0.32824123703588459 0 -0.0075456184803399306 0.31933960369318359 0 -0.036237433437042443 0.33859147520626132 0 -0.019332465788121141 0.32824123703588459 0 -0.018283932161390709 0.34395709619610371 0 -0.036237433437042443 0.33859147520626132 0 -0.037236428339360153 0.32383644458597999 0 -0.019332465788121141 0.32824123703588459 0 -0.019332465788121141 0.32824123703588459 0 -0.0019565329990520641 0.33409639726545692 0 -0.018283932161390709 0.34395709619610371 0 -0.0019565329990520641 0.33409639726545692 0 -0.001110262704930928 0.35011502268816069 0 -0.018283932161390709 0.34395709619610371 0 -0.0050223389618732914 0.30289487337329102 0 -0.0075456184803399306 0.31933960369318359 0 0.0094459978684895869 0.32388028412798953 0 -0.0019565329990520641 0.33409639726545692 0 -0.0075456184803399306 0.31933960369318359 0 0.0094459978684895869 0.32388028412798953 0 -0.019332465788121141 0.32824123703588459 0 -0.0019565329990520641 0.33409639726545692 0 -0.0075456184803399306 0.31933960369318359 0 -0.001110262704930928 0.35011502268816069 0 -0.01865685627563126 0.36256001018825113 0 0.01108925367635295 0.36604935914041592 0 -0.01865685627563126 0.36256001018825113 0 -0.0075904710993036952 0.38065456094308459 0 0.01108925367635295 0.36604935914041592 0 -0.001110262704930928 0.35011502268816069 0 -0.018283932161390709 0.34395709619610371 0 -0.01865685627563126 0.36256001018825113 0 -0.036237433437042443 0.33859147520626132 0 -0.018283932161390709 0.34395709619610371 0 -0.031641073979742397 0.35346612910359648 0 -0.018283932161390709 0.34395709619610371 0 -0.01865685627563126 0.36256001018825113 0 -0.031641073979742397 0.35346612910359648 0 -0.01865685627563126 0.36256001018825113 0 -0.037338059013753692 0.36699809172160491 0 -0.031641073979742397 0.35346612910359648 0 -0.01865685627563126 0.36256001018825113 0 -0.034759096024585913 0.38507544463993509 0 -0.01865685627563126 0.36256001018825113 0 -0.037338059013753692 0.36699809172160491 0 -0.034759096024585913 0.38507544463993509 0 -0.037338059013753692 0.36699809172160491 0 -0.047660605916523498 0.3545975766891068 0 -0.053915696683544539 0.3780385069538249 0 -0.049998993533827842 0.34083420042558599 0 -0.036237433437042443 0.33859147520626132 0 -0.047660605916523498 0.3545975766891068 0 -0.037338059013753692 0.36699809172160491 0 -0.031641073979742397 0.35346612910359648 0 -0.047660605916523498 0.3545975766891068 0 -0.036237433437042443 0.33859147520626132 0 -0.031641073979742397 0.35346612910359648 0 -0.047660605916523498 0.3545975766891068 0 -0.047660605916523498 0.3545975766891068 0 -0.059696315431710327 0.34828501826123692 0 -0.065687296494730998 0.36110069921797022 0 -0.049998993533827842 0.34083420042558599 0 -0.047660605916523498 0.3545975766891068 0 -0.059696315431710327 0.34828501826123692 0 -0.059221379747728481 0.33840067686214642 0 -0.059696315431710327 0.34828501826123692 0 -0.065338594498831226 0.34515476568617393 0 -0.047660605916523498 0.3545975766891068 0 -0.065687296494730998 0.36110069921797022 0 -0.053915696683544539 0.3780385069538249 0 -0.065687296494730998 0.36110069921797022 0 -0.076521613093159024 0.37860847917392898 0 -0.053915696683544539 0.3780385069538249 0 -0.065687296494730998 0.36110069921797022 0 -0.077169905792773094 0.35772786218756703 0 -0.076521613093159024 0.37860847917392898 0 -0.094944130252407111 0.35859364031100671 0 -0.097222234801114998 0.37802895121673602 0 -0.076521613093159024 0.37860847917392898 0 -0.077169905792773094 0.35772786218756703 0 -0.094944130252407111 0.35859364031100671 0 -0.076521613093159024 0.37860847917392898 0 -0.078662083584804462 0.34470536836708338 0 -0.073378666496790618 0.34246269699392101 0 -0.094944130252407111 0.35859364031100671 0 -0.077169905792773094 0.35772786218756703 0 -0.073378666496790618 0.34246269699392101 0 -0.094944130252407111 0.35859364031100671 0 -0.073378666496790618 0.34246269699392101 0 -0.094944130252407111 0.35859364031100671 0 -0.078662083584804462 0.34470536836708338 0 -0.094944130252407111 0.35859364031100671 0 -0.098915921227055448 0.34525776848533218 0 -0.077169905792773094 0.35772786218756703 0 -0.069058016319095458 0.35147067062739101 0 -0.073378666496790618 0.34246269699392101 0 -0.065687296494730998 0.36110069921797022 0 -0.077169905792773094 0.35772786218756703 0 -0.069058016319095458 0.35147067062739101 0 -0.059696315431710327 0.34828501826123692 0 -0.065687296494730998 0.36110069921797022 0 -0.069058016319095458 0.35147067062739101 0 -0.059696315431710327 0.34828501826123692 0 -0.069058016319095458 0.35147067062739101 0 -0.065338594498831226 0.34515476568617393 0 -0.069058016319095458 0.35147067062739101 0 -0.065338594498831226 0.34515476568617393 0 -0.073378666496790618 0.34246269699392101 0 -0.060249527358515978 0.3272433904603409 0 -0.078662083584804462 0.34470536836708338 0 -0.073378666496790618 0.34246269699392101 0 -0.060249527358515978 0.3272433904603409 0 -0.078662083584804462 0.34470536836708338 0 -0.076037387484875929 0.33550275887712278 0 -0.060249527358515978 0.3272433904603409 0 -0.078662083584804462 0.34470536836708338 0 -0.059221379747728481 0.33840067686214642 0 -0.065338594498831226 0.34515476568617393 0 -0.073378666496790618 0.34246269699392101 0 -0.051813202741174173 0.32633175367683542 0 -0.073378666496790618 0.34246269699392101 0 -0.060249527358515978 0.3272433904603409 0 -0.076037387484875929 0.33550275887712278 0 -0.072929844010617972 0.32015708057024572 0 -0.065528933077790064 0.30480392394187911 0 -0.060136318894787877 0.31549645188151598 0 -0.072929844010617972 0.32015708057024572 0 -0.060136318894787877 0.31549645188151598 0 -0.060249527358515978 0.3272433904603409 0 -0.072929844010617972 0.32015708057024572 0 -0.086433171982974538 0.3120006532567926 0 -0.076037387484875929 0.33550275887712278 0 -0.09177025205966477 0.32631121935306717 0 -0.086433171982974538 0.3120006532567926 0 -0.076037387484875929 0.33550275887712278 0 -0.072929844010617972 0.32015708057024572 0 -0.086433171982974538 0.3120006532567926 0 -0.076037387484875929 0.33550275887712278 0 -0.086433171982974538 0.3120006532567926 0 -0.09177025205966477 0.32631121935306717 0 -0.1028621059510563 0.31768744295199952 0 -0.078662083584804462 0.34470536836708338 0 -0.089219855268513684 0.33671856117253718 0 -0.098915921227055448 0.34525776848533218 0 -0.076037387484875929 0.33550275887712278 0 -0.09177025205966477 0.32631121935306717 0 -0.089219855268513684 0.33671856117253718 0 -0.078662083584804462 0.34470536836708338 0 -0.076037387484875929 0.33550275887712278 0 -0.089219855268513684 0.33671856117253718 0 -0.089219855268513684 0.33671856117253718 0 -0.1021645810015565 0.33173208158439699 0 -0.098915921227055448 0.34525776848533218 0 -0.09177025205966477 0.32631121935306717 0 -0.089219855268513684 0.33671856117253718 0 -0.1021645810015565 0.33173208158439699 0 -0.1021645810015565 0.33173208158439699 0 -0.11196156695891479 0.3381101066103106 0 -0.098915921227055448 0.34525776848533218 0 -0.09177025205966477 0.32631121935306717 0 -0.1021645810015565 0.33173208158439699 0 -0.1028621059510563 0.31768744295199952 0 -0.1021645810015565 0.33173208158439699 0 -0.1028621059510563 0.31768744295199952 0 -0.1148902206364428 0.3253290875587847 0 -0.12791978000772619 0.33479897463764569 0 -0.12560240457010119 0.31710595248074119 0 -0.1148902206364428 0.3253290875587847 0 -0.1158645485492677 0.31003532632197373 0 -0.1028621059510563 0.31768744295199952 0 -0.1148902206364428 0.3253290875587847 0 -0.12560240457010119 0.31710595248074119 0 -0.1158645485492677 0.31003532632197373 0 -0.1148902206364428 0.3253290875587847 0 -0.12791978000772619 0.33479897463764569 0 -0.11196156695891479 0.3381101066103106 0 -0.11591733192179279 0.35343262078539323 0 -0.12791978000772619 0.33479897463764569 0 -0.1148902206364428 0.3253290875587847 0 -0.11196156695891479 0.3381101066103106 0 -0.1021645810015565 0.33173208158439699 0 -0.1148902206364428 0.3253290875587847 0 -0.11196156695891479 0.3381101066103106 0 -0.1312399979901071 0.36563594101538333 0 -0.11591733192179279 0.35343262078539323 0 -0.11650959400802351 0.37472458362809219 0 -0.11591733192179279 0.35343262078539323 0 -0.11650959400802351 0.37472458362809219 0 -0.094944130252407111 0.35859364031100671 0 -0.11650959400802351 0.37472458362809219 0 -0.094944130252407111 0.35859364031100671 0 -0.097222234801114998 0.37802895121673602 0 -0.11650959400802351 0.37472458362809219 0 -0.094944130252407111 0.35859364031100671 0 -0.11591733192179279 0.35343262078539323 0 -0.094944130252407111 0.35859364031100671 0 -0.098915921227055448 0.34525776848533218 0 -0.11196156695891479 0.3381101066103106 0 -0.11591733192179279 0.35343262078539323 0 -0.098915921227055448 0.34525776848533218 0 -0.10786494644582351 0.41527167499722251 0 -0.09219327976949096 0.39694007708557588 0 -0.1067055274919846 0.39083183104852293 0 -0.10786494644582351 0.41527167499722251 0 -0.09219327976949096 0.39694007708557588 0 -0.1067055274919846 0.39083183104852293 0 -0.097222234801114998 0.37802895121673602 0 -0.09219327976949096 0.39694007708557588 0 -0.11650959400802351 0.37472458362809219 0 -0.1067055274919846 0.39083183104852293 0 -0.097222234801114998 0.37802895121673602 0 -0.11650959400802351 0.37472458362809219 0 -0.1067055274919846 0.39083183104852293 0 -0.11973758243547 0.38919386831498792 0 -0.13807505776363979 0.39085552694517778 0 -0.11650959400802351 0.37472458362809219 0 -0.11973758243547 0.38919386831498792 0 -0.11973758243547 0.38919386831498792 0 -0.10786494644582351 0.41527167499722251 0 -0.1313213532090734 0.41113001782904529 0 -0.11973758243547 0.38919386831498792 0 -0.10786494644582351 0.41527167499722251 0 -0.1067055274919846 0.39083183104852293 0 -0.11973758243547 0.38919386831498792 0 -0.10786494644582351 0.41527167499722251 0 -0.1313213532090734 0.41113001782904529 0 -0.12082010792306611 0.43042569887905707 0 -0.10786494644582351 0.41527167499722251 0 -0.12082010792306611 0.43042569887905707 0 -0.099498876356784727 0.43364743912089698 0 -0.10786494644582351 0.41527167499722251 0 -0.12082010792306611 0.43042569887905707 0 -0.10786494644582351 0.41527167499722251 0 -0.099498876356784727 0.43364743912089698 0 -0.10786494644582351 0.41527167499722251 0 -0.099498876356784727 0.43364743912089698 0 -0.10786494644582351 0.41527167499722251 0 -0.087277047172567082 0.41927000848574042 0 -0.10786494644582351 0.41527167499722251 0 -0.087277047172567082 0.41927000848574042 0 -0.09219327976949096 0.39694007708557588 0 -0.087277047172567082 0.41927000848574042 0 -0.066963575522495225 0.43010631354330342 0 -0.085794369830325359 0.43808786551558321 0 -0.099498876356784727 0.43364743912089698 0 -0.087277047172567082 0.41927000848574042 0 -0.085794369830325359 0.43808786551558321 0 -0.066963575522495225 0.43010631354330342 0 -0.071347235110482771 0.40156668065186052 0 -0.050861335773540572 0.40759087909161928 0 -0.087277047172567082 0.41927000848574042 0 -0.066963575522495225 0.43010631354330342 0 -0.071347235110482771 0.40156668065186052 0 -0.087277047172567082 0.41927000848574042 0 -0.071347235110482771 0.40156668065186052 0 -0.09219327976949096 0.39694007708557588 0 -0.071347235110482771 0.40156668065186052 0 -0.09219327976949096 0.39694007708557588 0 -0.076521613093159024 0.37860847917392898 0 -0.097222234801114998 0.37802895121673602 0 -0.09219327976949096 0.39694007708557588 0 -0.076521613093159024 0.37860847917392898 0 -0.09219327976949096 0.39694007708557588 0 -0.076521613093159024 0.37860847917392898 0 -0.071347235110482771 0.40156668065186052 0 -0.076521613093159024 0.37860847917392898 0 -0.053915696683544539 0.3780385069538249 0 -0.071347235110482771 0.40156668065186052 0 -0.053915696683544539 0.3780385069538249 0 -0.050861335773540572 0.40759087909161928 0 -0.034759096024585913 0.38507544463993509 0 -0.050861335773540572 0.40759087909161928 0 -0.034759096024585913 0.38507544463993509 0 -0.029557349204026421 0.40727269477311012 0 -0.050861335773540572 0.40759087909161928 0 -0.037338059013753692 0.36699809172160491 0 -0.053915696683544539 0.3780385069538249 0 -0.034759096024585913 0.38507544463993509 0 -0.053915696683544539 0.3780385069538249 0 -0.034759096024585913 0.38507544463993509 0 -0.050861335773540572 0.40759087909161928 0 -0.01865685627563126 0.36256001018825113 0 -0.034759096024585913 0.38507544463993509 0 -0.0075904710993036952 0.38065456094308459 0 -0.034759096024585913 0.38507544463993509 0 -0.0078014489144799257 0.39873355852615783 0 -0.0075904710993036952 0.38065456094308459 0 -0.034759096024585913 0.38507544463993509 0 -0.0078014489144799257 0.39873355852615783 0 -0.029557349204026421 0.40727269477311012 0 -0.0078014489144799257 0.39873355852615783 0 -0.0075904710993036952 0.38065456094308459 0 0.012175792041825669 0.39085443222066307 0 -0.003012099662632016 0.42088754238374099 0 -0.019331904611746761 0.43999921991229007 0 -0.0021159430116009159 0.43995865036000609 0 -0.0078014489144799257 0.39873355852615783 0 -0.003012099662632016 0.42088754238374099 0 -0.029557349204026421 0.40727269477311012 0 -0.0078014489144799257 0.39873355852615783 0 -0.003012099662632016 0.42088754238374099 0 0.0099519747517529296 0.40826154680163318 0 -0.003012099662632016 0.42088754238374099 0 -0.029557349204026421 0.40727269477311012 0 -0.029438794687184699 0.42714189970850591 0 -0.003012099662632016 0.42088754238374099 0 -0.029438794687184699 0.42714189970850591 0 -0.019331904611746761 0.43999921991229007 0 -0.029438794687184699 0.42714189970850591 0 -0.045536275553992339 0.44093419241151488 0 -0.019331904611746761 0.43999921991229007 0 -0.029438794687184699 0.42714189970850591 0 -0.048153661855239997 0.42498690805488842 0 -0.045536275553992339 0.44093419241151488 0 -0.029557349204026421 0.40727269477311012 0 -0.050861335773540572 0.40759087909161928 0 -0.048153661855239997 0.42498690805488842 0 -0.029557349204026421 0.40727269477311012 0 -0.029438794687184699 0.42714189970850591 0 -0.048153661855239997 0.42498690805488842 0 -0.066963575522495225 0.43010631354330342 0 -0.050861335773540572 0.40759087909161928 0 -0.048153661855239997 0.42498690805488842 0 -0.066963575522495225 0.43010631354330342 0 -0.050861335773540572 0.40759087909161928 0 -0.066963575522495225 0.43010631354330342 0 -0.048153661855239997 0.42498690805488842 0 -0.045536275553992339 0.44093419241151488 0 -0.066963575522495225 0.43010631354330342 0 -0.045536275553992339 0.44093419241151488 0 -0.064137862365048287 0.44930568666411502 0 -0.054404694423631161 0.46101859438783271 0 -0.045536275553992339 0.44093419241151488 0 -0.064137862365048287 0.44930568666411502 0 -0.054404694423631161 0.46101859438783271 0 -0.031696869896984461 0.45745241097068767 0 -0.045536275553992339 0.44093419241151488 0 -0.054404694423631161 0.46101859438783271 0 -0.031696869896984461 0.45745241097068767 0 -0.042273677796223923 0.47767421247004183 0 -0.031696869896984461 0.45745241097068767 0 -0.045536275553992339 0.44093419241151488 0 -0.019331904611746761 0.43999921991229007 0 -0.031696869896984461 0.45745241097068767 0 -0.019331904611746761 0.43999921991229007 0 -0.011138533499172879 0.45408167561188928 0 -0.031696869896984461 0.45745241097068767 0 -0.011138533499172879 0.45408167561188928 0 -0.031696869896984461 0.45745241097068767 0 -0.011138533499172879 0.45408167561188928 0 -0.021840037560639139 0.47358261082759978 0 -0.011138533499172879 0.45408167561188928 0 -0.0045817790512163083 0.47870475508538007 0 0.0064332953699368619 0.46532004502612151 0 -0.019331904611746761 0.43999921991229007 0 -0.011138533499172879 0.45408167561188928 0 -0.0021159430116009159 0.43995865036000609 0 -0.011138533499172879 0.45408167561188928 0 -0.0021159430116009159 0.43995865036000609 0 0.0094198028986386927 0.45071094025309089 0 -0.011138533499172879 0.45408167561188928 0 0.0094198028986386927 0.45071094025309089 0 -0.0045817790512163083 0.47870475508538007 0 -0.019509327559598111 0.5 0 0.0079825307292511472 0.5 0 -0.0045817790512163083 0.47870475508538007 0 -0.021840037560639139 0.47358261082759978 0 -0.019509327559598111 0.5 0 -0.011138533499172879 0.45408167561188928 0 -0.0045817790512163083 0.47870475508538007 0 -0.021840037560639139 0.47358261082759978 0 -0.021840037560639139 0.47358261082759978 0 -0.019509327559598111 0.5 0 -0.042273677796223923 0.47767421247004183 0 -0.019509327559598111 0.5 0 -0.042273677796223923 0.47767421247004183 0 -0.047001185848447369 0.5 0 -0.031696869896984461 0.45745241097068767 0 -0.021840037560639139 0.47358261082759978 0 -0.042273677796223923 0.47767421247004183 0 -0.054404694423631161 0.46101859438783271 0 -0.042273677796223923 0.47767421247004183 0 -0.064593081513912215 0.4793646148605204 0 -0.042273677796223923 0.47767421247004183 0 -0.047001185848447369 0.5 0 -0.064593081513912215 0.4793646148605204 0 -0.047001185848447369 0.5 0 -0.074493044137296627 0.5 0 -0.064593081513912215 0.4793646148605204 0 -0.074493044137296627 0.5 0 -0.079040879615601606 0.48342672316482238 0 -0.064593081513912215 0.4793646148605204 0 -0.074493044137296627 0.5 0 -0.079040879615601606 0.48342672316482238 0 -0.094310656632491038 0.48394331043052341 0 -0.074493044137296627 0.5 0 -0.1019849024261459 0.5 0 -0.094310656632491038 0.48394331043052341 0 -0.082766736178706585 0.47039896736824582 0 -0.098810052417726335 0.46675005817294041 0 -0.094310656632491038 0.48394331043052341 0 -0.079040879615601606 0.48342672316482238 0 -0.082766736178706585 0.47039896736824582 0 -0.094310656632491038 0.48394331043052341 0 -0.082766736178706585 0.47039896736824582 0 -0.064593081513912215 0.4793646148605204 0 -0.070718951053672791 0.46184758498293649 0 -0.079040879615601606 0.48342672316482238 0 -0.082766736178706585 0.47039896736824582 0 -0.064593081513912215 0.4793646148605204 0 -0.070718951053672791 0.46184758498293649 0 -0.064137862365048287 0.44930568666411502 0 -0.083065815271449878 0.4526217479949875 0 -0.054404694423631161 0.46101859438783271 0 -0.070718951053672791 0.46184758498293649 0 -0.064137862365048287 0.44930568666411502 0 -0.054404694423631161 0.46101859438783271 0 -0.064593081513912215 0.4793646148605204 0 -0.070718951053672791 0.46184758498293649 0 -0.066963575522495225 0.43010631354330342 0 -0.064137862365048287 0.44930568666411502 0 -0.083065815271449878 0.4526217479949875 0 -0.066963575522495225 0.43010631354330342 0 -0.083065815271449878 0.4526217479949875 0 -0.099498876356784727 0.43364743912089698 0 -0.085794369830325359 0.43808786551558321 0 -0.09113280626774567 0.45202320324457129 0 -0.066963575522495225 0.43010631354330342 0 -0.085794369830325359 0.43808786551558321 0 -0.083065815271449878 0.4526217479949875 0 -0.085794369830325359 0.43808786551558321 0 -0.083065815271449878 0.4526217479949875 0 -0.09113280626774567 0.45202320324457129 0 -0.082766736178706585 0.47039896736824582 0 -0.09113280626774567 0.45202320324457129 0 -0.098810052417726335 0.46675005817294041 0 -0.082766736178706585 0.47039896736824582 0 -0.09113280626774567 0.45202320324457129 0 -0.082766736178706585 0.47039896736824582 0 -0.083065815271449878 0.4526217479949875 0 -0.09113280626774567 0.45202320324457129 0 -0.082766736178706585 0.47039896736824582 0 -0.070718951053672791 0.46184758498293649 0 -0.083065815271449878 0.4526217479949875 0 -0.09113280626774567 0.45202320324457129 0 -0.098810052417726335 0.46675005817294041 0 -0.1034254971841911 0.45459879808513382 0 -0.098810052417726335 0.46675005817294041 0 -0.1034254971841911 0.45459879808513382 0 -0.1144336571574586 0.46940026920988942 0 -0.099498876356784727 0.43364743912089698 0 -0.1034254971841911 0.45459879808513382 0 -0.1160332318979071 0.44897771251094198 0 -0.099498876356784727 0.43364743912089698 0 -0.09113280626774567 0.45202320324457129 0 -0.1034254971841911 0.45459879808513382 0 -0.099498876356784727 0.43364743912089698 0 -0.09113280626774567 0.45202320324457129 0 -0.13377526940030929 0.44557972276089131 0 -0.12082010792306611 0.43042569887905707 0 -0.1160332318979071 0.44897771251094198 0 -0.12082010792306611 0.43042569887905707 0 -0.099498876356784727 0.43364743912089698 0 -0.1160332318979071 0.44897771251094198 0 -0.1267958359843202 0.45867097568239579 0 -0.1160332318979071 0.44897771251094198 0 -0.1144336571574586 0.46940026920988942 0 -0.1034254971841911 0.45459879808513382 0 -0.1160332318979071 0.44897771251094198 0 -0.1144336571574586 0.46940026920988942 0 -0.12966352707213161 0.48155880838476062 0 -0.1144336571574586 0.46940026920988942 0 -0.1139739008006445 0.4869804776050346 0 -0.12947676071499509 0.5 0 -0.1139739008006445 0.4869804776050346 0 -0.1019849024261459 0.5 0 -0.12947676071499509 0.5 0 -0.12966352707213161 0.48155880838476062 0 -0.1139739008006445 0.4869804776050346 0 -0.1139739008006445 0.4869804776050346 0 -0.1019849024261459 0.5 0 -0.094310656632491038 0.48394331043052341 0 -0.1144336571574586 0.46940026920988942 0 -0.1139739008006445 0.4869804776050346 0 -0.094310656632491038 0.48394331043052341 0 -0.098810052417726335 0.46675005817294041 0 -0.1144336571574586 0.46940026920988942 0 -0.094310656632491038 0.48394331043052341 0 -0.1668341870586095 0.080984842367697069 0 -0.1760757405546815 0.078441379725309346 0 -0.1720708059428879 0.092426874817215204 0 -0.1668341870586095 0.080984842367697069 0 -0.15858334270522689 0.08548690486165883 0 -0.1720708059428879 0.092426874817215204 0 -0.1668341870586095 0.080984842367697069 0 -0.15858334270522689 0.08548690486165883 0 -0.1609972995189877 0.074687018680038714 0 -0.15858334270522689 0.08548690486165883 0 -0.1609972995189877 0.074687018680038714 0 -0.15326693064391969 0.063003511092273312 0 -0.1609972995189877 0.074687018680038714 0 -0.16069237256394711 0.068372646189885519 0 -0.16727782851929199 0.072176878619847659 0 -0.1609972995189877 0.074687018680038714 0 -0.16069237256394711 0.068372646189885519 0 -0.15326693064391969 0.063003511092273312 0 -0.16069237256394711 0.068372646189885519 0 -0.16117832915995969 0.062651005918583746 0 -0.15326693064391969 0.063003511092273312 0 -0.16069237256394711 0.068372646189885519 0 -0.16117832915995969 0.062651005918583746 0 -0.1646107906563247 0.066692925264259073 0 -0.16117832915995969 0.062651005918583746 0 -0.1646107906563247 0.066692925264259073 0 -0.16587393579125581 0.061616820165479473 0 -0.16727782851929199 0.072176878619847659 0 -0.1747243021971624 0.07107281032032578 0 -0.17361689023824281 0.064187034202279197 0 -0.1646107906563247 0.066692925264259073 0 -0.17361689023824281 0.064187034202279197 0 -0.16587393579125581 0.061616820165479473 0 -0.1646107906563247 0.066692925264259073 0 -0.16727782851929199 0.072176878619847659 0 -0.17361689023824281 0.064187034202279197 0 -0.16069237256394711 0.068372646189885519 0 -0.1646107906563247 0.066692925264259073 0 -0.16727782851929199 0.072176878619847659 0 -0.1668341870586095 0.080984842367697069 0 -0.16727782851929199 0.072176878619847659 0 -0.1760757405546815 0.078441379725309346 0 -0.1668341870586095 0.080984842367697069 0 -0.1609972995189877 0.074687018680038714 0 -0.16727782851929199 0.072176878619847659 0 -0.16727782851929199 0.072176878619847659 0 -0.1747243021971624 0.07107281032032578 0 -0.1760757405546815 0.078441379725309346 0 -0.1747243021971624 0.07107281032032578 0 -0.18192674947643331 0.069485948733866959 0 -0.1760757405546815 0.078441379725309346 0 -0.17361689023824281 0.064187034202279197 0 -0.18192674947643331 0.069485948733866959 0 -0.1780883213643206 0.058515711469834517 0 -0.1747243021971624 0.07107281032032578 0 -0.17361689023824281 0.064187034202279197 0 -0.18192674947643331 0.069485948733866959 0 -0.18192674947643331 0.069485948733866959 0 -0.1780883213643206 0.058515711469834517 0 -0.18431463399584949 0.061621703393907629 0 -0.18192674947643331 0.069485948733866959 0 -0.18431463399584949 0.061621703393907629 0 -0.1880674229390692 0.06844245650814508 0 -0.18192674947643331 0.069485948733866959 0 -0.18656209890876899 0.072384375599924292 0 -0.1880674229390692 0.06844245650814508 0 -0.18431463399584949 0.061621703393907629 0 -0.18955959513507001 0.061029170820482891 0 -0.1880674229390692 0.06844245650814508 0 -0.18192674947643331 0.069485948733866959 0 -0.1852319308435951 0.078131562335054541 0 -0.1760757405546815 0.078441379725309346 0 -0.18192674947643331 0.069485948733866959 0 -0.18656209890876899 0.072384375599924292 0 -0.1852319308435951 0.078131562335054541 0 -0.1852319308435951 0.078131562335054541 0 -0.18572262782662771 0.084621705344004775 0 -0.19106994583448331 0.07851850420105215 0 -0.1852319308435951 0.078131562335054541 0 -0.18572262782662771 0.084621705344004775 0 -0.1760757405546815 0.078441379725309346 0 -0.18572262782662771 0.084621705344004775 0 -0.1760757405546815 0.078441379725309346 0 -0.1720708059428879 0.092426874817215204 0 -0.18572262782662771 0.084621705344004775 0 -0.1720708059428879 0.092426874817215204 0 -0.18439683577841429 0.098173517304998875 0 -0.18439683577841429 0.098173517304998875 0 -0.1752868313531287 0.10545398280499679 0 -0.18765399124751481 0.1113108366277295 0 -0.1720708059428879 0.092426874817215204 0 -0.18439683577841429 0.098173517304998875 0 -0.1752868313531287 0.10545398280499679 0 -0.17909660559152171 0.1154804336659824 0 -0.1772235697149887 0.1224103337288414 0 -0.1878827435308906 0.1247100959041116 0 -0.1752868313531287 0.10545398280499679 0 -0.17909660559152171 0.1154804336659824 0 -0.18765399124751481 0.1113108366277295 0 -0.17909660559152171 0.1154804336659824 0 -0.1878827435308906 0.1247100959041116 0 -0.18765399124751481 0.1113108366277295 0 -0.1752868313531287 0.10545398280499679 0 -0.17294458565080309 0.11635374824625901 0 -0.17909660559152171 0.1154804336659824 0 -0.17294458565080309 0.11635374824625901 0 -0.1772235697149887 0.1224103337288414 0 -0.16921616682784191 0.13045369240042989 0 -0.17294458565080309 0.11635374824625901 0 -0.17909660559152171 0.1154804336659824 0 -0.1772235697149887 0.1224103337288414 0 -0.17294458565080309 0.11635374824625901 0 -0.16389975476653421 0.1079702986310444 0 -0.16921616682784191 0.13045369240042989 0 -0.157532967592484 0.1111258696272292 0 -0.16389975476653421 0.1079702986310444 0 -0.16921616682784191 0.13045369240042989 0 -0.16389975476653421 0.1079702986310444 0 -0.16921616682784191 0.13045369240042989 0 -0.157532967592484 0.1111258696272292 0 -0.16921616682784191 0.13045369240042989 0 -0.157532967592484 0.1111258696272292 0 -0.16038204194862429 0.1295560985110559 0 -0.16921616682784191 0.13045369240042989 0 -0.157532967592484 0.1111258696272292 0 -0.15438050334042169 0.12349926971733299 0 -0.16038204194862429 0.1295560985110559 0 -0.1752868313531287 0.10545398280499679 0 -0.17294458565080309 0.11635374824625901 0 -0.16389975476653421 0.1079702986310444 0 -0.15858334270522689 0.08548690486165883 0 -0.1720708059428879 0.092426874817215204 0 -0.16389975476653421 0.1079702986310444 0 -0.15858334270522689 0.08548690486165883 0 -0.16389975476653421 0.1079702986310444 0 -0.15858334270522689 0.08548690486165883 0 -0.16389975476653421 0.1079702986310444 0 -0.1562051852265777 0.099104713862262606 0 -0.1720708059428879 0.092426874817215204 0 -0.1752868313531287 0.10545398280499679 0 -0.16389975476653421 0.1079702986310444 0 -0.157532967592484 0.1111258696272292 0 -0.16389975476653421 0.1079702986310444 0 -0.1562051852265777 0.099104713862262606 0 -0.157532967592484 0.1111258696272292 0 -0.14697817483618111 0.1050327407777288 0 -0.1458497683571256 0.091798046854028786 0 -0.157532967592484 0.1111258696272292 0 -0.1458497683571256 0.091798046854028786 0 -0.157532967592484 0.1111258696272292 0 -0.1562051852265777 0.099104713862262606 0 -0.1458497683571256 0.091798046854028786 0 -0.157532967592484 0.1111258696272292 0 -0.14697817483618111 0.1050327407777288 0 -0.14977089880083089 0.1118635134601948 0 -0.14697817483618111 0.1050327407777288 0 -0.14320090225441309 0.1160687221000842 0 -0.13525289039375921 0.1060040061295298 0 -0.14697817483618111 0.1050327407777288 0 -0.13525289039375921 0.1060040061295298 0 -0.1458497683571256 0.091798046854028786 0 -0.157532967592484 0.1111258696272292 0 -0.15438050334042169 0.12349926971733299 0 -0.1505020976933881 0.1170713648805882 0 -0.15438050334042169 0.12349926971733299 0 -0.1505020976933881 0.1170713648805882 0 -0.14824752649264111 0.1234476217319415 0 -0.157532967592484 0.1111258696272292 0 -0.1505020976933881 0.1170713648805882 0 -0.14977089880083089 0.1118635134601948 0 -0.14697817483618111 0.1050327407777288 0 -0.14977089880083089 0.1118635134601948 0 -0.14320090225441309 0.1160687221000842 0 -0.1505020976933881 0.1170713648805882 0 -0.14977089880083089 0.1118635134601948 0 -0.14320090225441309 0.1160687221000842 0 -0.14320090225441309 0.1160687221000842 0 -0.14824752649264111 0.1234476217319415 0 -0.1413722784701294 0.12942422458417471 0 -0.1505020976933881 0.1170713648805882 0 -0.14320090225441309 0.1160687221000842 0 -0.14824752649264111 0.1234476217319415 0 -0.1286659925574993 0.1187760956012275 0 -0.13525289039375921 0.1060040061295298 0 -0.11734370752708501 0.10628910993408761 0 -0.14320090225441309 0.1160687221000842 0 -0.1286659925574993 0.1187760956012275 0 -0.1413722784701294 0.12942422458417471 0 -0.14320090225441309 0.1160687221000842 0 -0.1286659925574993 0.1187760956012275 0 -0.13525289039375921 0.1060040061295298 0 -0.13525289039375921 0.1060040061295298 0 -0.12815343446816799 0.095578066164623318 0 -0.1458497683571256 0.091798046854028786 0 -0.13525289039375921 0.1060040061295298 0 -0.12815343446816799 0.095578066164623318 0 -0.11734370752708501 0.10628910993408761 0 -0.1458497683571256 0.091798046854028786 0 -0.13416656912176719 0.072470224080828344 0 -0.12815343446816799 0.095578066164623318 0 -0.12631051899206919 0.082857795729519707 0 -0.1458497683571256 0.091798046854028786 0 -0.12631051899206919 0.082857795729519707 0 -0.1458497683571256 0.091798046854028786 0 -0.13416656912176719 0.072470224080828344 0 -0.1458497683571256 0.091798046854028786 0 -0.14979571343518791 0.076299898729277019 0 -0.13416656912176719 0.072470224080828344 0 -0.15858334270522689 0.08548690486165883 0 -0.1458497683571256 0.091798046854028786 0 -0.14979571343518791 0.076299898729277019 0 -0.15858334270522689 0.08548690486165883 0 -0.1562051852265777 0.099104713862262606 0 -0.1458497683571256 0.091798046854028786 0 -0.14979571343518791 0.076299898729277019 0 -0.14111623237070489 0.065717854387895638 0 -0.13416656912176719 0.072470224080828344 0 -0.15858334270522689 0.08548690486165883 0 -0.15326693064391969 0.063003511092273312 0 -0.15858334270522689 0.08548690486165883 0 -0.15326693064391969 0.063003511092273312 0 -0.14979571343518791 0.076299898729277019 0 -0.15326693064391969 0.063003511092273312 0 -0.14979571343518791 0.076299898729277019 0 -0.1468037506697783 0.063089849056737618 0 -0.15326693064391969 0.063003511092273312 0 -0.1468037506697783 0.063089849056737618 0 -0.14973615985761729 0.061674197317917012 0 -0.14979571343518791 0.076299898729277019 0 -0.1468037506697783 0.063089849056737618 0 -0.14111623237070489 0.065717854387895638 0 -0.14111623237070489 0.065717854387895638 0 -0.13416656912176719 0.072470224080828344 0 -0.13408750940805669 0.057908493981592979 0 -0.13416656912176719 0.072470224080828344 0 -0.1224833698864089 0.053142401307627943 0 -0.12631051899206919 0.082857795729519707 0 -0.13416656912176719 0.072470224080828344 0 -0.1175323160094202 0.065069568454073093 0 -0.13416656912176719 0.072470224080828344 0 -0.13408750940805669 0.057908493981592979 0 -0.1224833698864089 0.053142401307627943 0 -0.13408750940805669 0.057908493981592979 0 -0.13756569552639919 0.050363224411371171 0 -0.1415254817040866 0.058411957234723172 0 -0.14111623237070489 0.065717854387895638 0 -0.13408750940805669 0.057908493981592979 0 -0.1415254817040866 0.058411957234723172 0 -0.13408750940805669 0.057908493981592979 0 -0.13756569552639919 0.050363224411371171 0 -0.12967710226236809 0.046953678296329557 0 -0.13408750940805669 0.057908493981592979 0 -0.12967710226236809 0.046953678296329557 0 -0.1224833698864089 0.053142401307627943 0 -0.12967710226236809 0.046953678296329557 0 -0.1284667156132355 0.033245407522291548 0 -0.1220658500354324 0.045365689501283592 0 -0.12967710226236809 0.046953678296329557 0 -0.1284667156132355 0.033245407522291548 0 -0.13607498705667409 0.042785263471157069 0 -0.1284667156132355 0.033245407522291548 0 -0.139807531502741 0.036599810086798738 0 -0.14361628854120029 0.028538271034368991 0 -0.1284667156132355 0.033245407522291548 0 -0.139807531502741 0.036599810086798738 0 -0.13607498705667409 0.042785263471157069 0 -0.13756569552639919 0.050363224411371171 0 -0.12967710226236809 0.046953678296329557 0 -0.13607498705667409 0.042785263471157069 0 -0.139807531502741 0.036599810086798738 0 -0.13607498705667409 0.042785263471157069 0 -0.14065601717436671 0.044109792875578362 0 -0.13756569552639919 0.050363224411371171 0 -0.13607498705667409 0.042785263471157069 0 -0.14065601717436671 0.044109792875578362 0 -0.14742939154347931 0.038316242926097012 0 -0.14361628854120029 0.028538271034368991 0 -0.16046045867517489 0.031234087416112222 0 -0.14065601717436671 0.044109792875578362 0 -0.14742939154347931 0.038316242926097012 0 -0.1438386161695098 0.052199120750746411 0 -0.139807531502741 0.036599810086798738 0 -0.14065601717436671 0.044109792875578362 0 -0.14742939154347931 0.038316242926097012 0 -0.139807531502741 0.036599810086798738 0 -0.14742939154347931 0.038316242926097012 0 -0.14361628854120029 0.028538271034368991 0 -0.14742939154347931 0.038316242926097012 0 -0.16046045867517489 0.031234087416112222 0 -0.158847008696896 0.041374776440325452 0 -0.14742939154347931 0.038316242926097012 0 -0.1562087916842623 0.048432832026366578 0 -0.158847008696896 0.041374776440325452 0 -0.15326693064391969 0.063003511092273312 0 -0.14742939154347931 0.038316242926097012 0 -0.14742939154347931 0.038316242926097012 0 -0.1483043819008249 0.057818071625096411 0 -0.1438386161695098 0.052199120750746411 0 -0.15326693064391969 0.063003511092273312 0 -0.14742939154347931 0.038316242926097012 0 -0.1483043819008249 0.057818071625096411 0 -0.15326693064391969 0.063003511092273312 0 -0.14742939154347931 0.038316242926097012 0 -0.1562087916842623 0.048432832026366578 0 -0.15326693064391969 0.063003511092273312 0 -0.14973615985761729 0.061674197317917012 0 -0.1483043819008249 0.057818071625096411 0 -0.1483043819008249 0.057818071625096411 0 -0.1415254817040866 0.058411957234723172 0 -0.1438386161695098 0.052199120750746411 0 -0.1468037506697783 0.063089849056737618 0 -0.1483043819008249 0.057818071625096411 0 -0.1415254817040866 0.058411957234723172 0 -0.1468037506697783 0.063089849056737618 0 -0.14973615985761729 0.061674197317917012 0 -0.1483043819008249 0.057818071625096411 0 -0.1468037506697783 0.063089849056737618 0 -0.14111623237070489 0.065717854387895638 0 -0.1415254817040866 0.058411957234723172 0 -0.13756569552639919 0.050363224411371171 0 -0.14065601717436671 0.044109792875578362 0 -0.1438386161695098 0.052199120750746411 0 -0.13756569552639919 0.050363224411371171 0 -0.1415254817040866 0.058411957234723172 0 -0.1438386161695098 0.052199120750746411 0 -0.1236889335263805 -0.0048356221156674456 0 -0.13531749989930189 0.007516700803356092 0 -0.1232047665714129 0.011888674433248829 0 -0.13531749989930189 0.007516700803356092 0 -0.1322138037936767 0.017162145673085171 0 -0.1232047665714129 0.011888674433248829 0 -0.13531749989930189 0.007516700803356092 0 -0.1322138037936767 0.017162145673085171 0 -0.14102231287121669 0.0148007910599045 0 -0.1284667156132355 0.033245407522291548 0 -0.14361628854120029 0.028538271034368991 0 -0.12098227345297841 0.02491582195114812 0 -0.13802046369386631 0.02159002122418463 0 -0.14361628854120029 0.028538271034368991 0 -0.12098227345297841 0.02491582195114812 0 -0.13802046369386631 0.02159002122418463 0 -0.1322138037936767 0.017162145673085171 0 -0.12098227345297841 0.02491582195114812 0 -0.14361628854120029 0.028538271034368991 0 -0.12098227345297841 0.02491582195114812 0 -0.13802046369386631 0.02159002122418463 0 -0.1322138037936767 0.017162145673085171 0 -0.14102231287121669 0.0148007910599045 0 -0.1322138037936767 0.017162145673085171 0 -0.1232047665714129 0.011888674433248829 0 -0.12098227345297841 0.02491582195114812 0 -0.1284667156132355 0.033245407522291548 0 -0.14361628854120029 0.028538271034368991 0 -0.14361628854120029 0.028538271034368991 0 -0.16046045867517489 0.031234087416112222 0 -0.14361628854120029 0.028538271034368991 0 -0.1499268131569482 0.026577522647735701 0 -0.16046045867517489 0.031234087416112222 0 -0.13802046369386631 0.02159002122418463 0 -0.14361628854120029 0.028538271034368991 0 -0.14550931221559421 0.024624696419422439 0 -0.14361628854120029 0.028538271034368991 0 -0.14550931221559421 0.024624696419422439 0 -0.1499268131569482 0.026577522647735701 0 -0.14550931221559421 0.024624696419422439 0 -0.1499268131569482 0.026577522647735701 0 -0.1493653199616454 0.020450069344062311 0 -0.14550931221559421 0.024624696419422439 0 -0.1499268131569482 0.026577522647735701 0 -0.14361628854120029 0.028538271034368991 0 -0.1499268131569482 0.026577522647735701 0 -0.1499268131569482 0.026577522647735701 0 -0.16046045867517489 0.031234087416112222 0 -0.1499268131569482 0.026577522647735701 0 -0.1493653199616454 0.020450069344062311 0 -0.15700647985224539 0.016742638618345879 0 -0.1493653199616454 0.020450069344062311 0 -0.14960520329490831 0.01480708782762765 0 -0.15700647985224539 0.016742638618345879 0 -0.1493653199616454 0.020450069344062311 0 -0.14470452240744619 0.019254533175040309 0 -0.14960520329490831 0.01480708782762765 0 -0.14470452240744619 0.019254533175040309 0 -0.14102231287121669 0.0148007910599045 0 -0.14960520329490831 0.01480708782762765 0 -0.14550931221559421 0.024624696419422439 0 -0.1493653199616454 0.020450069344062311 0 -0.14470452240744619 0.019254533175040309 0 -0.13802046369386631 0.02159002122418463 0 -0.14550931221559421 0.024624696419422439 0 -0.14470452240744619 0.019254533175040309 0 -0.13802046369386631 0.02159002122418463 0 -0.14470452240744619 0.019254533175040309 0 -0.14102231287121669 0.0148007910599045 0 -0.14102231287121669 0.0148007910599045 0 -0.14960520329490831 0.01480708782762765 0 -0.14653031239023459 0.0061666081888149078 0 -0.13531749989930189 0.007516700803356092 0 -0.14102231287121669 0.0148007910599045 0 -0.14653031239023459 0.0061666081888149078 0 -0.14960520329490831 0.01480708782762765 0 -0.14653031239023459 0.0061666081888149078 0 -0.1567842893110051 0.0089487414526652209 0 -0.14960520329490831 0.01480708782762765 0 -0.1567842893110051 0.0089487414526652209 0 -0.15700647985224539 0.016742638618345879 0 -0.15948638931503409 -0.0022405599676112368 0 -0.14653031239023459 0.0061666081888149078 0 -0.1567842893110051 0.0089487414526652209 0 -0.14481524972539569 -0.0053265192320544573 0 -0.13531749989930189 0.007516700803356092 0 -0.14653031239023459 0.0061666081888149078 0 -0.15948638931503409 -0.0022405599676112368 0 -0.17922329853870261 -0.003379851448763294 0 -0.1681730013405833 0.0072157158892922502 0 -0.15948638931503409 -0.0022405599676112368 0 -0.1681730013405833 0.0072157158892922502 0 -0.1567842893110051 0.0089487414526652209 0 -0.1681730013405833 0.0072157158892922502 0 -0.1567842893110051 0.0089487414526652209 0 -0.15700647985224539 0.016742638618345879 0 -0.1681730013405833 0.0072157158892922502 0 -0.16824942963228129 0.020884487142682189 0 -0.15700647985224539 0.016742638618345879 0 -0.1499268131569482 0.026577522647735701 0 -0.16824942963228129 0.020884487142682189 0 -0.16046045867517489 0.031234087416112222 0 -0.1499268131569482 0.026577522647735701 0 -0.16824942963228129 0.020884487142682189 0 -0.16824942963228129 0.020884487142682189 0 -0.16046045867517489 0.031234087416112222 0 -0.1784511412903646 0.02522990790385116 0 -0.1499268131569482 0.026577522647735701 0 -0.16824942963228129 0.020884487142682189 0 -0.15700647985224539 0.016742638618345879 0 -0.16824942963228129 0.020884487142682189 0 -0.1865720461076151 0.01519145163763112 0 -0.16046045867517489 0.031234087416112222 0 -0.1784511412903646 0.02522990790385116 0 -0.18774562480871271 0.035600927530900522 0 -0.16824942963228129 0.020884487142682189 0 -0.1784511412903646 0.02522990790385116 0 -0.1865720461076151 0.01519145163763112 0 -0.1784511412903646 0.02522990790385116 0 -0.18774562480871271 0.035600927530900522 0 -0.1892281472280391 0.023238585791929431 0 -0.1784511412903646 0.02522990790385116 0 -0.1865720461076151 0.01519145163763112 0 -0.1892281472280391 0.023238585791929431 0 -0.17922329853870261 -0.003379851448763294 0 -0.1681730013405833 0.0072157158892922502 0 -0.1865720461076151 0.01519145163763112 0 -0.1681730013405833 0.0072157158892922502 0 -0.16824942963228129 0.020884487142682189 0 -0.1865720461076151 0.01519145163763112 0 -0.17922329853870261 -0.003379851448763294 0 -0.1865720461076151 0.01519145163763112 0 -0.19624046134737319 0.0034577058667048109 0 -0.17361689023824281 0.064187034202279197 0 -0.16712496684121589 0.051989579036786332 0 -0.16587393579125581 0.061616820165479473 0 -0.16117832915995969 0.062651005918583746 0 -0.16712496684121589 0.051989579036786332 0 -0.16587393579125581 0.061616820165479473 0 -0.15326693064391969 0.063003511092273312 0 -0.16712496684121589 0.051989579036786332 0 -0.16117832915995969 0.062651005918583746 0 -0.15326693064391969 0.063003511092273312 0 -0.16712496684121589 0.051989579036786332 0 -0.1562087916842623 0.048432832026366578 0 -0.16712496684121589 0.051989579036786332 0 -0.158847008696896 0.041374776440325452 0 -0.15326693064391969 0.063003511092273312 0 -0.1562087916842623 0.048432832026366578 0 -0.16712496684121589 0.051989579036786332 0 -0.16712496684121589 0.051989579036786332 0 -0.158847008696896 0.041374776440325452 0 -0.16599636472064941 0.040178104586181138 0 -0.16046045867517489 0.031234087416112222 0 -0.158847008696896 0.041374776440325452 0 -0.16599636472064941 0.040178104586181138 0 -0.16046045867517489 0.031234087416112222 0 -0.16599636472064941 0.040178104586181138 0 -0.17468640053167089 0.037522890236681823 0 -0.16046045867517489 0.031234087416112222 0 -0.17468640053167089 0.037522890236681823 0 -0.16712496684121589 0.051989579036786332 0 -0.16599636472064941 0.040178104586181138 0 -0.17646289347471661 0.038308217067315957 0 -0.16712496684121589 0.051989579036786332 0 -0.17646289347471661 0.038308217067315957 0 -0.18152409722323221 0.040545602312539758 0 -0.16046045867517489 0.031234087416112222 0 -0.17468640053167089 0.037522890236681823 0 -0.18774562480871271 0.035600927530900522 0 -0.16712496684121589 0.051989579036786332 0 -0.18152409722323221 0.040545602312539758 0 -0.16046045867517489 0.031234087416112222 0 -0.18774562480871271 0.035600927530900522 0 -0.17646289347471661 0.038308217067315957 0 -0.18152409722323221 0.040545602312539758 0 -0.17468640053167089 0.037522890236681823 0 -0.17646289347471661 0.038308217067315957 0 -0.18774562480871271 0.035600927530900522 0 -0.16599636472064941 0.040178104586181138 0 -0.17468640053167089 0.037522890236681823 0 -0.17646289347471661 0.038308217067315957 0 -0.17468640053167089 0.037522890236681823 0 -0.17646289347471661 0.038308217067315957 0 -0.18152409722323221 0.040545602312539758 0 -0.1911830052443326 0.036151061281327362 0 -0.18774562480871271 0.035600927530900522 0 -0.17646289347471661 0.038308217067315957 0 -0.18152409722323221 0.040545602312539758 0 -0.18774562480871271 0.035600927530900522 0 -0.18152409722323221 0.040545602312539758 0 -0.18774562480871271 0.035600927530900522 0 -0.18152409722323221 0.040545602312539758 0 -0.18224834873923751 0.051622635115951977 0 -0.19796444324973261 0.050996820353893302 0 -0.16712496684121589 0.051989579036786332 0 -0.18224834873923751 0.051622635115951977 0 -0.1780883213643206 0.058515711469834517 0 -0.16712496684121589 0.051989579036786332 0 -0.18152409722323221 0.040545602312539758 0 -0.18224834873923751 0.051622635115951977 0 -0.17361689023824281 0.064187034202279197 0 -0.16712496684121589 0.051989579036786332 0 -0.1780883213643206 0.058515711469834517 0 -0.18224834873923751 0.051622635115951977 0 -0.1780883213643206 0.058515711469834517 0 -0.18431463399584949 0.061621703393907629 0 -0.18224834873923751 0.051622635115951977 0 -0.18431463399584949 0.061621703393907629 0 -0.18955959513507001 0.061029170820482891 0 -0.18224834873923751 0.051622635115951977 0 -0.19796444324973261 0.050996820353893302 0 -0.19666366365569371 0.058671891420687669 0 -0.18224834873923751 0.051622635115951977 0 -0.18955959513507001 0.061029170820482891 0 -0.19666366365569371 0.058671891420687669 0 -0.18224834873923751 0.051622635115951977 0 -0.19666366365569371 0.058671891420687669 0 -0.18955959513507001 0.061029170820482891 0 -0.19666366365569371 0.058671891420687669 0 -0.1933087707395541 0.065871164953976283 0 -0.18152409722323221 0.040545602312539758 0 -0.19796444324973261 0.050996820353893302 0 -0.19995291828116879 0.048692354423437667 0 -0.18152409722323221 0.040545602312539758 0 -0.1911830052443326 0.036151061281327362 0 -0.1983644107640605 0.040466198617765507 0 -0.18152409722323221 0.040545602312539758 0 -0.19995291828116879 0.048692354423437667 0 -0.1983644107640605 0.040466198617765507 0 -0.18152409722323221 0.040545602312539758 0 -0.19995291828116879 0.048692354423437667 0 -0.18152409722323221 0.040545602312539758 0 -0.19796444324973261 0.050996820353893302 0 -0.1911830052443326 0.036151061281327362 0 -0.18774562480871271 0.035600927530900522 0 -0.19809828834210541 0.032775744729919731 0 -0.1911830052443326 0.036151061281327362 0 -0.18774562480871271 0.035600927530900522 0 -0.1911830052443326 0.036151061281327362 0 -0.19809828834210541 0.032775744729919731 0 -0.1983644107640605 0.040466198617765507 0 -0.19809828834210541 0.032775744729919731 0 -0.1983644107640605 0.040466198617765507 0 -0.20555175053085259 0.037300589369143107 0 -0.19809828834210541 0.032775744729919731 0 -0.20555175053085259 0.037300589369143107 0 -0.20514643355384041 0.029755471251931551 0 -0.19995291828116879 0.048692354423437667 0 -0.1983644107640605 0.040466198617765507 0 -0.20555175053085259 0.037300589369143107 0 -0.19995291828116879 0.048692354423437667 0 -0.20555175053085259 0.037300589369143107 0 -0.2154205148858491 0.043739927161948293 0 -0.20555175053085259 0.037300589369143107 0 -0.20895156905350831 0.031338341053188827 0 -0.21409852600994889 0.0349244278809153 0 -0.20555175053085259 0.037300589369143107 0 -0.20895156905350831 0.031338341053188827 0 -0.20514643355384041 0.029755471251931551 0 -0.21409852600994889 0.0349244278809153 0 -0.2154205148858491 0.043739927161948293 0 -0.2218627422421689 0.036647651965126558 0 -0.20555175053085259 0.037300589369143107 0 -0.21409852600994889 0.0349244278809153 0 -0.2154205148858491 0.043739927161948293 0 -0.19796444324973261 0.050996820353893302 0 -0.21494588346095239 0.061017993726489327 0 -0.19995291828116879 0.048692354423437667 0 -0.2183817393391054 0.056839106534335507 0 -0.21494588346095239 0.061017993726489327 0 -0.19666366365569371 0.058671891420687669 0 -0.21494588346095239 0.061017993726489327 0 -0.2110789785721498 0.065721147725423673 0 -0.19995291828116879 0.048692354423437667 0 -0.2154205148858491 0.043739927161948293 0 -0.2183817393391054 0.056839106534335507 0 -0.19995291828116879 0.048692354423437667 0 -0.2183817393391054 0.056839106534335507 0 -0.19796444324973261 0.050996820353893302 0 -0.19995291828116879 0.048692354423437667 0 -0.21494588346095239 0.061017993726489327 0 -0.19796444324973261 0.050996820353893302 0 -0.19666366365569371 0.058671891420687669 0 -0.21494588346095239 0.061017993726489327 0 -0.2183817393391054 0.056839106534335507 0 -0.21494588346095239 0.061017993726489327 0 -0.19666366365569371 0.058671891420687669 0 -0.2110789785721498 0.065721147725423673 0 -0.19624046134737319 0.0034577058667048109 0 -0.2027287982549367 0.021331178955589031 0 -0.2052252815122943 0.01031050034876071 0 -0.19624046134737319 0.0034577058667048109 0 -0.2027287982549367 0.021331178955589031 0 -0.1943688777009912 0.017112023681827609 0 -0.19624046134737319 0.0034577058667048109 0 -0.2027287982549367 0.021331178955589031 0 -0.20278884112693071 -0.0033178485209027471 0 -0.19624046134737319 0.0034577058667048109 0 -0.2052252815122943 0.01031050034876071 0 -0.1865720461076151 0.01519145163763112 0 -0.19624046134737319 0.0034577058667048109 0 -0.1943688777009912 0.017112023681827609 0 -0.18774562480871271 0.035600927530900522 0 -0.19809828834210541 0.032775744729919731 0 -0.2053497560318408 0.021609716768639198 0 -0.18774562480871271 0.035600927530900522 0 -0.2027287982549367 0.021331178955589031 0 -0.2053497560318408 0.021609716768639198 0 -0.18774562480871271 0.035600927530900522 0 -0.2053497560318408 0.021609716768639198 0 -0.2027287982549367 0.021331178955589031 0 -0.1943688777009912 0.017112023681827609 0 -0.19351786199816989 0.024320678990061718 0 -0.1865720461076151 0.01519145163763112 0 -0.1943688777009912 0.017112023681827609 0 -0.1892281472280391 0.023238585791929431 0 -0.1943688777009912 0.017112023681827609 0 -0.1892281472280391 0.023238585791929431 0 -0.19351786199816989 0.024320678990061718 0 -0.18774562480871271 0.035600927530900522 0 -0.1892281472280391 0.023238585791929431 0 -0.19351786199816989 0.024320678990061718 0 -0.18774562480871271 0.035600927530900522 0 -0.2027287982549367 0.021331178955589031 0 -0.19351786199816989 0.024320678990061718 0 -0.19809828834210541 0.032775744729919731 0 -0.20514643355384041 0.029755471251931551 0 -0.2053497560318408 0.021609716768639198 0 -0.21846668729027899 0.02119824853983977 0 -0.2053497560318408 0.021609716768639198 0 -0.22295388725496909 0.0076185060063782874 0 -0.20514643355384041 0.029755471251931551 0 -0.20792612597720361 0.026895279208290799 0 -0.2053497560318408 0.021609716768639198 0 -0.20792612597720361 0.026895279208290799 0 -0.21248926073571961 0.026705291550641899 0 -0.2053497560318408 0.021609716768639198 0 -0.20895156905350831 0.031338341053188827 0 -0.20514643355384041 0.029755471251931551 0 -0.20792612597720361 0.026895279208290799 0 -0.20895156905350831 0.031338341053188827 0 -0.20792612597720361 0.026895279208290799 0 -0.21248926073571961 0.026705291550641899 0 -0.20895156905350831 0.031338341053188827 0 -0.21409852600994889 0.0349244278809153 0 -0.21248926073571961 0.026705291550641899 0 -0.21409852600994889 0.0349244278809153 0 -0.21248926073571961 0.026705291550641899 0 -0.22101396509742249 0.028770921072423409 0 -0.21248926073571961 0.026705291550641899 0 -0.21846668729027899 0.02119824853983977 0 -0.22101396509742249 0.028770921072423409 0 -0.21248926073571961 0.026705291550641899 0 -0.21846668729027899 0.02119824853983977 0 -0.2053497560318408 0.021609716768639198 0 -0.2027287982549367 0.021331178955589031 0 -0.2053497560318408 0.021609716768639198 0 -0.2052252815122943 0.01031050034876071 0 -0.2053497560318408 0.021609716768639198 0 -0.2052252815122943 0.01031050034876071 0 -0.22295388725496909 0.0076185060063782874 0 -0.21334360552032741 -8.7346979752025359e-05 0 -0.2052252815122943 0.01031050034876071 0 -0.22295388725496909 0.0076185060063782874 0 -0.2053497560318408 0.021609716768639198 0 -0.22295388725496909 0.0076185060063782874 0 -0.20278884112693071 -0.0033178485209027471 0 -0.21334360552032741 -8.7346979752025359e-05 0 -0.2052252815122943 0.01031050034876071 0 -0.22295388725496909 0.0076185060063782874 0 -0.23052656733144281 0.02128680730111604 0 -0.2410929367991789 0.013166632831364201 0 -0.21846668729027899 0.02119824853983977 0 -0.22295388725496909 0.0076185060063782874 0 -0.23052656733144281 0.02128680730111604 0 -0.21846668729027899 0.02119824853983977 0 -0.23052656733144281 0.02128680730111604 0 -0.22101396509742249 0.028770921072423409 0 -0.23052656733144281 0.02128680730111604 0 -0.22831287884660911 0.032439192312130133 0 -0.23931349992830589 0.031380685303211288 0 -0.23052656733144281 0.02128680730111604 0 -0.22101396509742249 0.028770921072423409 0 -0.22831287884660911 0.032439192312130133 0 -0.23052656733144281 0.02128680730111604 0 -0.2410929367991789 0.013166632831364201 0 -0.23931349992830589 0.031380685303211288 0 -0.25324820044567231 0.01951733263261406 0 -0.2410929367991789 0.013166632831364201 0 -0.23931349992830589 0.031380685303211288 0 -0.25875993515398521 0.0050824514403093237 0 -0.23972571187364261 5.0664829363198088e-06 0 -0.2410929367991789 0.013166632831364201 0 -0.22295388725496909 0.0076185060063782874 0 -0.23972571187364261 5.0664829363198088e-06 0 -0.2410929367991789 0.013166632831364201 0 -0.2183817393391054 0.056839106534335507 0 -0.23965758750097541 0.066244432050218793 0 -0.2183817393391054 0.056839106534335507 0 -0.23223427463356111 0.054907231011331423 0 -0.23965758750097541 0.066244432050218793 0 -0.2183817393391054 0.056839106534335507 0 -0.21494588346095239 0.061017993726489327 0 -0.2286773546505535 0.069121278944949252 0 -0.2183817393391054 0.056839106534335507 0 -0.22884761963370559 0.044109895918773352 0 -0.2154205148858491 0.043739927161948293 0 -0.2183817393391054 0.056839106534335507 0 -0.22884761963370559 0.044109895918773352 0 -0.2183817393391054 0.056839106534335507 0 -0.23223427463356111 0.054907231011331423 0 -0.22884761963370559 0.044109895918773352 0 -0.2154205148858491 0.043739927161948293 0 -0.2218627422421689 0.036647651965126558 0 -0.22884761963370559 0.044109895918773352 0 -0.22101396509742249 0.028770921072423409 0 -0.2218627422421689 0.036647651965126558 0 -0.22831287884660911 0.032439192312130133 0 -0.2218627422421689 0.036647651965126558 0 -0.22831287884660911 0.032439192312130133 0 -0.22884761963370559 0.044109895918773352 0 -0.21409852600994889 0.0349244278809153 0 -0.22101396509742249 0.028770921072423409 0 -0.2218627422421689 0.036647651965126558 0 -0.22884761963370559 0.044109895918773352 0 -0.23931349992830589 0.031380685303211288 0 -0.22831287884660911 0.032439192312130133 0 -0.22884761963370559 0.044109895918773352 0 -0.23931349992830589 0.031380685303211288 0 -0.25943096531606852 0.032516810858682563 0 -0.23931349992830589 0.031380685303211288 0 -0.24502344638864151 0.041465211720260353 0 -0.22884761963370559 0.044109895918773352 0 -0.23931349992830589 0.031380685303211288 0 -0.24502344638864151 0.041465211720260353 0 -0.22884761963370559 0.044109895918773352 0 -0.24502344638864151 0.041465211720260353 0 -0.24205015206045821 0.052435489541998011 0 -0.25229799311518492 0.060429424602911959 0 -0.25547499500466953 0.04688317697863658 0 -0.24205015206045821 0.052435489541998011 0 -0.25547499500466953 0.04688317697863658 0 -0.24502344638864151 0.041465211720260353 0 -0.24205015206045821 0.052435489541998011 0 -0.23223427463356111 0.054907231011331423 0 -0.22884761963370559 0.044109895918773352 0 -0.24205015206045821 0.052435489541998011 0 -0.23223427463356111 0.054907231011331423 0 -0.24205015206045821 0.052435489541998011 0 -0.23965758750097541 0.066244432050218793 0 -0.25229799311518492 0.060429424602911959 0 -0.24205015206045821 0.052435489541998011 0 -0.23965758750097541 0.066244432050218793 0 -0.25229799311518492 0.060429424602911959 0 -0.24984059136411041 0.071379812532672213 0 -0.23965758750097541 0.066244432050218793 0 -0.25069707599120428 0.085094857188689046 0 -0.24984059136411041 0.071379812532672213 0 -0.2424088258401538 0.077224564163410697 0 -0.24984059136411041 0.071379812532672213 0 -0.2424088258401538 0.077224564163410697 0 -0.23965758750097541 0.066244432050218793 0 -0.2424088258401538 0.077224564163410697 0 -0.2286773546505535 0.069121278944949252 0 -0.2424088258401538 0.077224564163410697 0 -0.23965758750097541 0.066244432050218793 0 -0.2286773546505535 0.069121278944949252 0 -0.25069707599120428 0.085094857188689046 0 -0.23675863418428039 0.088500553972439014 0 -0.23618924467790381 0.1038203461252037 0 -0.25069707599120428 0.085094857188689046 0 -0.23675863418428039 0.088500553972439014 0 -0.23088802728167721 0.075408002457056228 0 -0.25069707599120428 0.085094857188689046 0 -0.23088802728167721 0.075408002457056228 0 -0.25069707599120428 0.085094857188689046 0 -0.2424088258401538 0.077224564163410697 0 -0.23088802728167721 0.075408002457056228 0 -0.23675863418428039 0.088500553972439014 0 -0.22878955742129339 0.083751529209726339 0 -0.22450379140798371 0.095638360883714441 0 -0.22878955742129339 0.083751529209726339 0 -0.22592136489848499 0.078713513515977496 0 -0.23088802728167721 0.075408002457056228 0 -0.23675863418428039 0.088500553972439014 0 -0.22878955742129339 0.083751529209726339 0 -0.23088802728167721 0.075408002457056228 0 -0.22878955742129339 0.083751529209726339 0 -0.2233702438820207 0.080503890062062322 0 -0.2206873268462059 0.086778334223754749 0 -0.22878955742129339 0.083751529209726339 0 -0.22592136489848499 0.078713513515977496 0 -0.2233702438820207 0.080503890062062322 0 -0.22592136489848499 0.078713513515977496 0 -0.2233702438820207 0.080503890062062322 0 -0.22063763100894901 0.075190632335065122 0 -0.2233702438820207 0.080503890062062322 0 -0.22063763100894901 0.075190632335065122 0 -0.21778726072661961 0.079240667427984884 0 -0.2233702438820207 0.080503890062062322 0 -0.2206873268462059 0.086778334223754749 0 -0.21778726072661961 0.079240667427984884 0 -0.22878955742129339 0.083751529209726339 0 -0.2206873268462059 0.086778334223754749 0 -0.22450379140798371 0.095638360883714441 0 -0.2206873268462059 0.086778334223754749 0 -0.21223042920119711 0.0916008990264333 0 -0.22450379140798371 0.095638360883714441 0 -0.23088802728167721 0.075408002457056228 0 -0.22063763100894901 0.075190632335065122 0 -0.2110789785721498 0.065721147725423673 0 -0.23088802728167721 0.075408002457056228 0 -0.2110789785721498 0.065721147725423673 0 -0.2286773546505535 0.069121278944949252 0 -0.23088802728167721 0.075408002457056228 0 -0.2110789785721498 0.065721147725423673 0 -0.2183817393391054 0.056839106534335507 0 -0.23965758750097541 0.066244432050218793 0 -0.2286773546505535 0.069121278944949252 0 -0.2424088258401538 0.077224564163410697 0 -0.2286773546505535 0.069121278944949252 0 -0.23088802728167721 0.075408002457056228 0 -0.22592136489848499 0.078713513515977496 0 -0.23088802728167721 0.075408002457056228 0 -0.22063763100894901 0.075190632335065122 0 -0.21494588346095239 0.061017993726489327 0 -0.2286773546505535 0.069121278944949252 0 -0.2110789785721498 0.065721147725423673 0 -0.20680690207194449 0.075860769145595308 0 -0.196333840074325 0.083655040356631044 0 -0.21494588346095239 0.061017993726489327 0 -0.2286773546505535 0.069121278944949252 0 -0.2110789785721498 0.065721147725423673 0 -0.2110789785721498 0.065721147725423673 0 -0.196333840074325 0.083655040356631044 0 -0.21494588346095239 0.061017993726489327 0 -0.2110789785721498 0.065721147725423673 0 -0.2110789785721498 0.065721147725423673 0 -0.2015302428049553 0.065133377374693061 0 -0.200317234472984 0.069832683054987271 0 -0.2110789785721498 0.065721147725423673 0 -0.20680690207194449 0.075860769145595308 0 -0.21106575048320911 0.072788759985074017 0 -0.20680690207194449 0.075860769145595308 0 -0.212215462834521 0.077650195238431474 0 -0.21106575048320911 0.072788759985074017 0 -0.22063763100894901 0.075190632335065122 0 -0.2110789785721498 0.065721147725423673 0 -0.21460599670594599 0.073875592191080655 0 -0.212215462834521 0.077650195238431474 0 -0.21106575048320911 0.072788759985074017 0 -0.21460599670594599 0.073875592191080655 0 -0.2110789785721498 0.065721147725423673 0 -0.21106575048320911 0.072788759985074017 0 -0.21460599670594599 0.073875592191080655 0 -0.22063763100894901 0.075190632335065122 0 -0.21460599670594599 0.073875592191080655 0 -0.21778726072661961 0.079240667427984884 0 -0.212215462834521 0.077650195238431474 0 -0.21460599670594599 0.073875592191080655 0 -0.21778726072661961 0.079240667427984884 0 -0.212215462834521 0.077650195238431474 0 -0.21778726072661961 0.079240667427984884 0 -0.21459083572771581 0.083637203869204799 0 -0.2206873268462059 0.086778334223754749 0 -0.21778726072661961 0.079240667427984884 0 -0.21459083572771581 0.083637203869204799 0 -0.21459083572771581 0.083637203869204799 0 -0.20871374269901941 0.081718594036796072 0 -0.2103587752273007 0.085911130992910922 0 -0.212215462834521 0.077650195238431474 0 -0.21459083572771581 0.083637203869204799 0 -0.20871374269901941 0.081718594036796072 0 -0.2206873268462059 0.086778334223754749 0 -0.21459083572771581 0.083637203869204799 0 -0.21223042920119711 0.0916008990264333 0 -0.21459083572771581 0.083637203869204799 0 -0.21223042920119711 0.0916008990264333 0 -0.2103587752273007 0.085911130992910922 0 -0.2059000932812706 0.086687827039209464 0 -0.20537414138297641 0.093580415053745661 0 -0.20226399777360821 0.085727162847253804 0 -0.21223042920119711 0.0916008990264333 0 -0.2059000932812706 0.086687827039209464 0 -0.20537414138297641 0.093580415053745661 0 -0.21223042920119711 0.0916008990264333 0 -0.2059000932812706 0.086687827039209464 0 -0.2103587752273007 0.085911130992910922 0 -0.20680690207194449 0.075860769145595308 0 -0.212215462834521 0.077650195238431474 0 -0.20871374269901941 0.081718594036796072 0 -0.2059000932812706 0.086687827039209464 0 -0.20871374269901941 0.081718594036796072 0 -0.2103587752273007 0.085911130992910922 0 -0.2059000932812706 0.086687827039209464 0 -0.20433430304858621 0.082379211860234308 0 -0.20226399777360821 0.085727162847253804 0 -0.2059000932812706 0.086687827039209464 0 -0.20871374269901941 0.081718594036796072 0 -0.20433430304858621 0.082379211860234308 0 -0.20680690207194449 0.075860769145595308 0 -0.20433430304858621 0.082379211860234308 0 -0.202434760742116 0.081905546052428613 0 -0.20680690207194449 0.075860769145595308 0 -0.20871374269901941 0.081718594036796072 0 -0.20433430304858621 0.082379211860234308 0 -0.20680690207194449 0.075860769145595308 0 -0.202434760742116 0.081905546052428613 0 -0.196333840074325 0.083655040356631044 0 -0.196333840074325 0.083655040356631044 0 -0.19587953870415811 0.081603612923092303 0 -0.19749333942205691 0.074758105580478476 0 -0.202434760742116 0.081905546052428613 0 -0.20226399777360821 0.085727162847253804 0 -0.196333840074325 0.083655040356631044 0 -0.20433430304858621 0.082379211860234308 0 -0.202434760742116 0.081905546052428613 0 -0.20226399777360821 0.085727162847253804 0 -0.196333840074325 0.083655040356631044 0 -0.19587953870415811 0.081603612923092303 0 -0.20537414138297641 0.093580415053745661 0 -0.20226399777360821 0.085727162847253804 0 -0.196333840074325 0.083655040356631044 0 -0.18572262782662771 0.084621705344004775 0 -0.18439683577841429 0.098173517304998875 0 -0.196333840074325 0.083655040356631044 0 -0.18439683577841429 0.098173517304998875 0 -0.196333840074325 0.083655040356631044 0 -0.18572262782662771 0.084621705344004775 0 -0.196333840074325 0.083655040356631044 0 -0.19587953870415811 0.081603612923092303 0 -0.18572262782662771 0.084621705344004775 0 -0.19587953870415811 0.081603612923092303 0 -0.19106994583448331 0.07851850420105215 0 -0.19587953870415811 0.081603612923092303 0 -0.19106994583448331 0.07851850420105215 0 -0.19749333942205691 0.074758105580478476 0 -0.2110789785721498 0.065721147725423673 0 -0.196333840074325 0.083655040356631044 0 -0.19749333942205691 0.074758105580478476 0 -0.18656209890876899 0.072384375599924292 0 -0.1852319308435951 0.078131562335054541 0 -0.1910222923759784 0.073477534822630627 0 -0.1852319308435951 0.078131562335054541 0 -0.19106994583448331 0.07851850420105215 0 -0.1910222923759784 0.073477534822630627 0 -0.19106994583448331 0.07851850420105215 0 -0.1910222923759784 0.073477534822630627 0 -0.19749333942205691 0.074758105580478476 0 -0.19509260184019461 0.070594765040531374 0 -0.1910222923759784 0.073477534822630627 0 -0.19749333942205691 0.074758105580478476 0 -0.18656209890876899 0.072384375599924292 0 -0.1910222923759784 0.073477534822630627 0 -0.1880674229390692 0.06844245650814508 0 -0.19509260184019461 0.070594765040531374 0 -0.1910222923759784 0.073477534822630627 0 -0.1880674229390692 0.06844245650814508 0 -0.18955959513507001 0.061029170820482891 0 -0.1880674229390692 0.06844245650814508 0 -0.1933087707395541 0.065871164953976283 0 -0.19509260184019461 0.070594765040531374 0 -0.1880674229390692 0.06844245650814508 0 -0.1933087707395541 0.065871164953976283 0 -0.19509260184019461 0.070594765040531374 0 -0.19806109451899381 0.066307787297673615 0 -0.200317234472984 0.069832683054987271 0 -0.19509260184019461 0.070594765040531374 0 -0.1933087707395541 0.065871164953976283 0 -0.19806109451899381 0.066307787297673615 0 -0.2110789785721498 0.065721147725423673 0 -0.200317234472984 0.069832683054987271 0 -0.19749333942205691 0.074758105580478476 0 -0.19666366365569371 0.058671891420687669 0 -0.2110789785721498 0.065721147725423673 0 -0.2015302428049553 0.065133377374693061 0 -0.19666366365569371 0.058671891420687669 0 -0.1933087707395541 0.065871164953976283 0 -0.19806109451899381 0.066307787297673615 0 -0.19666366365569371 0.058671891420687669 0 -0.19806109451899381 0.066307787297673615 0 -0.2015302428049553 0.065133377374693061 0 -0.19806109451899381 0.066307787297673615 0 -0.2015302428049553 0.065133377374693061 0 -0.200317234472984 0.069832683054987271 0 -0.19509260184019461 0.070594765040531374 0 -0.200317234472984 0.069832683054987271 0 -0.19749333942205691 0.074758105580478476 0 -0.20258366196955649 0.1118765182841911 0 -0.1878827435308906 0.1247100959041116 0 -0.18765399124751481 0.1113108366277295 0 -0.18439683577841429 0.098173517304998875 0 -0.196333840074325 0.083655040356631044 0 -0.20258366196955649 0.1118765182841911 0 -0.18439683577841429 0.098173517304998875 0 -0.20258366196955649 0.1118765182841911 0 -0.18765399124751481 0.1113108366277295 0 -0.20537414138297641 0.093580415053745661 0 -0.196333840074325 0.083655040356631044 0 -0.20258366196955649 0.1118765182841911 0 -0.196333840074325 0.083655040356631044 0 -0.20258366196955649 0.1118765182841911 0 -0.20258366196955649 0.1118765182841911 0 -0.2138226728971217 0.1012078301947284 0 -0.22254998660872399 0.111212703569192 0 -0.20537414138297641 0.093580415053745661 0 -0.20258366196955649 0.1118765182841911 0 -0.2138226728971217 0.1012078301947284 0 -0.21223042920119711 0.0916008990264333 0 -0.20537414138297641 0.093580415053745661 0 -0.2138226728971217 0.1012078301947284 0 -0.21223042920119711 0.0916008990264333 0 -0.2138226728971217 0.1012078301947284 0 -0.22450379140798371 0.095638360883714441 0 -0.20258366196955649 0.1118765182841911 0 -0.22254998660872399 0.111212703569192 0 -0.22605633751083259 0.1281386533705226 0 -0.22254998660872399 0.111212703569192 0 -0.2375482359889651 0.12285584365836399 0 -0.22605633751083259 0.1281386533705226 0 -0.22254998660872399 0.111212703569192 0 -0.23618924467790381 0.1038203461252037 0 -0.2375482359889651 0.12285584365836399 0 -0.2138226728971217 0.1012078301947284 0 -0.22254998660872399 0.111212703569192 0 -0.22450379140798371 0.095638360883714441 0 -0.22254998660872399 0.111212703569192 0 -0.22450379140798371 0.095638360883714441 0 -0.23618924467790381 0.1038203461252037 0 -0.23675863418428039 0.088500553972439014 0 -0.22450379140798371 0.095638360883714441 0 -0.23618924467790381 0.1038203461252037 0 -0.25069707599120428 0.085094857188689046 0 -0.23618924467790381 0.1038203461252037 0 -0.2511028424937089 0.095659961921056635 0 -0.25069707599120428 0.085094857188689046 0 -0.23618924467790381 0.1038203461252037 0 -0.25113245245569499 0.104490526495797 0 -0.23618924467790381 0.1038203461252037 0 -0.2467472784329543 0.1151230730857508 0 -0.2511028424937089 0.095659961921056635 0 -0.25113245245569499 0.104490526495797 0 -0.23618924467790381 0.1038203461252037 0 -0.23618924467790381 0.1038203461252037 0 -0.2375482359889651 0.12285584365836399 0 -0.2467472784329543 0.1151230730857508 0 -0.2375482359889651 0.12285584365836399 0 -0.2467472784329543 0.1151230730857508 0 -0.2491767795964778 0.12797988526709289 0 -0.2439123477494449 0.13603819892781199 0 -0.22605633751083259 0.1281386533705226 0 -0.2491767795964778 0.12797988526709289 0 -0.2439123477494449 0.13603819892781199 0 -0.2375482359889651 0.12285584365836399 0 -0.2491767795964778 0.12797988526709289 0 -0.2439123477494449 0.13603819892781199 0 -0.2375482359889651 0.12285584365836399 0 -0.2439123477494449 0.13603819892781199 0 -0.22605633751083259 0.1281386533705226 0 -0.2491767795964778 0.12797988526709289 0 -0.24951419634013769 0.13851647137254511 0 -0.2439123477494449 0.13603819892781199 0 -0.24951419634013769 0.13851647137254511 0 -0.2439123477494449 0.13603819892781199 0 -0.2439123477494449 0.13603819892781199 0 -0.22605633751083259 0.1281386533705226 0 -0.22674815883912519 0.14109466858150821 0 -0.22605633751083259 0.1281386533705226 0 -0.22674815883912519 0.14109466858150821 0 -0.20883348386478851 0.14009799621175101 0 -0.2439123477494449 0.13603819892781199 0 -0.22674815883912519 0.14109466858150821 0 -0.2281904662314351 0.1601038258159469 0 -0.22674815883912519 0.14109466858150821 0 -0.2281904662314351 0.1601038258159469 0 -0.20883348386478851 0.14009799621175101 0 -0.2439123477494449 0.13603819892781199 0 -0.2420746920588607 0.1553353435026068 0 -0.2281904662314351 0.1601038258159469 0 -0.24951419634013769 0.13851647137254511 0 -0.2439123477494449 0.13603819892781199 0 -0.2420746920588607 0.1553353435026068 0 -0.24951419634013769 0.13851647137254511 0 -0.2420746920588607 0.1553353435026068 0 -0.2439123477494449 0.13603819892781199 0 -0.2281904662314351 0.1601038258159469 0 -0.25804606196624269 0.15628292259204199 0 -0.24951419634013769 0.13851647137254511 0 -0.2420746920588607 0.1553353435026068 0 -0.2420746920588607 0.1553353435026068 0 -0.23463518777758541 0.17215421563266939 0 -0.2420746920588607 0.1553353435026068 0 -0.2483937334623729 0.16797966462465649 0 -0.23463518777758541 0.17215421563266939 0 -0.2420746920588607 0.1553353435026068 0 -0.23463518777758541 0.17215421563266939 0 -0.2281904662314351 0.1601038258159469 0 -0.25804606196624269 0.15628292259204199 0 -0.2420746920588607 0.1553353435026068 0 -0.2483937334623729 0.16797966462465649 0 -0.2483937334623729 0.16797966462465649 0 -0.24651557840257199 0.18112305419710981 0 -0.23463518777758541 0.17215421563266939 0 -0.24651557840257199 0.18112305419710981 0 -0.23463518777758541 0.17215421563266939 0 -0.2353366383144235 0.1871713858835426 0 -0.2281904662314351 0.1601038258159469 0 -0.21246858471342711 0.18416945270408289 0 -0.22533450955835849 0.1802604225548245 0 -0.2281904662314351 0.1601038258159469 0 -0.21246858471342711 0.18416945270408289 0 -0.23463518777758541 0.17215421563266939 0 -0.2353366383144235 0.1871713858835426 0 -0.22533450955835849 0.1802604225548245 0 -0.23463518777758541 0.17215421563266939 0 -0.22533450955835849 0.1802604225548245 0 -0.2281904662314351 0.1601038258159469 0 -0.2281904662314351 0.1601038258159469 0 -0.21508330576002049 0.16831947413931109 0 -0.21246858471342711 0.18416945270408289 0 -0.21508330576002049 0.16831947413931109 0 -0.20414255647309479 0.17390333456912441 0 -0.20221230266035239 0.1602411102721373 0 -0.22533450955835849 0.1802604225548245 0 -0.21246858471342711 0.18416945270408289 0 -0.21604167075492131 0.19770323273788071 0 -0.21246858471342711 0.18416945270408289 0 -0.20414255647309479 0.17390333456912441 0 -0.19490391243799149 0.18334982759794891 0 -0.21508330576002049 0.16831947413931109 0 -0.21246858471342711 0.18416945270408289 0 -0.20414255647309479 0.17390333456912441 0 -0.20414255647309479 0.17390333456912441 0 -0.19490391243799149 0.18334982759794891 0 -0.19254613385264299 0.16786519763225499 0 -0.19490391243799149 0.18334982759794891 0 -0.19254613385264299 0.16786519763225499 0 -0.17934621773921089 0.1758919741325278 0 -0.20221230266035239 0.1602411102721373 0 -0.19254613385264299 0.16786519763225499 0 -0.190456033351215 0.15101954880824489 0 -0.19254613385264299 0.16786519763225499 0 -0.190456033351215 0.15101954880824489 0 -0.1819145633568636 0.16182957618427921 0 -0.20414255647309479 0.17390333456912441 0 -0.20221230266035239 0.1602411102721373 0 -0.19254613385264299 0.16786519763225499 0 -0.190456033351215 0.15101954880824489 0 -0.18836281264269719 0.13732156350860841 0 -0.20883348386478851 0.14009799621175101 0 -0.20221230266035239 0.1602411102721373 0 -0.190456033351215 0.15101954880824489 0 -0.20883348386478851 0.14009799621175101 0 -0.20258366196955649 0.1118765182841911 0 -0.1878827435308906 0.1247100959041116 0 -0.20883348386478851 0.14009799621175101 0 -0.1878827435308906 0.1247100959041116 0 -0.18836281264269719 0.13732156350860841 0 -0.20883348386478851 0.14009799621175101 0 -0.20258366196955649 0.1118765182841911 0 -0.22605633751083259 0.1281386533705226 0 -0.20883348386478851 0.14009799621175101 0 -0.20258366196955649 0.1118765182841911 0 -0.20883348386478851 0.14009799621175101 0 -0.21508330576002049 0.16831947413931109 0 -0.20883348386478851 0.14009799621175101 0 -0.21508330576002049 0.16831947413931109 0 -0.20221230266035239 0.1602411102721373 0 -0.20883348386478851 0.14009799621175101 0 -0.2281904662314351 0.1601038258159469 0 -0.21508330576002049 0.16831947413931109 0 -0.20883348386478851 0.14009799621175101 0 -0.22299107035549329 0.24736588412182611 0 -0.24874321521654799 0.23271311877564799 0 -0.23152692460716781 0.22874187701642601 0 -0.2530006538760543 0.25196158340302638 0 -0.22299107035549329 0.24736588412182611 0 -0.24874321521654799 0.23271311877564799 0 -0.22299107035549329 0.24736588412182611 0 -0.24874321521654799 0.23271311877564799 0 -0.24874321521654799 0.23271311877564799 0 -0.23152692460716781 0.22874187701642601 0 -0.23740567494677059 0.21500091009858199 0 -0.23152692460716781 0.22874187701642601 0 -0.23740567494677059 0.21500091009858199 0 -0.21759068371951959 0.21955821092227451 0 -0.22299107035549329 0.24736588412182611 0 -0.23152692460716781 0.22874187701642601 0 -0.21759068371951959 0.21955821092227451 0 -0.23740567494677059 0.21500091009858199 0 -0.2298389677202303 0.20243598232216081 0 -0.21759068371951959 0.21955821092227451 0 -0.2298389677202303 0.20243598232216081 0 -0.21604167075492131 0.19770323273788071 0 -0.21759068371951959 0.21955821092227451 0 -0.25568771852091837 0.20844756879335449 0 -0.24874321521654799 0.23271311877564799 0 -0.23740567494677059 0.21500091009858199 0 -0.23740567494677059 0.21500091009858199 0 -0.2436038893282205 0.19741598228019611 0 -0.2298389677202303 0.20243598232216081 0 -0.25568771852091837 0.20844756879335449 0 -0.23740567494677059 0.21500091009858199 0 -0.2436038893282205 0.19741598228019611 0 -0.25683875806440798 0.19031699238642741 0 -0.24651557840257199 0.18112305419710981 0 -0.2436038893282205 0.19741598228019611 0 -0.24651557840257199 0.18112305419710981 0 -0.2353366383144235 0.1871713858835426 0 -0.2436038893282205 0.19741598228019611 0 -0.2353366383144235 0.1871713858835426 0 -0.2436038893282205 0.19741598228019611 0 -0.2298389677202303 0.20243598232216081 0 -0.2353366383144235 0.1871713858835426 0 -0.22533450955835849 0.1802604225548245 0 -0.21604167075492131 0.19770323273788071 0 -0.2353366383144235 0.1871713858835426 0 -0.21604167075492131 0.19770323273788071 0 -0.2353366383144235 0.1871713858835426 0 -0.2298389677202303 0.20243598232216081 0 -0.21604167075492131 0.19770323273788071 0 -0.21604167075492131 0.19770323273788071 0 -0.1967467031954189 0.20823507959221879 0 -0.21246858471342711 0.18416945270408289 0 -0.1967467031954189 0.20823507959221879 0 -0.21246858471342711 0.18416945270408289 0 -0.21604167075492131 0.19770323273788071 0 -0.1967467031954189 0.20823507959221879 0 -0.21246858471342711 0.18416945270408289 0 -0.19490391243799149 0.18334982759794891 0 -0.1967467031954189 0.20823507959221879 0 -0.19490391243799149 0.18334982759794891 0 -0.1967467031954189 0.20823507959221879 0 -0.18076971359672089 0.19062970879386659 0 -0.21604167075492131 0.19770323273788071 0 -0.1967467031954189 0.20823507959221879 0 -0.21759068371951959 0.21955821092227451 0 -0.1967467031954189 0.20823507959221879 0 -0.21759068371951959 0.21955821092227451 0 -0.20253946782534429 0.23810244596125149 0 -0.1967467031954189 0.20823507959221879 0 -0.20253946782534429 0.23810244596125149 0 -0.18073738231189571 0.23274069252881391 0 -0.1967467031954189 0.20823507959221879 0 -0.18073738231189571 0.23274069252881391 0 -0.19723892549443869 0.26201864946800402 0 -0.20253946782534429 0.23810244596125149 0 -0.18073738231189571 0.23274069252881391 0 -0.19723892549443869 0.26201864946800402 0 -0.22299107035549329 0.24736588412182611 0 -0.20253946782534429 0.23810244596125149 0 -0.22299107035549329 0.24736588412182611 0 -0.21759068371951959 0.21955821092227451 0 -0.20253946782534429 0.23810244596125149 0 -0.1647280614283719 0.25724630546540889 0 -0.15550725802062321 0.2307449656337163 0 -0.15244529568731141 0.2456186582450039 0 -0.1647280614283719 0.25724630546540889 0 -0.18073738231189571 0.23274069252881391 0 -0.15550725802062321 0.2307449656337163 0 -0.1647280614283719 0.25724630546540889 0 -0.15550725802062321 0.2307449656337163 0 -0.1647280614283719 0.25724630546540889 0 -0.18073738231189571 0.23274069252881391 0 -0.1967467031954189 0.20823507959221879 0 -0.18073738231189571 0.23274069252881391 0 -0.17612698060802129 0.21949002261296821 0 -0.18073738231189571 0.23274069252881391 0 -0.17612698060802129 0.21949002261296821 0 -0.15550725802062321 0.2307449656337163 0 -0.17612698060802129 0.21949002261296821 0 -0.15550725802062321 0.2307449656337163 0 -0.17612698060802129 0.21949002261296821 0 -0.1609667135166728 0.2145897034850828 0 -0.15550725802062321 0.2307449656337163 0 -0.1609667135166728 0.2145897034850828 0 -0.16572578925963921 0.20324683406771341 0 -0.14650682617840791 0.2048769916259334 0 -0.17612698060802129 0.21949002261296821 0 -0.1609667135166728 0.2145897034850828 0 -0.16572578925963921 0.20324683406771341 0 -0.1967467031954189 0.20823507959221879 0 -0.17612698060802129 0.21949002261296821 0 -0.1967467031954189 0.20823507959221879 0 -0.17612698060802129 0.21949002261296821 0 -0.17984229666495011 0.2054004112666917 0 -0.17612698060802129 0.21949002261296821 0 -0.16572578925963921 0.20324683406771341 0 -0.17984229666495011 0.2054004112666917 0 -0.16572578925963921 0.20324683406771341 0 -0.17984229666495011 0.2054004112666917 0 -0.18076971359672089 0.19062970879386659 0 -0.1967467031954189 0.20823507959221879 0 -0.17984229666495011 0.2054004112666917 0 -0.18076971359672089 0.19062970879386659 0 -0.16572578925963921 0.20324683406771341 0 -0.14650682617840791 0.2048769916259334 0 -0.15730421950378651 0.1858945109255615 0 -0.16572578925963921 0.20324683406771341 0 -0.18076971359672089 0.19062970879386659 0 -0.15730421950378651 0.1858945109255615 0 -0.14650682617840791 0.2048769916259334 0 -0.15730421950378651 0.1858945109255615 0 -0.14067119433614109 0.18810491052347739 0 -0.14650682617840791 0.2048769916259334 0 -0.15730421950378651 0.1858945109255615 0 -0.14067119433614109 0.18810491052347739 0 -0.14650682617840791 0.2048769916259334 0 -0.14067119433614109 0.18810491052347739 0 -0.12705844122442719 0.2083519123783871 0 -0.1215975020454083 0.1901119565587738 0 -0.14067119433614109 0.18810491052347739 0 -0.12705844122442719 0.2083519123783871 0 -0.14650682617840791 0.2048769916259334 0 -0.14650682617840791 0.2048769916259334 0 -0.1340116495919739 0.22684427958627959 0 -0.12705844122442719 0.2083519123783871 0 -0.14650682617840791 0.2048769916259334 0 -0.1340116495919739 0.22684427958627959 0 -0.14650682617840791 0.2048769916259334 0 -0.15550725802062321 0.2307449656337163 0 -0.1609667135166728 0.2145897034850828 0 -0.14650682617840791 0.2048769916259334 0 -0.15550725802062321 0.2307449656337163 0 -0.14650682617840791 0.2048769916259334 0 -0.15550725802062321 0.2307449656337163 0 -0.1340116495919739 0.22684427958627959 0 -0.15550725802062321 0.2307449656337163 0 -0.14897241010443299 0.23431190697515661 0 -0.1340116495919739 0.22684427958627959 0 -0.15550725802062321 0.2307449656337163 0 -0.14897241010443299 0.23431190697515661 0 -0.14897241010443299 0.23431190697515661 0 -0.1340116495919739 0.22684427958627959 0 -0.13603303445140921 0.24151472931209039 0 -0.1340116495919739 0.22684427958627959 0 -0.13603303445140921 0.24151472931209039 0 -0.12151647300554019 0.2488115675466257 0 -0.13494953976473431 0.2580624313833057 0 -0.13603303445140921 0.24151472931209039 0 -0.12151647300554019 0.2488115675466257 0 -0.1340116495919739 0.22684427958627959 0 -0.12151647300554019 0.2488115675466257 0 -0.14532928779913701 0.25203100187456401 0 -0.1454373377771512 0.24298589311276869 0 -0.15244529568731141 0.2456186582450039 0 -0.14532928779913701 0.25203100187456401 0 -0.13603303445140921 0.24151472931209039 0 -0.1454373377771512 0.24298589311276869 0 -0.14897241010443299 0.23431190697515661 0 -0.13603303445140921 0.24151472931209039 0 -0.1454373377771512 0.24298589311276869 0 -0.14897241010443299 0.23431190697515661 0 -0.1454373377771512 0.24298589311276869 0 -0.15244529568731141 0.2456186582450039 0 -0.15550725802062321 0.2307449656337163 0 -0.14897241010443299 0.23431190697515661 0 -0.15244529568731141 0.2456186582450039 0 -0.16448408998614619 0.14400375951732969 0 -0.1688659217652228 0.1507509064263684 0 -0.17156119717134299 0.14037095238820091 0 -0.16448408998614619 0.14400375951732969 0 -0.1688659217652228 0.1507509064263684 0 -0.160895993677062 0.15477395085241161 0 -0.16448408998614619 0.14400375951732969 0 -0.160895993677062 0.15477395085241161 0 -0.15692930069456529 0.14712788447618591 0 -0.16448408998614619 0.14400375951732969 0 -0.15692930069456529 0.14712788447618591 0 -0.1586684247812146 0.1387012526922177 0 -0.1586684247812146 0.1387012526922177 0 -0.16038204194862429 0.1295560985110559 0 -0.1517818507048532 0.13117452737752749 0 -0.1586684247812146 0.1387012526922177 0 -0.16038204194862429 0.1295560985110559 0 -0.1651795291371175 0.13684989137601841 0 -0.16448408998614619 0.14400375951732969 0 -0.1586684247812146 0.1387012526922177 0 -0.1651795291371175 0.13684989137601841 0 -0.16038204194862429 0.1295560985110559 0 -0.16921616682784191 0.13045369240042989 0 -0.1651795291371175 0.13684989137601841 0 -0.16921616682784191 0.13045369240042989 0 -0.1651795291371175 0.13684989137601841 0 -0.17156119717134299 0.14037095238820091 0 -0.16921616682784191 0.13045369240042989 0 -0.1742733784480891 0.13881997015993919 0 -0.16921616682784191 0.13045369240042989 0 -0.17156119717134299 0.14037095238820091 0 -0.16921616682784191 0.13045369240042989 0 -0.17156119717134299 0.14037095238820091 0 -0.1742733784480891 0.13881997015993919 0 -0.16448408998614619 0.14400375951732969 0 -0.1651795291371175 0.13684989137601841 0 -0.17156119717134299 0.14037095238820091 0 -0.17867480145587791 0.13576645118231001 0 -0.1742733784480891 0.13881997015993919 0 -0.18221555090922159 0.14217083629019031 0 -0.16921616682784191 0.13045369240042989 0 -0.17867480145587791 0.13576645118231001 0 -0.1742733784480891 0.13881997015993919 0 -0.1772235697149887 0.1224103337288414 0 -0.16921616682784191 0.13045369240042989 0 -0.17930609845153991 0.1300661935523825 0 -0.16921616682784191 0.13045369240042989 0 -0.17867480145587791 0.13576645118231001 0 -0.17930609845153991 0.1300661935523825 0 -0.1878827435308906 0.1247100959041116 0 -0.18836281264269719 0.13732156350860841 0 -0.17930609845153991 0.1300661935523825 0 -0.1772235697149887 0.1224103337288414 0 -0.1878827435308906 0.1247100959041116 0 -0.17930609845153991 0.1300661935523825 0 -0.18836281264269719 0.13732156350860841 0 -0.17867480145587791 0.13576645118231001 0 -0.18221555090922159 0.14217083629019031 0 -0.18836281264269719 0.13732156350860841 0 -0.17867480145587791 0.13576645118231001 0 -0.17930609845153991 0.1300661935523825 0 -0.1688659217652228 0.1507509064263684 0 -0.1788990061545441 0.14792954952481779 0 -0.1681016128291653 0.16691203022518961 0 -0.190456033351215 0.15101954880824489 0 -0.18221555090922159 0.14217083629019031 0 -0.1788990061545441 0.14792954952481779 0 -0.190456033351215 0.15101954880824489 0 -0.18836281264269719 0.13732156350860841 0 -0.18221555090922159 0.14217083629019031 0 -0.1742733784480891 0.13881997015993919 0 -0.18221555090922159 0.14217083629019031 0 -0.1788990061545441 0.14792954952481779 0 -0.17156119717134299 0.14037095238820091 0 -0.1742733784480891 0.13881997015993919 0 -0.1788990061545441 0.14792954952481779 0 -0.1688659217652228 0.1507509064263684 0 -0.17156119717134299 0.14037095238820091 0 -0.1788990061545441 0.14792954952481779 0 -0.190456033351215 0.15101954880824489 0 -0.1788990061545441 0.14792954952481779 0 -0.1819145633568636 0.16182957618427921 0 -0.1788990061545441 0.14792954952481779 0 -0.1681016128291653 0.16691203022518961 0 -0.1788990061545441 0.14792954952481779 0 -0.1819145633568636 0.16182957618427921 0 -0.1681016128291653 0.16691203022518961 0 -0.19254613385264299 0.16786519763225499 0 -0.1819145633568636 0.16182957618427921 0 -0.17934621773921089 0.1758919741325278 0 -0.1819145633568636 0.16182957618427921 0 -0.17934621773921089 0.1758919741325278 0 -0.1681016128291653 0.16691203022518961 0 -0.18076971359672089 0.19062970879386659 0 -0.17934621773921089 0.1758919741325278 0 -0.15730421950378651 0.1858945109255615 0 -0.19490391243799149 0.18334982759794891 0 -0.18076971359672089 0.19062970879386659 0 -0.17934621773921089 0.1758919741325278 0 -0.17934621773921089 0.1758919741325278 0 -0.15730421950378651 0.1858945109255615 0 -0.1681016128291653 0.16691203022518961 0 -0.15730421950378651 0.1858945109255615 0 -0.1681016128291653 0.16691203022518961 0 -0.15393462230287169 0.16730485302900591 0 -0.15730421950378651 0.1858945109255615 0 -0.1681016128291653 0.16691203022518961 0 -0.1688659217652228 0.1507509064263684 0 -0.160895993677062 0.15477395085241161 0 -0.1681016128291653 0.16691203022518961 0 -0.160895993677062 0.15477395085241161 0 -0.1681016128291653 0.16691203022518961 0 -0.15393462230287169 0.16730485302900591 0 -0.15393462230287169 0.16730485302900591 0 -0.1421961930252604 0.16433667527789839 0 -0.1503019443056651 0.15441420571707651 0 -0.160895993677062 0.15477395085241161 0 -0.15393462230287169 0.16730485302900591 0 -0.1503019443056651 0.15441420571707651 0 -0.15393462230287169 0.16730485302900591 0 -0.1421961930252604 0.16433667527789839 0 -0.1452315464163382 0.17616944620787561 0 -0.1421961930252604 0.16433667527789839 0 -0.13904950890750639 0.15102790362020499 0 -0.1503019443056651 0.15441420571707651 0 -0.14067119433614109 0.18810491052347739 0 -0.15730421950378651 0.1858945109255615 0 -0.1452315464163382 0.17616944620787561 0 -0.15730421950378651 0.1858945109255615 0 -0.15393462230287169 0.16730485302900591 0 -0.1452315464163382 0.17616944620787561 0 -0.14067119433614109 0.18810491052347739 0 -0.13205150291363141 0.17520628128343491 0 -0.1215975020454083 0.1901119565587738 0 -0.14067119433614109 0.18810491052347739 0 -0.1452315464163382 0.17616944620787561 0 -0.13205150291363141 0.17520628128343491 0 -0.1421961930252604 0.16433667527789839 0 -0.1452315464163382 0.17616944620787561 0 -0.13205150291363141 0.17520628128343491 0 -0.1421961930252604 0.16433667527789839 0 -0.1256855134715564 0.1595361096376374 0 -0.13904950890750639 0.15102790362020499 0 -0.1421961930252604 0.16433667527789839 0 -0.13205150291363141 0.17520628128343491 0 -0.1256855134715564 0.1595361096376374 0 -0.1256855134715564 0.1595361096376374 0 -0.13904950890750639 0.15102790362020499 0 -0.1243983318675706 0.1435305906051885 0 -0.13904950890750639 0.15102790362020499 0 -0.136757462872617 0.13948137468073471 0 -0.1243983318675706 0.1435305906051885 0 -0.13904950890750639 0.15102790362020499 0 -0.14880604722672469 0.1419139670467521 0 -0.1503019443056651 0.15441420571707651 0 -0.13904950890750639 0.15102790362020499 0 -0.14880604722672469 0.1419139670467521 0 -0.136757462872617 0.13948137468073471 0 -0.15692930069456529 0.14712788447618591 0 -0.14880604722672469 0.1419139670467521 0 -0.1503019443056651 0.15441420571707651 0 -0.15692930069456529 0.14712788447618591 0 -0.1586684247812146 0.1387012526922177 0 -0.14880604722672469 0.1419139670467521 0 -0.160895993677062 0.15477395085241161 0 -0.15692930069456529 0.14712788447618591 0 -0.1503019443056651 0.15441420571707651 0 -0.15438050334042169 0.12349926971733299 0 -0.16038204194862429 0.1295560985110559 0 -0.1517818507048532 0.13117452737752749 0 -0.15438050334042169 0.12349926971733299 0 -0.14824752649264111 0.1234476217319415 0 -0.1517818507048532 0.13117452737752749 0 -0.1586684247812146 0.1387012526922177 0 -0.14880604722672469 0.1419139670467521 0 -0.1517818507048532 0.13117452737752749 0 -0.14880604722672469 0.1419139670467521 0 -0.1517818507048532 0.13117452737752749 0 -0.1413722784701294 0.12942422458417471 0 -0.14880604722672469 0.1419139670467521 0 -0.1413722784701294 0.12942422458417471 0 -0.136757462872617 0.13948137468073471 0 -0.14824752649264111 0.1234476217319415 0 -0.1517818507048532 0.13117452737752749 0 -0.1413722784701294 0.12942422458417471 0 -0.1286659925574993 0.1187760956012275 0 -0.1413722784701294 0.12942422458417471 0 -0.12992902809017509 0.13218257783697351 0 -0.1413722784701294 0.12942422458417471 0 -0.136757462872617 0.13948137468073471 0 -0.12992902809017509 0.13218257783697351 0 -0.136757462872617 0.13948137468073471 0 -0.12992902809017509 0.13218257783697351 0 -0.1243983318675706 0.1435305906051885 0 -0.1286659925574993 0.1187760956012275 0 -0.12992902809017509 0.13218257783697351 0 -0.1184510746830595 0.1297006037135422 0 -0.1184510746830595 0.1297006037135422 0 -0.1035685096467287 0.13522022570579989 0 -0.1243983318675706 0.1435305906051885 0 -0.12992902809017509 0.13218257783697351 0 -0.1184510746830595 0.1297006037135422 0 -0.1243983318675706 0.1435305906051885 0 -0.1184510746830595 0.1297006037135422 0 -0.1035685096467287 0.13522022570579989 0 -0.1045840716036113 0.1222158775924951 0 -0.1035685096467287 0.13522022570579989 0 -0.092771845704037126 0.1247169903853344 0 -0.1045840716036113 0.1222158775924951 0 -0.1035685096467287 0.13522022570579989 0 -0.10231720805804009 0.15060052819736119 0 -0.078888525964053796 0.14055676374087769 0 -0.1256855134715564 0.1595361096376374 0 -0.10231720805804009 0.15060052819736119 0 -0.1243983318675706 0.1435305906051885 0 -0.1035685096467287 0.13522022570579989 0 -0.10231720805804009 0.15060052819736119 0 -0.1243983318675706 0.1435305906051885 0 -0.1256855134715564 0.1595361096376374 0 -0.10231720805804009 0.15060052819736119 0 -0.1141003360573294 0.1725146788417366 0 -0.13205150291363141 0.17520628128343491 0 -0.1256855134715564 0.1595361096376374 0 -0.1141003360573294 0.1725146788417366 0 -0.13205150291363141 0.17520628128343491 0 -0.1141003360573294 0.1725146788417366 0 -0.1215975020454083 0.1901119565587738 0 -0.1141003360573294 0.1725146788417366 0 -0.095834020742365161 0.18621430873021869 0 -0.1215975020454083 0.1901119565587738 0 -0.1141003360573294 0.1725146788417366 0 -0.095834020742365161 0.18621430873021869 0 -0.093417195783387502 0.1638121011179117 0 -0.10231720805804009 0.15060052819736119 0 -0.1141003360573294 0.1725146788417366 0 -0.093417195783387502 0.1638121011179117 0 -0.075945888095149044 0.16917422607936419 0 -0.073003250226244293 0.19779168841785061 0 -0.043355883019440253 0.17897121296017451 0 -0.093417195783387502 0.1638121011179117 0 -0.075945888095149044 0.16917422607936419 0 -0.078888525964053796 0.14055676374087769 0 -0.095834020742365161 0.18621430873021869 0 -0.093417195783387502 0.1638121011179117 0 -0.075945888095149044 0.16917422607936419 0 -0.095834020742365161 0.18621430873021869 0 -0.075945888095149044 0.16917422607936419 0 -0.073003250226244293 0.19779168841785061 0 -0.075945888095149044 0.16917422607936419 0 -0.073003250226244293 0.19779168841785061 0 -0.078888525964053796 0.14055676374087769 0 -0.054031787853868363 0.129904114120789 0 -0.056471760657740303 0.15411691597592689 0 -0.075945888095149044 0.16917422607936419 0 -0.078888525964053796 0.14055676374087769 0 -0.075945888095149044 0.16917422607936419 0 -0.078888525964053796 0.14055676374087769 0 -0.056471760657740303 0.15411691597592689 0 -0.070887684415569752 0.12527404201273201 0 -0.078888525964053796 0.14055676374087769 0 -0.054031787853868363 0.129904114120789 0 -0.070887684415569752 0.12527404201273201 0 -0.078888525964053796 0.14055676374087769 0 -0.081831163832958548 0.11193930140239131 0 -0.078888525964053796 0.14055676374087769 0 -0.081831163832958548 0.11193930140239131 0 -0.092771845704037126 0.1247169903853344 0 -0.078888525964053796 0.14055676374087769 0 -0.081831163832958548 0.11193930140239131 0 -0.1035685096467287 0.13522022570579989 0 -0.078888525964053796 0.14055676374087769 0 -0.092771845704037126 0.1247169903853344 0 -0.10231720805804009 0.15060052819736119 0 -0.093417195783387502 0.1638121011179117 0 -0.078888525964053796 0.14055676374087769 0 -0.10454249684798821 0.24741704717438909 0 -0.1113660293748111 0.2277523978090398 0 -0.090092302489835033 0.23819805138573319 0 -0.092512938390583027 0.25732677711441437 0 -0.10454249684798821 0.24741704717438909 0 -0.090092302489835033 0.23819805138573319 0 -0.10454249684798821 0.24741704717438909 0 -0.12151647300554019 0.2488115675466257 0 -0.1113660293748111 0.2277523978090398 0 -0.1340116495919739 0.22684427958627959 0 -0.12151647300554019 0.2488115675466257 0 -0.1113660293748111 0.2277523978090398 0 -0.12705844122442719 0.2083519123783871 0 -0.1340116495919739 0.22684427958627959 0 -0.1113660293748111 0.2277523978090398 0 -0.1113660293748111 0.2277523978090398 0 -0.090473218798610491 0.21657642252351489 0 -0.090092302489835033 0.23819805138573319 0 -0.1113660293748111 0.2277523978090398 0 -0.10908967820626569 0.20480605439559421 0 -0.090473218798610491 0.21657642252351489 0 -0.12705844122442719 0.2083519123783871 0 -0.1113660293748111 0.2277523978090398 0 -0.10908967820626569 0.20480605439559421 0 -0.12705844122442719 0.2083519123783871 0 -0.10908967820626569 0.20480605439559421 0 -0.1215975020454083 0.1901119565587738 0 -0.095834020742365161 0.18621430873021869 0 -0.10908967820626569 0.20480605439559421 0 -0.1215975020454083 0.1901119565587738 0 -0.095834020742365161 0.18621430873021869 0 -0.10908967820626569 0.20480605439559421 0 -0.090473218798610491 0.21657642252351489 0 -0.095834020742365161 0.18621430873021869 0 -0.073003250226244293 0.19779168841785061 0 -0.090473218798610491 0.21657642252351489 0 -0.073003250226244293 0.19779168841785061 0 -0.070060612357339541 0.226409150756337 0 -0.073003250226244293 0.19779168841785061 0 -0.090473218798610491 0.21657642252351489 0 -0.070060612357339541 0.226409150756337 0 -0.090473218798610491 0.21657642252351489 0 -0.070060612357339541 0.226409150756337 0 -0.090092302489835033 0.23819805138573319 0 -0.067117974488434817 0.25502661309482322 0 -0.070060612357339541 0.226409150756337 0 -0.090092302489835033 0.23819805138573319 0 -0.067117974488434817 0.25502661309482322 0 -0.070060612357339541 0.226409150756337 0 -0.022740694452122321 0.25009111567474029 0 -0.049059418264459767 0.24979235789117971 0 -0.041305179343981403 0.23329173030224221 0 -0.070060612357339541 0.226409150756337 0 -0.049059418264459767 0.24979235789117971 0 -0.041305179343981403 0.23329173030224221 0 -0.067117974488434817 0.25502661309482322 0 -0.070060612357339541 0.226409150756337 0 -0.049059418264459767 0.24979235789117971 0 -0.070060612357339541 0.226409150756337 0 -0.041305179343981403 0.23329173030224221 0 -0.041133261929945243 0.2125637606046443 0 -0.041305179343981403 0.23329173030224221 0 -0.041133261929945243 0.2125637606046443 0 -0.024292220728329521 0.23326823933601851 0 -0.073003250226244293 0.19779168841785061 0 -0.070060612357339541 0.226409150756337 0 -0.041133261929945243 0.2125637606046443 0 -0.041133261929945243 0.2125637606046443 0 -0.0210561741091988 0.19896178432131681 0 -0.043355883019440253 0.17897121296017451 0 -0.073003250226244293 0.19779168841785061 0 -0.041133261929945243 0.2125637606046443 0 -0.043355883019440253 0.17897121296017451 0 -0.0210561741091988 0.19896178432131681 0 -0.0076163645162816516 0.19316515435902751 0 0.0002030393418038233 0.207215682387376 0 -0.0210561741091988 0.19896178432131681 0 -0.0076163645162816516 0.19316515435902751 0 -0.016166770825860551 0.18287451385439971 0 -0.0076163645162816516 0.19316515435902751 0 -0.002227319125567916 0.1829876201125642 0 0.0018599632431969191 0.1916937973778686 0 -0.0076163645162816516 0.19316515435902751 0 0.0037847062367320728 0.19663423478708861 0 0.0018599632431969191 0.1916937973778686 0 -0.0076163645162816516 0.19316515435902751 0 0.0002030393418038233 0.207215682387376 0 0.0037847062367320728 0.19663423478708861 0 -0.0210561741091988 0.19896178432131681 0 -0.014859513725082931 0.21925251813857061 0 0.0002030393418038233 0.207215682387376 0 -0.014859513725082931 0.21925251813857061 0 0.0031642610424506032 0.2209003669269794 0 0.0002030393418038233 0.207215682387376 0 -0.041133261929945243 0.2125637606046443 0 -0.0210561741091988 0.19896178432131681 0 -0.014859513725082931 0.21925251813857061 0 -0.041133261929945243 0.2125637606046443 0 -0.024292220728329521 0.23326823933601851 0 -0.014859513725082931 0.21925251813857061 0 -0.024292220728329521 0.23326823933601851 0 -0.014859513725082931 0.21925251813857061 0 -0.0085776758338105413 0.2421131676124238 0 -0.014859513725082931 0.21925251813857061 0 -0.0085776758338105413 0.2421131676124238 0 0.001371061725256878 0.23381924537009041 0 -0.014859513725082931 0.21925251813857061 0 0.001371061725256878 0.23381924537009041 0 0.0031642610424506032 0.2209003669269794 0 -0.014859513725082931 0.21925251813857061 0 -0.0085776758338105413 0.2421131676124238 0 -0.0085776758338105413 0.2421131676124238 0 0.0039009629746646879 0.24812698552186049 0 0.001371061725256878 0.23381924537009041 0 -0.022740694452122321 0.25009111567474029 0 -0.024292220728329521 0.23326823933601851 0 -0.0085776758338105413 0.2421131676124238 0 -0.022740694452122321 0.25009111567474029 0 -0.041305179343981403 0.23329173030224221 0 -0.024292220728329521 0.23326823933601851 0 -0.037657317894875052 0.14219571720810159 0 -0.039576343870047617 0.15948532544016181 0 -0.02184774134121573 0.16431413631423111 0 -0.037657317894875052 0.14219571720810159 0 -0.056471760657740303 0.15411691597592689 0 -0.039576343870047617 0.15948532544016181 0 -0.037657317894875052 0.14219571720810159 0 -0.041358384191348158 0.12522663492278449 0 -0.054031787853868363 0.129904114120789 0 -0.037657317894875052 0.14219571720810159 0 -0.041358384191348158 0.12522663492278449 0 -0.03049613873200871 0.12848138511086049 0 -0.037657317894875052 0.14219571720810159 0 -0.054031787853868363 0.129904114120789 0 -0.056471760657740303 0.15411691597592689 0 -0.075945888095149044 0.16917422607936419 0 -0.056471760657740303 0.15411691597592689 0 -0.043355883019440253 0.17897121296017451 0 -0.043355883019440253 0.17897121296017451 0 -0.039576343870047617 0.15948532544016181 0 -0.02184774134121573 0.16431413631423111 0 -0.056471760657740303 0.15411691597592689 0 -0.043355883019440253 0.17897121296017451 0 -0.039576343870047617 0.15948532544016181 0 -0.043355883019440253 0.17897121296017451 0 -0.02184774134121573 0.16431413631423111 0 -0.016166770825860551 0.18287451385439971 0 -0.0210561741091988 0.19896178432131681 0 -0.043355883019440253 0.17897121296017451 0 -0.016166770825860551 0.18287451385439971 0 -0.02184774134121573 0.16431413631423111 0 -0.016166770825860551 0.18287451385439971 0 -0.0008971428434589937 0.1788471750590841 0 -0.0076163645162816516 0.19316515435902751 0 -0.016166770825860551 0.18287451385439971 0 -0.002227319125567916 0.1829876201125642 0 -0.016166770825860551 0.18287451385439971 0 -0.0008971428434589937 0.1788471750590841 0 -0.002227319125567916 0.1829876201125642 0 -0.02184774134121573 0.16431413631423111 0 -0.0008971428434589937 0.1788471750590841 0 -0.02184774134121573 0.16431413631423111 0 -0.0054183725749279684 0.14686395597031929 0 0.0063927821423072767 0.16632580976328509 0 -0.02184774134121573 0.16431413631423111 0 -0.0008971428434589937 0.1788471750590841 0 0.0063927821423072767 0.16632580976328509 0 -0.037657317894875052 0.14219571720810159 0 -0.02184774134121573 0.16431413631423111 0 -0.021463795451326369 0.13829514463008949 0 -0.02184774134121573 0.16431413631423111 0 -0.0054183725749279684 0.14686395597031929 0 -0.021463795451326369 0.13829514463008949 0 -0.037657317894875052 0.14219571720810159 0 -0.021463795451326369 0.13829514463008949 0 -0.03049613873200871 0.12848138511086049 0 -0.021463795451326369 0.13829514463008949 0 -0.03049613873200871 0.12848138511086049 0 -0.0215526091569547 0.12060776594044589 0 -0.021463795451326369 0.13829514463008949 0 -0.01181059300797606 0.12730790723657859 0 -0.0215526091569547 0.12060776594044589 0 -0.0054183725749279684 0.14686395597031929 0 -0.01181059300797606 0.12730790723657859 0 0.0056216141126722912 0.13306005517641481 0 -0.01181059300797606 0.12730790723657859 0 0.0022346670498786122 0.1220790038231427 0 0.0056216141126722912 0.13306005517641481 0 -0.0054183725749279684 0.14686395597031929 0 -0.021463795451326369 0.13829514463008949 0 -0.01181059300797606 0.12730790723657859 0 -0.01181059300797606 0.12730790723657859 0 0.0033700081059577442 0.1114899595995508 0 -0.01181059300797606 0.12730790723657859 0 0.0033700081059577442 0.1114899595995508 0 0.0022346670498786122 0.1220790038231427 0 -0.01181059300797606 0.12730790723657859 0 -0.0037437337421425132 0.1126817578905108 0 0.0033700081059577442 0.1114899595995508 0 -0.01181059300797606 0.12730790723657859 0 -0.01413046645143346 0.115187371011125 0 -0.0037437337421425132 0.1126817578905108 0 -0.01413046645143346 0.115187371011125 0 -0.0037437337421425132 0.1126817578905108 0 -0.012474432703719949 0.1057220863777214 0 -0.0037437337421425132 0.1126817578905108 0 -0.015589483991102051 0.093744872006084501 0 -0.0037437337421425132 0.1126817578905108 0 -0.0034711844125631338 0.1002396399505471 0 -0.015589483991102051 0.093744872006084501 0 -0.0037437337421425132 0.1126817578905108 0 -0.012474432703719949 0.1057220863777214 0 -0.015589483991102051 0.093744872006084501 0 -0.0037437337421425132 0.1126817578905108 0 -0.0034711844125631338 0.1002396399505471 0 0.0033700081059577442 0.1114899595995508 0 -0.0034711844125631338 0.1002396399505471 0 0.0033700081059577442 0.1114899595995508 0 -0.0073595610168033874 0.093845216815259036 0 0.001169323989954946 0.093904810399272329 0 0.0010469203778272131 0.1026611052701792 0 -0.0073595610168033874 0.093845216815259036 0 0.0010469203778272131 0.1026611052701792 0 -0.0034711844125631338 0.1002396399505471 0 -0.0073595610168033874 0.093845216815259036 0 0.0010469203778272131 0.1026611052701792 0 -0.0034711844125631338 0.1002396399505471 0 0.0010469203778272131 0.1026611052701792 0 -0.0034711844125631338 0.1002396399505471 0 -0.0073595610168033874 0.093845216815259036 0 -0.012474432703719949 0.1057220863777214 0 -0.017497228965588221 0.1020493004905053 0 -0.015589483991102051 0.093744872006084501 0 -0.0034711844125631338 0.1002396399505471 0 -0.0073595610168033874 0.093845216815259036 0 -0.015589483991102051 0.093744872006084501 0 -0.0034711844125631338 0.1002396399505471 0 -0.015589483991102051 0.093744872006084501 0 -0.030991140508425039 0.098645796326571111 0 -0.015589483991102051 0.093744872006084501 0 -0.035078242217722801 0.091852774341005874 0 -0.012474432703719949 0.1057220863777214 0 -0.017497228965588221 0.1020493004905053 0 -0.021070963646374081 0.1096173376103685 0 -0.017497228965588221 0.1020493004905053 0 -0.023100705366615959 0.1019605330236304 0 -0.021070963646374081 0.1096173376103685 0 -0.023100705366615959 0.1019605330236304 0 -0.030991140508425039 0.098645796326571111 0 -0.015589483991102051 0.093744872006084501 0 -0.017497228965588221 0.1020493004905053 0 -0.023100705366615959 0.1019605330236304 0 -0.015589483991102051 0.093744872006084501 0 -0.023100705366615959 0.1019605330236304 0 -0.03118879409583053 0.1072749005589838 0 -0.021070963646374081 0.1096173376103685 0 -0.023100705366615959 0.1019605330236304 0 -0.030991140508425039 0.098645796326571111 0 -0.03118879409583053 0.1072749005589838 0 -0.030980527134650229 0.11746848126811039 0 -0.0215526091569547 0.12060776594044589 0 -0.021070963646374081 0.1096173376103685 0 -0.03118879409583053 0.1072749005589838 0 -0.030980527134650229 0.11746848126811039 0 -0.021070963646374081 0.1096173376103685 0 -0.03049613873200871 0.12848138511086049 0 -0.030980527134650229 0.11746848126811039 0 -0.0215526091569547 0.12060776594044589 0 -0.01181059300797606 0.12730790723657859 0 -0.01413046645143346 0.115187371011125 0 -0.0215526091569547 0.12060776594044589 0 -0.01413046645143346 0.115187371011125 0 -0.012474432703719949 0.1057220863777214 0 -0.021070963646374081 0.1096173376103685 0 -0.01413046645143346 0.115187371011125 0 -0.0215526091569547 0.12060776594044589 0 -0.021070963646374081 0.1096173376103685 0 -0.0135306689135025 0.070149182880464719 0 -0.01151887985774269 0.064129230963300921 0 -0.01823390962768567 0.06435086842514047 0 -0.0135306689135025 0.070149182880464719 0 -0.0085261097422529471 0.07005944121048753 0 -0.01151887985774269 0.064129230963300921 0 -0.0085261097422529471 0.07005944121048753 0 -0.01151887985774269 0.064129230963300921 0 -0.0031673906762563929 0.065809178108648766 0 -0.01151887985774269 0.064129230963300921 0 -0.0031673906762563929 0.065809178108648766 0 -0.0080447469397615032 0.058570566131107643 0 -0.0031673906762563929 0.065809178108648766 0 -0.0046040669267401217 0.076012726931671881 0 0.002958776910806836 0.075625600589035141 0 -0.0085261097422529471 0.07005944121048753 0 -0.0031673906762563929 0.065809178108648766 0 -0.0046040669267401217 0.076012726931671881 0 -0.0046040669267401217 0.076012726931671881 0 -0.010475305962927711 0.074898350593516003 0 -0.0076700572889797551 0.081998387043887969 0 -0.010475305962927711 0.074898350593516003 0 -0.0076700572889797551 0.081998387043887969 0 -0.01804562694316323 0.076272014901067872 0 -0.0085261097422529471 0.07005944121048753 0 -0.0046040669267401217 0.076012726931671881 0 -0.010475305962927711 0.074898350593516003 0 -0.0135306689135025 0.070149182880464719 0 -0.0085261097422529471 0.07005944121048753 0 -0.010475305962927711 0.074898350593516003 0 -0.0135306689135025 0.070149182880464719 0 -0.010475305962927711 0.074898350593516003 0 -0.01804562694316323 0.076272014901067872 0 -0.0073595610168033874 0.093845216815259036 0 -0.01804562694316323 0.076272014901067872 0 -0.0073595610168033874 0.093845216815259036 0 -0.021219147707332759 0.079310649430973157 0 -0.01804562694316323 0.076272014901067872 0 -0.0073595610168033874 0.093845216815259036 0 -0.0076700572889797551 0.081998387043887969 0 -0.01804562694316323 0.076272014901067872 0 -0.0046040669267401217 0.076012726931671881 0 -0.0015542670913070719 0.086226161746170732 0 0.002958776910806836 0.075625600589035141 0 -0.0046040669267401217 0.076012726931671881 0 -0.0076700572889797551 0.081998387043887969 0 -0.0015542670913070719 0.086226161746170732 0 -0.0073595610168033874 0.093845216815259036 0 -0.0076700572889797551 0.081998387043887969 0 -0.0015542670913070719 0.086226161746170732 0 -0.0073595610168033874 0.093845216815259036 0 -0.0015542670913070719 0.086226161746170732 0 0.001169323989954946 0.093904810399272329 0 -0.0073595610168033874 0.093845216815259036 0 -0.021219147707332759 0.079310649430973157 0 -0.0073595610168033874 0.093845216815259036 0 -0.015589483991102051 0.093744872006084501 0 -0.021219147707332759 0.079310649430973157 0 -0.015589483991102051 0.093744872006084501 0 -0.038077049465319729 0.081692725709126751 0 -0.015589483991102051 0.093744872006084501 0 -0.027025932733948911 0.075462304822512524 0 -0.015589483991102051 0.093744872006084501 0 -0.032851998398354801 0.078044494897336364 0 -0.038077049465319729 0.081692725709126751 0 -0.015589483991102051 0.093744872006084501 0 -0.021219147707332759 0.079310649430973157 0 -0.027025932733948911 0.075462304822512524 0 -0.015589483991102051 0.093744872006084501 0 -0.027025932733948911 0.075462304822512524 0 -0.032851998398354801 0.078044494897336364 0 -0.015589483991102051 0.093744872006084501 0 -0.038077049465319729 0.081692725709126751 0 -0.035078242217722801 0.091852774341005874 0 -0.01804562694316323 0.076272014901067872 0 -0.023755600063491981 0.072435945535357593 0 -0.02873169286952305 0.058698812986876792 0 -0.01804562694316323 0.076272014901067872 0 -0.01823390962768567 0.06435086842514047 0 -0.02873169286952305 0.058698812986876792 0 -0.01804562694316323 0.076272014901067872 0 -0.02873169286952305 0.058698812986876792 0 -0.027025932733948911 0.075462304822512524 0 -0.023755600063491981 0.072435945535357593 0 -0.02873169286952305 0.058698812986876792 0 -0.021219147707332759 0.079310649430973157 0 -0.01804562694316323 0.076272014901067872 0 -0.023755600063491981 0.072435945535357593 0 -0.021219147707332759 0.079310649430973157 0 -0.027025932733948911 0.075462304822512524 0 -0.023755600063491981 0.072435945535357593 0 -0.0135306689135025 0.070149182880464719 0 -0.01804562694316323 0.076272014901067872 0 -0.01823390962768567 0.06435086842514047 0 -0.027025932733948911 0.075462304822512524 0 -0.038462381476796488 0.057179737638940943 0 -0.02873169286952305 0.058698812986876792 0 -0.027025932733948911 0.075462304822512524 0 -0.03597021556133316 0.071242145045888966 0 -0.038462381476796488 0.057179737638940943 0 -0.040970374641017111 0.076709854562235336 0 -0.038077049465319729 0.081692725709126751 0 -0.060564614939536993 0.069640579412168169 0 -0.027025932733948911 0.075462304822512524 0 -0.038462381476796488 0.057179737638940943 0 -0.04081794614767624 0.066803336361897989 0 -0.048042625613536102 0.067673031469943523 0 -0.046638010030055292 0.062428920566505119 0 -0.04081794614767624 0.066803336361897989 0 -0.041024395971976331 0.071414800423838187 0 -0.048042625613536102 0.067673031469943523 0 -0.04081794614767624 0.066803336361897989 0 -0.03597021556133316 0.071242145045888966 0 -0.041024395971976331 0.071414800423838187 0 -0.04081794614767624 0.066803336361897989 0 -0.03597021556133316 0.071242145045888966 0 -0.038462381476796488 0.057179737638940943 0 -0.027025932733948911 0.075462304822512524 0 -0.03597021556133316 0.071242145045888966 0 -0.032851998398354801 0.078044494897336364 0 -0.03597021556133316 0.071242145045888966 0 -0.032851998398354801 0.078044494897336364 0 -0.040970374641017111 0.076709854562235336 0 -0.040970374641017111 0.076709854562235336 0 -0.041024395971976331 0.071414800423838187 0 -0.048042625613536102 0.067673031469943523 0 -0.03597021556133316 0.071242145045888966 0 -0.040970374641017111 0.076709854562235336 0 -0.041024395971976331 0.071414800423838187 0 -0.038077049465319729 0.081692725709126751 0 -0.052413729182811029 0.080870050550281819 0 -0.048174347403133547 0.084355573284376539 0 -0.038077049465319729 0.081692725709126751 0 -0.043168120371548171 0.088386993087407412 0 -0.048174347403133547 0.084355573284376539 0 -0.032851998398354801 0.078044494897336364 0 -0.040970374641017111 0.076709854562235336 0 -0.038077049465319729 0.081692725709126751 0 -0.038077049465319729 0.081692725709126751 0 -0.035078242217722801 0.091852774341005874 0 -0.043168120371548171 0.088386993087407412 0 -0.035078242217722801 0.091852774341005874 0 -0.043168120371548171 0.088386993087407412 0 -0.043969503406646682 0.094226307374130652 0 -0.043168120371548171 0.088386993087407412 0 -0.050541459364918079 0.0898075847283972 0 -0.043969503406646682 0.094226307374130652 0 -0.038077049465319729 0.081692725709126751 0 -0.052413729182811029 0.080870050550281819 0 -0.05676609781826749 0.076511104405050212 0 -0.050541459364918079 0.0898075847283972 0 -0.058848178295947282 0.090620947702169968 0 -0.053101461033854769 0.1002245287348105 0 -0.043168120371548171 0.088386993087407412 0 -0.050541459364918079 0.0898075847283972 0 -0.048174347403133547 0.084355573284376539 0 -0.050541459364918079 0.0898075847283972 0 -0.054817223256117639 0.085025187839076144 0 -0.048174347403133547 0.084355573284376539 0 -0.050541459364918079 0.0898075847283972 0 -0.058848178295947282 0.090620947702169968 0 -0.054817223256117639 0.085025187839076144 0 -0.058848178295947282 0.090620947702169968 0 -0.054817223256117639 0.085025187839076144 0 -0.060549324323263827 0.082128699146155393 0 -0.060549324323263827 0.082128699146155393 0 -0.05676609781826749 0.076511104405050212 0 -0.067582672178875994 0.076630685972164839 0 -0.054817223256117639 0.085025187839076144 0 -0.060549324323263827 0.082128699146155393 0 -0.052413729182811029 0.080870050550281819 0 -0.060549324323263827 0.082128699146155393 0 -0.052413729182811029 0.080870050550281819 0 -0.05676609781826749 0.076511104405050212 0 -0.054817223256117639 0.085025187839076144 0 -0.052413729182811029 0.080870050550281819 0 -0.048174347403133547 0.084355573284376539 0 -0.053394200137970249 0.063688084563875133 0 -0.048042625613536102 0.067673031469943523 0 -0.06541082675252137 0.064993192341309375 0 -0.038077049465319729 0.081692725709126751 0 -0.05676609781826749 0.076511104405050212 0 -0.060564614939536993 0.069640579412168169 0 -0.040970374641017111 0.076709854562235336 0 -0.060564614939536993 0.069640579412168169 0 -0.06541082675252137 0.064993192341309375 0 -0.040970374641017111 0.076709854562235336 0 -0.048042625613536102 0.067673031469943523 0 -0.06541082675252137 0.064993192341309375 0 -0.040970374641017111 0.076709854562235336 0 -0.06541082675252137 0.064993192341309375 0 -0.038077049465319729 0.081692725709126751 0 -0.060564614939536993 0.069640579412168169 0 -0.05676609781826749 0.076511104405050212 0 -0.060564614939536993 0.069640579412168169 0 -0.067582672178875994 0.076630685972164839 0 -0.053394200137970249 0.063688084563875133 0 -0.06541082675252137 0.064993192341309375 0 -0.058331629378913313 0.060247879317321562 0 -0.053394200137970249 0.063688084563875133 0 -0.048042625613536102 0.067673031469943523 0 -0.046638010030055292 0.062428920566505119 0 -0.03982204057532953 0.11325576013801709 0 -0.041092846833544257 0.1031382962466473 0 -0.048440988058871433 0.1141363788033657 0 -0.041358384191348158 0.12522663492278449 0 -0.03982204057532953 0.11325576013801709 0 -0.048440988058871433 0.1141363788033657 0 -0.041358384191348158 0.12522663492278449 0 -0.03049613873200871 0.12848138511086049 0 -0.030980527134650229 0.11746848126811039 0 -0.041358384191348158 0.12522663492278449 0 -0.030980527134650229 0.11746848126811039 0 -0.03982204057532953 0.11325576013801709 0 -0.03118879409583053 0.1072749005589838 0 -0.030980527134650229 0.11746848126811039 0 -0.03982204057532953 0.11325576013801709 0 -0.030991140508425039 0.098645796326571111 0 -0.03118879409583053 0.1072749005589838 0 -0.041092846833544257 0.1031382962466473 0 -0.03118879409583053 0.1072749005589838 0 -0.03982204057532953 0.11325576013801709 0 -0.041092846833544257 0.1031382962466473 0 -0.030991140508425039 0.098645796326571111 0 -0.03802697208868519 0.096816006091893198 0 -0.041092846833544257 0.1031382962466473 0 -0.035078242217722801 0.091852774341005874 0 -0.03802697208868519 0.096816006091893198 0 -0.043969503406646682 0.094226307374130652 0 -0.030991140508425039 0.098645796326571111 0 -0.035078242217722801 0.091852774341005874 0 -0.03802697208868519 0.096816006091893198 0 -0.03802697208868519 0.096816006091893198 0 -0.043969503406646682 0.094226307374130652 0 -0.041092846833544257 0.1031382962466473 0 -0.043969503406646682 0.094226307374130652 0 -0.041092846833544257 0.1031382962466473 0 -0.053101461033854769 0.1002245287348105 0 -0.041092846833544257 0.1031382962466473 0 -0.053101461033854769 0.1002245287348105 0 -0.048440988058871433 0.1141363788033657 0 -0.053101461033854769 0.1002245287348105 0 -0.060845175455227822 0.112721835329944 0 -0.048440988058871433 0.1141363788033657 0 -0.050541459364918079 0.0898075847283972 0 -0.043969503406646682 0.094226307374130652 0 -0.053101461033854769 0.1002245287348105 0 -0.058848178295947282 0.090620947702169968 0 -0.053101461033854769 0.1002245287348105 0 -0.065140662970224764 0.099584752876278076 0 -0.053101461033854769 0.1002245287348105 0 -0.060845175455227822 0.112721835329944 0 -0.065140662970224764 0.099584752876278076 0 -0.041358384191348158 0.12522663492278449 0 -0.054031787853868363 0.129904114120789 0 -0.048440988058871433 0.1141363788033657 0 -0.070887684415569752 0.12527404201273201 0 -0.054031787853868363 0.129904114120789 0 -0.060845175455227822 0.112721835329944 0 -0.054031787853868363 0.129904114120789 0 -0.060845175455227822 0.112721835329944 0 -0.048440988058871433 0.1141363788033657 0 -0.070887684415569752 0.12527404201273201 0 -0.071217487068929913 0.1095719798814272 0 -0.081831163832958548 0.11193930140239131 0 -0.070887684415569752 0.12527404201273201 0 -0.060845175455227822 0.112721835329944 0 -0.071217487068929913 0.1095719798814272 0 -0.081831163832958548 0.11193930140239131 0 -0.092771845704037126 0.1247169903853344 0 -0.095385899184178891 0.1133990408416343 0 -0.09289200972554075 0.099990122740074613 0 -0.077382748670668688 0.0983399677857906 0 -0.088207642874123554 0.089060451894324169 0 -0.081831163832958548 0.11193930140239131 0 -0.09289200972554075 0.099990122740074613 0 -0.095385899184178891 0.1133990408416343 0 -0.081831163832958548 0.11193930140239131 0 -0.09289200972554075 0.099990122740074613 0 -0.077382748670668688 0.0983399677857906 0 -0.077382748670668688 0.0983399677857906 0 -0.065140662970224764 0.099584752876278076 0 -0.069030841538524373 0.087508960428266419 0 -0.071217487068929913 0.1095719798814272 0 -0.081831163832958548 0.11193930140239131 0 -0.077382748670668688 0.0983399677857906 0 -0.071217487068929913 0.1095719798814272 0 -0.077382748670668688 0.0983399677857906 0 -0.065140662970224764 0.099584752876278076 0 -0.060845175455227822 0.112721835329944 0 -0.071217487068929913 0.1095719798814272 0 -0.065140662970224764 0.099584752876278076 0 -0.077382748670668688 0.0983399677857906 0 -0.069030841538524373 0.087508960428266419 0 -0.08361701376734712 0.075808248953087104 0 -0.069030841538524373 0.087508960428266419 0 -0.067582672178875994 0.076630685972164839 0 -0.08361701376734712 0.075808248953087104 0 -0.058848178295947282 0.090620947702169968 0 -0.065140662970224764 0.099584752876278076 0 -0.069030841538524373 0.087508960428266419 0 -0.058848178295947282 0.090620947702169968 0 -0.060549324323263827 0.082128699146155393 0 -0.069030841538524373 0.087508960428266419 0 -0.060549324323263827 0.082128699146155393 0 -0.069030841538524373 0.087508960428266419 0 -0.067582672178875994 0.076630685972164839 0 -0.067582672178875994 0.076630685972164839 0 -0.073956158421381007 0.069689923862669353 0 -0.08361701376734712 0.075808248953087104 0 -0.060564614939536993 0.069640579412168169 0 -0.083052180413754201 0.0575884331152096 0 -0.060564614939536993 0.069640579412168169 0 -0.073956158421381007 0.069689923862669353 0 -0.083052180413754201 0.0575884331152096 0 -0.060564614939536993 0.069640579412168169 0 -0.06541082675252137 0.064993192341309375 0 -0.083052180413754201 0.0575884331152096 0 -0.060564614939536993 0.069640579412168169 0 -0.067582672178875994 0.076630685972164839 0 -0.073956158421381007 0.069689923862669353 0 -0.08361701376734712 0.075808248953087104 0 -0.095978590848934023 0.067615028171019373 0 -0.089851278864025524 0.053276530120383553 0 -0.08361701376734712 0.075808248953087104 0 -0.089851278864025524 0.053276530120383553 0 -0.073956158421381007 0.069689923862669353 0 -0.08361701376734712 0.075808248953087104 0 -0.083052180413754201 0.0575884331152096 0 -0.08361701376734712 0.075808248953087104 0 -0.098938799332937727 0.082103468098344415 0 -0.095978590848934023 0.067615028171019373 0 -0.077382748670668688 0.0983399677857906 0 -0.08361701376734712 0.075808248953087104 0 -0.09289200972554075 0.099990122740074613 0 -0.088207642874123554 0.089060451894324169 0 -0.098938799332937727 0.082103468098344415 0 -0.077382748670668688 0.0983399677857906 0 -0.08361701376734712 0.075808248953087104 0 -0.088207642874123554 0.089060451894324169 0 -0.08361701376734712 0.075808248953087104 0 -0.088207642874123554 0.089060451894324169 0 -0.098938799332937727 0.082103468098344415 0 -0.09289200972554075 0.099990122740074613 0 -0.098938799332937727 0.082103468098344415 0 -0.10574420273332021 0.097495253902124379 0 -0.098938799332937727 0.082103468098344415 0 -0.1128573153393118 0.077984207801681027 0 -0.115713033980643 0.089798811098053141 0 -0.098938799332937727 0.082103468098344415 0 -0.115713033980643 0.089798811098053141 0 -0.10574420273332021 0.097495253902124379 0 -0.098938799332937727 0.082103468098344415 0 -0.095978590848934023 0.067615028171019373 0 -0.1061316257903147 0.070228599421705465 0 -0.098938799332937727 0.082103468098344415 0 -0.1061316257903147 0.070228599421705465 0 -0.1128573153393118 0.077984207801681027 0 -0.095978590848934023 0.067615028171019373 0 -0.1061316257903147 0.070228599421705465 0 -0.10535110742096961 0.058370724583409452 0 -0.13416656912176719 0.072470224080828344 0 -0.1175323160094202 0.065069568454073093 0 -0.1224833698864089 0.053142401307627943 0 -0.12631051899206919 0.082857795729519707 0 -0.1128573153393118 0.077984207801681027 0 -0.1175323160094202 0.065069568454073093 0 -0.1061316257903147 0.070228599421705465 0 -0.1175323160094202 0.065069568454073093 0 -0.10535110742096961 0.058370724583409452 0 -0.1061316257903147 0.070228599421705465 0 -0.1128573153393118 0.077984207801681027 0 -0.1175323160094202 0.065069568454073093 0 -0.12631051899206919 0.082857795729519707 0 -0.1128573153393118 0.077984207801681027 0 -0.115713033980643 0.089798811098053141 0 -0.12815343446816799 0.095578066164623318 0 -0.12631051899206919 0.082857795729519707 0 -0.115713033980643 0.089798811098053141 0 -0.115713033980643 0.089798811098053141 0 -0.11734370752708501 0.10628910993408761 0 -0.10574420273332021 0.097495253902124379 0 -0.12815343446816799 0.095578066164623318 0 -0.115713033980643 0.089798811098053141 0 -0.11734370752708501 0.10628910993408761 0 -0.1286659925574993 0.1187760956012275 0 -0.11734370752708501 0.10628910993408761 0 -0.11601239934449591 0.11826094737267789 0 -0.1286659925574993 0.1187760956012275 0 -0.1184510746830595 0.1297006037135422 0 -0.11601239934449591 0.11826094737267789 0 -0.1184510746830595 0.1297006037135422 0 -0.11601239934449591 0.11826094737267789 0 -0.1045840716036113 0.1222158775924951 0 -0.11734370752708501 0.10628910993408761 0 -0.11601239934449591 0.11826094737267789 0 -0.1048504050547467 0.108132912087876 0 -0.11601239934449591 0.11826094737267789 0 -0.1045840716036113 0.1222158775924951 0 -0.1048504050547467 0.108132912087876 0 -0.1045840716036113 0.1222158775924951 0 -0.095385899184178891 0.1133990408416343 0 -0.1048504050547467 0.108132912087876 0 -0.092771845704037126 0.1247169903853344 0 -0.1045840716036113 0.1222158775924951 0 -0.095385899184178891 0.1133990408416343 0 -0.09289200972554075 0.099990122740074613 0 -0.10574420273332021 0.097495253902124379 0 -0.1048504050547467 0.108132912087876 0 -0.09289200972554075 0.099990122740074613 0 -0.095385899184178891 0.1133990408416343 0 -0.1048504050547467 0.108132912087876 0 -0.11734370752708501 0.10628910993408761 0 -0.10574420273332021 0.097495253902124379 0 -0.1048504050547467 0.108132912087876 0 -0.10680588598283711 0.018181029462832621 0 -0.09834825836475683 0.021293372867926791 0 -0.12098227345297841 0.02491582195114812 0 -0.10680588598283711 0.018181029462832621 0 -0.098947455407786808 0.017146353399294 0 -0.1029354534968594 0.012156143281838481 0 -0.1093594875861949 0.026853809291621782 0 -0.10332983030676531 0.026239624931685801 0 -0.09834825836475683 0.021293372867926791 0 -0.1093594875861949 0.026853809291621782 0 -0.1059287887461845 0.029509498789513939 0 -0.10332983030676531 0.026239624931685801 0 -0.1093594875861949 0.026853809291621782 0 -0.1059287887461845 0.029509498789513939 0 -0.1091907321753727 0.033168974993635567 0 -0.1059287887461845 0.029509498789513939 0 -0.10332983030676531 0.026239624931685801 0 -0.101835104916405 0.03177558594111262 0 -0.098244417090614433 0.022942268148387259 0 -0.094047847977320007 0.038109399134385387 0 -0.093132719671433134 0.02731354931294815 0 -0.098244417090614433 0.022942268148387259 0 -0.094047847977320007 0.038109399134385387 0 -0.098244417090614433 0.022942268148387259 0 -0.101835104916405 0.03177558594111262 0 -0.094047847977320007 0.038109399134385387 0 -0.10332983030676531 0.026239624931685801 0 -0.098244417090614433 0.022942268148387259 0 -0.09834825836475683 0.021293372867926791 0 -0.10332983030676531 0.026239624931685801 0 -0.098244417090614433 0.022942268148387259 0 -0.101835104916405 0.03177558594111262 0 -0.095328023960609062 0.02193088717935188 0 -0.098244417090614433 0.022942268148387259 0 -0.093132719671433134 0.02731354931294815 0 -0.10680588598283711 0.018181029462832621 0 -0.09834825836475683 0.021293372867926791 0 -0.098947455407786808 0.017146353399294 0 -0.095328023960609062 0.02193088717935188 0 -0.094821513669177682 0.018762665987333511 0 -0.091428838567518045 0.022021817630514681 0 -0.095328023960609062 0.02193088717935188 0 -0.09834825836475683 0.021293372867926791 0 -0.094821513669177682 0.018762665987333511 0 -0.095328023960609062 0.02193088717935188 0 -0.098244417090614433 0.022942268148387259 0 -0.09834825836475683 0.021293372867926791 0 -0.09834825836475683 0.021293372867926791 0 -0.098947455407786808 0.017146353399294 0 -0.094821513669177682 0.018762665987333511 0 -0.098947455407786808 0.017146353399294 0 -0.094821513669177682 0.018762665987333511 0 -0.094416489833077877 0.01381623531126794 0 -0.098875658403513936 -0.007155519036315363 0 -0.094115224734212147 0.006985564178542257 0 -0.1029354534968594 0.012156143281838481 0 -0.094416489833077877 0.01381623531126794 0 -0.094115224734212147 0.006985564178542257 0 -0.1029354534968594 0.012156143281838481 0 -0.098875658403513936 -0.007155519036315363 0 -0.1029354534968594 0.012156143281838481 0 -0.1116931701901132 0.0062488222710285696 0 -0.098947455407786808 0.017146353399294 0 -0.094416489833077877 0.01381623531126794 0 -0.1029354534968594 0.012156143281838481 0 -0.10680588598283711 0.018181029462832621 0 -0.1029354534968594 0.012156143281838481 0 -0.1128159891918038 0.01539345581395569 0 -0.1029354534968594 0.012156143281838481 0 -0.1128159891918038 0.01539345581395569 0 -0.1116931701901132 0.0062488222710285696 0 -0.1128159891918038 0.01539345581395569 0 -0.1116931701901132 0.0062488222710285696 0 -0.1232047665714129 0.011888674433248829 0 -0.1236889335263805 -0.0048356221156674456 0 -0.1116931701901132 0.0062488222710285696 0 -0.1232047665714129 0.011888674433248829 0 -0.1093594875861949 0.026853809291621782 0 -0.09834825836475683 0.021293372867926791 0 -0.12098227345297841 0.02491582195114812 0 -0.09834825836475683 0.021293372867926791 0 -0.12098227345297841 0.02491582195114812 0 -0.1128159891918038 0.01539345581395569 0 -0.1232047665714129 0.011888674433248829 0 -0.12098227345297841 0.02491582195114812 0 -0.10680588598283711 0.018181029462832621 0 -0.1128159891918038 0.01539345581395569 0 -0.12098227345297841 0.02491582195114812 0 -0.1093594875861949 0.026853809291621782 0 -0.1159816727932812 0.030747419614087241 0 -0.12098227345297841 0.02491582195114812 0 -0.1093594875861949 0.026853809291621782 0 -0.1159816727932812 0.030747419614087241 0 -0.1091907321753727 0.033168974993635567 0 -0.1284667156132355 0.033245407522291548 0 -0.1159816727932812 0.030747419614087241 0 -0.12098227345297841 0.02491582195114812 0 -0.1284667156132355 0.033245407522291548 0 -0.1159816727932812 0.030747419614087241 0 -0.11331714268527091 0.037952544010214549 0 -0.1284667156132355 0.033245407522291548 0 -0.11331714268527091 0.037952544010214549 0 -0.1284667156132355 0.033245407522291548 0 -0.11792827946065169 0.04194108552212758 0 -0.11331714268527091 0.037952544010214549 0 -0.1220658500354324 0.045365689501283592 0 -0.11792827946065169 0.04194108552212758 0 -0.1152150132266751 0.051342544281286262 0 -0.1284667156132355 0.033245407522291548 0 -0.1220658500354324 0.045365689501283592 0 -0.11792827946065169 0.04194108552212758 0 -0.11792827946065169 0.04194108552212758 0 -0.11204381455308569 0.042637510706656341 0 -0.1152150132266751 0.051342544281286262 0 -0.11792827946065169 0.04194108552212758 0 -0.11204381455308569 0.042637510706656341 0 -0.11331714268527091 0.037952544010214549 0 -0.11204381455308569 0.042637510706656341 0 -0.11331714268527091 0.037952544010214549 0 -0.1033809868619133 0.039486757484398012 0 -0.1159816727932812 0.030747419614087241 0 -0.11331714268527091 0.037952544010214549 0 -0.1091907321753727 0.033168974993635567 0 -0.11204381455308569 0.042637510706656341 0 -0.1152150132266751 0.051342544281286262 0 -0.10535110742096961 0.058370724583409452 0 -0.1175323160094202 0.065069568454073093 0 -0.1224833698864089 0.053142401307627943 0 -0.1152150132266751 0.051342544281286262 0 -0.12967710226236809 0.046953678296329557 0 -0.1220658500354324 0.045365689501283592 0 -0.1224833698864089 0.053142401307627943 0 -0.1220658500354324 0.045365689501283592 0 -0.1224833698864089 0.053142401307627943 0 -0.1152150132266751 0.051342544281286262 0 -0.1175323160094202 0.065069568454073093 0 -0.1152150132266751 0.051342544281286262 0 -0.10535110742096961 0.058370724583409452 0 -0.11204381455308569 0.042637510706656341 0 -0.089851278864025524 0.053276530120383553 0 -0.11204381455308569 0.042637510706656341 0 -0.10535110742096961 0.058370724583409452 0 -0.089851278864025524 0.053276530120383553 0 -0.095978590848934023 0.067615028171019373 0 -0.10535110742096961 0.058370724583409452 0 -0.089851278864025524 0.053276530120383553 0 -0.11204381455308569 0.042637510706656341 0 -0.1033809868619133 0.039486757484398012 0 -0.089851278864025524 0.053276530120383553 0 -0.11331714268527091 0.037952544010214549 0 -0.1091907321753727 0.033168974993635567 0 -0.1033809868619133 0.039486757484398012 0 -0.101835104916405 0.03177558594111262 0 -0.1091907321753727 0.033168974993635567 0 -0.1033809868619133 0.039486757484398012 0 -0.1059287887461845 0.029509498789513939 0 -0.101835104916405 0.03177558594111262 0 -0.1091907321753727 0.033168974993635567 0 -0.1033809868619133 0.039486757484398012 0 -0.094047847977320007 0.038109399134385387 0 -0.089851278864025524 0.053276530120383553 0 -0.101835104916405 0.03177558594111262 0 -0.1033809868619133 0.039486757484398012 0 -0.094047847977320007 0.038109399134385387 0 -0.094047847977320007 0.038109399134385387 0 -0.093132719671433134 0.02731354931294815 0 -0.087764128187226037 0.029543042089842479 0 -0.094047847977320007 0.038109399134385387 0 -0.081953898968845917 0.03600224560726497 0 -0.087764128187226037 0.029543042089842479 0 -0.094047847977320007 0.038109399134385387 0 -0.089851278864025524 0.053276530120383553 0 -0.094047847977320007 0.038109399134385387 0 -0.084749697692630938 0.044364574231838802 0 -0.089851278864025524 0.053276530120383553 0 -0.094047847977320007 0.038109399134385387 0 -0.084749697692630938 0.044364574231838802 0 -0.081953898968845917 0.03600224560726497 0 -0.084749697692630938 0.044364574231838802 0 -0.079798715659194552 0.050205001286630413 0 -0.076732362730272882 0.043664593367840183 0 -0.084749697692630938 0.044364574231838802 0 -0.081953898968845917 0.03600224560726497 0 -0.076732362730272882 0.043664593367840183 0 -0.06541082675252137 0.064993192341309375 0 -0.083052180413754201 0.0575884331152096 0 -0.089851278864025524 0.053276530120383553 0 -0.08361701376734712 0.075808248953087104 0 -0.083052180413754201 0.0575884331152096 0 -0.089851278864025524 0.053276530120383553 0 -0.089851278864025524 0.053276530120383553 0 -0.079798715659194552 0.050205001286630413 0 -0.073916491819459251 0.057393024495397987 0 -0.084749697692630938 0.044364574231838802 0 -0.089851278864025524 0.053276530120383553 0 -0.079798715659194552 0.050205001286630413 0 -0.06541082675252137 0.064993192341309375 0 -0.089851278864025524 0.053276530120383553 0 -0.06541082675252137 0.064993192341309375 0 -0.089851278864025524 0.053276530120383553 0 -0.073916491819459251 0.057393024495397987 0 -0.073916491819459251 0.057393024495397987 0 -0.072413264367982316 0.050549803105032293 0 -0.068614505871638129 0.055516250943444978 0 -0.079798715659194552 0.050205001286630413 0 -0.073916491819459251 0.057393024495397987 0 -0.072413264367982316 0.050549803105032293 0 -0.079798715659194552 0.050205001286630413 0 -0.072413264367982316 0.050549803105032293 0 -0.076732362730272882 0.043664593367840183 0 -0.072413264367982316 0.050549803105032293 0 -0.064861143923242687 0.050604953931798043 0 -0.069750023009279946 0.04486598563064377 0 -0.072413264367982316 0.050549803105032293 0 -0.064861143923242687 0.050604953931798043 0 -0.068614505871638129 0.055516250943444978 0 -0.06541082675252137 0.064993192341309375 0 -0.073916491819459251 0.057393024495397987 0 -0.067906591176384715 0.059162967279784852 0 -0.064861143923242687 0.050604953931798043 0 -0.068614505871638129 0.055516250943444978 0 -0.063684540261920136 0.058749401338987109 0 -0.073916491819459251 0.057393024495397987 0 -0.068614505871638129 0.055516250943444978 0 -0.067906591176384715 0.059162967279784852 0 -0.068614505871638129 0.055516250943444978 0 -0.063684540261920136 0.058749401338987109 0 -0.067906591176384715 0.059162967279784852 0 -0.06541082675252137 0.064993192341309375 0 -0.063684540261920136 0.058749401338987109 0 -0.067906591176384715 0.059162967279784852 0 -0.081953898968845917 0.03600224560726497 0 -0.071535044633136285 0.035793325982728767 0 -0.076732362730272882 0.043664593367840183 0 -0.081953898968845917 0.03600224560726497 0 -0.071535044633136285 0.035793325982728767 0 -0.07873441708122042 0.027008150360238081 0 -0.071535044633136285 0.035793325982728767 0 -0.076732362730272882 0.043664593367840183 0 -0.069750023009279946 0.04486598563064377 0 -0.072413264367982316 0.050549803105032293 0 -0.076732362730272882 0.043664593367840183 0 -0.069750023009279946 0.04486598563064377 0 -0.064861143923242687 0.050604953931798043 0 -0.069750023009279946 0.04486598563064377 0 -0.060654259036558578 0.04334864443273706 0 -0.071535044633136285 0.035793325982728767 0 -0.069750023009279946 0.04486598563064377 0 -0.060654259036558578 0.04334864443273706 0 -0.071535044633136285 0.035793325982728767 0 -0.06253419394853256 0.03382396090799155 0 -0.060654259036558578 0.04334864443273706 0 -0.071535044633136285 0.035793325982728767 0 -0.06253419394853256 0.03382396090799155 0 -0.069651307937980134 0.024111442081841381 0 -0.06253419394853256 0.03382396090799155 0 -0.069651307937980134 0.024111442081841381 0 -0.056660336905369292 0.02099694047236092 0 -0.069651307937980134 0.024111442081841381 0 -0.076446410510597501 0.015769999847285089 0 -0.064528235095209246 0.011694718244562171 0 -0.069651307937980134 0.024111442081841381 0 -0.064528235095209246 0.011694718244562171 0 -0.056660336905369292 0.02099694047236092 0 -0.069651307937980134 0.024111442081841381 0 -0.076446410510597501 0.015769999847285089 0 -0.07873441708122042 0.027008150360238081 0 -0.071535044633136285 0.035793325982728767 0 -0.069651307937980134 0.024111442081841381 0 -0.07873441708122042 0.027008150360238081 0 -0.07873441708122042 0.027008150360238081 0 -0.085055712249536647 0.020828846552465821 0 -0.087764128187226037 0.029543042089842479 0 -0.081953898968845917 0.03600224560726497 0 -0.07873441708122042 0.027008150360238081 0 -0.087764128187226037 0.029543042089842479 0 -0.076446410510597501 0.015769999847285089 0 -0.085055712249536647 0.020828846552465821 0 -0.085659865536133598 0.011923555713185921 0 -0.076446410510597501 0.015769999847285089 0 -0.07873441708122042 0.027008150360238081 0 -0.085055712249536647 0.020828846552465821 0 -0.085055712249536647 0.020828846552465821 0 -0.09027648397108877 0.017470624238953569 0 -0.091428838567518045 0.022021817630514681 0 -0.085055712249536647 0.020828846552465821 0 -0.09027648397108877 0.017470624238953569 0 -0.085659865536133598 0.011923555713185921 0 -0.094821513669177682 0.018762665987333511 0 -0.094416489833077877 0.01381623531126794 0 -0.09027648397108877 0.017470624238953569 0 -0.094821513669177682 0.018762665987333511 0 -0.09027648397108877 0.017470624238953569 0 -0.091428838567518045 0.022021817630514681 0 -0.085055712249536647 0.020828846552465821 0 -0.091428838567518045 0.022021817630514681 0 -0.087764128187226037 0.029543042089842479 0 -0.095328023960609062 0.02193088717935188 0 -0.091428838567518045 0.022021817630514681 0 -0.093132719671433134 0.02731354931294815 0 -0.091428838567518045 0.022021817630514681 0 -0.093132719671433134 0.02731354931294815 0 -0.087764128187226037 0.029543042089842479 0 -0.07291959284187112 -0.003186770071663974 0 -0.076446410510597501 0.015769999847285089 0 -0.085659865536133598 0.011923555713185921 0 -0.07291959284187112 -0.003186770071663974 0 -0.094115224734212147 0.006985564178542257 0 -0.085659865536133598 0.011923555713185921 0 -0.094416489833077877 0.01381623531126794 0 -0.09027648397108877 0.017470624238953569 0 -0.085659865536133598 0.011923555713185921 0 -0.094416489833077877 0.01381623531126794 0 -0.094115224734212147 0.006985564178542257 0 -0.085659865536133598 0.011923555713185921 0 -0.07291959284187112 -0.003186770071663974 0 -0.076446410510597501 0.015769999847285089 0 -0.064528235095209246 0.011694718244562171 0 -0.064528235095209246 0.011694718244562171 0 -0.046963527280228193 0.00078197889298742707 0 -0.056660336905369292 0.02099694047236092 0 -0.07291959284187112 -0.003186770071663974 0 -0.064528235095209246 0.011694718244562171 0 -0.046963527280228193 0.00078197889298742707 0 -0.046963527280228193 0.00078197889298742707 0 -0.056660336905369292 0.02099694047236092 0 -0.041258873804374013 0.024022824178597999 0 -0.06253419394853256 0.03382396090799155 0 -0.056660336905369292 0.02099694047236092 0 -0.051431462459679507 0.02980399114314751 0 -0.056660336905369292 0.02099694047236092 0 -0.051431462459679507 0.02980399114314751 0 -0.041258873804374013 0.024022824178597999 0 -0.041258873804374013 0.024022824178597999 0 -0.031309871570705868 0.015319331730808161 0 -0.025632452938596281 0.025990147926608548 0 -0.041258873804374013 0.024022824178597999 0 -0.03099588959046802 0.035660451030016492 0 -0.025632452938596281 0.025990147926608548 0 -0.051431462459679507 0.02980399114314751 0 -0.041258873804374013 0.024022824178597999 0 -0.042600562974009708 0.033902009575963413 0 -0.041258873804374013 0.024022824178597999 0 -0.042600562974009708 0.033902009575963413 0 -0.03099588959046802 0.035660451030016492 0 -0.046963527280228193 0.00078197889298742707 0 -0.021007461718585259 0.0047507278576388329 0 -0.046963527280228193 0.00078197889298742707 0 -0.041258873804374013 0.024022824178597999 0 -0.031309871570705868 0.015319331730808161 0 -0.046963527280228193 0.00078197889298742707 0 -0.031309871570705868 0.015319331730808161 0 -0.021007461718585259 0.0047507278576388329 0 -0.04861564660886987 0.055945974285999567 0 -0.052621785218251373 0.059383858083020429 0 -0.056975333829670648 0.053271098201468269 0 -0.04861564660886987 0.055945974285999567 0 -0.052621785218251373 0.059383858083020429 0 -0.046638010030055292 0.062428920566505119 0 -0.053394200137970249 0.063688084563875133 0 -0.052621785218251373 0.059383858083020429 0 -0.046638010030055292 0.062428920566505119 0 -0.053394200137970249 0.063688084563875133 0 -0.052621785218251373 0.059383858083020429 0 -0.058331629378913313 0.060247879317321562 0 -0.06541082675252137 0.064993192341309375 0 -0.063684540261920136 0.058749401338987109 0 -0.058331629378913313 0.060247879317321562 0 -0.063684540261920136 0.058749401338987109 0 -0.058331629378913313 0.060247879317321562 0 -0.056975333829670648 0.053271098201468269 0 -0.052621785218251373 0.059383858083020429 0 -0.058331629378913313 0.060247879317321562 0 -0.056975333829670648 0.053271098201468269 0 -0.064861143923242687 0.050604953931798043 0 -0.063684540261920136 0.058749401338987109 0 -0.056975333829670648 0.053271098201468269 0 -0.064861143923242687 0.050604953931798043 0 -0.056975333829670648 0.053271098201468269 0 -0.060654259036558578 0.04334864443273706 0 -0.056975333829670648 0.053271098201468269 0 -0.050737969923915688 0.049088491991159333 0 -0.060654259036558578 0.04334864443273706 0 -0.04861564660886987 0.055945974285999567 0 -0.056975333829670648 0.053271098201468269 0 -0.050737969923915688 0.049088491991159333 0 -0.050737969923915688 0.049088491991159333 0 -0.060654259036558578 0.04334864443273706 0 -0.049898830219644058 0.038897170455369383 0 -0.06253419394853256 0.03382396090799155 0 -0.060654259036558578 0.04334864443273706 0 -0.049898830219644058 0.038897170455369383 0 -0.051431462459679507 0.02980399114314751 0 -0.049898830219644058 0.038897170455369383 0 -0.042600562974009708 0.033902009575963413 0 -0.06253419394853256 0.03382396090799155 0 -0.051431462459679507 0.02980399114314751 0 -0.049898830219644058 0.038897170455369383 0 -0.049898830219644058 0.038897170455369383 0 -0.039417758795882878 0.041125611072685683 0 -0.038462381476796488 0.057179737638940943 0 -0.049898830219644058 0.038897170455369383 0 -0.042600562974009708 0.033902009575963413 0 -0.039417758795882878 0.041125611072685683 0 -0.042600562974009708 0.033902009575963413 0 -0.039417758795882878 0.041125611072685683 0 -0.03099588959046802 0.035660451030016492 0 -0.039417758795882878 0.041125611072685683 0 -0.02919048631111228 0.046178140092803889 0 -0.03099588959046802 0.035660451030016492 0 -0.050737969923915688 0.049088491991159333 0 -0.049898830219644058 0.038897170455369383 0 -0.038462381476796488 0.057179737638940943 0 -0.039417758795882878 0.041125611072685683 0 -0.02873169286952305 0.058698812986876792 0 -0.039417758795882878 0.041125611072685683 0 -0.02873169286952305 0.058698812986876792 0 -0.02919048631111228 0.046178140092803889 0 -0.049898830219644058 0.038897170455369383 0 -0.038462381476796488 0.057179737638940943 0 -0.039417758795882878 0.041125611072685683 0 -0.038462381476796488 0.057179737638940943 0 -0.02873169286952305 0.058698812986876792 0 -0.04861564660886987 0.055945974285999567 0 -0.050737969923915688 0.049088491991159333 0 -0.038462381476796488 0.057179737638940943 0 -0.04861564660886987 0.055945974285999567 0 -0.038462381476796488 0.057179737638940943 0 -0.046638010030055292 0.062428920566505119 0 -0.04081794614767624 0.066803336361897989 0 -0.038462381476796488 0.057179737638940943 0 -0.046638010030055292 0.062428920566505119 0 -0.01823390962768567 0.06435086842514047 0 -0.016480233619543219 0.05589279097061231 0 -0.021655705456933169 0.057600554303775343 0 -0.01823390962768567 0.06435086842514047 0 -0.021655705456933169 0.057600554303775343 0 -0.02873169286952305 0.058698812986876792 0 -0.016480233619543219 0.05589279097061231 0 -0.021655705456933169 0.057600554303775343 0 -0.023176985710980751 0.051459744832471822 0 -0.021655705456933169 0.057600554303775343 0 -0.02873169286952305 0.058698812986876792 0 -0.023176985710980751 0.051459744832471822 0 -0.02873169286952305 0.058698812986876792 0 -0.023176985710980751 0.051459744832471822 0 -0.02919048631111228 0.046178140092803889 0 -0.016480233619543219 0.05589279097061231 0 -0.023176985710980751 0.051459744832471822 0 -0.017869640566303888 0.046757629267855622 0 -0.017869640566303888 0.046757629267855622 0 -0.02462639039448123 0.042156699472282587 0 -0.01836041286552316 0.035582611492626162 0 -0.017869640566303888 0.046757629267855622 0 -0.01836041286552316 0.035582611492626162 0 -0.01243507166479073 0.04064450136012903 0 -0.023176985710980751 0.051459744832471822 0 -0.017869640566303888 0.046757629267855622 0 -0.02462639039448123 0.042156699472282587 0 -0.023176985710980751 0.051459744832471822 0 -0.02462639039448123 0.042156699472282587 0 -0.02919048631111228 0.046178140092803889 0 -0.02462639039448123 0.042156699472282587 0 -0.02919048631111228 0.046178140092803889 0 -0.03099588959046802 0.035660451030016492 0 -0.03099588959046802 0.035660451030016492 0 -0.01836041286552316 0.035582611492626162 0 -0.025632452938596281 0.025990147926608548 0 -0.02462639039448123 0.042156699472282587 0 -0.03099588959046802 0.035660451030016492 0 -0.01836041286552316 0.035582611492626162 0 -0.01836041286552316 0.035582611492626162 0 -0.010190503877835469 0.032319111560348418 0 -0.01243507166479073 0.04064450136012903 0 -0.010190503877835469 0.032319111560348418 0 -0.006631565503055898 0.038170377074587807 0 -0.01243507166479073 0.04064450136012903 0 -0.010190503877835469 0.032319111560348418 0 -0.0031978987413700971 0.032974798148671478 0 -0.006631565503055898 0.038170377074587807 0 -0.0031978987413700971 0.032974798148671478 0 -0.006631565503055898 0.038170377074587807 0 -0.00034383194409249451 0.040607819602813622 0 -0.0064899071119409813 0.046444058066590799 0 -0.00034383194409249451 0.040607819602813622 0 0.0034790140757981359 0.048686720887964823 0 -0.006631565503055898 0.038170377074587807 0 -0.0064899071119409813 0.046444058066590799 0 -0.00034383194409249451 0.040607819602813622 0 -0.006631565503055898 0.038170377074587807 0 -0.0064899071119409813 0.046444058066590799 0 -0.01243507166479073 0.04064450136012903 0 -0.017869640566303888 0.046757629267855622 0 -0.0064899071119409813 0.046444058066590799 0 -0.01243507166479073 0.04064450136012903 0 -0.016480233619543219 0.05589279097061231 0 -0.017869640566303888 0.046757629267855622 0 -0.01074118693531566 0.052766272044419797 0 -0.017869640566303888 0.046757629267855622 0 -0.0064899071119409813 0.046444058066590799 0 -0.01074118693531566 0.052766272044419797 0 -0.0064899071119409813 0.046444058066590799 0 -0.01074118693531566 0.052766272044419797 0 -0.0017146754621926851 0.055807022671164143 0 -0.0064899071119409813 0.046444058066590799 0 -0.0017146754621926851 0.055807022671164143 0 0.0034790140757981359 0.048686720887964823 0 -0.0031673906762563929 0.065809178108648766 0 -0.0017146754621926851 0.055807022671164143 0 -0.0080447469397615032 0.058570566131107643 0 -0.01074118693531566 0.052766272044419797 0 -0.0017146754621926851 0.055807022671164143 0 -0.0080447469397615032 0.058570566131107643 0 -0.01151887985774269 0.064129230963300921 0 -0.01823390962768567 0.06435086842514047 0 -0.016480233619543219 0.05589279097061231 0 -0.016480233619543219 0.05589279097061231 0 -0.01074118693531566 0.052766272044419797 0 -0.0080447469397615032 0.058570566131107643 0 -0.01151887985774269 0.064129230963300921 0 -0.016480233619543219 0.05589279097061231 0 -0.0080447469397615032 0.058570566131107643 0 -0.021007461718585259 0.0047507278576388329 0 -0.021055704779245382 0.017888550549576578 0 -0.01302511794446401 0.016586123560787029 0 -0.031309871570705868 0.015319331730808161 0 -0.021007461718585259 0.0047507278576388329 0 -0.021055704779245382 0.017888550549576578 0 -0.031309871570705868 0.015319331730808161 0 -0.025632452938596281 0.025990147926608548 0 -0.021055704779245382 0.017888550549576578 0 -0.01836041286552316 0.035582611492626162 0 -0.025632452938596281 0.025990147926608548 0 -0.013987951057625399 0.02521520704772464 0 -0.021055704779245382 0.017888550549576578 0 -0.01302511794446401 0.016586123560787029 0 -0.013987951057625399 0.02521520704772464 0 -0.025632452938596281 0.025990147926608548 0 -0.021055704779245382 0.017888550549576578 0 -0.013987951057625399 0.02521520704772464 0 -0.01302511794446401 0.016586123560787029 0 -0.013987951057625399 0.02521520704772464 0 -0.0053577729638793724 0.020349834905401949 0 -0.01836041286552316 0.035582611492626162 0 -0.010190503877835469 0.032319111560348418 0 -0.013987951057625399 0.02521520704772464 0 -0.013987951057625399 0.02521520704772464 0 -0.0052712013643913666 0.027722307726033079 0 -0.0053577729638793724 0.020349834905401949 0 -0.010190503877835469 0.032319111560348418 0 -0.013987951057625399 0.02521520704772464 0 -0.0052712013643913666 0.027722307726033079 0 -0.010190503877835469 0.032319111560348418 0 -0.0031978987413700971 0.032974798148671478 0 -0.0052712013643913666 0.027722307726033079 0 -0.0052712013643913666 0.027722307726033079 0 -0.0053577729638793724 0.020349834905401949 0 3.1037261442449247e-05 0.02437091062076667 0 -0.0052712013643913666 0.027722307726033079 0 0.001607472582488571 0.029823320100340559 0 3.1037261442449247e-05 0.02437091062076667 0 -0.0031978987413700971 0.032974798148671478 0 -0.0052712013643913666 0.027722307726033079 0 0.001607472582488571 0.029823320100340559 0 -0.01302511794446401 0.016586123560787029 0 -0.0053577729638793724 0.020349834905401949 0 -0.0042619738458624119 0.013280432435881969 0 -0.0053577729638793724 0.020349834905401949 0 8.9108987292519076e-05 0.0199028968554819 0 3.1037261442449247e-05 0.02437091062076667 0 -0.0053577729638793724 0.020349834905401949 0 -0.0010366654749020281 0.016587244783632851 0 -0.0042619738458624119 0.013280432435881969 0 -0.0053577729638793724 0.020349834905401949 0 -0.0010366654749020281 0.016587244783632851 0 8.9108987292519076e-05 0.0199028968554819 0 -0.0010366654749020281 0.016587244783632851 0 -0.0042619738458624119 0.013280432435881969 0 0.00189442242298461 0.01442712086952814 0 -0.021007461718585259 0.0047507278576388329 0 -0.01302511794446401 0.016586123560787029 0 -0.0042619738458624119 0.013280432435881969 0 -0.0020414591632706811 -0.0010561809509511751 0 -0.021007461718585259 0.0047507278576388329 0 0.0049486038430576387 0.0087194768222903351 0 -0.021007461718585259 0.0047507278576388329 0 0.0049486038430576387 0.0087194768222903351 0 -0.021007461718585259 0.0047507278576388329 0 -0.0042619738458624119 0.013280432435881969 0 0.0049486038430576387 0.0087194768222903351 0 0.0037157586792688859 0.0020614175455401199 0 0.0087864089086878757 0.0038937882220091619 0 0.0061385654505198744 -0.0046293945413275923 0 0.0087864089086878757 0.0038937882220091619 0 0.0049486038430576387 0.0087194768222903351 0 0.0233511623095096 0.001879667706604353 0 -0.0020414591632706811 -0.0010561809509511751 0 0.0037157586792688859 0.0020614175455401199 0 0.0049486038430576387 0.0087194768222903351 0 0.0058214654379518359 0.0063262512638483388 0 0.0087864089086878757 0.0038937882220091619 0 0.0049486038430576387 0.0087194768222903351 0 0.0037157586792688859 0.0020614175455401199 0 0.0054987643808658846 0.0048479908132537334 0 0.0049486038430576387 0.0087194768222903351 0 0.0058214654379518359 0.0063262512638483388 0 0.0054987643808658846 0.0048479908132537334 0 0.0049486038430576387 0.0087194768222903351 0 0.0058214654379518359 0.0063262512638483388 0 0.0054987643808658846 0.0048479908132537334 0 0.0087864089086878757 0.0038937882220091619 0 0.0037157586792688859 0.0020614175455401199 0 0.0054987643808658846 0.0048479908132537334 0 0.0087864089086878757 0.0038937882220091619 0 0.0087864089086878757 0.0038937882220091619 0 0.0233511623095096 0.001879667706604353 0 0.0142438822378888 -0.0044838956883495743 0 0.006407497089497954 0.013017398122866281 0 0.0049486038430576387 0.0087194768222903351 0 0.01257583277762349 0.01840781988764912 0 0.0074917496275464911 0.01540158701201152 0 0.006407497089497954 0.013017398122866281 0 0.0077017790574899422 0.016830372137762239 0 0.0074917496275464911 0.01540158701201152 0 0.006407497089497954 0.013017398122866281 0 0.0051849513987882291 0.01544713008920569 0 -0.0042619738458624119 0.013280432435881969 0 0.0049486038430576387 0.0087194768222903351 0 0.0031157483223319899 0.01227419866998454 0 0.006407497089497954 0.013017398122866281 0 0.0041759099448950652 0.013782889294170779 0 0.0031157483223319899 0.01227419866998454 0 0.006407497089497954 0.013017398122866281 0 0.0051849513987882291 0.01544713008920569 0 0.0041759099448950652 0.013782889294170779 0 0.006407497089497954 0.013017398122866281 0 0.0049486038430576387 0.0087194768222903351 0 0.0031157483223319899 0.01227419866998454 0 -0.0042619738458624119 0.013280432435881969 0 0.0031157483223319899 0.01227419866998454 0 0.00189442242298461 0.01442712086952814 0 0.0051849513987882291 0.01544713008920569 0 0.0041759099448950652 0.013782889294170779 0 0.00189442242298461 0.01442712086952814 0 0.0041759099448950652 0.013782889294170779 0 0.0031157483223319899 0.01227419866998454 0 0.00189442242298461 0.01442712086952814 0 0.0049486038430576387 0.0087194768222903351 0 0.01257583277762349 0.01840781988764912 0 0.022362318012105 0.02572934134748257 0 -0.0010366654749020281 0.016587244783632851 0 0.00189442242298461 0.01442712086952814 0 0.0025361826422452228 0.017408496236859281 0 0.0049486038430576387 0.0087194768222903351 0 0.022362318012105 0.02572934134748257 0 0.0051849513987882291 0.01544713008920569 0 0.00189442242298461 0.01442712086952814 0 0.0025361826422452228 0.017408496236859281 0 0.0025361826422452228 0.017408496236859281 0 8.9108987292519076e-05 0.0199028968554819 0 0.0038177417534758511 0.02123942392921228 0 -0.0010366654749020281 0.016587244783632851 0 0.0025361826422452228 0.017408496236859281 0 8.9108987292519076e-05 0.0199028968554819 0 8.9108987292519076e-05 0.0199028968554819 0 0.0038177417534758511 0.02123942392921228 0 3.1037261442449247e-05 0.02437091062076667 0 0.0038177417534758511 0.02123942392921228 0 0.0054464450892198948 0.025677904764804301 0 0.0089964896447897978 0.021886488423093559 0 0.0038177417534758511 0.02123942392921228 0 0.0063357907537727959 0.01865355257764818 0 0.0089964896447897978 0.021886488423093559 0 0.0063357907537727959 0.01865355257764818 0 0.0077017790574899422 0.016830372137762239 0 0.0092363285304216756 0.018424794259853289 0 0.0074917496275464911 0.01540158701201152 0 0.0051849513987882291 0.01544713008920569 0 0.0077017790574899422 0.016830372137762239 0 0.0051849513987882291 0.01544713008920569 0 0.0063357907537727959 0.01865355257764818 0 0.0077017790574899422 0.016830372137762239 0 0.0051849513987882291 0.01544713008920569 0 0.0025361826422452228 0.017408496236859281 0 0.0063357907537727959 0.01865355257764818 0 0.0025361826422452228 0.017408496236859281 0 0.0038177417534758511 0.02123942392921228 0 0.0063357907537727959 0.01865355257764818 0 0.001607472582488571 0.029823320100340559 0 3.1037261442449247e-05 0.02437091062076667 0 0.0054464450892198948 0.025677904764804301 0 0.0038177417534758511 0.02123942392921228 0 3.1037261442449247e-05 0.02437091062076667 0 0.0054464450892198948 0.025677904764804301 0 0.001607472582488571 0.029823320100340559 0 0.0054464450892198948 0.025677904764804301 0 0.0068452680930133026 0.03053666518076598 0 0.0054464450892198948 0.025677904764804301 0 0.0068452680930133026 0.03053666518076598 0 0.01070604992746404 0.027447214913839269 0 0.0068452680930133026 0.03053666518076598 0 0.01070604992746404 0.027447214913839269 0 0.012452175797986281 0.034242780076489912 0 0.0054464450892198948 0.025677904764804301 0 0.01070604992746404 0.027447214913839269 0 0.0089964896447897978 0.021886488423093559 0 0.01070604992746404 0.027447214913839269 0 0.01343670059244249 0.023936192205606222 0 0.0089964896447897978 0.021886488423093559 0 0.01070604992746404 0.027447214913839269 0 0.01343670059244249 0.023936192205606222 0 0.016795458042890728 0.02826404756018296 0 0.01343670059244249 0.023936192205606222 0 0.016795458042890728 0.02826404756018296 0 0.016292577356265429 0.024084350250230219 0 0.01070604992746404 0.027447214913839269 0 0.016795458042890728 0.02826404756018296 0 0.012452175797986281 0.034242780076489912 0 0.0077017790574899422 0.016830372137762239 0 0.0092363285304216756 0.018424794259853289 0 0.01257583277762349 0.01840781988764912 0 0.006407497089497954 0.013017398122866281 0 0.0077017790574899422 0.016830372137762239 0 0.01257583277762349 0.01840781988764912 0 0.01343670059244249 0.023936192205606222 0 0.0089964896447897978 0.021886488423093559 0 0.01257583277762349 0.01840781988764912 0 0.0063357907537727959 0.01865355257764818 0 0.0092363285304216756 0.018424794259853289 0 0.0089964896447897978 0.021886488423093559 0 0.0092363285304216756 0.018424794259853289 0 0.0089964896447897978 0.021886488423093559 0 0.01257583277762349 0.01840781988764912 0 0.01343670059244249 0.023936192205606222 0 0.01257583277762349 0.01840781988764912 0 0.016292577356265429 0.024084350250230219 0 0.0049486038430576387 0.0087194768222903351 0 0.022969089888099311 0.019460752061490009 0 0.022362318012105 0.02572934134748257 0 0.01257583277762349 0.01840781988764912 0 0.016292577356265429 0.024084350250230219 0 0.022362318012105 0.02572934134748257 0 0.016795458042890728 0.02826404756018296 0 0.022362318012105 0.02572934134748257 0 0.019829661616374249 0.033996649116684943 0 0.016795458042890728 0.02826404756018296 0 0.016292577356265429 0.024084350250230219 0 0.022362318012105 0.02572934134748257 0 0.022969089888099311 0.019460752061490009 0 0.022362318012105 0.02572934134748257 0 0.03348387096280861 0.024919384529442909 0 0.022969089888099311 0.019460752061490009 0 0.032294174515015567 0.01290068468041069 0 0.03348387096280861 0.024919384529442909 0 0.022969089888099311 0.019460752061490009 0 0.032294174515015567 0.01290068468041069 0 0.0049486038430576387 0.0087194768222903351 0 0.032294174515015567 0.01290068468041069 0 0.0049486038430576387 0.0087194768222903351 0 0.0233511623095096 0.001879667706604353 0 0.032294174515015567 0.01290068468041069 0 0.0049486038430576387 0.0087194768222903351 0 0.022969089888099311 0.019460752061490009 0 0.032294174515015567 0.01290068468041069 0 -0.0031673906762563929 0.065809178108648766 0 -0.0017146754621926851 0.055807022671164143 0 0.0078669460551368045 0.059946632859048853 0 -0.0017146754621926851 0.055807022671164143 0 0.0078669460551368045 0.059946632859048853 0 0.0034790140757981359 0.048686720887964823 0 0.0078669460551368045 0.059946632859048853 0 0.015423576393554069 0.045161383569938568 0 0.019040531636958711 0.057408178588751878 0 0.0078669460551368045 0.059946632859048853 0 0.0034790140757981359 0.048686720887964823 0 0.015423576393554069 0.045161383569938568 0 0.015423576393554069 0.045161383569938568 0 0.0069988063905976929 0.041228422058918072 0 0.012452175797986281 0.034242780076489912 0 0.0034790140757981359 0.048686720887964823 0 0.015423576393554069 0.045161383569938568 0 0.0069988063905976929 0.041228422058918072 0 -0.00034383194409249451 0.040607819602813622 0 0.0034790140757981359 0.048686720887964823 0 0.0069988063905976929 0.041228422058918072 0 -0.00034383194409249451 0.040607819602813622 0 0.0069988063905976929 0.041228422058918072 0 0.0038307430146928782 0.035590643190067148 0 0.0068452680930133026 0.03053666518076598 0 0.0038307430146928782 0.035590643190067148 0 0.012452175797986281 0.034242780076489912 0 0.0069988063905976929 0.041228422058918072 0 0.0038307430146928782 0.035590643190067148 0 0.012452175797986281 0.034242780076489912 0 -0.0031978987413700971 0.032974798148671478 0 -0.00034383194409249451 0.040607819602813622 0 0.0038307430146928782 0.035590643190067148 0 -0.0031978987413700971 0.032974798148671478 0 0.001607472582488571 0.029823320100340559 0 0.0038307430146928782 0.035590643190067148 0 0.001607472582488571 0.029823320100340559 0 0.0068452680930133026 0.03053666518076598 0 0.0038307430146928782 0.035590643190067148 0 0.022362318012105 0.02572934134748257 0 0.026596801832438271 0.038812830339002583 0 0.039776032181152277 0.042739205872675011 0 0.022362318012105 0.02572934134748257 0 0.039776032181152277 0.042739205872675011 0 0.022362318012105 0.02572934134748257 0 0.019829661616374249 0.033996649116684943 0 0.026596801832438271 0.038812830339002583 0 0.015423576393554069 0.045161383569938568 0 0.012452175797986281 0.034242780076489912 0 0.019829661616374249 0.033996649116684943 0 0.016795458042890728 0.02826404756018296 0 0.012452175797986281 0.034242780076489912 0 0.019829661616374249 0.033996649116684943 0 0.026596801832438271 0.038812830339002583 0 0.026103168636132851 0.049207612223623423 0 0.039776032181152277 0.042739205872675011 0 0.015423576393554069 0.045161383569938568 0 0.026596801832438271 0.038812830339002583 0 0.026103168636132851 0.049207612223623423 0 0.015423576393554069 0.045161383569938568 0 0.019829661616374249 0.033996649116684943 0 0.026596801832438271 0.038812830339002583 0 0.015423576393554069 0.045161383569938568 0 0.026103168636132851 0.049207612223623423 0 0.019040531636958711 0.057408178588751878 0 0.026103168636132851 0.049207612223623423 0 0.02967890113656069 0.061916462747749312 0 0.019040531636958711 0.057408178588751878 0 0.02967890113656069 0.061916462747749312 0 0.039776032181152277 0.042739205872675011 0 0.047730560393886193 0.065266961710748986 0 0.039776032181152277 0.042739205872675011 0 0.047730560393886193 0.065266961710748986 0 0.026103168636132851 0.049207612223623423 0 0.02967890113656069 0.061916462747749312 0 0.039776032181152277 0.042739205872675011 0 0.039776032181152277 0.042739205872675011 0 0.03348387096280861 0.024919384529442909 0 0.039776032181152277 0.042739205872675011 0 0.03348387096280861 0.024919384529442909 0 0.048780073666711637 0.031193242322117828 0 0.039776032181152277 0.042739205872675011 0 0.054517892203708541 0.041208993205706403 0 0.048780073666711637 0.031193242322117828 0 0.054517892203708541 0.041208993205706403 0 0.062728547600056819 0.030971722033196331 0 0.067440287448924593 0.044729736066199198 0 0.054517892203708541 0.041208993205706403 0 0.048780073666711637 0.031193242322117828 0 0.062728547600056819 0.030971722033196331 0 0.039776032181152277 0.042739205872675011 0 0.054517892203708541 0.041208993205706403 0 0.055040723580407423 0.057649886626915267 0 0.054517892203708541 0.041208993205706403 0 0.055040723580407423 0.057649886626915267 0 0.067440287448924593 0.044729736066199198 0 0.039776032181152277 0.042739205872675011 0 0.055040723580407423 0.057649886626915267 0 0.047730560393886193 0.065266961710748986 0 0.039776032181152277 0.042739205872675011 0 0.055040723580407423 0.057649886626915267 0 0.055040723580407423 0.057649886626915267 0 0.067440287448924593 0.044729736066199198 0 0.055040723580407423 0.057649886626915267 0 0.047730560393886193 0.065266961710748986 0 0.0233511623095096 0.001879667706604353 0 0.032294174515015567 0.01290068468041069 0 0.038428460927082797 -0.0076620761025902959 0 0.032294174515015567 0.01290068468041069 0 0.054495626419947457 -0.002717728050520854 0 0.038428460927082797 -0.0076620761025902959 0 0.032294174515015567 0.01290068468041069 0 0.053394025385831767 0.016126905969568742 0 0.032294174515015567 0.01290068468041069 0 0.053394025385831767 0.016126905969568742 0 0.054824427257685292 0.00227762694569442 0 0.032294174515015567 0.01290068468041069 0 0.054495626419947457 -0.002717728050520854 0 0.022362318012105 0.02572934134748257 0 0.039776032181152277 0.042739205872675011 0 0.03348387096280861 0.024919384529442909 0 0.032294174515015567 0.01290068468041069 0 0.03348387096280861 0.024919384529442909 0 0.053394025385831767 0.016126905969568742 0 0.03348387096280861 0.024919384529442909 0 0.053394025385831767 0.016126905969568742 0 0.048780073666711637 0.031193242322117828 0 0.053394025385831767 0.016126905969568742 0 0.048780073666711637 0.031193242322117828 0 0.062728547600056819 0.030971722033196331 0 0.053394025385831767 0.016126905969568742 0 0.054824427257685292 0.00227762694569442 0 0.065143824808737039 0.01032385160288393 0 0.032294174515015567 0.01290068468041069 0 0.054824427257685292 0.00227762694569442 0 0.054495626419947457 -0.002717728050520854 0 0.054824427257685292 0.00227762694569442 0 0.077862970334783732 0.003537746237542144 0 0.054495626419947457 -0.002717728050520854 0 0.054824427257685292 0.00227762694569442 0 0.077862970334783732 0.003537746237542144 0 0.077862970334783732 0.003537746237542144 0 0.065143824808737039 0.01032385160288393 0 0.074493876256647384 0.01935312725873041 0 0.054824427257685292 0.00227762694569442 0 0.077862970334783732 0.003537746237542144 0 0.065143824808737039 0.01032385160288393 0 0.053394025385831767 0.016126905969568742 0 0.065143824808737039 0.01032385160288393 0 0.074493876256647384 0.01935312725873041 0 0.077862970334783732 0.003537746237542144 0 0.10090151341188219 0.0047978655293898706 0 0.077862970334783732 0.003537746237542144 0 0.090906101745499943 0.014901234755463179 0 0.074493876256647384 0.01935312725873041 0 0.077862970334783732 0.003537746237542144 0 0.090906101745499943 0.014901234755463179 0 0.10090151341188219 0.0047978655293898706 0 0.077862970334783732 0.003537746237542144 0 0.10090151341188219 0.0047978655293898706 0 0.090077670860866793 -0.0066576076119306176 0 0.090906101745499943 0.014901234755463179 0 0.074493876256647384 0.01935312725873041 0 0.095593727127463238 0.022579348547890551 0 0.074493876256647384 0.01935312725873041 0 0.095593727127463238 0.022579348547890551 0 0.074493876256647384 0.01935312725873041 0 0.079839851317441771 0.031809585505483198 0 0.095593727127463238 0.022579348547890551 0 0.090906101745499943 0.014901234755463179 0 0.095593727127463238 0.022579348547890551 0 0.053394025385831767 0.016126905969568742 0 0.074493876256647384 0.01935312725873041 0 0.062728547600056819 0.030971722033196331 0 0.053394025385831767 0.016126905969568742 0 0.074493876256647384 0.01935312725873041 0 0.074493876256647384 0.01935312725873041 0 0.062728547600056819 0.030971722033196331 0 0.079839851317441771 0.031809585505483198 0 0.062728547600056819 0.030971722033196331 0 0.067440287448924593 0.044729736066199198 0 0.079839851317441771 0.031809585505483198 0 0.067440287448924593 0.044729736066199198 0 0.079839851317441771 0.031809585505483198 0 0.079408989836324134 0.043806136330376333 0 0.067440287448924593 0.044729736066199198 0 0.079839851317441771 0.031809585505483198 0 0.055040723580407423 0.057649886626915267 0 0.067440287448924593 0.044729736066199198 0 0.071937823162679326 0.057075504107201733 0 0.055040723580407423 0.057649886626915267 0 0.071937823162679326 0.057075504107201733 0 0.068385423907999371 0.070685103726379941 0 0.067440287448924593 0.044729736066199198 0 0.071937823162679326 0.057075504107201733 0 0.079408989836324134 0.043806136330376333 0 0.085437612481435068 0.053820016248252882 0 0.099610761352485269 0.056900042075652142 0 0.085298905734194977 0.070255558589119735 0 0.071937823162679326 0.057075504107201733 0 0.085437612481435068 0.053820016248252882 0 0.085298905734194977 0.070255558589119735 0 0.071937823162679326 0.057075504107201733 0 0.085437612481435068 0.053820016248252882 0 0.079408989836324134 0.043806136330376333 0 0.085437612481435068 0.053820016248252882 0 0.091195289284055236 0.041568983053790642 0 0.099610761352485269 0.056900042075652142 0 0.079839851317441771 0.031809585505483198 0 0.091195289284055236 0.041568983053790642 0 0.095593727127463238 0.022579348547890551 0 0.079839851317441771 0.031809585505483198 0 0.079408989836324134 0.043806136330376333 0 0.091195289284055236 0.041568983053790642 0 0.085437612481435068 0.053820016248252882 0 0.079408989836324134 0.043806136330376333 0 0.091195289284055236 0.041568983053790642 0 0.091195289284055236 0.041568983053790642 0 0.10560295633209039 0.038974003526774492 0 0.099610761352485269 0.056900042075652142 0 0.091195289284055236 0.041568983053790642 0 0.10560295633209039 0.038974003526774492 0 0.095593727127463238 0.022579348547890551 0 0.10560295633209039 0.038974003526774492 0 0.11618226558974851 0.031859173484045829 0 0.10601108720134909 0.02417218960885522 0 0.10560295633209039 0.038974003526774492 0 0.099610761352485269 0.056900042075652142 0 0.11561218553671609 0.055368658505659307 0 0.099610761352485269 0.056900042075652142 0 0.11561218553671609 0.055368658505659307 0 0.1048532761455717 0.072630379861634259 0 0.11561218553671609 0.055368658505659307 0 0.13148930186871671 0.050716933956640307 0 0.12588022214494851 0.072187228053927507 0 0.10560295633209039 0.038974003526774492 0 0.11561218553671609 0.055368658505659307 0 0.11561218553671609 0.055368658505659307 0 0.11618226558974851 0.031859173484045829 0 0.12867290277443649 0.034413889442145948 0 0.10560295633209039 0.038974003526774492 0 0.11561218553671609 0.055368658505659307 0 0.11618226558974851 0.031859173484045829 0 0.11561218553671609 0.055368658505659307 0 0.12867290277443649 0.034413889442145948 0 0.11618226558974851 0.031859173484045829 0 0.1286408934784036 0.019846303224724141 0 0.12867290277443649 0.034413889442145948 0 0.11618226558974851 0.031859173484045829 0 0.11589688851484969 0.02166418991328305 0 0.1286408934784036 0.019846303224724141 0 0.11618226558974851 0.031859173484045829 0 0.11589688851484969 0.02166418991328305 0 0.10601108720134909 0.02417218960885522 0 0.11589688851484969 0.02166418991328305 0 0.1104222398272873 0.013710081852702319 0 0.10601108720134909 0.02417218960885522 0 0.11589688851484969 0.02166418991328305 0 0.1239400564889807 0.0060579848212375977 0 0.1286408934784036 0.019846303224724141 0 0.1239400564889807 0.0060579848212375977 0 0.10090151341188219 0.0047978655293898706 0 0.1239400564889807 0.0060579848212375977 0 0.10090151341188219 0.0047978655293898706 0 0.1194176366971845 -0.0048929169377078148 0 0.1239400564889807 0.0060579848212375977 0 0.1104222398272873 0.013710081852702319 0 0.10090151341188219 0.0047978655293898706 0 0.11589688851484969 0.02166418991328305 0 0.1239400564889807 0.0060579848212375977 0 0.1104222398272873 0.013710081852702319 0 0.1104222398272873 0.013710081852702319 0 0.10090151341188219 0.0047978655293898706 0 0.1011499331536129 0.015691749644392121 0 0.090906101745499943 0.014901234755463179 0 0.10090151341188219 0.0047978655293898706 0 0.1011499331536129 0.015691749644392121 0 0.10560295633209039 0.038974003526774492 0 0.095593727127463238 0.022579348547890551 0 0.10560295633209039 0.038974003526774492 0 0.095593727127463238 0.022579348547890551 0 0.10601108720134909 0.02417218960885522 0 0.1011499331536129 0.015691749644392121 0 0.095593727127463238 0.022579348547890551 0 0.10601108720134909 0.02417218960885522 0 0.095593727127463238 0.022579348547890551 0 0.10601108720134909 0.02417218960885522 0 0.090906101745499943 0.014901234755463179 0 0.1011499331536129 0.015691749644392121 0 0.095593727127463238 0.022579348547890551 0 0.1104222398272873 0.013710081852702319 0 0.1011499331536129 0.015691749644392121 0 0.10601108720134909 0.02417218960885522 0 0.097334699564937496 0.11385946898536881 0 0.1094538452314098 0.1002260451346679 0 0.094094366754427117 0.089892101217609086 0 0.097334699564937496 0.11385946898536881 0 0.1102450966610016 0.122382783806364 0 0.1094538452314098 0.1002260451346679 0 0.097334699564937496 0.11385946898536881 0 0.1102450966610016 0.122382783806364 0 0.097810294691193234 0.1260794970240528 0 0.1102450966610016 0.122382783806364 0 0.12163788201371439 0.1132883282973552 0 0.1273533804607794 0.12682876463678269 0 0.1102450966610016 0.122382783806364 0 0.12163788201371439 0.1132883282973552 0 0.1094538452314098 0.1002260451346679 0 0.12163788201371439 0.1132883282973552 0 0.1094538452314098 0.1002260451346679 0 0.1213735514211243 0.099940318165552516 0 0.12163788201371439 0.1132883282973552 0 0.1213735514211243 0.099940318165552516 0 0.1315073885686468 0.10325664720167629 0 0.1094538452314098 0.1002260451346679 0 0.1213735514211243 0.099940318165552516 0 0.1124045288677083 0.086514077954834193 0 0.1124045288677083 0.086514077954834193 0 0.12588022214494851 0.072187228053927507 0 0.12542688357667081 0.091416619296461415 0 0.1213735514211243 0.099940318165552516 0 0.1124045288677083 0.086514077954834193 0 0.12542688357667081 0.091416619296461415 0 0.11561218553671609 0.055368658505659307 0 0.1048532761455717 0.072630379861634259 0 0.11561218553671609 0.055368658505659307 0 0.12588022214494851 0.072187228053927507 0 0.1124045288677083 0.086514077954834193 0 0.1048532761455717 0.072630379861634259 0 0.12588022214494851 0.072187228053927507 0 0.11561218553671609 0.055368658505659307 0 0.1048532761455717 0.072630379861634259 0 0.12588022214494851 0.072187228053927507 0 0.1048532761455717 0.072630379861634259 0 0.094094366754427117 0.089892101217609086 0 0.085298905734194977 0.070255558589119735 0 0.099610761352485269 0.056900042075652142 0 0.1048532761455717 0.072630379861634259 0 0.085298905734194977 0.070255558589119735 0 0.1094538452314098 0.1002260451346679 0 0.1124045288677083 0.086514077954834193 0 0.094094366754427117 0.089892101217609086 0 0.1124045288677083 0.086514077954834193 0 0.1048532761455717 0.072630379861634259 0 0.094094366754427117 0.089892101217609086 0 0.1048532761455717 0.072630379861634259 0 0.094094366754427117 0.089892101217609086 0 0.094094366754427117 0.089892101217609086 0 0.085298905734194977 0.070255558589119735 0 0.075005657416513313 0.088633252192141687 0 0.085298905734194977 0.070255558589119735 0 0.068385423907999371 0.070685103726379941 0 0.075005657416513313 0.088633252192141687 0 0.071937823162679326 0.057075504107201733 0 0.085298905734194977 0.070255558589119735 0 0.068385423907999371 0.070685103726379941 0 0.068385423907999371 0.070685103726379941 0 0.075005657416513313 0.088633252192141687 0 0.055877727708616078 0.088340284367938712 0 0.075005657416513313 0.088633252192141687 0 0.064024895023345255 0.11141360702512861 0 0.055877727708616078 0.088340284367938712 0 0.075005657416513313 0.088633252192141687 0 0.082302522810782014 0.1046790227179329 0 0.064024895023345255 0.11141360702512861 0 0.097334699564937496 0.11385946898536881 0 0.094094366754427117 0.089892101217609086 0 0.082302522810782014 0.1046790227179329 0 0.094094366754427117 0.089892101217609086 0 0.075005657416513313 0.088633252192141687 0 0.082302522810782014 0.1046790227179329 0 0.097334699564937496 0.11385946898536881 0 0.081052995294686958 0.11959668416941641 0 0.097810294691193234 0.1260794970240528 0 0.097334699564937496 0.11385946898536881 0 0.082302522810782014 0.1046790227179329 0 0.081052995294686958 0.11959668416941641 0 0.082302522810782014 0.1046790227179329 0 0.081052995294686958 0.11959668416941641 0 0.064024895023345255 0.11141360702512861 0 0.081052995294686958 0.11959668416941641 0 0.064024895023345255 0.11141360702512861 0 0.072172062338074466 0.13448692968231871 0 0.064024895023345255 0.11141360702512861 0 0.072172062338074466 0.13448692968231871 0 0.064024895023345255 0.11141360702512861 0 0.041985008402452298 0.1041231638265976 0 0.037150447756258143 0.1222277562957383 0 0.064024895023345255 0.11141360702512861 0 0.037150447756258143 0.1222277562957383 0 0.055090695852513 0.13130553033287451 0 0.064024895023345255 0.11141360702512861 0 0.041985008402452298 0.1041231638265976 0 0.055877727708616078 0.088340284367938712 0 0.064024895023345255 0.11141360702512861 0 0.055877727708616078 0.088340284367938712 0 0.041985008402452298 0.1041231638265976 0 0.027953367827990312 0.085874485356673469 0 0.028453043806447191 0.1091886080212149 0 0.041985008402452298 0.1041231638265976 0 0.037150447756258143 0.1222277562957383 0 0.028453043806447191 0.1091886080212149 0 0.068385423907999371 0.070685103726379941 0 0.047730560393886193 0.065266961710748986 0 0.055877727708616078 0.088340284367938712 0 0.055040723580407423 0.057649886626915267 0 0.068385423907999371 0.070685103726379941 0 0.047730560393886193 0.065266961710748986 0 0.047730560393886193 0.065266961710748986 0 0.055877727708616078 0.088340284367938712 0 0.055040723580407423 0.057649886626915267 0 0.068385423907999371 0.070685103726379941 0 0.047730560393886193 0.065266961710748986 0 0.055877727708616078 0.088340284367938712 0 0.027953367827990312 0.085874485356673469 0 0.041985008402452298 0.1041231638265976 0 0.055877727708616078 0.088340284367938712 0 0.027953367827990312 0.085874485356673469 0 0.047730560393886193 0.065266961710748986 0 0.027953367827990312 0.085874485356673469 0 0.02967890113656069 0.061916462747749312 0 0.047730560393886193 0.065266961710748986 0 0.027953367827990312 0.085874485356673469 0 0.02967890113656069 0.061916462747749312 0 0.015949669117635672 0.070784481504852739 0 0.027953367827990312 0.085874485356673469 0 0.02967890113656069 0.061916462747749312 0 0.019040531636958711 0.057408178588751878 0 0.015949669117635672 0.070784481504852739 0 0.015949669117635672 0.070784481504852739 0 0.027953367827990312 0.085874485356673469 0 0.0092908535189234007 0.085851292688879671 0 0.027953367827990312 0.085874485356673469 0 0.0092908535189234007 0.085851292688879671 0 0.0093231420339892901 0.095194161940815064 0 -0.0015542670913070719 0.086226161746170732 0 0.0092908535189234007 0.085851292688879671 0 0.001169323989954946 0.093904810399272329 0 0.0092908535189234007 0.085851292688879671 0 0.0093231420339892901 0.095194161940815064 0 0.001169323989954946 0.093904810399272329 0 -0.0015542670913070719 0.086226161746170732 0 0.0092908535189234007 0.085851292688879671 0 0.002958776910806836 0.075625600589035141 0 0.0078669460551368045 0.059946632859048853 0 0.015949669117635672 0.070784481504852739 0 0.002958776910806836 0.075625600589035141 0 -0.0031673906762563929 0.065809178108648766 0 0.0078669460551368045 0.059946632859048853 0 0.002958776910806836 0.075625600589035141 0 0.015949669117635672 0.070784481504852739 0 0.0092908535189234007 0.085851292688879671 0 0.002958776910806836 0.075625600589035141 0 0.0078669460551368045 0.059946632859048853 0 0.019040531636958711 0.057408178588751878 0 0.015949669117635672 0.070784481504852739 0 0.021846210589268989 0.1244733491612683 0 0.028453043806447191 0.1091886080212149 0 0.01333018445626623 0.1092442854657967 0 0.037150447756258143 0.1222277562957383 0 0.021846210589268989 0.1244733491612683 0 0.028453043806447191 0.1091886080212149 0 0.027953367827990312 0.085874485356673469 0 0.0081761752620958372 0.1064820090025993 0 0.027953367827990312 0.085874485356673469 0 0.028453043806447191 0.1091886080212149 0 0.01333018445626623 0.1092442854657967 0 0.027953367827990312 0.085874485356673469 0 0.01333018445626623 0.1092442854657967 0 0.0081761752620958372 0.1064820090025993 0 0.027953367827990312 0.085874485356673469 0 0.0081761752620958372 0.1064820090025993 0 0.0093231420339892901 0.095194161940815064 0 0.01333018445626623 0.1092442854657967 0 0.0081761752620958372 0.1064820090025993 0 0.01333018445626623 0.1092442854657967 0 0.0081761752620958372 0.1064820090025993 0 0.006427679223387976 0.10830391437882581 0 0.0081761752620958372 0.1064820090025993 0 0.0093231420339892901 0.095194161940815064 0 0.0010469203778272131 0.1026611052701792 0 0.0093231420339892901 0.095194161940815064 0 0.001169323989954946 0.093904810399272329 0 0.0010469203778272131 0.1026611052701792 0 -0.0034711844125631338 0.1002396399505471 0 0.0010469203778272131 0.1026611052701792 0 0.0033700081059577442 0.1114899595995508 0 0.006427679223387976 0.10830391437882581 0 0.0010469203778272131 0.1026611052701792 0 0.0033700081059577442 0.1114899595995508 0 0.0081761752620958372 0.1064820090025993 0 0.006427679223387976 0.10830391437882581 0 0.0010469203778272131 0.1026611052701792 0 0.0081761752620958372 0.1064820090025993 0 0.006427679223387976 0.10830391437882581 0 0.0081761752620958372 0.1064820090025993 0 0.0010469203778272131 0.1026611052701792 0 0.006427679223387976 0.10830391437882581 0 0.0010469203778272131 0.1026611052701792 0 0.021846210589268989 0.1244733491612683 0 0.0053254801188962683 0.11470572719425549 0 0.0086668259198432792 0.1238313699089144 0 0.0033700081059577442 0.1114899595995508 0 0.0053254801188962683 0.11470572719425549 0 0.0022346670498786122 0.1220790038231427 0 0.021846210589268989 0.1244733491612683 0 0.006427679223387976 0.10830391437882581 0 0.021846210589268989 0.1244733491612683 0 0.006427679223387976 0.10830391437882581 0 0.0053254801188962683 0.11470572719425549 0 0.021846210589268989 0.1244733491612683 0 0.01333018445626623 0.1092442854657967 0 0.006427679223387976 0.10830391437882581 0 0.006427679223387976 0.10830391437882581 0 0.0033700081059577442 0.1114899595995508 0 0.0053254801188962683 0.11470572719425549 0 0.006427679223387976 0.10830391437882581 0 0.0033700081059577442 0.1114899595995508 0 0.0033700081059577442 0.1114899595995508 0 0.0053254801188962683 0.11470572719425549 0 0.0053254801188962683 0.11470572719425549 0 0.0086668259198432792 0.1238313699089144 0 0.0022346670498786122 0.1220790038231427 0 0.0086668259198432792 0.1238313699089144 0 0.0022346670498786122 0.1220790038231427 0 0.0056216141126722912 0.13306005517641481 0 0.021846210589268989 0.1244733491612683 0 0.0056216141126722912 0.13306005517641481 0 0.010964987276772481 0.15257726309909869 0 0.021846210589268989 0.1244733491612683 0 0.0086668259198432792 0.1238313699089144 0 0.0056216141126722912 0.13306005517641481 0 0.021846210589268989 0.1244733491612683 0 0.010964987276772481 0.15257726309909869 0 0.037264741955149998 0.14064278394371091 0 0.021846210589268989 0.1244733491612683 0 0.037264741955149998 0.14064278394371091 0 0.010964987276772481 0.15257726309909869 0 0.035984170161704299 0.15729985361371079 0 0.037264741955149998 0.14064278394371091 0 -0.0054183725749279684 0.14686395597031929 0 0.010964987276772481 0.15257726309909869 0 0.0063927821423072767 0.16632580976328509 0 -0.0054183725749279684 0.14686395597031929 0 0.0056216141126722912 0.13306005517641481 0 0.010964987276772481 0.15257726309909869 0 -0.0008971428434589937 0.1788471750590841 0 -0.002227319125567916 0.1829876201125642 0 0.020053455654297669 0.19338021380393711 0 -0.0008971428434589937 0.1788471750590841 0 0.0090399640782463375 0.17601721768973419 0 0.016232547825972391 0.18323833407997819 0 -0.0008971428434589937 0.1788471750590841 0 0.016232547825972391 0.18323833407997819 0 0.020053455654297669 0.19338021380393711 0 -0.0008971428434589937 0.1788471750590841 0 0.020053455654297669 0.19338021380393711 0 -0.0008971428434589937 0.1788471750590841 0 0.0063927821423072767 0.16632580976328509 0 0.0090399640782463375 0.17601721768973419 0 0.0090399640782463375 0.17601721768973419 0 0.016232547825972391 0.18323833407997819 0 0.017613214986234759 0.17713775752580521 0 0.0063927821423072767 0.16632580976328509 0 0.0090399640782463375 0.17601721768973419 0 0.017613214986234759 0.17713775752580521 0 0.0063927821423072767 0.16632580976328509 0 0.017613214986234759 0.17713775752580521 0 0.031320907180246077 0.17334204213258689 0 0.016232547825972391 0.18323833407997819 0 0.027300779787709398 0.18434799200720181 0 0.026273481416598979 0.19062477693736651 0 0.016232547825972391 0.18323833407997819 0 0.017613214986234759 0.17713775752580521 0 0.027300779787709398 0.18434799200720181 0 0.017613214986234759 0.17713775752580521 0 0.027300779787709398 0.18434799200720181 0 0.031320907180246077 0.17334204213258689 0 0.010964987276772481 0.15257726309909869 0 0.0063927821423072767 0.16632580976328509 0 0.031320907180246077 0.17334204213258689 0 0.010964987276772481 0.15257726309909869 0 0.035984170161704299 0.15729985361371079 0 0.031320907180246077 0.17334204213258689 0 0.010964987276772481 0.15257726309909869 0 0.031320907180246077 0.17334204213258689 0 0.035984170161704299 0.15729985361371079 0 0.051624102553639681 0.17341270916287399 0 0.052683273321031031 0.15681221872615339 0 0.035984170161704299 0.15729985361371079 0 0.031320907180246077 0.17334204213258689 0 0.051624102553639681 0.17341270916287399 0 0.031320907180246077 0.17334204213258689 0 0.051624102553639681 0.17341270916287399 0 0.051676827083719609 0.19410682116607511 0 0.031320907180246077 0.17334204213258689 0 0.035883906283605028 0.19292683175479669 0 0.051676827083719609 0.19410682116607511 0 0.031320907180246077 0.17334204213258689 0 0.051676827083719609 0.19410682116607511 0 0.027300779787709398 0.18434799200720181 0 0.031320907180246077 0.17334204213258689 0 0.035883906283605028 0.19292683175479669 0 0.051624102553639681 0.17341270916287399 0 0.051676827083719609 0.19410682116607511 0 0.066735335420939568 0.180641249758728 0 0.051624102553639681 0.17341270916287399 0 0.065378354899711666 0.16364036801592319 0 0.066735335420939568 0.180641249758728 0 0.051624102553639681 0.17341270916287399 0 0.052683273321031031 0.15681221872615339 0 0.065378354899711666 0.16364036801592319 0 0.052683273321031031 0.15681221872615339 0 0.062714107620186324 0.1466205923734506 0 0.065378354899711666 0.16364036801592319 0 0.052683273321031031 0.15681221872615339 0 0.037264741955149998 0.14064278394371091 0 0.062714107620186324 0.1466205923734506 0 0.055090695852513 0.13130553033287451 0 0.037264741955149998 0.14064278394371091 0 0.062714107620186324 0.1466205923734506 0 0.037150447756258143 0.1222277562957383 0 0.021846210589268989 0.1244733491612683 0 0.037264741955149998 0.14064278394371091 0 0.037150447756258143 0.1222277562957383 0 0.055090695852513 0.13130553033287451 0 0.037264741955149998 0.14064278394371091 0 0.035984170161704299 0.15729985361371079 0 0.052683273321031031 0.15681221872615339 0 0.037264741955149998 0.14064278394371091 0 0.052683273321031031 0.15681221872615339 0 0.037264741955149998 0.14064278394371091 0 0.023513862709313771 0.22464547787687289 0 0.025766861363672601 0.25156535101848998 0 0.023513862709313771 0.22464547787687289 0 0.035074188350316442 0.2355005649634947 0 0.025766861363672601 0.25156535101848998 0 0.01423530000860075 0.23532851624386431 0 0.023513862709313771 0.22464547787687289 0 0.025766861363672601 0.25156535101848998 0 0.0039009629746646879 0.24812698552186049 0 0.01423530000860075 0.23532851624386431 0 0.014771966915814489 0.2644001812966465 0 0.01423530000860075 0.23532851624386431 0 0.014771966915814489 0.2644001812966465 0 0.0039009629746646879 0.24812698552186049 0 0.01423530000860075 0.23532851624386431 0 0.001371061725256878 0.23381924537009041 0 0.01423530000860075 0.23532851624386431 0 0.01369863310138702 0.2062568511910822 0 0.01423530000860075 0.23532851624386431 0 0.0031642610424506032 0.2209003669269794 0 0.01369863310138702 0.2062568511910822 0 0.01423530000860075 0.23532851624386431 0 0.001371061725256878 0.23381924537009041 0 0.0031642610424506032 0.2209003669269794 0 0.01423530000860075 0.23532851624386431 0 0.023513862709313771 0.22464547787687289 0 0.021985871997498099 0.21456442838230691 0 0.023513862709313771 0.22464547787687289 0 0.034188820407095082 0.22506086606564771 0 0.035074188350316442 0.2355005649634947 0 0.023513862709313771 0.22464547787687289 0 0.029475441622444389 0.2161733569356587 0 0.034188820407095082 0.22506086606564771 0 0.01423530000860075 0.23532851624386431 0 0.021985871997498099 0.21456442838230691 0 0.01369863310138702 0.2062568511910822 0 0.026152774005177411 0.20565209859146269 0 0.017860734879161379 0.19634009351785839 0 0.037948788883890652 0.2096925669231525 0 0.023513862709313771 0.22464547787687289 0 0.029475441622444389 0.2161733569356587 0 0.021985871997498099 0.21456442838230691 0 0.02716377378234968 0.21190664898631059 0 0.029475441622444389 0.2161733569356587 0 0.021985871997498099 0.21456442838230691 0 0.02716377378234968 0.21190664898631059 0 0.029475441622444389 0.2161733569356587 0 0.03104100750427884 0.21123671203581421 0 0.02716377378234968 0.21190664898631059 0 0.03104100750427884 0.21123671203581421 0 0.026152774005177411 0.20565209859146269 0 0.02716377378234968 0.21190664898631059 0 0.026152774005177411 0.20565209859146269 0 0.021985871997498099 0.21456442838230691 0 0.01939098252931604 0.2038531433594416 0 0.021985871997498099 0.21456442838230691 0 0.01369863310138702 0.2062568511910822 0 0.026152774005177411 0.20565209859146269 0 0.01939098252931604 0.2038531433594416 0 0.021985871997498099 0.21456442838230691 0 0.01939098252931604 0.2038531433594416 0 0.01369863310138702 0.2062568511910822 0 0.01531691195541909 0.20180491692299291 0 0.0031642610424506032 0.2209003669269794 0 0.0002030393418038233 0.207215682387376 0 0.01369863310138702 0.2062568511910822 0 0.0002030393418038233 0.207215682387376 0 0.01369863310138702 0.2062568511910822 0 0.010317297311811909 0.20076957962358949 0 0.0037847062367320728 0.19663423478708861 0 0.0018599632431969191 0.1916937973778686 0 0.017860734879161379 0.19634009351785839 0 0.010317297311811909 0.20076957962358949 0 0.0037847062367320728 0.19663423478708861 0 0.017860734879161379 0.19634009351785839 0 0.01531691195541909 0.20180491692299291 0 0.010317297311811909 0.20076957962358949 0 0.017860734879161379 0.19634009351785839 0 -0.002227319125567916 0.1829876201125642 0 0.017860734879161379 0.19634009351785839 0 -0.002227319125567916 0.1829876201125642 0 0.0018599632431969191 0.1916937973778686 0 0.017860734879161379 0.19634009351785839 0 -0.002227319125567916 0.1829876201125642 0 0.020053455654297669 0.19338021380393711 0 0.017860734879161379 0.19634009351785839 0 0.01369863310138702 0.2062568511910822 0 0.01531691195541909 0.20180491692299291 0 0.010317297311811909 0.20076957962358949 0 0.0002030393418038233 0.207215682387376 0 0.010317297311811909 0.20076957962358949 0 0.0037847062367320728 0.19663423478708861 0 0.017860734879161379 0.19634009351785839 0 0.037948788883890652 0.2096925669231525 0 0.020053455654297669 0.19338021380393711 0 0.017860734879161379 0.19634009351785839 0 0.037948788883890652 0.2096925669231525 0 0.020053455654297669 0.19338021380393711 0 0.031930092363594419 0.19686155546186751 0 0.041004054152054457 0.20791325254879009 0 0.016232547825972391 0.18323833407997819 0 0.020053455654297669 0.19338021380393711 0 0.026273481416598979 0.19062477693736651 0 0.020053455654297669 0.19338021380393711 0 0.041004054152054457 0.20791325254879009 0 0.026152774005177411 0.20565209859146269 0 0.01939098252931604 0.2038531433594416 0 0.017860734879161379 0.19634009351785839 0 0.01939098252931604 0.2038531433594416 0 0.01531691195541909 0.20180491692299291 0 0.017860734879161379 0.19634009351785839 0 0.020053455654297669 0.19338021380393711 0 0.026273481416598979 0.19062477693736651 0 0.031930092363594419 0.19686155546186751 0 0.027300779787709398 0.18434799200720181 0 0.026273481416598979 0.19062477693736651 0 0.035883906283605028 0.19292683175479669 0 0.035883906283605028 0.19292683175479669 0 0.042465489592603503 0.20028515153752169 0 0.051676827083719609 0.19410682116607511 0 0.026273481416598979 0.19062477693736651 0 0.035883906283605028 0.19292683175479669 0 0.031930092363594419 0.19686155546186751 0 0.031930092363594419 0.19686155546186751 0 0.03685564217920774 0.19944641953708389 0 0.041004054152054457 0.20791325254879009 0 0.035883906283605028 0.19292683175479669 0 0.031930092363594419 0.19686155546186751 0 0.03685564217920774 0.19944641953708389 0 0.035883906283605028 0.19292683175479669 0 0.03685564217920774 0.19944641953708389 0 0.042465489592603503 0.20028515153752169 0 0.03685564217920774 0.19944641953708389 0 0.042465489592603503 0.20028515153752169 0 0.041004054152054457 0.20791325254879009 0 0.051676827083719609 0.19410682116607511 0 0.0476844807995528 0.20343383605916629 0 0.054254163936406391 0.20898033327417159 0 0.042465489592603503 0.20028515153752169 0 0.051676827083719609 0.19410682116607511 0 0.0476844807995528 0.20343383605916629 0 0.051676827083719609 0.19410682116607511 0 0.072032746987193128 0.2148716001995632 0 0.037948788883890652 0.2096925669231525 0 0.058036842888619933 0.22304504032844669 0 0.054254163936406391 0.20898033327417159 0 0.058036842888619933 0.22304504032844669 0 0.072032746987193128 0.2148716001995632 0 0.054254163936406391 0.20898033327417159 0 0.041004054152054457 0.20791325254879009 0 0.058036842888619933 0.22304504032844669 0 0.051676827083719609 0.19410682116607511 0 0.054254163936406391 0.20898033327417159 0 0.072032746987193128 0.2148716001995632 0 0.0476844807995528 0.20343383605916629 0 0.054254163936406391 0.20898033327417159 0 0.041004054152054457 0.20791325254879009 0 0.037948788883890652 0.2096925669231525 0 0.039186890701081382 0.21934891290752959 0 0.058036842888619933 0.22304504032844669 0 0.041004054152054457 0.20791325254879009 0 0.037948788883890652 0.2096925669231525 0 0.058036842888619933 0.22304504032844669 0 0.020053455654297669 0.19338021380393711 0 0.041004054152054457 0.20791325254879009 0 0.037948788883890652 0.2096925669231525 0 0.042465489592603503 0.20028515153752169 0 0.0476844807995528 0.20343383605916629 0 0.041004054152054457 0.20791325254879009 0 0.03104100750427884 0.21123671203581421 0 0.026152774005177411 0.20565209859146269 0 0.037948788883890652 0.2096925669231525 0 0.03104100750427884 0.21123671203581421 0 0.037948788883890652 0.2096925669231525 0 0.034584106937541978 0.2137487500081989 0 0.037948788883890652 0.2096925669231525 0 0.034584106937541978 0.2137487500081989 0 0.039186890701081382 0.21934891290752959 0 0.029475441622444389 0.2161733569356587 0 0.03104100750427884 0.21123671203581421 0 0.034584106937541978 0.2137487500081989 0 0.029475441622444389 0.2161733569356587 0 0.034584106937541978 0.2137487500081989 0 0.039186890701081382 0.21934891290752959 0 0.034188820407095082 0.22506086606564771 0 0.043693718652319413 0.22963601764468239 0 0.039186890701081382 0.21934891290752959 0 0.029475441622444389 0.2161733569356587 0 0.034188820407095082 0.22506086606564771 0 0.039186890701081382 0.21934891290752959 0 0.034188820407095082 0.22506086606564771 0 0.043693718652319413 0.22963601764468239 0 0.035074188350316442 0.2355005649634947 0 0.043693718652319413 0.22963601764468239 0 0.058036842888619933 0.22304504032844669 0 0.062645960041825682 0.23789779678491341 0 0.043693718652319413 0.22963601764468239 0 0.039186890701081382 0.21934891290752959 0 0.058036842888619933 0.22304504032844669 0 0.043693718652319413 0.22963601764468239 0 0.050999165831975862 0.24820316043305771 0 0.062645960041825682 0.23789779678491341 0 0.050999165831975862 0.24820316043305771 0 0.062645960041825682 0.23789779678491341 0 0.072639192141287834 0.2613917905474914 0 0.043693718652319413 0.22963601764468239 0 0.050999165831975862 0.24820316043305771 0 0.035074188350316442 0.2355005649634947 0 0.050999165831975862 0.24820316043305771 0 0.035074188350316442 0.2355005649634947 0 0.025766861363672601 0.25156535101848998 0 0.086038224805844388 0.24831021659212749 0 0.078124896893349199 0.23639751373374079 0 0.072639192141287834 0.2613917905474914 0 0.086038224805844388 0.24831021659212749 0 0.09238866689066666 0.23563637923305131 0 0.097859925783189611 0.24905753230476591 0 0.086038224805844388 0.24831021659212749 0 0.09238866689066666 0.23563637923305131 0 0.078124896893349199 0.23639751373374079 0 0.062645960041825682 0.23789779678491341 0 0.078124896893349199 0.23639751373374079 0 0.072639192141287834 0.2613917905474914 0 0.058036842888619933 0.22304504032844669 0 0.062645960041825682 0.23789779678491341 0 0.078124896893349199 0.23639751373374079 0 0.058036842888619933 0.22304504032844669 0 0.078124896893349199 0.23639751373374079 0 0.058036842888619933 0.22304504032844669 0 0.078124896893349199 0.23639751373374079 0 0.072032746987193128 0.2148716001995632 0 0.09238866689066666 0.23563637923305131 0 0.078124896893349199 0.23639751373374079 0 0.072032746987193128 0.2148716001995632 0 0.09238866689066666 0.23563637923305131 0 0.086393667168367216 0.21628714960201109 0 0.095768368986733104 0.2195021483096494 0 0.09238866689066666 0.23563637923305131 0 0.086393667168367216 0.21628714960201109 0 0.072032746987193128 0.2148716001995632 0 0.09238866689066666 0.23563637923305131 0 0.072032746987193128 0.2148716001995632 0 0.086393667168367216 0.21628714960201109 0 0.092624881016127716 0.20701360445783831 0 0.095768368986733104 0.2195021483096494 0 0.086393667168367216 0.21628714960201109 0 0.092624881016127716 0.20701360445783831 0 0.081026572758153406 0.20577450922227891 0 0.086393667168367216 0.21628714960201109 0 0.081026572758153406 0.20577450922227891 0 0.072032746987193128 0.2148716001995632 0 0.081026572758153406 0.20577450922227891 0 0.072032746987193128 0.2148716001995632 0 0.071534341401003565 0.19697106602082071 0 0.051676827083719609 0.19410682116607511 0 0.071534341401003565 0.19697106602082071 0 0.066735335420939568 0.180641249758728 0 0.051676827083719609 0.19410682116607511 0 0.072032746987193128 0.2148716001995632 0 0.071534341401003565 0.19697106602082071 0 0.071534341401003565 0.19697106602082071 0 0.086293028812151146 0.19645411265581189 0 0.080928464612721254 0.18319111672323121 0 0.081026572758153406 0.20577450922227891 0 0.071534341401003565 0.19697106602082071 0 0.086293028812151146 0.19645411265581189 0 0.092624881016127716 0.20701360445783831 0 0.086293028812151146 0.19645411265581189 0 0.1002153972997806 0.19777002781970171 0 0.092624881016127716 0.20701360445783831 0 0.081026572758153406 0.20577450922227891 0 0.086293028812151146 0.19645411265581189 0 0.086293028812151146 0.19645411265581189 0 0.1002153972997806 0.19777002781970171 0 0.093136676684298342 0.1856047738945121 0 0.086293028812151146 0.19645411265581189 0 0.080928464612721254 0.18319111672323121 0 0.093136676684298342 0.1856047738945121 0 0.1002153972997806 0.19777002781970171 0 0.104781414253707 0.18752006437726881 0 0.093136676684298342 0.1856047738945121 0 0.1002153972997806 0.19777002781970171 0 0.1132557502596902 0.19578920389420179 0 0.10634312156834209 0.21007880410576471 0 0.1002153972997806 0.19777002781970171 0 0.104781414253707 0.18752006437726881 0 0.1132557502596902 0.19578920389420179 0 0.1230302541544355 0.19064066809538141 0 0.1132557502596902 0.19578920389420179 0 0.114976307476243 0.18245846374863239 0 0.104781414253707 0.18752006437726881 0 0.1132557502596902 0.19578920389420179 0 0.114976307476243 0.18245846374863239 0 0.1230302541544355 0.19064066809538141 0 0.12204387681317801 0.198648201530954 0 0.1132557502596902 0.19578920389420179 0 0.12204387681317801 0.198648201530954 0 0.1132557502596902 0.19578920389420179 0 0.11798567865079131 0.20533060165935829 0 0.12204387681317801 0.198648201530954 0 0.11798567865079131 0.20533060165935829 0 0.1268452791786038 0.20481157516865381 0 0.1230302541544355 0.19064066809538141 0 0.12204387681317801 0.198648201530954 0 0.128833260571662 0.1977729871667217 0 0.11798567865079131 0.20533060165935829 0 0.11532668376793601 0.213330171670848 0 0.10634312156834209 0.21007880410576471 0 0.1132557502596902 0.19578920389420179 0 0.11798567865079131 0.20533060165935829 0 0.10634312156834209 0.21007880410576471 0 0.11798567865079131 0.20533060165935829 0 0.1234170051429644 0.2105814271867596 0 0.1268452791786038 0.20481157516865381 0 0.11798567865079131 0.20533060165935829 0 0.1234170051429644 0.2105814271867596 0 0.11532668376793601 0.213330171670848 0 0.1234170051429644 0.2105814271867596 0 0.1213643499425222 0.2160564709596148 0 0.11532668376793601 0.213330171670848 0 0.1213643499425222 0.2160564709596148 0 0.1231498407775555 0.22170668503306831 0 0.1265748511423837 0.21770902981563661 0 0.1234170051429644 0.2105814271867596 0 0.1213643499425222 0.2160564709596148 0 0.1265748511423837 0.21770902981563661 0 0.1213643499425222 0.2160564709596148 0 0.11532668376793601 0.213330171670848 0 0.1174813121993903 0.21995150393818491 0 0.11532668376793601 0.213330171670848 0 0.11122921400441289 0.2195194258997937 0 0.1174813121993903 0.21995150393818491 0 0.11532668376793601 0.213330171670848 0 0.10634312156834209 0.21007880410576471 0 0.11122921400441289 0.2195194258997937 0 0.10634312156834209 0.21007880410576471 0 0.095768368986733104 0.2195021483096494 0 0.1041649313091758 0.22142469432188369 0 0.10634312156834209 0.21007880410576471 0 0.1041649313091758 0.22142469432188369 0 0.11122921400441289 0.2195194258997937 0 0.092624881016127716 0.20701360445783831 0 0.1002153972997806 0.19777002781970171 0 0.10634312156834209 0.21007880410576471 0 0.092624881016127716 0.20701360445783831 0 0.10634312156834209 0.21007880410576471 0 0.095768368986733104 0.2195021483096494 0 0.09238866689066666 0.23563637923305131 0 0.095768368986733104 0.2195021483096494 0 0.1013219485207868 0.2285038703077695 0 0.095768368986733104 0.2195021483096494 0 0.1013219485207868 0.2285038703077695 0 0.1041649313091758 0.22142469432188369 0 0.09238866689066666 0.23563637923305131 0 0.1013219485207868 0.2285038703077695 0 0.1047722622883149 0.2376871969095766 0 0.1013219485207868 0.2285038703077695 0 0.10951551312904351 0.22826893276468649 0 0.1047722622883149 0.2376871969095766 0 0.1013219485207868 0.2285038703077695 0 0.1041649313091758 0.22142469432188369 0 0.10951551312904351 0.22826893276468649 0 0.1041649313091758 0.22142469432188369 0 0.11122921400441289 0.2195194258997937 0 0.10951551312904351 0.22826893276468649 0 0.11122921400441289 0.2195194258997937 0 0.1147236483539701 0.22436512840768341 0 0.10951551312904351 0.22826893276468649 0 0.1147236483539701 0.22436512840768341 0 0.1195314631376848 0.2253973793902655 0 0.11586073929931889 0.2286884000454861 0 0.11122921400441289 0.2195194258997937 0 0.1147236483539701 0.22436512840768341 0 0.1174813121993903 0.21995150393818491 0 0.1213643499425222 0.2160564709596148 0 0.1174813121993903 0.21995150393818491 0 0.1231498407775555 0.22170668503306831 0 0.1174813121993903 0.21995150393818491 0 0.1195314631376848 0.2253973793902655 0 0.1231498407775555 0.22170668503306831 0 0.1147236483539701 0.22436512840768341 0 0.1174813121993903 0.21995150393818491 0 0.1195314631376848 0.2253973793902655 0 0.1195314631376848 0.2253973793902655 0 0.1231498407775555 0.22170668503306831 0 0.1233916283435162 0.22659359645958299 0 0.1231498407775555 0.22170668503306831 0 0.1233916283435162 0.22659359645958299 0 0.1271521047135849 0.22329632046296041 0 0.11599973211404969 0.23484929517850961 0 0.12403350405355509 0.23477783964002791 0 0.12594655396454019 0.2323080759163702 0 0.1201300818425278 0.22971827238171619 0 0.11599973211404969 0.23484929517850961 0 0.12594655396454019 0.2323080759163702 0 0.12403350405355509 0.23477783964002791 0 0.12594655396454019 0.2323080759163702 0 0.1233916283435162 0.22659359645958299 0 0.1201300818425278 0.22971827238171619 0 0.12594655396454019 0.2323080759163702 0 0.1195314631376848 0.2253973793902655 0 0.1233916283435162 0.22659359645958299 0 0.1201300818425278 0.22971827238171619 0 0.1195314631376848 0.2253973793902655 0 0.1201300818425278 0.22971827238171619 0 0.11586073929931889 0.2286884000454861 0 0.1201300818425278 0.22971827238171619 0 0.11586073929931889 0.2286884000454861 0 0.11599973211404969 0.23484929517850961 0 0.10951551312904351 0.22826893276468649 0 0.11599973211404969 0.23484929517850961 0 0.1047722622883149 0.2376871969095766 0 0.11586073929931889 0.2286884000454861 0 0.10951551312904351 0.22826893276468649 0 0.11599973211404969 0.23484929517850961 0 0.1147236483539701 0.22436512840768341 0 0.11586073929931889 0.2286884000454861 0 0.10951551312904351 0.22826893276468649 0 0.11599973211404969 0.23484929517850961 0 0.1133717244516699 0.24854228788529631 0 0.1047722622883149 0.2376871969095766 0 0.12403350405355509 0.23477783964002791 0 0.1133717244516699 0.24854228788529631 0 0.11599973211404969 0.23484929517850961 0 0.12403350405355509 0.23477783964002791 0 0.1133717244516699 0.24854228788529631 0 0.1133717244516699 0.24854228788529631 0 0.12559644321942029 0.24331317426808441 0 0.1275269656816749 0.25285499966235359 0 0.12403350405355509 0.23477783964002791 0 0.1133717244516699 0.24854228788529631 0 0.12559644321942029 0.24331317426808441 0 0.1133717244516699 0.24854228788529631 0 0.1047722622883149 0.2376871969095766 0 0.097859925783189611 0.24905753230476591 0 0.09238866689066666 0.23563637923305131 0 0.1047722622883149 0.2376871969095766 0 0.097859925783189611 0.24905753230476591 0 0.078155757982283761 0.1437285399604061 0 0.091444341441021371 0.14876914968105001 0 0.085773114715838289 0.13510244971348229 0 0.078155757982283761 0.1437285399604061 0 0.091444341441021371 0.14876914968105001 0 0.077847426134233455 0.15559330782277339 0 0.091444341441021371 0.14876914968105001 0 0.077847426134233455 0.15559330782277339 0 0.088662783557610481 0.16168922900291699 0 0.081052995294686958 0.11959668416941641 0 0.085773114715838289 0.13510244971348229 0 0.097810294691193234 0.1260794970240528 0 0.081052995294686958 0.11959668416941641 0 0.085773114715838289 0.13510244971348229 0 0.072172062338074466 0.13448692968231871 0 0.078155757982283761 0.1437285399604061 0 0.085773114715838289 0.13510244971348229 0 0.072172062338074466 0.13448692968231871 0 0.055090695852513 0.13130553033287451 0 0.072172062338074466 0.13448692968231871 0 0.062714107620186324 0.1466205923734506 0 0.064024895023345255 0.11141360702512861 0 0.055090695852513 0.13130553033287451 0 0.072172062338074466 0.13448692968231871 0 0.062714107620186324 0.1466205923734506 0 0.077847426134233455 0.15559330782277339 0 0.065378354899711666 0.16364036801592319 0 0.078155757982283761 0.1437285399604061 0 0.072172062338074466 0.13448692968231871 0 0.062714107620186324 0.1466205923734506 0 0.078155757982283761 0.1437285399604061 0 0.062714107620186324 0.1466205923734506 0 0.077847426134233455 0.15559330782277339 0 0.065378354899711666 0.16364036801592319 0 0.066735335420939568 0.180641249758728 0 0.078221809748294305 0.1690256686617464 0 0.077847426134233455 0.15559330782277339 0 0.065378354899711666 0.16364036801592319 0 0.078221809748294305 0.1690256686617464 0 0.071534341401003565 0.19697106602082071 0 0.066735335420939568 0.180641249758728 0 0.080928464612721254 0.18319111672323121 0 0.066735335420939568 0.180641249758728 0 0.080928464612721254 0.18319111672323121 0 0.078221809748294305 0.1690256686617464 0 0.080928464612721254 0.18319111672323121 0 0.088566952493002796 0.17440599124933501 0 0.078221809748294305 0.1690256686617464 0 0.080928464612721254 0.18319111672323121 0 0.088566952493002796 0.17440599124933501 0 0.093136676684298342 0.1856047738945121 0 0.077847426134233455 0.15559330782277339 0 0.078221809748294305 0.1690256686617464 0 0.088662783557610481 0.16168922900291699 0 0.088566952493002796 0.17440599124933501 0 0.078221809748294305 0.1690256686617464 0 0.088662783557610481 0.16168922900291699 0 0.088566952493002796 0.17440599124933501 0 0.088662783557610481 0.16168922900291699 0 0.1012896311893967 0.17444346517692669 0 0.088662783557610481 0.16168922900291699 0 0.1035813990366605 0.1570452731410884 0 0.1012896311893967 0.17444346517692669 0 0.1035813990366605 0.1570452731410884 0 0.1012896311893967 0.17444346517692669 0 0.1132305125003141 0.1690263647087874 0 0.104781414253707 0.18752006437726881 0 0.093136676684298342 0.1856047738945121 0 0.1012896311893967 0.17444346517692669 0 0.088566952493002796 0.17440599124933501 0 0.093136676684298342 0.1856047738945121 0 0.1012896311893967 0.17444346517692669 0 0.104781414253707 0.18752006437726881 0 0.1012896311893967 0.17444346517692669 0 0.114976307476243 0.18245846374863239 0 0.1012896311893967 0.17444346517692669 0 0.114976307476243 0.18245846374863239 0 0.1132305125003141 0.1690263647087874 0 0.114976307476243 0.18245846374863239 0 0.1132305125003141 0.1690263647087874 0 0.1261514324917726 0.1775102187220553 0 0.1230302541544355 0.19064066809538141 0 0.114976307476243 0.18245846374863239 0 0.1261514324917726 0.1775102187220553 0 0.1132305125003141 0.1690263647087874 0 0.12623575922322031 0.15813944772087721 0 0.1261514324917726 0.1775102187220553 0 0.1035813990366605 0.1570452731410884 0 0.1132305125003141 0.1690263647087874 0 0.12623575922322031 0.15813944772087721 0 0.1035813990366605 0.1570452731410884 0 0.1146455672195018 0.13945609844563259 0 0.12623575922322031 0.15813944772087721 0 0.091444341441021371 0.14876914968105001 0 0.1035813990366605 0.1570452731410884 0 0.1146455672195018 0.13945609844563259 0 0.091444341441021371 0.14876914968105001 0 0.085773114715838289 0.13510244971348229 0 0.1146455672195018 0.13945609844563259 0 0.091444341441021371 0.14876914968105001 0 0.088662783557610481 0.16168922900291699 0 0.1035813990366605 0.1570452731410884 0 0.085773114715838289 0.13510244971348229 0 0.097810294691193234 0.1260794970240528 0 0.1146455672195018 0.13945609844563259 0 0.1102450966610016 0.122382783806364 0 0.097810294691193234 0.1260794970240528 0 0.1146455672195018 0.13945609844563259 0 0.085773114715838289 0.13510244971348229 0 0.1146455672195018 0.13945609844563259 0 0.1102450966610016 0.122382783806364 0 0.1146455672195018 0.13945609844563259 0 0.1273533804607794 0.12682876463678269 0 0.1146455672195018 0.13945609844563259 0 0.1273533804607794 0.12682876463678269 0 0.1435180197231653 0.143809747177783 0 0.1273533804607794 0.12682876463678269 0 0.1435180197231653 0.143809747177783 0 0.14201945446382611 0.12394751327378981 0 0.1435180197231653 0.143809747177783 0 0.15798998621900259 0.13149724483274239 0 0.14201945446382611 0.12394751327378981 0 0.1435180197231653 0.143809747177783 0 0.1483513397036384 0.15993944363293991 0 0.17239047222682891 0.14816339590993291 0 0.1146455672195018 0.13945609844563259 0 0.1435180197231653 0.143809747177783 0 0.1146455672195018 0.13945609844563259 0 0.1435180197231653 0.143809747177783 0 0.12623575922322031 0.15813944772087721 0 0.1435180197231653 0.143809747177783 0 0.12623575922322031 0.15813944772087721 0 0.1483513397036384 0.15993944363293991 0 0.12623575922322031 0.15813944772087721 0 0.13710393285981329 0.17005015162530099 0 0.1261514324917726 0.1775102187220553 0 0.12623575922322031 0.15813944772087721 0 0.13710393285981329 0.17005015162530099 0 0.1483513397036384 0.15993944363293991 0 0.1261514324917726 0.1775102187220553 0 0.13815373338284859 0.18367750748439429 0 0.13056538502647649 0.18933089576941259 0 0.1230302541544355 0.19064066809538141 0 0.1261514324917726 0.1775102187220553 0 0.13056538502647649 0.18933089576941259 0 0.13710393285981329 0.17005015162530099 0 0.1261514324917726 0.1775102187220553 0 0.13815373338284859 0.18367750748439429 0 0.16077949266125599 0.1691995659115417 0 0.1491685130956841 0.19023573591315129 0 0.14671140234064811 0.1746204809134656 0 0.16077949266125599 0.1691995659115417 0 0.1491685130956841 0.19023573591315129 0 0.13815373338284859 0.18367750748439429 0 0.14671140234064811 0.1746204809134656 0 0.1491685130956841 0.19023573591315129 0 0.13710393285981329 0.17005015162530099 0 0.13815373338284859 0.18367750748439429 0 0.14671140234064811 0.1746204809134656 0 0.13710393285981329 0.17005015162530099 0 0.14671140234064811 0.1746204809134656 0 0.1483513397036384 0.15993944363293991 0 0.14671140234064811 0.1746204809134656 0 0.1483513397036384 0.15993944363293991 0 0.16077949266125599 0.1691995659115417 0 0.1483513397036384 0.15993944363293991 0 0.16077949266125599 0.1691995659115417 0 0.17239047222682891 0.14816339590993291 0 0.16077949266125599 0.1691995659115417 0 0.17239047222682891 0.14816339590993291 0 0.16077949266125599 0.1691995659115417 0 0.16067419319245249 0.18495551631857829 0 0.1491685130956841 0.19023573591315129 0 0.16077949266125599 0.1691995659115417 0 0.16067419319245249 0.18495551631857829 0 0.17031432812832531 0.18093621858141579 0 0.16077949266125599 0.1691995659115417 0 0.17031432812832531 0.18093621858141579 0 0.1827239656211547 0.17186330520480439 0 0.16067419319245249 0.18495551631857829 0 0.17031432812832531 0.18093621858141579 0 0.16657125552106791 0.19159099770005711 0 0.1827239656211547 0.17186330520480439 0 0.18001429465194449 0.18885369769381449 0 0.19458749846797871 0.18890710070015021 0 0.17031432812832531 0.18093621858141579 0 0.1827239656211547 0.17186330520480439 0 0.18001429465194449 0.18885369769381449 0 0.17031432812832531 0.18093621858141579 0 0.16657125552106791 0.19159099770005711 0 0.18001429465194449 0.18885369769381449 0 0.16077949266125599 0.1691995659115417 0 0.1827239656211547 0.17186330520480439 0 0.17239047222682891 0.14816339590993291 0 0.1827239656211547 0.17186330520480439 0 0.17239047222682891 0.14816339590993291 0 0.19760489126564709 0.1519654533716723 0 0.17239047222682891 0.14816339590993291 0 0.19760489126564709 0.1519654533716723 0 0.17239047222682891 0.14816339590993291 0 0.18638184224766641 0.12281455805765509 0 0.17239047222682891 0.14816339590993291 0 0.19486173850185581 0.13628568708734939 0 0.18638184224766641 0.12281455805765509 0 0.17239047222682891 0.14816339590993291 0 0.1711705095452756 0.1297523407785838 0 0.18638184224766641 0.12281455805765509 0 0.17239047222682891 0.14816339590993291 0 0.1711705095452756 0.1297523407785838 0 0.15798998621900259 0.13149724483274239 0 0.1711705095452756 0.1297523407785838 0 0.15798998621900259 0.13149724483274239 0 0.16791973748760439 0.1165341643140049 0 0.1435180197231653 0.143809747177783 0 0.17239047222682891 0.14816339590993291 0 0.15798998621900259 0.13149724483274239 0 0.1435180197231653 0.143809747177783 0 0.17239047222682891 0.14816339590993291 0 0.155549603658308 0.23976458377678261 0 0.1481004650478738 0.24639836079119951 0 0.15996257146588011 0.25159141840040222 0 0.155549603658308 0.23976458377678261 0 0.1456532362129784 0.23748453209429851 0 0.1505354838227714 0.23130608554755949 0 0.155549603658308 0.23976458377678261 0 0.1456532362129784 0.23748453209429851 0 0.1481004650478738 0.24639836079119951 0 0.1456532362129784 0.23748453209429851 0 0.1481004650478738 0.24639836079119951 0 0.14005858936246829 0.24190297372238259 0 0.1456532362129784 0.23748453209429851 0 0.14005858936246829 0.24190297372238259 0 0.13867028763953981 0.23412502934846061 0 0.1481004650478738 0.24639836079119951 0 0.14005858936246829 0.24190297372238259 0 0.13907569272171441 0.25291667503724891 0 0.13270891909919061 0.24474443335031501 0 0.14005858936246829 0.24190297372238259 0 0.13907569272171441 0.25291667503724891 0 0.13270891909919061 0.24474443335031501 0 0.12559644321942029 0.24331317426808441 0 0.1275269656816749 0.25285499966235359 0 0.13270891909919061 0.24474443335031501 0 0.12559644321942029 0.24331317426808441 0 0.12941439894445611 0.24005065051527591 0 0.12403350405355509 0.23477783964002791 0 0.12559644321942029 0.24331317426808441 0 0.1270422612937448 0.23852384937601051 0 0.12403350405355509 0.23477783964002791 0 0.12873952059366439 0.2356553784535767 0 0.1270422612937448 0.23852384937601051 0 0.12873952059366439 0.2356553784535767 0 0.1270422612937448 0.23852384937601051 0 0.12941439894445611 0.24005065051527591 0 0.12559644321942029 0.24331317426808441 0 0.1270422612937448 0.23852384937601051 0 0.12941439894445611 0.24005065051527591 0 0.13270891909919061 0.24474443335031501 0 0.12941439894445611 0.24005065051527591 0 0.13379236567831279 0.23860551524427731 0 0.12873952059366439 0.2356553784535767 0 0.12941439894445611 0.24005065051527591 0 0.13379236567831279 0.23860551524427731 0 0.12873952059366439 0.2356553784535767 0 0.13379236567831279 0.23860551524427731 0 0.133059156377067 0.23421104380901331 0 0.13379236567831279 0.23860551524427731 0 0.13867028763953981 0.23412502934846061 0 0.133059156377067 0.23421104380901331 0 0.13270891909919061 0.24474443335031501 0 0.13379236567831279 0.23860551524427731 0 0.14005858936246829 0.24190297372238259 0 0.13379236567831279 0.23860551524427731 0 0.14005858936246829 0.24190297372238259 0 0.13867028763953981 0.23412502934846061 0 0.13378481685565199 0.22972796938110479 0 0.12594655396454019 0.2323080759163702 0 0.14124196526023469 0.21256156970154791 0 0.12594655396454019 0.2323080759163702 0 0.1375575335301123 0.2112719059147608 0 0.13041921396420919 0.21847193983526969 0 0.13867028763953981 0.23412502934846061 0 0.13378481685565199 0.22972796938110479 0 0.14125853144130879 0.22590954255631951 0 0.12594655396454019 0.2323080759163702 0 0.14124196526023469 0.21256156970154791 0 0.13378481685565199 0.22972796938110479 0 0.14125853144130879 0.22590954255631951 0 0.14124196526023469 0.21256156970154791 0 0.12594655396454019 0.2323080759163702 0 0.1375575335301123 0.2112719059147608 0 0.13867028763953981 0.23412502934846061 0 0.13378481685565199 0.22972796938110479 0 0.133059156377067 0.23421104380901331 0 0.13378481685565199 0.22972796938110479 0 0.133059156377067 0.23421104380901331 0 0.1303087911181661 0.23294132661764669 0 0.13378481685565199 0.22972796938110479 0 0.1303087911181661 0.23294132661764669 0 0.12594655396454019 0.2323080759163702 0 0.1233916283435162 0.22659359645958299 0 0.12594655396454019 0.2323080759163702 0 0.1271521047135849 0.22329632046296041 0 0.12873952059366439 0.2356553784535767 0 0.133059156377067 0.23421104380901331 0 0.1303087911181661 0.23294132661764669 0 0.12403350405355509 0.23477783964002791 0 0.12873952059366439 0.2356553784535767 0 0.12594655396454019 0.2323080759163702 0 0.12873952059366439 0.2356553784535767 0 0.1303087911181661 0.23294132661764669 0 0.12594655396454019 0.2323080759163702 0 0.12594655396454019 0.2323080759163702 0 0.1271521047135849 0.22329632046296041 0 0.13041921396420919 0.21847193983526969 0 0.1271521047135849 0.22329632046296041 0 0.13041921396420919 0.21847193983526969 0 0.1265748511423837 0.21770902981563661 0 0.1231498407775555 0.22170668503306831 0 0.1271521047135849 0.22329632046296041 0 0.1265748511423837 0.21770902981563661 0 0.14616968007119721 0.22021232310762071 0 0.14125853144130879 0.22590954255631951 0 0.14124196526023469 0.21256156970154791 0 0.14616968007119721 0.22021232310762071 0 0.1466154791338071 0.2262999446605731 0 0.14125853144130879 0.22590954255631951 0 0.13867028763953981 0.23412502934846061 0 0.14125853144130879 0.22590954255631951 0 0.1445466036500811 0.23102502684144219 0 0.1466154791338071 0.2262999446605731 0 0.14125853144130879 0.22590954255631951 0 0.1445466036500811 0.23102502684144219 0 0.1456532362129784 0.23748453209429851 0 0.13867028763953981 0.23412502934846061 0 0.1445466036500811 0.23102502684144219 0 0.1456532362129784 0.23748453209429851 0 0.1445466036500811 0.23102502684144219 0 0.1505354838227714 0.23130608554755949 0 0.1466154791338071 0.2262999446605731 0 0.1445466036500811 0.23102502684144219 0 0.1505354838227714 0.23130608554755949 0 0.1505354838227714 0.23130608554755949 0 0.15282536066187249 0.22250116301156389 0 0.16149112257430159 0.23009973640089049 0 0.155549603658308 0.23976458377678261 0 0.1505354838227714 0.23130608554755949 0 0.16149112257430159 0.23009973640089049 0 0.1466154791338071 0.2262999446605731 0 0.1505354838227714 0.23130608554755949 0 0.15282536066187249 0.22250116301156389 0 0.14616968007119721 0.22021232310762071 0 0.15282536066187249 0.22250116301156389 0 0.15028907176642581 0.21573385214976981 0 0.14616968007119721 0.22021232310762071 0 0.1466154791338071 0.2262999446605731 0 0.15282536066187249 0.22250116301156389 0 0.14124196526023469 0.21256156970154791 0 0.1375575335301123 0.2112719059147608 0 0.1491685130956841 0.19023573591315129 0 0.15282536066187249 0.22250116301156389 0 0.15028907176642581 0.21573385214976981 0 0.1576119273644612 0.21481802815280349 0 0.15028907176642581 0.21573385214976981 0 0.15368299810853639 0.20897434746626761 0 0.1576119273644612 0.21481802815280349 0 0.15368299810853639 0.20897434746626761 0 0.14124196526023469 0.21256156970154791 0 0.15627459241687949 0.20237680223925289 0 0.14616968007119721 0.22021232310762071 0 0.15028907176642581 0.21573385214976981 0 0.14124196526023469 0.21256156970154791 0 0.15028907176642581 0.21573385214976981 0 0.15368299810853639 0.20897434746626761 0 0.14124196526023469 0.21256156970154791 0 0.12594655396454019 0.2323080759163702 0 0.14124196526023469 0.21256156970154791 0 0.1375575335301123 0.2112719059147608 0 0.1375575335301123 0.2112719059147608 0 0.13275403860938739 0.2130283862324806 0 0.1324243477716314 0.20931363673119441 0 0.1375575335301123 0.2112719059147608 0 0.13041921396420919 0.21847193983526969 0 0.13275403860938739 0.2130283862324806 0 0.13041921396420919 0.21847193983526969 0 0.13275403860938739 0.2130283862324806 0 0.12924710013327581 0.21294044943390289 0 0.13275403860938739 0.2130283862324806 0 0.12924710013327581 0.21294044943390289 0 0.1324243477716314 0.20931363673119441 0 0.1234170051429644 0.2105814271867596 0 0.12924710013327581 0.21294044943390289 0 0.1265748511423837 0.21770902981563661 0 0.13041921396420919 0.21847193983526969 0 0.12924710013327581 0.21294044943390289 0 0.1265748511423837 0.21770902981563661 0 0.1234170051429644 0.2105814271867596 0 0.12924710013327581 0.21294044943390289 0 0.1268452791786038 0.20481157516865381 0 0.12924710013327581 0.21294044943390289 0 0.1268452791786038 0.20481157516865381 0 0.1324243477716314 0.20931363673119441 0 0.1268452791786038 0.20481157516865381 0 0.1324243477716314 0.20931363673119441 0 0.13283619448701761 0.20429094688876659 0 0.1375575335301123 0.2112719059147608 0 0.13283619448701761 0.20429094688876659 0 0.13665824453166411 0.19705309737851051 0 0.1375575335301123 0.2112719059147608 0 0.1324243477716314 0.20931363673119441 0 0.13283619448701761 0.20429094688876659 0 0.13283619448701761 0.20429094688876659 0 0.13665824453166411 0.19705309737851051 0 0.128833260571662 0.1977729871667217 0 0.1268452791786038 0.20481157516865381 0 0.13283619448701761 0.20429094688876659 0 0.128833260571662 0.1977729871667217 0 0.12204387681317801 0.198648201530954 0 0.1268452791786038 0.20481157516865381 0 0.128833260571662 0.1977729871667217 0 0.13665824453166411 0.19705309737851051 0 0.128833260571662 0.1977729871667217 0 0.13056538502647649 0.18933089576941259 0 0.1230302541544355 0.19064066809538141 0 0.128833260571662 0.1977729871667217 0 0.13056538502647649 0.18933089576941259 0 0.13815373338284859 0.18367750748439429 0 0.13665824453166411 0.19705309737851051 0 0.13056538502647649 0.18933089576941259 0 0.14124196526023469 0.21256156970154791 0 0.1491685130956841 0.19023573591315129 0 0.15653737655592939 0.1928150634867257 0 0.14124196526023469 0.21256156970154791 0 0.15653737655592939 0.1928150634867257 0 0.1375575335301123 0.2112719059147608 0 0.13665824453166411 0.19705309737851051 0 0.1491685130956841 0.19023573591315129 0 0.14124196526023469 0.21256156970154791 0 0.15653737655592939 0.1928150634867257 0 0.15627459241687949 0.20237680223925289 0 0.13815373338284859 0.18367750748439429 0 0.13665824453166411 0.19705309737851051 0 0.1491685130956841 0.19023573591315129 0 0.1375575335301123 0.2112719059147608 0 0.1491685130956841 0.19023573591315129 0 0.16067419319245249 0.18495551631857829 0 0.1491685130956841 0.19023573591315129 0 0.15653737655592939 0.1928150634867257 0 0.16067419319245249 0.18495551631857829 0 0.15653737655592939 0.1928150634867257 0 0.16657125552106791 0.19159099770005711 0 0.15653737655592939 0.1928150634867257 0 0.16436967423298621 0.20010287406075231 0 0.16657125552106791 0.19159099770005711 0 0.15653737655592939 0.1928150634867257 0 0.15627459241687949 0.20237680223925289 0 0.16436967423298621 0.20010287406075231 0 0.16436967423298621 0.20010287406075231 0 0.16657125552106791 0.19159099770005711 0 0.17465465069604361 0.20027873664616169 0 0.16436967423298621 0.20010287406075231 0 0.17465465069604361 0.20027873664616169 0 0.16944809476828701 0.20719179782083841 0 0.16657125552106791 0.19159099770005711 0 0.18001429465194449 0.18885369769381449 0 0.17465465069604361 0.20027873664616169 0 0.18001429465194449 0.18885369769381449 0 0.18751363297349519 0.20210683649320271 0 0.19458749846797871 0.18890710070015021 0 0.18001429465194449 0.18885369769381449 0 0.17465465069604361 0.20027873664616169 0 0.18751363297349519 0.20210683649320271 0 0.17465465069604361 0.20027873664616169 0 0.17783145322004151 0.21088139721666521 0 0.16944809476828701 0.20719179782083841 0 0.17465465069604361 0.20027873664616169 0 0.17783145322004151 0.21088139721666521 0 0.18751363297349519 0.20210683649320271 0 0.17783145322004151 0.21088139721666521 0 0.1897869721678975 0.21592586356067051 0 0.18751363297349519 0.20210683649320271 0 0.17783145322004151 0.21088139721666521 0 0.17705902642789331 0.22205145745838581 0 0.1897869721678975 0.21592586356067051 0 0.17783145322004151 0.21088139721666521 0 0.16725211661110939 0.21612977713304399 0 0.17705902642789331 0.22205145745838581 0 0.17783145322004151 0.21088139721666521 0 0.16725211661110939 0.21612977713304399 0 0.16944809476828701 0.20719179782083841 0 0.16725211661110939 0.21612977713304399 0 0.16944809476828701 0.20719179782083841 0 0.16173648927040421 0.2082462822819717 0 0.16436967423298621 0.20010287406075231 0 0.16944809476828701 0.20719179782083841 0 0.16173648927040421 0.2082462822819717 0 0.15368299810853639 0.20897434746626761 0 0.16173648927040421 0.2082462822819717 0 0.1576119273644612 0.21481802815280349 0 0.15627459241687949 0.20237680223925289 0 0.16436967423298621 0.20010287406075231 0 0.16173648927040421 0.2082462822819717 0 0.15368299810853639 0.20897434746626761 0 0.15627459241687949 0.20237680223925289 0 0.16173648927040421 0.2082462822819717 0 0.16725211661110939 0.21612977713304399 0 0.1576119273644612 0.21481802815280349 0 0.16132029101217901 0.22162231560041051 0 0.16725211661110939 0.21612977713304399 0 0.16173648927040421 0.2082462822819717 0 0.1576119273644612 0.21481802815280349 0 0.15282536066187249 0.22250116301156389 0 0.16132029101217901 0.22162231560041051 0 0.16149112257430159 0.23009973640089049 0 0.16132029101217901 0.22162231560041051 0 0.16149112257430159 0.23009973640089049 0 0.16821436479325541 0.2244445914211709 0 0.15282536066187249 0.22250116301156389 0 0.1576119273644612 0.21481802815280349 0 0.16132029101217901 0.22162231560041051 0 0.16149112257430159 0.23009973640089049 0 0.16821436479325541 0.2244445914211709 0 0.17394926734079319 0.23231967051312369 0 0.16725211661110939 0.21612977713304399 0 0.16132029101217901 0.22162231560041051 0 0.16821436479325541 0.2244445914211709 0 0.16725211661110939 0.21612977713304399 0 0.16821436479325541 0.2244445914211709 0 0.17705902642789331 0.22205145745838581 0 0.16821436479325541 0.2244445914211709 0 0.17705902642789331 0.22205145745838581 0 0.17394926734079319 0.23231967051312369 0 0.17705902642789331 0.22205145745838581 0 0.18656353519854771 0.22923978958688529 0 0.1897869721678975 0.21592586356067051 0 0.17705902642789331 0.22205145745838581 0 0.18656353519854771 0.22923978958688529 0 0.17394926734079319 0.23231967051312369 0 0.17394926734079319 0.23231967051312369 0 0.1811742946426502 0.24282483750608819 0 0.16795718810805399 0.24228039061988371 0 0.18656353519854771 0.22923978958688529 0 0.17394926734079319 0.23231967051312369 0 0.1811742946426502 0.24282483750608819 0 0.1811742946426502 0.24282483750608819 0 0.16795718810805399 0.24228039061988371 0 0.1728192701927784 0.25648159445298369 0 0.16149112257430159 0.23009973640089049 0 0.17394926734079319 0.23231967051312369 0 0.16795718810805399 0.24228039061988371 0 0.155549603658308 0.23976458377678261 0 0.16149112257430159 0.23009973640089049 0 0.16795718810805399 0.24228039061988371 0 0.155549603658308 0.23976458377678261 0 0.16795718810805399 0.24228039061988371 0 0.15996257146588011 0.25159141840040222 0 0.21524301555969971 0.2355818342298798 0 0.20502419830403379 0.24956023017771259 0 0.19518717293145749 0.2385053102636433 0 0.21524301555969971 0.2355818342298798 0 0.20502419830403379 0.24956023017771259 0 0.22495143152588301 0.24884528073656059 0 0.1811742946426502 0.24282483750608819 0 0.19518717293145749 0.2385053102636433 0 0.19120414107947081 0.25767081084390009 0 0.20502419830403379 0.24956023017771259 0 0.19518717293145749 0.2385053102636433 0 0.19120414107947081 0.25767081084390009 0 0.18656353519854771 0.22923978958688529 0 0.1811742946426502 0.24282483750608819 0 0.19518717293145749 0.2385053102636433 0 0.18656353519854771 0.22923978958688529 0 0.20222447768059421 0.22381159821940019 0 0.1897869721678975 0.21592586356067051 0 0.18656353519854771 0.22923978958688529 0 0.19518717293145749 0.2385053102636433 0 0.20222447768059421 0.22381159821940019 0 0.21524301555969971 0.2355818342298798 0 0.20222447768059421 0.22381159821940019 0 0.2233399778552034 0.21726066581823419 0 0.21524301555969971 0.2355818342298798 0 0.19518717293145749 0.2385053102636433 0 0.20222447768059421 0.22381159821940019 0 0.20386099936596 0.2059046671009786 0 0.21940589262828081 0.20139758299892141 0 0.2233399778552034 0.21726066581823419 0 0.20222447768059421 0.22381159821940019 0 0.20386099936596 0.2059046671009786 0 0.2233399778552034 0.21726066581823419 0 0.20386099936596 0.2059046671009786 0 0.1897869721678975 0.21592586356067051 0 0.18751363297349519 0.20210683649320271 0 0.20222447768059421 0.22381159821940019 0 0.20386099936596 0.2059046671009786 0 0.1897869721678975 0.21592586356067051 0 0.20386099936596 0.2059046671009786 0 0.19458749846797871 0.18890710070015021 0 0.2077898912010446 0.1923095555854841 0 0.20386099936596 0.2059046671009786 0 0.18751363297349519 0.20210683649320271 0 0.19458749846797871 0.18890710070015021 0 0.20386099936596 0.2059046671009786 0 0.2077898912010446 0.1923095555854841 0 0.21940589262828081 0.20139758299892141 0 0.2077898912010446 0.1923095555854841 0 0.22265635288723151 0.1878394743391528 0 0.21940589262828081 0.20139758299892141 0 0.22265635288723151 0.1878394743391528 0 0.21940589262828081 0.20139758299892141 0 0.23938224183196399 0.203673552150757 0 0.23938224183196399 0.203673552150757 0 0.24391600298847449 0.18405819756430669 0 0.2621153105579041 0.19806482719031079 0 0.22265635288723151 0.1878394743391528 0 0.23938224183196399 0.203673552150757 0 0.24391600298847449 0.18405819756430669 0 0.23938224183196399 0.203673552150757 0 0.2233399778552034 0.21726066581823419 0 0.24283618348122021 0.22208583823479069 0 0.23938224183196399 0.203673552150757 0 0.24283618348122021 0.22208583823479069 0 0.26105363861205438 0.2177187028149116 0 0.21940589262828081 0.20139758299892141 0 0.23938224183196399 0.203673552150757 0 0.2233399778552034 0.21726066581823419 0 0.21524301555969971 0.2355818342298798 0 0.2233399778552034 0.21726066581823419 0 0.2339720374237553 0.23506311593259491 0 0.2233399778552034 0.21726066581823419 0 0.24283618348122021 0.22208583823479069 0 0.2339720374237553 0.23506311593259491 0 0.24283618348122021 0.22208583823479069 0 0.2339720374237553 0.23506311593259491 0 0.25223030040566918 0.23413303164844129 0 0.2447078346749649 0.24804890927139139 0 0.2339720374237553 0.23506311593259491 0 0.25223030040566918 0.23413303164844129 0 0.2447078346749649 0.24804890927139139 0 0.2339720374237553 0.23506311593259491 0 0.22495143152588301 0.24884528073656059 0 0.21524301555969971 0.2355818342298798 0 0.2339720374237553 0.23506311593259491 0 0.22495143152588301 0.24884528073656059 0 0.21043559541605361 0.1395773338837997 0 0.21546678698982649 0.16063314072301041 0 0.21043559541605361 0.1395773338837997 0 0.19760489126564709 0.1519654533716723 0 0.21546678698982649 0.16063314072301041 0 0.21043559541605361 0.1395773338837997 0 0.21546678698982649 0.16063314072301041 0 0.22602769977725959 0.14323116448416301 0 0.21043559541605361 0.1395773338837997 0 0.2231454745049149 0.12664050404038901 0 0.20540440384228059 0.118521527044589 0 0.21043559541605361 0.1395773338837997 0 0.19486173850185581 0.13628568708734939 0 0.20540440384228059 0.118521527044589 0 0.21043559541605361 0.1395773338837997 0 0.20540440384228059 0.118521527044589 0 0.19486173850185581 0.13628568708734939 0 0.20540440384228059 0.118521527044589 0 0.18638184224766641 0.12281455805765509 0 0.21043559541605361 0.1395773338837997 0 0.19486173850185581 0.13628568708734939 0 0.19760489126564709 0.1519654533716723 0 0.17239047222682891 0.14816339590993291 0 0.19486173850185581 0.13628568708734939 0 0.19760489126564709 0.1519654533716723 0 0.1827239656211547 0.17186330520480439 0 0.19760489126564709 0.1519654533716723 0 0.2050931178799637 0.1748474310496814 0 0.1827239656211547 0.17186330520480439 0 0.19458749846797871 0.18890710070015021 0 0.2050931178799637 0.1748474310496814 0 0.19458749846797871 0.18890710070015021 0 0.2077898912010446 0.1923095555854841 0 0.2050931178799637 0.1748474310496814 0 0.2077898912010446 0.1923095555854841 0 0.22265635288723151 0.1878394743391528 0 0.2050931178799637 0.1748474310496814 0 0.22265635288723151 0.1878394743391528 0 0.2050931178799637 0.1748474310496814 0 0.22412132758595699 0.1732406968366963 0 0.2050931178799637 0.1748474310496814 0 0.21546678698982649 0.16063314072301041 0 0.22412132758595699 0.1732406968366963 0 0.19760489126564709 0.1519654533716723 0 0.2050931178799637 0.1748474310496814 0 0.21546678698982649 0.16063314072301041 0 0.21546678698982649 0.16063314072301041 0 0.22412132758595699 0.1732406968366963 0 0.2363103783686962 0.16624298228409259 0 0.21546678698982649 0.16063314072301041 0 0.2363103783686962 0.16624298228409259 0 0.23255512994270011 0.15385042808528421 0 0.22265635288723151 0.1878394743391528 0 0.22412132758595699 0.1732406968366963 0 0.24391600298847449 0.18405819756430669 0 0.24391600298847449 0.18405819756430669 0 0.2363103783686962 0.16624298228409259 0 0.25185488787338761 0.16793578955033589 0 0.22412132758595699 0.1732406968366963 0 0.24391600298847449 0.18405819756430669 0 0.2363103783686962 0.16624298228409259 0 0.2363103783686962 0.16624298228409259 0 0.24708537265548991 0.15383430280171209 0 0.23255512994270011 0.15385042808528421 0 0.2363103783686962 0.16624298228409259 0 0.24708537265548991 0.15383430280171209 0 0.25185488787338761 0.16793578955033589 0 0.24708537265548991 0.15383430280171209 0 0.2378854119222282 0.14531055013344249 0 0.24720445311728409 0.13978922805857441 0 0.24708537265548991 0.15383430280171209 0 0.2378854119222282 0.14531055013344249 0 0.23255512994270011 0.15385042808528421 0 0.21546678698982649 0.16063314072301041 0 0.23255512994270011 0.15385042808528421 0 0.22602769977725959 0.14323116448416301 0 0.2378854119222282 0.14531055013344249 0 0.23255512994270011 0.15385042808528421 0 0.22602769977725959 0.14323116448416301 0 0.2378854119222282 0.14531055013344249 0 0.22602769977725959 0.14323116448416301 0 0.23615374439260151 0.1334424891906589 0 0.21043559541605361 0.1395773338837997 0 0.22602769977725959 0.14323116448416301 0 0.2231454745049149 0.12664050404038901 0 0.22602769977725959 0.14323116448416301 0 0.2231454745049149 0.12664050404038901 0 0.23615374439260151 0.1334424891906589 0 0.2378854119222282 0.14531055013344249 0 0.23615374439260151 0.1334424891906589 0 0.24720445311728409 0.13978922805857441 0 0.23615374439260151 0.1334424891906589 0 0.24720445311728409 0.13978922805857441 0 0.24787040798362911 0.12898602078595761 0 0.23615374439260151 0.1334424891906589 0 0.24787040798362911 0.12898602078595761 0 0.24167259635572219 0.10935996819857539 0 0.24167259635572219 0.10935996819857539 0 0.2448391823704954 0.091658429968371702 0 0.26164875308252739 0.10577306538275801 0 0.24167259635572219 0.10935996819857539 0 0.21822682358934989 0.094059014307969688 0 0.2448391823704954 0.091658429968371702 0 0.24167259635572219 0.10935996819857539 0 0.22094323446535191 0.11110613435304249 0 0.21822682358934989 0.094059014307969688 0 0.24167259635572219 0.10935996819857539 0 0.21822682358934989 0.094059014307969688 0 0.2231454745049149 0.12664050404038901 0 0.24167259635572219 0.10935996819857539 0 0.22094323446535191 0.11110613435304249 0 0.2231454745049149 0.12664050404038901 0 0.23615374439260151 0.1334424891906589 0 0.24167259635572219 0.10935996819857539 0 0.2231454745049149 0.12664050404038901 0 0.22094323446535191 0.11110613435304249 0 0.20540440384228059 0.118521527044589 0 0.22094323446535191 0.11110613435304249 0 0.20540440384228059 0.118521527044589 0 0.2109558768967616 0.1044402699885584 0 0.20540440384228059 0.118521527044589 0 0.2109558768967616 0.1044402699885584 0 0.20037321226850649 0.09746572020537865 0 0.22094323446535191 0.11110613435304249 0 0.2109558768967616 0.1044402699885584 0 0.21822682358934989 0.094059014307969688 0 0.2109558768967616 0.1044402699885584 0 0.21822682358934989 0.094059014307969688 0 0.20893075730311969 0.095733407470798892 0 0.2109558768967616 0.1044402699885584 0 0.20893075730311969 0.095733407470798892 0 0.20037321226850649 0.09746572020537865 0 0.20037321226850649 0.09746572020537865 0 0.1789995208254124 0.10139569585952191 0 0.18598271011283771 0.089031738991003417 0 0.20037321226850649 0.09746572020537865 0 0.18638184224766641 0.12281455805765509 0 0.1789995208254124 0.10139569585952191 0 0.20540440384228059 0.118521527044589 0 0.20037321226850649 0.09746572020537865 0 0.20540440384228059 0.118521527044589 0 0.20037321226850649 0.09746572020537865 0 0.18638184224766641 0.12281455805765509 0 0.20037321226850649 0.09746572020537865 0 0.18638184224766641 0.12281455805765509 0 0.195179999802504 0.075731847233977231 0 0.20603326576002701 0.060710015761048612 0 0.1910829699518776 0.058585557357249303 0 0.195179999802504 0.075731847233977231 0 0.1910829699518776 0.058585557357249303 0 0.1810291263123297 0.068254633968108436 0 0.195179999802504 0.075731847233977231 0 0.1910829699518776 0.058585557357249303 0 0.20037321226850649 0.09746572020537865 0 0.195179999802504 0.075731847233977231 0 0.20183290675943741 0.088433773259532208 0 0.20037321226850649 0.09746572020537865 0 0.195179999802504 0.075731847233977231 0 0.18598271011283771 0.089031738991003417 0 0.20037321226850649 0.09746572020537865 0 0.195179999802504 0.075731847233977231 0 0.20037321226850649 0.09746572020537865 0 0.20183290675943741 0.088433773259532208 0 0.20616711645786079 0.0869686253812888 0 0.195179999802504 0.075731847233977231 0 0.20183290675943741 0.088433773259532208 0 0.20616711645786079 0.0869686253812888 0 0.195179999802504 0.075731847233977231 0 0.20616711645786079 0.0869686253812888 0 0.21147451391561131 0.07206784261939389 0 0.21822682358934989 0.094059014307969688 0 0.20616711645786079 0.0869686253812888 0 0.22571675930115809 0.080360011648842086 0 0.20616711645786079 0.0869686253812888 0 0.22571675930115809 0.080360011648842086 0 0.20893075730311969 0.095733407470798892 0 0.20037321226850649 0.09746572020537865 0 0.20616711645786079 0.0869686253812888 0 0.20037321226850649 0.09746572020537865 0 0.20616711645786079 0.0869686253812888 0 0.20183290675943741 0.088433773259532208 0 0.20616711645786079 0.0869686253812888 0 0.21822682358934989 0.094059014307969688 0 0.20893075730311969 0.095733407470798892 0 0.20616711645786079 0.0869686253812888 0 0.195179999802504 0.075731847233977231 0 0.21147451391561131 0.07206784261939389 0 0.20603326576002701 0.060710015761048612 0 0.20616711645786079 0.0869686253812888 0 0.21147451391561131 0.07206784261939389 0 0.2199705421844001 0.06196029524443955 0 0.20616711645786079 0.0869686253812888 0 0.2199705421844001 0.06196029524443955 0 0.195179999802504 0.075731847233977231 0 0.21147451391561131 0.07206784261939389 0 0.20616711645786079 0.0869686253812888 0 0.22571675930115809 0.080360011648842086 0 0.2199705421844001 0.06196029524443955 0 0.21147451391561131 0.07206784261939389 0 0.2199705421844001 0.06196029524443955 0 0.20603326576002701 0.060710015761048612 0 0.2267527964785217 0.068895001981923928 0 0.22571675930115809 0.080360011648842086 0 0.2452664021444558 0.073751397916396552 0 0.2267527964785217 0.068895001981923928 0 0.22571675930115809 0.080360011648842086 0 0.2199705421844001 0.06196029524443955 0 0.21822682358934989 0.094059014307969688 0 0.22571675930115809 0.080360011648842086 0 0.2448391823704954 0.091658429968371702 0 0.22571675930115809 0.080360011648842086 0 0.2448391823704954 0.091658429968371702 0 0.2452664021444558 0.073751397916396552 0 0.2448391823704954 0.091658429968371702 0 0.2452664021444558 0.073751397916396552 0 0.25753243436444861 0.084148189925787542 0 0.22571675930115809 0.080360011648842086 0 0.2452664021444558 0.073751397916396552 0 0.2267527964785217 0.068895001981923928 0 0.2452664021444558 0.073751397916396552 0 0.24473567149939551 0.060162761873041988 0 0.2267527964785217 0.068895001981923928 0 0.24473567149939551 0.060162761873041988 0 0.2452664021444558 0.073751397916396552 0 0.24473567149939551 0.060162761873041988 0 0.2560672524908435 0.061338803497964382 0 0.2267527964785217 0.068895001981923928 0 0.24473567149939551 0.060162761873041988 0 0.23231728042809191 0.05597618510721393 0 0.24473567149939551 0.060162761873041988 0 0.23976829426350699 0.049320538880929993 0 0.2482462572156027 0.044191243435874543 0 0.23976829426350699 0.049320538880929993 0 0.2337739679109361 0.036951965107588552 0 0.23231728042809191 0.05597618510721393 0 0.2482462572156027 0.044191243435874543 0 0.2337739679109361 0.036951965107588552 0 0.24702776976177079 0.01293941497543038 0 0.24473567149939551 0.060162761873041988 0 0.23976829426350699 0.049320538880929993 0 0.23231728042809191 0.05597618510721393 0 0.23976829426350699 0.049320538880929993 0 0.2482462572156027 0.044191243435874543 0 0.2337739679109361 0.036951965107588552 0 0.2482462572156027 0.044191243435874543 0 0.2337739679109361 0.036951965107588552 0 0.2337739679109361 0.036951965107588552 0 0.2122185855790848 0.026169606567908388 0 0.2337739679109361 0.036951965107588552 0 0.2199705421844001 0.06196029524443955 0 0.2337739679109361 0.036951965107588552 0 0.2199705421844001 0.06196029524443955 0 0.23231728042809191 0.05597618510721393 0 0.2337739679109361 0.036951965107588552 0 0.2199705421844001 0.06196029524443955 0 0.20636205589766721 0.046128373394723789 0 0.2267527964785217 0.068895001981923928 0 0.2199705421844001 0.06196029524443955 0 0.23231728042809191 0.05597618510721393 0 0.24702776976177079 0.01293941497543038 0 0.22697176416243089 0.01268110502955724 0 0.23495813054623571 -0.0058461198177800506 0 0.2337739679109361 0.036951965107588552 0 0.24702776976177079 0.01293941497543038 0 0.22697176416243089 0.01268110502955724 0 0.2337739679109361 0.036951965107588552 0 0.24702776976177079 0.01293941497543038 0 0.2337739679109361 0.036951965107588552 0 0.22697176416243089 0.01268110502955724 0 0.2122185855790848 0.026169606567908388 0 0.22697176416243089 0.01268110502955724 0 0.2122623429881032 -0.00085510126240071784 0 0.23495813054623571 -0.0058461198177800506 0 0.22697176416243089 0.01268110502955724 0 0.2122185855790848 0.026169606567908388 0 0.2122623429881032 -0.00085510126240071784 0 0.2122185855790848 0.026169606567908388 0 0.19066320324723349 0.015387248028228301 0 0.2122623429881032 -0.00085510126240071784 0 0.2122185855790848 0.026169606567908388 0 0.19066320324723349 0.015387248028228301 0 0.2122185855790848 0.026169606567908388 0 0.19066320324723349 0.015387248028228301 0 0.19082050826379479 0.032485895767318959 0 0.19066320324723349 0.015387248028228301 0 0.2122623429881032 -0.00085510126240071784 0 0.18895284903272999 -0.0048575404889695389 0 0.2199705421844001 0.06196029524443955 0 0.20603326576002701 0.060710015761048612 0 0.20636205589766721 0.046128373394723789 0 0.2122185855790848 0.026169606567908388 0 0.20636205589766721 0.046128373394723789 0 0.19082050826379479 0.032485895767318959 0 0.2337739679109361 0.036951965107588552 0 0.2122185855790848 0.026169606567908388 0 0.20636205589766721 0.046128373394723789 0 0.20636205589766721 0.046128373394723789 0 0.19082050826379479 0.032485895767318959 0 0.18382939198965251 0.046052753770791433 0 0.20636205589766721 0.046128373394723789 0 0.1910829699518776 0.058585557357249303 0 0.18382939198965251 0.046052753770791433 0 0.20603326576002701 0.060710015761048612 0 0.20636205589766721 0.046128373394723789 0 0.1910829699518776 0.058585557357249303 0 0.1910829699518776 0.058585557357249303 0 0.18382939198965251 0.046052753770791433 0 0.16847542794000789 0.057167438616070543 0 0.1910829699518776 0.058585557357249303 0 0.16847542794000789 0.057167438616070543 0 0.1810291263123297 0.068254633968108436 0 0.18382939198965251 0.046052753770791433 0 0.1711940439015352 0.033438306457853957 0 0.16847542794000789 0.057167438616070543 0 0.19082050826379479 0.032485895767318959 0 0.18382939198965251 0.046052753770791433 0 0.1711940439015352 0.033438306457853957 0 0.1711940439015352 0.033438306457853957 0 0.16847542794000789 0.057167438616070543 0 0.14584447147983789 0.033990582107487913 0 0.19066320324723349 0.015387248028228301 0 0.1691078209153821 0.0046048894885481959 0 0.18895284903272999 -0.0048575404889695389 0 0.19066320324723349 0.015387248028228301 0 0.1758230423086195 0.0088957836842646042 0 0.1691078209153821 0.0046048894885481959 0 0.19066320324723349 0.015387248028228301 0 0.1691078209153821 0.0046048894885481959 0 0.19066320324723349 0.015387248028228301 0 0.1758230423086195 0.0088957836842646042 0 0.17972784223165261 0.021491909784250161 0 0.19082050826379479 0.032485895767318959 0 0.1711940439015352 0.033438306457853957 0 0.17972784223165261 0.021491909784250161 0 0.19066320324723349 0.015387248028228301 0 0.19082050826379479 0.032485895767318959 0 0.17972784223165261 0.021491909784250161 0 0.1758230423086195 0.0088957836842646042 0 0.17972784223165261 0.021491909784250161 0 0.1675056052825972 0.018378365846017881 0 0.1711940439015352 0.033438306457853957 0 0.17972784223165261 0.021491909784250161 0 0.1675056052825972 0.018378365846017881 0 0.1711940439015352 0.033438306457853957 0 0.15853888209613309 0.022999826915502661 0 0.14584447147983789 0.033990582107487913 0 0.15853888209613309 0.022999826915502661 0 0.1675056052825972 0.018378365846017881 0 0.14697859956607931 0.007318104113083799 0 0.1711940439015352 0.033438306457853957 0 0.15853888209613309 0.022999826915502661 0 0.1675056052825972 0.018378365846017881 0 0.1758230423086195 0.0088957836842646042 0 0.1675056052825972 0.018378365846017881 0 0.14697859956607931 0.007318104113083799 0 0.1758230423086195 0.0088957836842646042 0 0.14697859956607931 0.007318104113083799 0 0.1758230423086195 0.0088957836842646042 0 0.1691078209153821 0.0046048894885481959 0 0.14697859956607931 0.007318104113083799 0 0.1691078209153821 0.0046048894885481959 0 0.14697859956607931 0.007318104113083799 0 0.14755243858353159 -0.0061774690511338711 0 0.14697859956607931 0.007318104113083799 0 0.14755243858353159 -0.0061774690511338711 0 0.15853888209613309 0.022999826915502661 0 0.14697859956607931 0.007318104113083799 0 0.14584447147983789 0.033990582107487913 0 0.14697859956607931 0.007318104113083799 0 0.14584447147983789 0.033990582107487913 0 0.1417336200121567 0.01345912037863246 0 0.14697859956607931 0.007318104113083799 0 0.14584447147983789 0.033990582107487913 0 0.1417336200121567 0.01345912037863246 0 0.1286408934784036 0.019846303224724141 0 0.12867290277443649 0.034413889442145948 0 0.1417336200121567 0.01345912037863246 0 0.12867290277443649 0.034413889442145948 0 0.1417336200121567 0.01345912037863246 0 0.14584447147983789 0.033990582107487913 0 0.12867290277443649 0.034413889442145948 0 0.1239400564889807 0.0060579848212375977 0 0.1417336200121567 0.01345912037863246 0 0.14697859956607931 0.007318104113083799 0 0.1239400564889807 0.0060579848212375977 0 0.1417336200121567 0.01345912037863246 0 0.1286408934784036 0.019846303224724141 0 0.1239400564889807 0.0060579848212375977 0 0.14697859956607931 0.007318104113083799 0 0.13425473889622869 -0.002191714299905828 0 0.1239400564889807 0.0060579848212375977 0 0.14697859956607931 0.007318104113083799 0 0.1447103433935964 0.060663060101891937 0 0.14584447147983789 0.033990582107487913 0 0.13148930186871671 0.050716933956640307 0 0.16847542794000789 0.057167438616070543 0 0.1447103433935964 0.060663060101891937 0 0.14584447147983789 0.033990582107487913 0 0.1447103433935964 0.060663060101891937 0 0.14584447147983789 0.033990582107487913 0 0.14584447147983789 0.033990582107487913 0 0.12867290277443649 0.034413889442145948 0 0.13148930186871671 0.050716933956640307 0 0.11561218553671609 0.055368658505659307 0 0.12867290277443649 0.034413889442145948 0 0.13148930186871671 0.050716933956640307 0 0.1447103433935964 0.060663060101891937 0 0.13148930186871671 0.050716933956640307 0 0.12588022214494851 0.072187228053927507 0 0.1447103433935964 0.060663060101891937 0 0.12588022214494851 0.072187228053927507 0 0.14357621530735479 0.087335538096296184 0 0.1447103433935964 0.060663060101891937 0 0.14357621530735479 0.087335538096296184 0 0.16937810755492941 0.081533692665136687 0 0.1447103433935964 0.060663060101891937 0 0.14357621530735479 0.087335538096296184 0 0.12588022214494851 0.072187228053927507 0 0.1361482587531824 0.089005797602194819 0 0.14357621530735479 0.087335538096296184 0 0.1361482587531824 0.089005797602194819 0 0.13745471366061229 0.096656262762224388 0 0.12588022214494851 0.072187228053927507 0 0.1361482587531824 0.089005797602194819 0 0.12542688357667081 0.091416619296461415 0 0.12588022214494851 0.072187228053927507 0 0.14357621530735479 0.087335538096296184 0 0.1361482587531824 0.089005797602194819 0 0.14357621530735479 0.087335538096296184 0 0.1361482587531824 0.089005797602194819 0 0.1361482587531824 0.089005797602194819 0 0.13150993993967339 0.094294992863910645 0 0.13745471366061229 0.096656262762224388 0 0.1361482587531824 0.089005797602194819 0 0.12542688357667081 0.091416619296461415 0 0.1361482587531824 0.089005797602194819 0 0.12542688357667081 0.091416619296461415 0 0.13150993993967339 0.094294992863910645 0 0.1213735514211243 0.099940318165552516 0 0.12542688357667081 0.091416619296461415 0 0.13150993993967339 0.094294992863910645 0 0.1213735514211243 0.099940318165552516 0 0.13150993993967339 0.094294992863910645 0 0.1315073885686468 0.10325664720167629 0 0.1315073885686468 0.10325664720167629 0 0.13745471366061229 0.096656262762224388 0 0.1427978348855905 0.1056415256850429 0 0.1315073885686468 0.10325664720167629 0 0.13306318807851139 0.1145925558189294 0 0.1427978348855905 0.1056415256850429 0 0.13150993993967339 0.094294992863910645 0 0.1315073885686468 0.10325664720167629 0 0.13745471366061229 0.096656262762224388 0 0.13306318807851139 0.1145925558189294 0 0.14201945446382611 0.12394751327378981 0 0.1427978348855905 0.1056415256850429 0 0.12163788201371439 0.1132883282973552 0 0.1273533804607794 0.12682876463678269 0 0.13306318807851139 0.1145925558189294 0 0.12163788201371439 0.1132883282973552 0 0.1315073885686468 0.10325664720167629 0 0.13306318807851139 0.1145925558189294 0 0.1273533804607794 0.12682876463678269 0 0.13306318807851139 0.1145925558189294 0 0.14201945446382611 0.12394751327378981 0 0.15798998621900259 0.13149724483274239 0 0.14201945446382611 0.12394751327378981 0 0.1539433529778291 0.11577781635982259 0 0.14201945446382611 0.12394751327378981 0 0.1427978348855905 0.1056415256850429 0 0.14201945446382611 0.12394751327378981 0 0.1539433529778291 0.11577781635982259 0 0.1427978348855905 0.1056415256850429 0 0.1539433529778291 0.11577781635982259 0 0.1427978348855905 0.1056415256850429 0 0.15898975183312189 0.1012686336935327 0 0.14357621530735479 0.087335538096296184 0 0.1427978348855905 0.1056415256850429 0 0.15898975183312189 0.1012686336935327 0 0.14357621530735479 0.087335538096296184 0 0.1427978348855905 0.1056415256850429 0 0.14357621530735479 0.087335538096296184 0 0.13745471366061229 0.096656262762224388 0 0.1427978348855905 0.1056415256850429 0 0.15898975183312189 0.1012686336935327 0 0.1789995208254124 0.10139569585952191 0 0.16937810755492941 0.081533692665136687 0 0.15898975183312189 0.1012686336935327 0 0.16791973748760439 0.1165341643140049 0 0.1789995208254124 0.10139569585952191 0 0.15798998621900259 0.13149724483274239 0 0.1539433529778291 0.11577781635982259 0 0.16791973748760439 0.1165341643140049 0 0.1539433529778291 0.11577781635982259 0 0.15898975183312189 0.1012686336935327 0 0.16791973748760439 0.1165341643140049 0 0.1711705095452756 0.1297523407785838 0 0.16791973748760439 0.1165341643140049 0 0.18638184224766641 0.12281455805765509 0 0.16791973748760439 0.1165341643140049 0 0.18638184224766641 0.12281455805765509 0 0.1789995208254124 0.10139569585952191 0 0.1789995208254124 0.10139569585952191 0 0.18598271011283771 0.089031738991003417 0 0.16937810755492941 0.081533692665136687 0 0.195179999802504 0.075731847233977231 0 0.18598271011283771 0.089031738991003417 0 0.16937810755492941 0.081533692665136687 0 0.195179999802504 0.075731847233977231 0 0.16937810755492941 0.081533692665136687 0 0.195179999802504 0.075731847233977231 0 0.1810291263123297 0.068254633968108436 0 0.16937810755492941 0.081533692665136687 0 0.16847542794000789 0.057167438616070543 0 0.1810291263123297 0.068254633968108436 0 0.16937810755492941 0.081533692665136687 0 0.16847542794000789 0.057167438616070543 0 0.1447103433935964 0.060663060101891937 0 0.16937810755492941 0.081533692665136687 0 0.14357621530735479 0.087335538096296184 0 0.15898975183312189 0.1012686336935327 0 0.16937810755492941 0.081533692665136687 0 0.14357621530735479 0.087335538096296184 0 0.16937810755492941 0.081533692665136687 0 0.10577626293428551 0.4700423801751818 0 0.094009612138719195 0.47787486084867981 0 0.086537569746801504 0.46678216810506867 0 0.10577626293428551 0.4700423801751818 0 0.094009612138719195 0.47787486084867981 0 0.10667653476511769 0.48851949158226532 0 0.094009612138719195 0.47787486084867981 0 0.10667653476511769 0.48851949158226532 0 0.081051026113609245 0.48469265544301993 0 0.094705857698717422 0.5 0 0.10667653476511769 0.48851949158226532 0 0.1243215920390261 0.5 0 0.10667653476511769 0.48851949158226532 0 0.081051026113609245 0.48469265544301993 0 0.094705857698717422 0.5 0 0.10667653476511769 0.48851949158226532 0 0.081051026113609245 0.48469265544301993 0 0.10667653476511769 0.48851949158226532 0 0.1243215920390261 0.5 0 0.1323020434166261 0.4923463277215106 0 0.10667653476511769 0.48851949158226532 0 0.1323020434166261 0.4923463277215106 0 0.10667653476511769 0.48851949158226532 0 0.12668001619786909 0.48103964315399739 0 0.1323020434166261 0.4923463277215106 0 0.10577626293428551 0.4700423801751818 0 0.10667653476511769 0.48851949158226532 0 0.119461910338056 0.47410814557822523 0 0.10667653476511769 0.48851949158226532 0 0.119461910338056 0.47410814557822523 0 0.12668001619786909 0.48103964315399739 0 0.1181312004334784 0.45680630514953791 0 0.1222164728074869 0.44357218025957901 0 0.1305125323691684 0.4630138917555483 0 0.119461910338056 0.47410814557822523 0 0.1181312004334784 0.45680630514953791 0 0.1305125323691684 0.4630138917555483 0 0.10577626293428551 0.4700423801751818 0 0.119461910338056 0.47410814557822523 0 0.1181312004334784 0.45680630514953791 0 0.10577626293428551 0.4700423801751818 0 0.1181312004334784 0.45680630514953791 0 0.1043770212771442 0.45517717418232367 0 0.1181312004334784 0.45680630514953791 0 0.1222164728074869 0.44357218025957901 0 0.1043770212771442 0.45517717418232367 0 0.1222164728074869 0.44357218025957901 0 0.1079221991416817 0.44329512817934957 0 0.1043770212771442 0.45517717418232367 0 0.1222164728074869 0.44357218025957901 0 0.1043770212771442 0.45517717418232367 0 0.1222164728074869 0.44357218025957901 0 0.1176878307098693 0.43295936432258347 0 0.1222164728074869 0.44357218025957901 0 0.1079221991416817 0.44329512817934957 0 0.1176878307098693 0.43295936432258347 0 0.1079221991416817 0.44329512817934957 0 0.094896225948322727 0.43669626533280659 0 0.1176878307098693 0.43295936432258347 0 0.1004334449655858 0.44807065679945651 0 0.1043770212771442 0.45517717418232367 0 0.08610261980869216 0.45391469394705941 0 0.1079221991416817 0.44329512817934957 0 0.1004334449655858 0.44807065679945651 0 0.1043770212771442 0.45517717418232367 0 0.1079221991416817 0.44329512817934957 0 0.1004334449655858 0.44807065679945651 0 0.094896225948322727 0.43669626533280659 0 0.10577626293428551 0.4700423801751818 0 0.1043770212771442 0.45517717418232367 0 0.086537569746801504 0.46678216810506867 0 0.1043770212771442 0.45517717418232367 0 0.086537569746801504 0.46678216810506867 0 0.1043770212771442 0.45517717418232367 0 0.08610261980869216 0.45391469394705941 0 0.086537569746801504 0.46678216810506867 0 0.08610261980869216 0.45391469394705941 0 0.086537569746801504 0.46678216810506867 0 0.068946235272347584 0.45740338870606978 0 0.1004334449655858 0.44807065679945651 0 0.072104621186776463 0.44043316634303109 0 0.094896225948322727 0.43669626533280659 0 0.1004334449655858 0.44807065679945651 0 0.08610261980869216 0.45391469394705941 0 0.072104621186776463 0.44043316634303109 0 0.1004334449655858 0.44807065679945651 0 0.072104621186776463 0.44043316634303109 0 0.072104621186776463 0.44043316634303109 0 0.094896225948322727 0.43669626533280659 0 0.072104621186776463 0.44043316634303109 0 0.055199975085208741 0.43587565014405288 0 0.072104621186776463 0.44043316634303109 0 0.068946235272347584 0.45740338870606978 0 0.052833628877941879 0.4435928293584398 0 0.08610261980869216 0.45391469394705941 0 0.072104621186776463 0.44043316634303109 0 0.068946235272347584 0.45740338870606978 0 0.086537569746801504 0.46678216810506867 0 0.068946235272347584 0.45740338870606978 0 0.068698118216458035 0.47838716202781251 0 0.086537569746801504 0.46678216810506867 0 0.068698118216458035 0.47838716202781251 0 0.068698118216458035 0.47838716202781251 0 0.0782752803601304 0.48606644674925642 0 0.081051026113609245 0.48469265544301993 0 0.068698118216458035 0.47838716202781251 0 0.082574081553897172 0.47693421160614552 0 0.081051026113609245 0.48469265544301993 0 0.068698118216458035 0.47838716202781251 0 0.0782752803601304 0.48606644674925642 0 0.086537569746801504 0.46678216810506867 0 0.068698118216458035 0.47838716202781251 0 0.082574081553897172 0.47693421160614552 0 0.094009612138719195 0.47787486084867981 0 0.082574081553897172 0.47693421160614552 0 0.081051026113609245 0.48469265544301993 0 0.094009612138719195 0.47787486084867981 0 0.086537569746801504 0.46678216810506867 0 0.082574081553897172 0.47693421160614552 0 0.094705857698717422 0.5 0 0.0782752803601304 0.48606644674925642 0 0.081051026113609245 0.48469265544301993 0 0.094705857698717422 0.5 0 0.0782752803601304 0.48606644674925642 0 0.065090123358408802 0.5 0 0.068698118216458035 0.47838716202781251 0 0.067146038139959743 0.48900284685792322 0 0.052086253617279019 0.48919358101390459 0 0.068698118216458035 0.47838716202781251 0 0.0782752803601304 0.48606644674925642 0 0.067146038139959743 0.48900284685792322 0 0.0782752803601304 0.48606644674925642 0 0.067146038139959743 0.48900284685792322 0 0.065090123358408802 0.5 0 0.067146038139959743 0.48900284685792322 0 0.065090123358408802 0.5 0 0.052086253617279019 0.48919358101390459 0 0.065090123358408802 0.5 0 0.052086253617279019 0.48919358101390459 0 0.035474389018100412 0.49999999999999728 0 0.068698118216458035 0.47838716202781251 0 0.052649631230484897 0.476616722031033 0 0.047400853797415543 0.46131031245500742 0 0.068698118216458035 0.47838716202781251 0 0.052086253617279019 0.48919358101390459 0 0.052649631230484897 0.476616722031033 0 0.042413299290785231 0.47757583262740771 0 0.047400853797415543 0.46131031245500742 0 0.068698118216458035 0.47838716202781251 0 0.047400853797415543 0.46131031245500742 0 0.068698118216458035 0.47838716202781251 0 0.052086253617279019 0.48919358101390459 0 0.052649631230484897 0.476616722031033 0 0.052086253617279019 0.48919358101390459 0 0.052649631230484897 0.476616722031033 0 0.042413299290785231 0.47757583262740771 0 0.042413299290785231 0.47757583262740771 0 0.028421337654411901 0.48567849663098789 0 0.031000672442719961 0.46637699240586461 0 0.042413299290785231 0.47757583262740771 0 0.047400853797415543 0.46131031245500742 0 0.052086253617279019 0.48919358101390459 0 0.042413299290785231 0.47757583262740771 0 0.037425744784155487 0.49384135279980812 0 0.042413299290785231 0.47757583262740771 0 0.037425744784155487 0.49384135279980812 0 0.052086253617279019 0.48919358101390459 0 0.035474389018100412 0.49999999999999728 0 0.052086253617279019 0.48919358101390459 0 0.035474389018100412 0.49999999999999728 0 0.037425744784155487 0.49384135279980812 0 0.042413299290785231 0.47757583262740771 0 0.037425744784155487 0.49384135279980812 0 0.028421337654411901 0.48567849663098789 0 0.035474389018100412 0.49999999999999728 0 0.037425744784155487 0.49384135279980812 0 0.028421337654411901 0.48567849663098789 0 0.028421337654411901 0.48567849663098789 0 0.016231389661459188 0.47627680195284761 0 0.0079825307292511472 0.5 0 0.035474389018100412 0.49999999999999728 0 0.028421337654411901 0.48567849663098789 0 0.0079825307292511472 0.5 0 0.028421337654411901 0.48567849663098789 0 0.016231389661459188 0.47627680195284761 0 0.031000672442719961 0.46637699240586461 0 -0.0045817790512163083 0.47870475508538007 0 0.016231389661459188 0.47627680195284761 0 0.0064332953699368619 0.46532004502612151 0 -0.0045817790512163083 0.47870475508538007 0 0.016231389661459188 0.47627680195284761 0 0.0079825307292511472 0.5 0 -0.0021159430116009159 0.43995865036000609 0 0.0094198028986386927 0.45071094025309089 0 0.01348301981690837 0.43411387363901888 0 -0.011138533499172879 0.45408167561188928 0 0.0094198028986386927 0.45071094025309089 0 0.0064332953699368619 0.46532004502612151 0 0.016231389661459188 0.47627680195284761 0 0.0064332953699368619 0.46532004502612151 0 0.018612659933840991 0.46120499690644351 0 0.0094198028986386927 0.45071094025309089 0 0.0064332953699368619 0.46532004502612151 0 0.018612659933840991 0.46120499690644351 0 0.018612659933840991 0.46120499690644351 0 0.031000672442719961 0.46637699240586461 0 0.029978139296450591 0.44734020489429449 0 0.016231389661459188 0.47627680195284761 0 0.018612659933840991 0.46120499690644351 0 0.031000672442719961 0.46637699240586461 0 0.0094198028986386927 0.45071094025309089 0 0.029978139296450591 0.44734020489429449 0 0.0094198028986386927 0.45071094025309089 0 0.018612659933840991 0.46120499690644351 0 0.029978139296450591 0.44734020489429449 0 0.029978139296450591 0.44734020489429449 0 0.01348301981690837 0.43411387363901888 0 0.0094198028986386927 0.45071094025309089 0 0.029978139296450591 0.44734020489429449 0 0.01348301981690837 0.43411387363901888 0 0.029978139296450591 0.44734020489429449 0 0.035608138070103323 0.43059366352169892 0 0.025191139725237399 0.43641122769768798 0 0.029978139296450591 0.44734020489429449 0 0.025191139725237399 0.43641122769768798 0 0.01348301981690837 0.43411387363901888 0 0.029978139296450591 0.44734020489429449 0 0.052833628877941879 0.4435928293584398 0 0.029978139296450591 0.44734020489429449 0 0.052833628877941879 0.4435928293584398 0 0.035608138070103323 0.43059366352169892 0 0.029978139296450591 0.44734020489429449 0 0.047400853797415543 0.46131031245500742 0 0.052833628877941879 0.4435928293584398 0 0.042413299290785231 0.47757583262740771 0 0.031000672442719961 0.46637699240586461 0 0.047400853797415543 0.46131031245500742 0 0.029978139296450591 0.44734020489429449 0 0.047400853797415543 0.46131031245500742 0 0.031000672442719961 0.46637699240586461 0 0.029978139296450591 0.44734020489429449 0 0.047400853797415543 0.46131031245500742 0 0.068946235272347584 0.45740338870606978 0 0.047400853797415543 0.46131031245500742 0 0.052833628877941879 0.4435928293584398 0 0.068946235272347584 0.45740338870606978 0 0.068698118216458035 0.47838716202781251 0 0.047400853797415543 0.46131031245500742 0 0.072104621186776463 0.44043316634303109 0 0.052833628877941879 0.4435928293584398 0 0.055199975085208741 0.43587565014405288 0 0.047400853797415543 0.46131031245500742 0 0.052833628877941879 0.4435928293584398 0 0.072104621186776463 0.44043316634303109 0 0.052833628877941879 0.4435928293584398 0 0.052833628877941879 0.4435928293584398 0 0.055199975085208741 0.43587565014405288 0 0.055199975085208741 0.43587565014405288 0 0.061182121035401119 0.41636654693570557 0 0.052833628877941879 0.4435928293584398 0 0.055199975085208741 0.43587565014405288 0 0.035608138070103323 0.43059366352169892 0 0.055199975085208741 0.43587565014405288 0 0.061182121035401119 0.41636654693570557 0 0.044662937950847567 0.41945916844510428 0 0.055199975085208741 0.43587565014405288 0 0.061182121035401119 0.41636654693570557 0 0.066776822746667852 0.42874683901368721 0 0.061182121035401119 0.41636654693570557 0 0.050814998088771032 0.39978903871967358 0 0.068756162511586505 0.40437120586653352 0 0.061182121035401119 0.41636654693570557 0 0.044662937950847567 0.41945916844510428 0 0.050814998088771032 0.39978903871967358 0 0.044662937950847567 0.41945916844510428 0 0.028786809997765551 0.40573732093901871 0 0.050814998088771032 0.39978903871967358 0 0.044662937950847567 0.41945916844510428 0 0.028509067970002921 0.419360514682251 0 0.028786809997765551 0.40573732093901871 0 0.055199975085208741 0.43587565014405288 0 0.044662937950847567 0.41945916844510428 0 0.035608138070103323 0.43059366352169892 0 0.044662937950847567 0.41945916844510428 0 0.035608138070103323 0.43059366352169892 0 0.028509067970002921 0.419360514682251 0 0.055199975085208741 0.43587565014405288 0 0.035608138070103323 0.43059366352169892 0 0.035608138070103323 0.43059366352169892 0 0.016016301054997791 0.42531167689934513 0 0.028509067970002921 0.419360514682251 0 0.035608138070103323 0.43059366352169892 0 0.025191139725237399 0.43641122769768798 0 0.016016301054997791 0.42531167689934513 0 0.035608138070103323 0.43059366352169892 0 0.016016301054997791 0.42531167689934513 0 0.025191139725237399 0.43641122769768798 0 0.016016301054997791 0.42531167689934513 0 0.01348301981690837 0.43411387363901888 0 0.020816038443629802 0.414667764830562 0 0.0099519747517529296 0.40826154680163318 0 0.028786809997765551 0.40573732093901871 0 0.028509067970002921 0.419360514682251 0 0.020816038443629802 0.414667764830562 0 0.028786809997765551 0.40573732093901871 0 0.016016301054997791 0.42531167689934513 0 0.028509067970002921 0.419360514682251 0 0.020816038443629802 0.414667764830562 0 -0.003012099662632016 0.42088754238374099 0 0.016016301054997791 0.42531167689934513 0 0.0099519747517529296 0.40826154680163318 0 0.016016301054997791 0.42531167689934513 0 0.020816038443629802 0.414667764830562 0 0.0099519747517529296 0.40826154680163318 0 -0.003012099662632016 0.42088754238374099 0 -0.0021159430116009159 0.43995865036000609 0 0.01348301981690837 0.43411387363901888 0 -0.003012099662632016 0.42088754238374099 0 0.016016301054997791 0.42531167689934513 0 0.01348301981690837 0.43411387363901888 0 -0.003012099662632016 0.42088754238374099 0 0.01348301981690837 0.43411387363901888 0 -0.0075904710993036952 0.38065456094308459 0 0.012175792041825669 0.39085443222066307 0 0.01108925367635295 0.36604935914041592 0 -0.0078014489144799257 0.39873355852615783 0 0.0099519747517529296 0.40826154680163318 0 0.012175792041825669 0.39085443222066307 0 0.012175792041825669 0.39085443222066307 0 0.028786809997765551 0.40573732093901871 0 0.033484627579319949 0.38745508846117488 0 0.0099519747517529296 0.40826154680163318 0 0.012175792041825669 0.39085443222066307 0 0.028786809997765551 0.40573732093901871 0 0.012175792041825669 0.39085443222066307 0 0.033484627579319949 0.38745508846117488 0 0.01108925367635295 0.36604935914041592 0 0.033484627579319949 0.38745508846117488 0 0.050814998088771032 0.39978903871967358 0 0.050491509018716373 0.3803847838302668 0 0.033484627579319949 0.38745508846117488 0 0.050491509018716373 0.3803847838302668 0 0.038382671529215227 0.36585110563738632 0 0.028786809997765551 0.40573732093901871 0 0.033484627579319949 0.38745508846117488 0 0.050814998088771032 0.39978903871967358 0 0.050491509018716373 0.3803847838302668 0 0.069388425159427447 0.3851289585298614 0 0.060386822736848221 0.36369972780323778 0 0.050814998088771032 0.39978903871967358 0 0.050491509018716373 0.3803847838302668 0 0.069388425159427447 0.3851289585298614 0 0.069388425159427447 0.3851289585298614 0 0.095690561175170441 0.38603236174245181 0 0.083369364441681137 0.37131683671437582 0 0.069388425159427447 0.3851289585298614 0 0.087157149628351027 0.40455166688354771 0 0.095690561175170441 0.38603236174245181 0 0.069388425159427447 0.3851289585298614 0 0.087157149628351027 0.40455166688354771 0 0.068756162511586505 0.40437120586653352 0 0.050814998088771032 0.39978903871967358 0 0.069388425159427447 0.3851289585298614 0 0.068756162511586505 0.40437120586653352 0 0.061182121035401119 0.41636654693570557 0 0.068756162511586505 0.40437120586653352 0 0.079492646111313681 0.42256828529319579 0 0.061182121035401119 0.41636654693570557 0 0.066776822746667852 0.42874683901368721 0 0.079492646111313681 0.42256828529319579 0 0.072104621186776463 0.44043316634303109 0 0.055199975085208741 0.43587565014405288 0 0.066776822746667852 0.42874683901368721 0 0.072104621186776463 0.44043316634303109 0 0.066776822746667852 0.42874683901368721 0 0.079492646111313681 0.42256828529319579 0 0.079492646111313681 0.42256828529319579 0 0.097289665049440588 0.42103815268259481 0 0.094896225948322727 0.43669626533280659 0 0.072104621186776463 0.44043316634303109 0 0.079492646111313681 0.42256828529319579 0 0.094896225948322727 0.43669626533280659 0 0.087157149628351027 0.40455166688354771 0 0.068756162511586505 0.40437120586653352 0 0.079492646111313681 0.42256828529319579 0 0.087157149628351027 0.40455166688354771 0 0.079492646111313681 0.42256828529319579 0 0.097289665049440588 0.42103815268259481 0 0.097289665049440588 0.42103815268259481 0 0.10721447284934631 0.40841518158084078 0 0.1176878307098693 0.43295936432258347 0 0.087157149628351027 0.40455166688354771 0 0.097289665049440588 0.42103815268259481 0 0.10721447284934631 0.40841518158084078 0 0.094896225948322727 0.43669626533280659 0 0.1176878307098693 0.43295936432258347 0 0.097289665049440588 0.42103815268259481 0 0.094896225948322727 0.43669626533280659 0 0.1176878307098693 0.43295936432258347 0 0.1176878307098693 0.43295936432258347 0 0.1243310387046889 0.41603176855038743 0 0.12604262292148199 0.42647083313318518 0 0.1222164728074869 0.44357218025957901 0 0.1176878307098693 0.43295936432258347 0 0.12876551550400059 0.43460589694842883 0 0.10721447284934631 0.40841518158084078 0 0.1176878307098693 0.43295936432258347 0 0.1243310387046889 0.41603176855038743 0 0.10721447284934631 0.40841518158084078 0 0.1176878307098693 0.43295936432258347 0 0.10721447284934631 0.40841518158084078 0 0.1243310387046889 0.41603176855038743 0 0.13619284949875321 0.39929892411633272 0 0.10721447284934631 0.40841518158084078 0 0.11771679450181689 0.3832630018172335 0 0.13619284949875321 0.39929892411633272 0 0.11771679450181689 0.3832630018172335 0 0.095690561175170441 0.38603236174245181 0 0.099780515437714573 0.36463033482074242 0 0.10721447284934631 0.40841518158084078 0 0.11771679450181689 0.3832630018172335 0 0.095690561175170441 0.38603236174245181 0 0.087157149628351027 0.40455166688354771 0 0.10721447284934631 0.40841518158084078 0 0.095690561175170441 0.38603236174245181 0 0.099780515437714573 0.36463033482074242 0 0.1050737641581489 0.33942104570655518 0 0.099780515437714573 0.36463033482074242 0 0.1050737641581489 0.33942104570655518 0 0.084743885465307173 0.33807835822686683 0 0.099780515437714573 0.36463033482074242 0 0.121789080263662 0.34498164073752818 0 0.1050737641581489 0.33942104570655518 0 0.11771679450181689 0.3832630018172335 0 0.099780515437714573 0.36463033482074242 0 0.12660669037330549 0.36271484456009612 0 0.099780515437714573 0.36463033482074242 0 0.121789080263662 0.34498164073752818 0 0.12660669037330549 0.36271484456009612 0 0.121789080263662 0.34498164073752818 0 0.11962419245122299 0.3292512183551024 0 0.1050737641581489 0.33942104570655518 0 0.121789080263662 0.34498164073752818 0 0.11962419245122299 0.3292512183551024 0 0.13226107164163281 0.33100403149525809 0 0.11962419245122299 0.3292512183551024 0 0.11036701287858321 0.31421175659236822 0 0.12863003331408809 0.31663761724380213 0 0.11962419245122299 0.3292512183551024 0 0.11036701287858321 0.31421175659236822 0 0.1050737641581489 0.33942104570655518 0 0.11036701287858321 0.31421175659236822 0 0.097429956329751488 0.32465569694362811 0 0.09925743329019554 0.3028290054841502 0 0.11036701287858321 0.31421175659236822 0 0.1050737641581489 0.33942104570655518 0 0.11036701287858321 0.31421175659236822 0 0.097429956329751488 0.32465569694362811 0 0.1050737641581489 0.33942104570655518 0 0.097429956329751488 0.32465569694362811 0 0.1050737641581489 0.33942104570655518 0 0.084743885465307173 0.33807835822686683 0 0.097429956329751488 0.32465569694362811 0 0.082854604981373731 0.31665554349011932 0 0.09925743329019554 0.3028290054841502 0 0.097429956329751488 0.32465569694362811 0 0.084743885465307173 0.33807835822686683 0 0.082854604981373731 0.31665554349011932 0 0.082854604981373731 0.31665554349011932 0 0.066451776672551949 0.33048208149608832 0 0.082854604981373731 0.31665554349011932 0 0.066451776672551949 0.33048208149608832 0 0.067953514711265053 0.3036918758873976 0 0.084743885465307173 0.33807835822686683 0 0.082854604981373731 0.31665554349011932 0 0.066451776672551949 0.33048208149608832 0 0.084743885465307173 0.33807835822686683 0 0.066451776672551949 0.33048208149608832 0 0.063492039926498003 0.34601433973435142 0 0.084743885465307173 0.33807835822686683 0 0.063492039926498003 0.34601433973435142 0 0.075298706626969594 0.35623811305236902 0 0.063492039926498003 0.34601433973435142 0 0.075298706626969594 0.35623811305236902 0 0.060386822736848221 0.36369972780323778 0 0.099780515437714573 0.36463033482074242 0 0.084743885465307173 0.33807835822686683 0 0.075298706626969594 0.35623811305236902 0 0.095690561175170441 0.38603236174245181 0 0.099780515437714573 0.36463033482074242 0 0.083369364441681137 0.37131683671437582 0 0.099780515437714573 0.36463033482074242 0 0.075298706626969594 0.35623811305236902 0 0.083369364441681137 0.37131683671437582 0 0.075298706626969594 0.35623811305236902 0 0.083369364441681137 0.37131683671437582 0 0.060386822736848221 0.36369972780323778 0 0.069388425159427447 0.3851289585298614 0 0.083369364441681137 0.37131683671437582 0 0.060386822736848221 0.36369972780323778 0 0.050491509018716373 0.3803847838302668 0 0.060386822736848221 0.36369972780323778 0 0.038382671529215227 0.36585110563738632 0 0.063492039926498003 0.34601433973435142 0 0.060386822736848221 0.36369972780323778 0 0.046522661719599789 0.34166340951945512 0 0.060386822736848221 0.36369972780323778 0 0.038382671529215227 0.36585110563738632 0 0.046522661719599789 0.34166340951945512 0 0.038382671529215227 0.36585110563738632 0 0.023914334698852419 0.34486569488268792 0 0.046522661719599789 0.34166340951945512 0 0.033484627579319949 0.38745508846117488 0 0.038382671529215227 0.36585110563738632 0 0.01108925367635295 0.36604935914041592 0 0.038382671529215227 0.36585110563738632 0 0.023914334698852419 0.34486569488268792 0 0.038382671529215227 0.36585110563738632 0 0.023914334698852419 0.34486569488268792 0 0.01108925367635295 0.36604935914041592 0 -0.001110262704930928 0.35011502268816069 0 0.023914334698852419 0.34486569488268792 0 0.01108925367635295 0.36604935914041592 0 -0.0050223389618732914 0.30289487337329102 0 0.0094459978684895869 0.32388028412798953 0 0.0094459978684895869 0.32388028412798953 0 0.019993671777905179 0.31751977851401808 0 0.01026783784000657 0.31069511603398342 0 -0.0019565329990520641 0.33409639726545692 0 -0.001110262704930928 0.35011502268816069 0 0.023914334698852419 0.34486569488268792 0 -0.0019565329990520641 0.33409639726545692 0 0.023914334698852419 0.34486569488268792 0 0.0094459978684895869 0.32388028412798953 0 0.023914334698852419 0.34486569488268792 0 0.0094459978684895869 0.32388028412798953 0 0.023914334698852419 0.34486569488268792 0 0.0094459978684895869 0.32388028412798953 0 0.029513207579376151 0.32552528258196378 0 0.029513207579376151 0.32552528258196378 0 0.019993671777905179 0.31751977851401808 0 0.030272858672390272 0.30540509730172438 0 0.0094459978684895869 0.32388028412798953 0 0.029513207579376151 0.32552528258196378 0 0.019993671777905179 0.31751977851401808 0 0.029513207579376151 0.32552528258196378 0 0.046522661719599789 0.34166340951945512 0 0.04780130479695225 0.31249744782473882 0 0.029513207579376151 0.32552528258196378 0 0.04780130479695225 0.31249744782473882 0 0.030272858672390272 0.30540509730172438 0 0.023914334698852419 0.34486569488268792 0 0.029513207579376151 0.32552528258196378 0 0.046522661719599789 0.34166340951945512 0 0.066451776672551949 0.33048208149608832 0 0.046522661719599789 0.34166340951945512 0 0.04780130479695225 0.31249744782473882 0 0.066451776672551949 0.33048208149608832 0 0.063492039926498003 0.34601433973435142 0 0.046522661719599789 0.34166340951945512 0 0.066451776672551949 0.33048208149608832 0 0.04780130479695225 0.31249744782473882 0 0.067953514711265053 0.3036918758873976 0 0.04780130479695225 0.31249744782473882 0 0.055217334757804451 0.29110752823730268 0 0.067953514711265053 0.3036918758873976 0 0.04780130479695225 0.31249744782473882 0 0.055217334757804451 0.29110752823730268 0 0.040202290609841908 0.29150519448110362 0 0.055217334757804451 0.29110752823730268 0 0.040202290609841908 0.29150519448110362 0 0.04864818755784802 0.27161139331476858 0 0.055217334757804451 0.29110752823730268 0 0.04864818755784802 0.27161139331476858 0 0.068467240732479132 0.28314069305617201 0 0.040202290609841908 0.29150519448110362 0 0.030272858672390272 0.30540509730172438 0 0.028019860018031421 0.27848522416010713 0 0.04780130479695225 0.31249744782473882 0 0.040202290609841908 0.29150519448110362 0 0.030272858672390272 0.30540509730172438 0 0.019993671777905179 0.31751977851401808 0 0.030272858672390272 0.30540509730172438 0 0.01026783784000657 0.31069511603398342 0 0.030272858672390272 0.30540509730172438 0 0.015308633823028221 0.29347184634942858 0 0.01026783784000657 0.31069511603398342 0 0.030272858672390272 0.30540509730172438 0 0.028019860018031421 0.27848522416010713 0 0.030272858672390272 0.30540509730172438 0 0.015308633823028221 0.29347184634942858 0 0.028019860018031421 0.27848522416010713 0 0.015308633823028221 0.29347184634942858 0 0.0039859999487342314 0.28783446656013029 0 0.0065789142673400199 0.27482855180758531 0 0.0039859999487342314 0.28783446656013029 0 0.01026783784000657 0.31069511603398342 0 0.015308633823028221 0.29347184634942858 0 0.0039859999487342314 0.28783446656013029 0 0.01026783784000657 0.31069511603398342 0 -0.0050223389618732914 0.30289487337329102 0 0.0094459978684895869 0.32388028412798953 0 0.01026783784000657 0.31069511603398342 0 -0.0050223389618732914 0.30289487337329102 0 0.0039859999487342314 0.28783446656013029 0 0.01026783784000657 0.31069511603398342 0 -0.0022958379425381419 0.2649738170862771 0 0.0039009629746646879 0.24812698552186049 0 0.014771966915814489 0.2644001812966465 0 0.015308633823028221 0.29347184634942858 0 0.014771966915814489 0.2644001812966465 0 0.0065789142673400199 0.27482855180758531 0 -0.0022958379425381419 0.2649738170862771 0 0.014771966915814489 0.2644001812966465 0 0.0065789142673400199 0.27482855180758531 0 -0.0022958379425381419 0.2649738170862771 0 0.0039859999487342314 0.28783446656013029 0 0.0065789142673400199 0.27482855180758531 0 -0.0022958379425381419 0.2649738170862771 0 0.0039859999487342314 0.28783446656013029 0 0.015308633823028221 0.29347184634942858 0 0.014771966915814489 0.2644001812966465 0 0.015308633823028221 0.29347184634942858 0 0.014771966915814489 0.2644001812966465 0 0.028019860018031421 0.27848522416010713 0 0.01423530000860075 0.23532851624386431 0 0.014771966915814489 0.2644001812966465 0 0.025766861363672601 0.25156535101848998 0 0.014771966915814489 0.2644001812966465 0 0.028019860018031421 0.27848522416010713 0 0.025766861363672601 0.25156535101848998 0 0.028019860018031421 0.27848522416010713 0 0.025766861363672601 0.25156535101848998 0 0.050999165831975862 0.24820316043305771 0 0.025766861363672601 0.25156535101848998 0 0.04864818755784802 0.27161139331476858 0 0.040202290609841908 0.29150519448110362 0 0.028019860018031421 0.27848522416010713 0 0.04864818755784802 0.27161139331476858 0 0.028019860018031421 0.27848522416010713 0 0.025766861363672601 0.25156535101848998 0 0.04864818755784802 0.27161139331476858 0 0.050999165831975862 0.24820316043305771 0 0.04864818755784802 0.27161139331476858 0 0.072639192141287834 0.2613917905474914 0 0.050999165831975862 0.24820316043305771 0 0.072639192141287834 0.2613917905474914 0 0.086038224805844388 0.24831021659212749 0 0.072639192141287834 0.2613917905474914 0 0.0899957629658827 0.25946459917767267 0 0.072639192141287834 0.2613917905474914 0 0.0899957629658827 0.25946459917767267 0 0.094279218450599833 0.27458042066192512 0 0.086038224805844388 0.24831021659212749 0 0.097859925783189611 0.24905753230476591 0 0.0899957629658827 0.25946459917767267 0 0.072639192141287834 0.2613917905474914 0 0.082213320178763663 0.27962343669922679 0 0.094279218450599833 0.27458042066192512 0 0.072639192141287834 0.2613917905474914 0 0.094279218450599833 0.27458042066192512 0 0.082213320178763663 0.27962343669922679 0 0.091291647968524264 0.28512478281912101 0 0.094279218450599833 0.27458042066192512 0 0.04864818755784802 0.27161139331476858 0 0.072639192141287834 0.2613917905474914 0 0.068467240732479132 0.28314069305617201 0 0.072639192141287834 0.2613917905474914 0 0.082213320178763663 0.27962343669922679 0 0.068467240732479132 0.28314069305617201 0 0.055217334757804451 0.29110752823730268 0 0.068467240732479132 0.28314069305617201 0 0.067953514711265053 0.3036918758873976 0 0.068467240732479132 0.28314069305617201 0 0.067953514711265053 0.3036918758873976 0 0.084389301600927238 0.29387949641142452 0 0.082854604981373731 0.31665554349011932 0 0.067953514711265053 0.3036918758873976 0 0.084389301600927238 0.29387949641142452 0 0.082854604981373731 0.31665554349011932 0 0.09925743329019554 0.3028290054841502 0 0.082854604981373731 0.31665554349011932 0 0.084389301600927238 0.29387949641142452 0 0.09925743329019554 0.3028290054841502 0 0.082213320178763663 0.27962343669922679 0 0.068467240732479132 0.28314069305617201 0 0.084389301600927238 0.29387949641142452 0 0.084389301600927238 0.29387949641142452 0 0.091291647968524264 0.28512478281912101 0 0.09570559536521224 0.29230213088646362 0 0.084389301600927238 0.29387949641142452 0 0.09570559536521224 0.29230213088646362 0 0.09925743329019554 0.3028290054841502 0 0.082213320178763663 0.27962343669922679 0 0.084389301600927238 0.29387949641142452 0 0.091291647968524264 0.28512478281912101 0 0.1036309936702767 0.29149873075812238 0 0.09925743329019554 0.3028290054841502 0 0.1159192447599116 0.28776905077635928 0 0.091291647968524264 0.28512478281912101 0 0.099254756660832666 0.28657810756932378 0 0.094279218450599833 0.27458042066192512 0 0.099254756660832666 0.28657810756932378 0 0.1082769214361254 0.28678194237249321 0 0.094279218450599833 0.27458042066192512 0 0.091291647968524264 0.28512478281912101 0 0.099254756660832666 0.28657810756932378 0 0.09570559536521224 0.29230213088646362 0 0.09925743329019554 0.3028290054841502 0 0.1159192447599116 0.28776905077635928 0 0.1082769214361254 0.28678194237249321 0 0.1159192447599116 0.28776905077635928 0 0.094279218450599833 0.27458042066192512 0 0.099254756660832666 0.28657810756932378 0 0.09570559536521224 0.29230213088646362 0 0.1036309936702767 0.29149873075812238 0 0.09570559536521224 0.29230213088646362 0 0.1036309936702767 0.29149873075812238 0 0.09925743329019554 0.3028290054841502 0 0.1036309936702767 0.29149873075812238 0 0.1082769214361254 0.28678194237249321 0 0.1159192447599116 0.28776905077635928 0 0.099254756660832666 0.28657810756932378 0 0.1036309936702767 0.29149873075812238 0 0.1082769214361254 0.28678194237249321 0 0.11036701287858321 0.31421175659236822 0 0.09925743329019554 0.3028290054841502 0 0.1159192447599116 0.28776905077635928 0 0.11036701287858321 0.31421175659236822 0 0.1245548237328559 0.30030685002459478 0 0.1159192447599116 0.28776905077635928 0 0.11036701287858321 0.31421175659236822 0 0.1159192447599116 0.28776905077635928 0 0.11036701287858321 0.31421175659236822 0 0.1245548237328559 0.30030685002459478 0 0.12863003331408809 0.31663761724380213 0 0.1159192447599116 0.28776905077635928 0 0.12849385610754149 0.27818456590142249 0 0.1159192447599116 0.28776905077635928 0 0.1207198941744671 0.264905783732022 0 0.12849385610754149 0.27818456590142249 0 0.1159192447599116 0.28776905077635928 0 0.1207198941744671 0.264905783732022 0 0.1159192447599116 0.28776905077635928 0 0.1207198941744671 0.264905783732022 0 0.1079052468572216 0.27657059993324162 0 0.1107455561999022 0.26681956768580761 0 0.1207198941744671 0.264905783732022 0 0.1079052468572216 0.27657059993324162 0 0.1133717244516699 0.24854228788529631 0 0.1107455561999022 0.26681956768580761 0 0.1207198941744671 0.264905783732022 0 0.1133717244516699 0.24854228788529631 0 0.1207198941744671 0.264905783732022 0 0.1275269656816749 0.25285499966235359 0 0.1133717244516699 0.24854228788529631 0 0.097859925783189611 0.24905753230476591 0 0.1007968949387999 0.26477649985422252 0 0.1133717244516699 0.24854228788529631 0 0.1007968949387999 0.26477649985422252 0 0.1133717244516699 0.24854228788529631 0 0.1107455561999022 0.26681956768580761 0 0.1007968949387999 0.26477649985422252 0 0.097859925783189611 0.24905753230476591 0 0.0899957629658827 0.25946459917767267 0 0.1007968949387999 0.26477649985422252 0 0.0899957629658827 0.25946459917767267 0 0.1007968949387999 0.26477649985422252 0 0.094279218450599833 0.27458042066192512 0 0.1159192447599116 0.28776905077635928 0 0.094279218450599833 0.27458042066192512 0 0.1079052468572216 0.27657059993324162 0 0.1159192447599116 0.28776905077635928 0 0.094279218450599833 0.27458042066192512 0 0.1007968949387999 0.26477649985422252 0 0.094279218450599833 0.27458042066192512 0 0.1034317291116309 0.27068677203379921 0 0.094279218450599833 0.27458042066192512 0 0.1079052468572216 0.27657059993324162 0 0.1034317291116309 0.27068677203379921 0 0.1107455561999022 0.26681956768580761 0 0.1007968949387999 0.26477649985422252 0 0.1034317291116309 0.27068677203379921 0 0.1107455561999022 0.26681956768580761 0 0.1079052468572216 0.27657059993324162 0 0.1034317291116309 0.27068677203379921 0 0.14036954408544239 0.26817411842967981 0 0.14428368253987431 0.28463012730371728 0 0.15805509543973231 0.26891320928892709 0 0.1495014956076284 0.25760633855971671 0 0.15805509543973231 0.26891320928892709 0 0.15996257146588011 0.25159141840040222 0 0.1495014956076284 0.25760633855971671 0 0.14036954408544239 0.26817411842967981 0 0.15805509543973231 0.26891320928892709 0 0.1481004650478738 0.24639836079119951 0 0.1495014956076284 0.25760633855971671 0 0.15996257146588011 0.25159141840040222 0 0.1481004650478738 0.24639836079119951 0 0.1495014956076284 0.25760633855971671 0 0.13907569272171441 0.25291667503724891 0 0.1495014956076284 0.25760633855971671 0 0.13907569272171441 0.25291667503724891 0 0.14036954408544239 0.26817411842967981 0 0.13907569272171441 0.25291667503724891 0 0.13114228173283171 0.26294732760968809 0 0.14036954408544239 0.26817411842967981 0 0.13270891909919061 0.24474443335031501 0 0.13907569272171441 0.25291667503724891 0 0.1275269656816749 0.25285499966235359 0 0.13907569272171441 0.25291667503724891 0 0.1275269656816749 0.25285499966235359 0 0.13114228173283171 0.26294732760968809 0 0.1207198941744671 0.264905783732022 0 0.1275269656816749 0.25285499966235359 0 0.13114228173283171 0.26294732760968809 0 0.1207198941744671 0.264905783732022 0 0.13114228173283171 0.26294732760968809 0 0.12849385610754149 0.27818456590142249 0 0.14036954408544239 0.26817411842967981 0 0.12849385610754149 0.27818456590142249 0 0.14428368253987431 0.28463012730371728 0 0.13114228173283171 0.26294732760968809 0 0.14036954408544239 0.26817411842967981 0 0.12849385610754149 0.27818456590142249 0 0.14036954408544239 0.26817411842967981 0 0.12849385610754149 0.27818456590142249 0 0.1245548237328559 0.30030685002459478 0 0.1159192447599116 0.28776905077635928 0 0.13986496512894489 0.30236289850356513 0 0.1159192447599116 0.28776905077635928 0 0.13986496512894489 0.30236289850356513 0 0.1159192447599116 0.28776905077635928 0 0.13231516797650031 0.28834315127046772 0 0.13986496512894489 0.30236289850356513 0 0.13231516797650031 0.28834315127046772 0 0.13986496512894489 0.30236289850356513 0 0.14428368253987431 0.28463012730371728 0 0.1159192447599116 0.28776905077635928 0 0.12849385610754149 0.27818456590142249 0 0.13231516797650031 0.28834315127046772 0 0.12849385610754149 0.27818456590142249 0 0.13231516797650031 0.28834315127046772 0 0.14428368253987431 0.28463012730371728 0 0.1245548237328559 0.30030685002459478 0 0.13986496512894489 0.30236289850356513 0 0.12863003331408809 0.31663761724380213 0 0.13986496512894489 0.30236289850356513 0 0.1623143278999383 0.2916834987335255 0 0.1631117621282499 0.31653078363396281 0 0.13986496512894489 0.30236289850356513 0 0.1631117621282499 0.31653078363396281 0 0.13986496512894489 0.30236289850356513 0 0.14428368253987431 0.28463012730371728 0 0.1623143278999383 0.2916834987335255 0 0.14428368253987431 0.28463012730371728 0 0.1623143278999383 0.2916834987335255 0 0.15805509543973231 0.26891320928892709 0 0.1623143278999383 0.2916834987335255 0 0.18747506865910579 0.30510101760344421 0 0.1631117621282499 0.31653078363396281 0 0.18747506865910579 0.30510101760344421 0 0.1631117621282499 0.31653078363396281 0 0.1623143278999383 0.2916834987335255 0 0.18046142564966461 0.28729762466349829 0 0.17628257612409209 0.27163086825979549 0 0.1623143278999383 0.2916834987335255 0 0.18747506865910579 0.30510101760344421 0 0.18046142564966461 0.28729762466349829 0 0.18046142564966461 0.28729762466349829 0 0.17628257612409209 0.27163086825979549 0 0.19635779609802209 0.27863055287893329 0 0.1623143278999383 0.2916834987335255 0 0.17628257612409209 0.27163086825979549 0 0.15805509543973231 0.26891320928892709 0 0.17628257612409209 0.27163086825979549 0 0.15805509543973231 0.26891320928892709 0 0.1728192701927784 0.25648159445298369 0 0.15805509543973231 0.26891320928892709 0 0.15996257146588011 0.25159141840040222 0 0.1728192701927784 0.25648159445298369 0 0.16795718810805399 0.24228039061988371 0 0.15996257146588011 0.25159141840040222 0 0.1728192701927784 0.25648159445298369 0 0.17628257612409209 0.27163086825979549 0 0.1728192701927784 0.25648159445298369 0 0.19120414107947081 0.25767081084390009 0 0.1811742946426502 0.24282483750608819 0 0.1728192701927784 0.25648159445298369 0 0.19120414107947081 0.25767081084390009 0 0.17628257612409209 0.27163086825979549 0 0.19120414107947081 0.25767081084390009 0 0.19635779609802209 0.27863055287893329 0 0.19120414107947081 0.25767081084390009 0 0.19635779609802209 0.27863055287893329 0 0.2153397542683741 0.26182256297288248 0 0.19635779609802209 0.27863055287893329 0 0.21302425771322361 0.27832267572640751 0 0.2153397542683741 0.26182256297288248 0 0.20502419830403379 0.24956023017771259 0 0.22495143152588301 0.24884528073656059 0 0.2153397542683741 0.26182256297288248 0 0.20502419830403379 0.24956023017771259 0 0.19120414107947081 0.25767081084390009 0 0.2153397542683741 0.26182256297288248 0 0.22495143152588301 0.24884528073656059 0 0.2153397542683741 0.26182256297288248 0 0.23542174892446999 0.26299503183490242 0 0.21302425771322361 0.27832267572640751 0 0.2153397542683741 0.26182256297288248 0 0.2285611052965352 0.27916633548088582 0 0.2153397542683741 0.26182256297288248 0 0.2285611052965352 0.27916633548088582 0 0.23542174892446999 0.26299503183490242 0 0.2491925681970294 0.27423095351175492 0 0.23542174892446999 0.26299503183490242 0 0.25559606925188771 0.25996470708327518 0 0.2285611052965352 0.27916633548088582 0 0.2491925681970294 0.27423095351175492 0 0.2412117272232841 0.28606972530263369 0 0.2285611052965352 0.27916633548088582 0 0.2491925681970294 0.27423095351175492 0 0.23542174892446999 0.26299503183490242 0 0.2447078346749649 0.24804890927139139 0 0.22495143152588301 0.24884528073656059 0 0.23542174892446999 0.26299503183490242 0 0.2447078346749649 0.24804890927139139 0 0.23542174892446999 0.26299503183490242 0 0.25559606925188771 0.25996470708327518 0 0.23463633411518911 0.2978770528810788 0 0.2434401456618274 0.31142558504640289 0 0.25400866170411829 0.29363332034749851 0 0.2285611052965352 0.27916633548088582 0 0.23463633411518911 0.2978770528810788 0 0.2412117272232841 0.28606972530263369 0 0.23463633411518911 0.2978770528810788 0 0.2412117272232841 0.28606972530263369 0 0.25400866170411829 0.29363332034749851 0 0.2491925681970294 0.27423095351175492 0 0.2412117272232841 0.28606972530263369 0 0.25400866170411829 0.29363332034749851 0 0.2285611052965352 0.27916633548088582 0 0.23463633411518911 0.2978770528810788 0 0.2118383751899629 0.29367125157292839 0 0.23463633411518911 0.2978770528810788 0 0.2434401456618274 0.31142558504640289 0 0.2235380917948199 0.31414748328362768 0 0.23463633411518911 0.2978770528810788 0 0.2118383751899629 0.29367125157292839 0 0.2235380917948199 0.31414748328362768 0 0.2118383751899629 0.29367125157292839 0 0.20311177308211659 0.31229277694023788 0 0.2235380917948199 0.31414748328362768 0 0.19635779609802209 0.27863055287893329 0 0.21302425771322361 0.27832267572640751 0 0.2118383751899629 0.29367125157292839 0 0.21302425771322361 0.27832267572640751 0 0.2285611052965352 0.27916633548088582 0 0.2118383751899629 0.29367125157292839 0 0.18747506865910579 0.30510101760344421 0 0.19635779609802209 0.27863055287893329 0 0.2118383751899629 0.29367125157292839 0 0.18747506865910579 0.30510101760344421 0 0.18046142564966461 0.28729762466349829 0 0.19635779609802209 0.27863055287893329 0 0.18747506865910579 0.30510101760344421 0 0.2118383751899629 0.29367125157292839 0 0.18747506865910579 0.30510101760344421 0 0.2118383751899629 0.29367125157292839 0 0.20311177308211659 0.31229277694023788 0 0.18747506865910579 0.30510101760344421 0 0.20311177308211659 0.31229277694023788 0 0.1815971024363173 0.3277967734427491 0 0.20311177308211659 0.31229277694023788 0 0.1979496669472742 0.33637941235112612 0 0.1815971024363173 0.3277967734427491 0 0.1979496669472742 0.33637941235112612 0 0.21062691877769549 0.34205556227045603 0 0.19083237911238921 0.3497786064685387 0 0.1979496669472742 0.33637941235112612 0 0.19083237911238921 0.3497786064685387 0 0.1815971024363173 0.3277967734427491 0 0.1979496669472742 0.33637941235112612 0 0.21062691877769549 0.34205556227045603 0 0.21051758145350591 0.32696624006137232 0 0.21062691877769549 0.34205556227045603 0 0.21051758145350591 0.32696624006137232 0 0.2227844582352726 0.32752586334059852 0 0.20311177308211659 0.31229277694023788 0 0.21051758145350591 0.32696624006137232 0 0.2235380917948199 0.31414748328362768 0 0.20311177308211659 0.31229277694023788 0 0.1979496669472742 0.33637941235112612 0 0.21051758145350591 0.32696624006137232 0 0.2235380917948199 0.31414748328362768 0 0.2227844582352726 0.32752586334059852 0 0.23689295864775101 0.32621659825429861 0 0.21051758145350591 0.32696624006137232 0 0.2235380917948199 0.31414748328362768 0 0.2227844582352726 0.32752586334059852 0 0.2227844582352726 0.32752586334059852 0 0.22489996086780981 0.34053547864011902 0 0.23167907976942881 0.33419840907374648 0 0.21062691877769549 0.34205556227045603 0 0.2227844582352726 0.32752586334059852 0 0.22489996086780981 0.34053547864011902 0 0.22489996086780981 0.34053547864011902 0 0.23347032253194111 0.34223511440482141 0 0.22857873539525339 0.34742574079988242 0 0.22489996086780981 0.34053547864011902 0 0.23347032253194111 0.34223511440482141 0 0.23167907976942881 0.33419840907374648 0 0.2227844582352726 0.32752586334059852 0 0.23167907976942881 0.33419840907374648 0 0.23689295864775101 0.32621659825429861 0 0.24111810465524761 0.3378413405971567 0 0.2464865700036242 0.33275759577526792 0 0.23689295864775101 0.32621659825429861 0 0.23167907976942881 0.33419840907374648 0 0.24111810465524761 0.3378413405971567 0 0.23689295864775101 0.32621659825429861 0 0.24111810465524761 0.3378413405971567 0 0.24419914884112401 0.34525038463059898 0 0.24071734578028439 0.34595865964671768 0 0.23347032253194111 0.34223511440482141 0 0.24111810465524761 0.3378413405971567 0 0.24071734578028439 0.34595865964671768 0 0.23347032253194111 0.34223511440482141 0 0.23167907976942881 0.33419840907374648 0 0.24111810465524761 0.3378413405971567 0 0.24111810465524761 0.3378413405971567 0 0.2464865700036242 0.33275759577526792 0 0.251761280019137 0.34053204412622701 0 0.24111810465524761 0.3378413405971567 0 0.24419914884112401 0.34525038463059898 0 0.251761280019137 0.34053204412622701 0 0.2464865700036242 0.33275759577526792 0 0.23689295864775101 0.32621659825429861 0 0.25245275997598482 0.32568808150890582 0 0.2434401456618274 0.31142558504640289 0 0.2235380917948199 0.31414748328362768 0 0.23689295864775101 0.32621659825429861 0 0.2434401456618274 0.31142558504640289 0 0.23689295864775101 0.32621659825429861 0 0.25245275997598482 0.32568808150890582 0 0.24483918851215331 0.35380221126362638 0 0.23672266086902641 0.35623314440644271 0 0.2330683519035314 0.37722776599623292 0 0.24483918851215331 0.35380221126362638 0 0.2330683519035314 0.37722776599623292 0 0.2330683519035314 0.37722776599623292 0 0.25416475686077911 0.37891195317824311 0 0.25020321214962848 0.36609664718481572 0 0.24483918851215331 0.35380221126362638 0 0.2330683519035314 0.37722776599623292 0 0.25020321214962848 0.36609664718481572 0 0.24483918851215331 0.35380221126362638 0 0.25012460765216399 0.35850163101615989 0 0.25020321214962848 0.36609664718481572 0 0.24876486793562599 0.35484358400223942 0 0.24483918851215331 0.35380221126362638 0 0.25012460765216399 0.35850163101615989 0 0.24876486793562599 0.35484358400223942 0 0.24480238070269891 0.35229455515062053 0 0.25239597569650518 0.35286344302893841 0 0.24876486793562599 0.35484358400223942 0 0.24483918851215331 0.35380221126362638 0 0.24480238070269891 0.35229455515062053 0 0.24483918851215331 0.35380221126362638 0 0.24480238070269891 0.35229455515062053 0 0.24259663304825199 0.34962532363227339 0 0.24483918851215331 0.35380221126362638 0 0.24259663304825199 0.34962532363227339 0 0.2417663740715699 0.35312295336940108 0 0.24480238070269891 0.35229455515062053 0 0.24419914884112401 0.34525038463059898 0 0.251761280019137 0.34053204412622701 0 0.24480238070269891 0.35229455515062053 0 0.24259663304825199 0.34962532363227339 0 0.24419914884112401 0.34525038463059898 0 0.24259663304825199 0.34962532363227339 0 0.24419914884112401 0.34525038463059898 0 0.24071734578028439 0.34595865964671768 0 0.24071734578028439 0.34595865964671768 0 0.23933104571896799 0.35083451245271502 0 0.2348522148257072 0.34923248120873979 0 0.24259663304825199 0.34962532363227339 0 0.24071734578028439 0.34595865964671768 0 0.23933104571896799 0.35083451245271502 0 0.24259663304825199 0.34962532363227339 0 0.23933104571896799 0.35083451245271502 0 0.2417663740715699 0.35312295336940108 0 0.23347032253194111 0.34223511440482141 0 0.24071734578028439 0.34595865964671768 0 0.2348522148257072 0.34923248120873979 0 0.24483918851215331 0.35380221126362638 0 0.2417663740715699 0.35312295336940108 0 0.23672266086902641 0.35623314440644271 0 0.23933104571896799 0.35083451245271502 0 0.2417663740715699 0.35312295336940108 0 0.23672266086902641 0.35623314440644271 0 0.23933104571896799 0.35083451245271502 0 0.2348522148257072 0.34923248120873979 0 0.23672266086902641 0.35623314440644271 0 0.23672266086902641 0.35623314440644271 0 0.2301239332814877 0.35322805640246607 0 0.22643168820243639 0.36547287390975047 0 0.22182452239687839 0.35158471460125912 0 0.22643168820243639 0.36547287390975047 0 0.2086442061175556 0.35876791741676839 0 0.2348522148257072 0.34923248120873979 0 0.23672266086902641 0.35623314440644271 0 0.2301239332814877 0.35322805640246607 0 0.2301239332814877 0.35322805640246607 0 0.22857873539525339 0.34742574079988242 0 0.22182452239687839 0.35158471460125912 0 0.23347032253194111 0.34223511440482141 0 0.2348522148257072 0.34923248120873979 0 0.22857873539525339 0.34742574079988242 0 0.2348522148257072 0.34923248120873979 0 0.2301239332814877 0.35322805640246607 0 0.22857873539525339 0.34742574079988242 0 0.21062691877769549 0.34205556227045603 0 0.22489996086780981 0.34053547864011902 0 0.22182452239687839 0.35158471460125912 0 0.22489996086780981 0.34053547864011902 0 0.22857873539525339 0.34742574079988242 0 0.22182452239687839 0.35158471460125912 0 0.2301239332814877 0.35322805640246607 0 0.22182452239687839 0.35158471460125912 0 0.22643168820243639 0.36547287390975047 0 0.23672266086902641 0.35623314440644271 0 0.22643168820243639 0.36547287390975047 0 0.2330683519035314 0.37722776599623292 0 0.22643168820243639 0.36547287390975047 0 0.20729928431926889 0.37517054660716448 0 0.2330683519035314 0.37722776599623292 0 0.2086442061175556 0.35876791741676839 0 0.19451339444139989 0.3687698786582681 0 0.20729928431926889 0.37517054660716448 0 0.22643168820243639 0.36547287390975047 0 0.2086442061175556 0.35876791741676839 0 0.20729928431926889 0.37517054660716448 0 0.21062691877769549 0.34205556227045603 0 0.2086442061175556 0.35876791741676839 0 0.19083237911238921 0.3497786064685387 0 0.21062691877769549 0.34205556227045603 0 0.22182452239687839 0.35158471460125912 0 0.2086442061175556 0.35876791741676839 0 0.2086442061175556 0.35876791741676839 0 0.19083237911238921 0.3497786064685387 0 0.19451339444139989 0.3687698786582681 0 0.17466189111276989 0.36300495467234611 0 0.16035518140950439 0.36817801788605192 0 0.18163466780608151 0.37562478476836031 0 0.19083237911238921 0.3497786064685387 0 0.19451339444139989 0.3687698786582681 0 0.17466189111276989 0.36300495467234611 0 0.19451339444139989 0.3687698786582681 0 0.17466189111276989 0.36300495467234611 0 0.18163466780608151 0.37562478476836031 0 0.17466189111276989 0.36300495467234611 0 0.16035518140950439 0.36817801788605192 0 0.1699572750953515 0.3482520297343295 0 0.16035518140950439 0.36817801788605192 0 0.1699572750953515 0.3482520297343295 0 0.1521775363812308 0.34656702381104149 0 0.19083237911238921 0.3497786064685387 0 0.17466189111276989 0.36300495467234611 0 0.1699572750953515 0.3482520297343295 0 0.19083237911238921 0.3497786064685387 0 0.1699572750953515 0.3482520297343295 0 0.1815971024363173 0.3277967734427491 0 0.1815971024363173 0.3277967734427491 0 0.1631117621282499 0.31653078363396281 0 0.18747506865910579 0.30510101760344421 0 0.1815971024363173 0.3277967734427491 0 0.1631117621282499 0.31653078363396281 0 0.1815971024363173 0.3277967734427491 0 0.1631117621282499 0.31653078363396281 0 0.162906018585218 0.33258280363733839 0 0.1631117621282499 0.31653078363396281 0 0.162906018585218 0.33258280363733839 0 0.14768641688494069 0.32376740756460898 0 0.1699572750953515 0.3482520297343295 0 0.162906018585218 0.33258280363733839 0 0.1521775363812308 0.34656702381104149 0 0.1699572750953515 0.3482520297343295 0 0.1815971024363173 0.3277967734427491 0 0.162906018585218 0.33258280363733839 0 0.14768641688494069 0.32376740756460898 0 0.1369192281808683 0.34480216226788041 0 0.1521775363812308 0.34656702381104149 0 0.162906018585218 0.33258280363733839 0 0.14768641688494069 0.32376740756460898 0 0.1521775363812308 0.34656702381104149 0 0.13986496512894489 0.30236289850356513 0 0.1631117621282499 0.31653078363396281 0 0.14768641688494069 0.32376740756460898 0 0.1631117621282499 0.31653078363396281 0 0.14768641688494069 0.32376740756460898 0 0.13986496512894489 0.30236289850356513 0 0.14768641688494069 0.32376740756460898 0 0.12863003331408809 0.31663761724380213 0 0.14768641688494069 0.32376740756460898 0 0.12863003331408809 0.31663761724380213 0 0.13226107164163281 0.33100403149525809 0 0.14768641688494069 0.32376740756460898 0 0.13226107164163281 0.33100403149525809 0 0.11962419245122299 0.3292512183551024 0 0.12863003331408809 0.31663761724380213 0 0.13226107164163281 0.33100403149525809 0 0.14768641688494069 0.32376740756460898 0 0.13226107164163281 0.33100403149525809 0 0.1369192281808683 0.34480216226788041 0 0.121789080263662 0.34498164073752818 0 0.13226107164163281 0.33100403149525809 0 0.1369192281808683 0.34480216226788041 0 0.121789080263662 0.34498164073752818 0 0.1369192281808683 0.34480216226788041 0 0.12660669037330549 0.36271484456009612 0 0.1369192281808683 0.34480216226788041 0 0.12660669037330549 0.36271484456009612 0 0.1445756057961948 0.36101288861034803 0 0.12660669037330549 0.36271484456009612 0 0.1445756057961948 0.36101288861034803 0 0.1408627510693059 0.37789486094891223 0 0.11771679450181689 0.3832630018172335 0 0.12660669037330549 0.36271484456009612 0 0.1408627510693059 0.37789486094891223 0 0.16035518140950439 0.36817801788605192 0 0.1445756057961948 0.36101288861034803 0 0.1408627510693059 0.37789486094891223 0 0.1369192281808683 0.34480216226788041 0 0.1445756057961948 0.36101288861034803 0 0.1521775363812308 0.34656702381104149 0 0.16035518140950439 0.36817801788605192 0 0.1445756057961948 0.36101288861034803 0 0.1521775363812308 0.34656702381104149 0 0.15439232315460449 0.40545828384004401 0 0.13619284949875321 0.39929892411633272 0 0.1598423609787272 0.39148188118175109 0 0.16035518140950439 0.36817801788605192 0 0.1408627510693059 0.37789486094891223 0 0.1598423609787272 0.39148188118175109 0 0.1408627510693059 0.37789486094891223 0 0.13619284949875321 0.39929892411633272 0 0.1598423609787272 0.39148188118175109 0 0.11771679450181689 0.3832630018172335 0 0.1408627510693059 0.37789486094891223 0 0.13619284949875321 0.39929892411633272 0 0.1243310387046889 0.41603176855038743 0 0.13619284949875321 0.39929892411633272 0 0.14135972994937759 0.41420913763225953 0 0.1243310387046889 0.41603176855038743 0 0.13342407084231009 0.42221464670304959 0 0.14135972994937759 0.41420913763225953 0 0.1243310387046889 0.41603176855038743 0 0.12604262292148199 0.42647083313318518 0 0.13342407084231009 0.42221464670304959 0 0.13342407084231009 0.42221464670304959 0 0.14049627301049361 0.42284048601103608 0 0.14135972994937759 0.41420913763225953 0 0.1222164728074869 0.44357218025957901 0 0.1412276995525758 0.43120491826918478 0 0.1176878307098693 0.43295936432258347 0 0.12604262292148199 0.42647083313318518 0 0.13603198728234711 0.429951664867253 0 0.1222164728074869 0.44357218025957901 0 0.12876551550400059 0.43460589694842883 0 0.1412276995525758 0.43120491826918478 0 0.1176878307098693 0.43295936432258347 0 0.13603198728234711 0.429951664867253 0 0.1176878307098693 0.43295936432258347 0 0.12876551550400059 0.43460589694842883 0 0.13603198728234711 0.429951664867253 0 0.12604262292148199 0.42647083313318518 0 0.13342407084231009 0.42221464670304959 0 0.13603198728234711 0.429951664867253 0 0.14049627301049361 0.42284048601103608 0 0.13603198728234711 0.429951664867253 0 0.1412276995525758 0.43120491826918478 0 0.13342407084231009 0.42221464670304959 0 0.14049627301049361 0.42284048601103608 0 0.13603198728234711 0.429951664867253 0 0.12876551550400059 0.43460589694842883 0 0.13603198728234711 0.429951664867253 0 0.1412276995525758 0.43120491826918478 0 0.14049627301049361 0.42284048601103608 0 0.1412276995525758 0.43120491826918478 0 0.16023892629766481 0.41883765627879083 0 0.1412276995525758 0.43120491826918478 0 0.16023892629766481 0.41883765627879083 0 0.14804098382490319 0.44086290281395452 0 0.1412276995525758 0.43120491826918478 0 0.16023892629766481 0.41883765627879083 0 0.14049627301049361 0.42284048601103608 0 0.14135972994937759 0.41420913763225953 0 0.16023892629766481 0.41883765627879083 0 0.15439232315460449 0.40545828384004401 0 0.13619284949875321 0.39929892411633272 0 0.14135972994937759 0.41420913763225953 0 0.15439232315460449 0.40545828384004401 0 0.14135972994937759 0.41420913763225953 0 0.16023892629766481 0.41883765627879083 0 0.16023892629766481 0.41883765627879083 0 0.1792501530427538 0.40647039428839682 0 0.15439232315460449 0.40545828384004401 0 0.16023892629766481 0.41883765627879083 0 0.1792501530427538 0.40647039428839682 0 0.16023892629766481 0.41883765627879083 0 0.1750947639548274 0.43873552854284847 0 0.16187458975889629 0.44408478020972769 0 0.16023892629766481 0.41883765627879083 0 0.16187458975889629 0.44408478020972769 0 0.14804098382490319 0.44086290281395452 0 0.16023892629766481 0.41883765627879083 0 0.18010038984381249 0.42608248753619959 0 0.1750947639548274 0.43873552854284847 0 0.18010038984381249 0.42608248753619959 0 0.18691753737566261 0.43637415186240908 0 0.19525761670391889 0.42373746694790593 0 0.18010038984381249 0.42608248753619959 0 0.18691753737566261 0.43637415186240908 0 0.1750947639548274 0.43873552854284847 0 0.18010038984381249 0.42608248753619959 0 0.1792501530427538 0.40647039428839682 0 0.19525761670391889 0.42373746694790593 0 0.16023892629766481 0.41883765627879083 0 0.18010038984381249 0.42608248753619959 0 0.1792501530427538 0.40647039428839682 0 0.1792501530427538 0.40647039428839682 0 0.17627820582714709 0.3902593115972921 0 0.19826137978784281 0.39410313229800281 0 0.15439232315460449 0.40545828384004401 0 0.1792501530427538 0.40647039428839682 0 0.1598423609787272 0.39148188118175109 0 0.1792501530427538 0.40647039428839682 0 0.1598423609787272 0.39148188118175109 0 0.17627820582714709 0.3902593115972921 0 0.16035518140950439 0.36817801788605192 0 0.1598423609787272 0.39148188118175109 0 0.17627820582714709 0.3902593115972921 0 0.17627820582714709 0.3902593115972921 0 0.18163466780608151 0.37562478476836031 0 0.19826137978784281 0.39410313229800281 0 0.16035518140950439 0.36817801788605192 0 0.17627820582714709 0.3902593115972921 0 0.18163466780608151 0.37562478476836031 0 0.19451339444139989 0.3687698786582681 0 0.19826137978784281 0.39410313229800281 0 0.20729928431926889 0.37517054660716448 0 0.19451339444139989 0.3687698786582681 0 0.18163466780608151 0.37562478476836031 0 0.19826137978784281 0.39410313229800281 0 0.1792501530427538 0.40647039428839682 0 0.19826137978784281 0.39410313229800281 0 0.2003075782384531 0.40921460423531208 0 0.1792501530427538 0.40647039428839682 0 0.19826137978784281 0.39410313229800281 0 0.19826137978784281 0.39410313229800281 0 0.22263326590477231 0.39799499659599352 0 0.2003075782384531 0.40921460423531208 0 0.19826137978784281 0.39410313229800281 0 0.20729928431926889 0.37517054660716448 0 0.22263326590477231 0.39799499659599352 0 0.20729928431926889 0.37517054660716448 0 0.2330683519035314 0.37722776599623292 0 0.22263326590477231 0.39799499659599352 0 0.20729928431926889 0.37517054660716448 0 0.2330683519035314 0.37722776599623292 0 0.2330683519035314 0.37722776599623292 0 0.22263326590477231 0.39799499659599352 0 0.24187349327321819 0.39091137009518412 0 0.2330683519035314 0.37722776599623292 0 0.22263326590477231 0.39799499659599352 0 0.22263326590477231 0.39799499659599352 0 0.24104551133396279 0.40555758370469691 0 0.22674562463040401 0.41390927702998348 0 0.22263326590477231 0.39799499659599352 0 0.24187349327321819 0.39091137009518412 0 0.24104551133396279 0.40555758370469691 0 0.24187349327321819 0.39091137009518412 0 0.24104551133396279 0.40555758370469691 0 0.25666697324072107 0.39928421942776871 0 0.2330683519035314 0.37722776599623292 0 0.24187349327321819 0.39091137009518412 0 0.25416475686077911 0.37891195317824311 0 0.2330683519035314 0.37722776599623292 0 0.25416475686077911 0.37891195317824311 0 0.2420466389985895 0.43434552526333842 0 0.24901467690965801 0.4179117790159943 0 0.25436220635734441 0.42988841315614318 0 0.2420466389985895 0.43434552526333842 0 0.24945355728707039 0.44667451153876869 0 0.25436220635734441 0.42988841315614318 0 0.2420466389985895 0.43434552526333842 0 0.23577835061895799 0.42262239494210901 0 0.23143757947000471 0.44371564625516102 0 0.2420466389985895 0.43434552526333842 0 0.23577835061895799 0.42262239494210901 0 0.24901467690965801 0.4179117790159943 0 0.24104551133396279 0.40555758370469691 0 0.24901467690965801 0.4179117790159943 0 0.25666697324072107 0.39928421942776871 0 0.24104551133396279 0.40555758370469691 0 0.23577835061895799 0.42262239494210901 0 0.24901467690965801 0.4179117790159943 0 0.24104551133396279 0.40555758370469691 0 0.23577835061895799 0.42262239494210901 0 0.22674562463040401 0.41390927702998348 0 0.22263326590477231 0.39799499659599352 0 0.22674562463040401 0.41390927702998348 0 0.21219817990601381 0.4187622271957544 0 0.22674562463040401 0.41390927702998348 0 0.2230157552843077 0.42909358310479778 0 0.21219817990601381 0.4187622271957544 0 0.23577835061895799 0.42262239494210901 0 0.2230157552843077 0.42909358310479778 0 0.23143757947000471 0.44371564625516102 0 0.23577835061895799 0.42262239494210901 0 0.22674562463040401 0.41390927702998348 0 0.2230157552843077 0.42909358310479778 0 0.2134964034984001 0.4322341727968903 0 0.21219817990601381 0.4187622271957544 0 0.20176309390725419 0.43952945779551489 0 0.21219817990601381 0.4187622271957544 0 0.20176309390725419 0.43952945779551489 0 0.2230157552843077 0.42909358310479778 0 0.2134964034984001 0.4322341727968903 0 0.2176757589712579 0.44361775162738071 0 0.2230157552843077 0.42909358310479778 0 0.2134964034984001 0.4322341727968903 0 0.21219817990601381 0.4187622271957544 0 0.2134964034984001 0.4322341727968903 0 0.20176309390725419 0.43952945779551489 0 0.22263326590477231 0.39799499659599352 0 0.21219817990601381 0.4187622271957544 0 0.2003075782384531 0.40921460423531208 0 0.22263326590477231 0.39799499659599352 0 0.21219817990601381 0.4187622271957544 0 0.1792501530427538 0.40647039428839682 0 0.2003075782384531 0.40921460423531208 0 0.19525761670391889 0.42373746694790593 0 0.21219817990601381 0.4187622271957544 0 0.2003075782384531 0.40921460423531208 0 0.19525761670391889 0.42373746694790593 0 0.18691753737566261 0.43637415186240908 0 0.19525761670391889 0.42373746694790593 0 0.20176309390725419 0.43952945779551489 0 0.21219817990601381 0.4187622271957544 0 0.19525761670391889 0.42373746694790593 0 0.20176309390725419 0.43952945779551489 0 0.20176309390725419 0.43952945779551489 0 0.1947231577235575 0.45353988168199261 0 0.20840722668580031 0.45545385362090252 0 0.18691753737566261 0.43637415186240908 0 0.20176309390725419 0.43952945779551489 0 0.18185750199834411 0.45190592880854857 0 0.20176309390725419 0.43952945779551489 0 0.18185750199834411 0.45190592880854857 0 0.20176309390725419 0.43952945779551489 0 0.1947231577235575 0.45353988168199261 0 0.18185750199834411 0.45190592880854857 0 0.20176309390725419 0.43952945779551489 0 0.1947231577235575 0.45353988168199261 0 0.18768322153985981 0.46755030556846988 0 0.1947231577235575 0.45353988168199261 0 0.18185750199834411 0.45190592880854857 0 0.18768322153985981 0.46755030556846988 0 0.1947231577235575 0.45353988168199261 0 0.20024823922058091 0.46544651072317461 0 0.18768322153985981 0.46755030556846988 0 0.1947231577235575 0.45353988168199261 0 0.1947231577235575 0.45353988168199261 0 0.20024823922058091 0.46544651072317461 0 0.20840722668580031 0.45545385362090252 0 0.20840722668580031 0.45545385362090252 0 0.2176757589712579 0.44361775162738071 0 0.22610417191584151 0.46239972711539817 0 0.20840722668580031 0.45545385362090252 0 0.22610417191584151 0.46239972711539817 0 0.21098173642598739 0.4697584543357427 0 0.20024823922058091 0.46544651072317461 0 0.20840722668580031 0.45545385362090252 0 0.21098173642598739 0.4697584543357427 0 0.2134964034984001 0.4322341727968903 0 0.20176309390725419 0.43952945779551489 0 0.2176757589712579 0.44361775162738071 0 0.20176309390725419 0.43952945779551489 0 0.20840722668580031 0.45545385362090252 0 0.2176757589712579 0.44361775162738071 0 0.2176757589712579 0.44361775162738071 0 0.23143757947000471 0.44371564625516102 0 0.22610417191584151 0.46239972711539817 0 0.2230157552843077 0.42909358310479778 0 0.2176757589712579 0.44361775162738071 0 0.23143757947000471 0.44371564625516102 0 0.23143757947000471 0.44371564625516102 0 0.22610417191584151 0.46239972711539817 0 0.24416463713724279 0.46181065726225118 0 0.22610417191584151 0.46239972711539817 0 0.24416463713724279 0.46181065726225118 0 0.24663781853992861 0.47955760102400152 0 0.2420466389985895 0.43434552526333842 0 0.23143757947000471 0.44371564625516102 0 0.24945355728707039 0.44667451153876869 0 0.23143757947000471 0.44371564625516102 0 0.24416463713724279 0.46181065726225118 0 0.24945355728707039 0.44667451153876869 0 0.235813547352761 0.5 0 0.24663781853992861 0.47955760102400152 0 0.2217419160728332 0.48267766082446661 0 0.235813547352761 0.5 0 0.24663781853992861 0.47955760102400152 0 0.26194379066931978 0.5 0 0.22610417191584151 0.46239972711539817 0 0.2217419160728332 0.48267766082446661 0 0.21098173642598739 0.4697584543357427 0 0.22610417191584151 0.46239972711539817 0 0.24663781853992861 0.47955760102400152 0 0.2217419160728332 0.48267766082446661 0 0.235813547352761 0.5 0 0.2217419160728332 0.48267766082446661 0 0.20968330403620219 0.5 0 0.2217419160728332 0.48267766082446661 0 0.20968330403620219 0.5 0 0.1994458537276991 0.48093005840876502 0 0.2217419160728332 0.48267766082446661 0 0.21098173642598739 0.4697584543357427 0 0.1994458537276991 0.48093005840876502 0 0.20024823922058091 0.46544651072317461 0 0.21098173642598739 0.4697584543357427 0 0.1994458537276991 0.48093005840876502 0 0.18768322153985981 0.46755030556846988 0 0.1994458537276991 0.48093005840876502 0 0.18330115388986459 0.48092111605192611 0 0.18768322153985981 0.46755030556846988 0 0.20024823922058091 0.46544651072317461 0 0.1994458537276991 0.48093005840876502 0 0.1994458537276991 0.48093005840876502 0 0.18355306071964331 0.50000000000000067 0 0.18330115388986459 0.48092111605192611 0 0.20968330403620219 0.5 0 0.1994458537276991 0.48093005840876502 0 0.18355306071964331 0.50000000000000067 0 0.18355306071964331 0.50000000000000067 0 0.1684993813692367 0.48007203429947742 0 0.18330115388986459 0.48092111605192611 0 0.18355306071964331 0.50000000000000067 0 0.15792755206813469 0.49617316386075599 0 0.18355306071964331 0.50000000000000067 0 0.15792755206813469 0.49617316386075599 0 0.15393732637933469 0.5 0 0.18355306071964331 0.50000000000000067 0 0.16091066989378969 0.48674081178650719 0 0.1684993813692367 0.48007203429947742 0 0.18355306071964331 0.50000000000000067 0 0.16091066989378969 0.48674081178650719 0 0.15792755206813469 0.49617316386075599 0 0.16091066989378969 0.48674081178650719 0 0.15792755206813469 0.49617316386075599 0 0.1544617828881428 0.48978246734296471 0 0.16091066989378969 0.48674081178650719 0 0.1565007492551336 0.48213674998762007 0 0.1544617828881428 0.48978246734296471 0 0.1684993813692367 0.48007203429947742 0 0.17592646960495259 0.47110070086220118 0 0.16195191008943449 0.46428239982158342 0 0.15735165613183899 0.47532246158650421 0 0.1684993813692367 0.48007203429947742 0 0.16195191008943449 0.46428239982158342 0 0.16091066989378969 0.48674081178650719 0 0.1565007492551336 0.48213674998762007 0 0.1684993813692367 0.48007203429947742 0 0.15735165613183899 0.47532246158650421 0 0.1565007492551336 0.48213674998762007 0 0.1684993813692367 0.48007203429947742 0 0.1684993813692367 0.48007203429947742 0 0.17592646960495259 0.47110070086220118 0 0.18330115388986459 0.48092111605192611 0 0.18768322153985981 0.46755030556846988 0 0.17592646960495259 0.47110070086220118 0 0.18330115388986459 0.48092111605192611 0 0.18185750199834411 0.45190592880854857 0 0.16195191008943449 0.46428239982158342 0 0.18768322153985981 0.46755030556846988 0 0.17592646960495259 0.47110070086220118 0 0.18185750199834411 0.45190592880854857 0 0.17592646960495259 0.47110070086220118 0 0.18185750199834411 0.45190592880854857 0 0.16195191008943449 0.46428239982158342 0 0.18185750199834411 0.45190592880854857 0 0.1750947639548274 0.43873552854284847 0 0.16187458975889629 0.44408478020972769 0 0.18691753737566261 0.43637415186240908 0 0.18185750199834411 0.45190592880854857 0 0.1750947639548274 0.43873552854284847 0 0.18185750199834411 0.45190592880854857 0 0.16187458975889629 0.44408478020972769 0 0.16195191008943449 0.46428239982158342 0 0.16187458975889629 0.44408478020972769 0 0.16195191008943449 0.46428239982158342 0 0.15168946199459379 0.45216900430921242 0 0.16195191008943449 0.46428239982158342 0 0.14591151591912241 0.46169459743723518 0 0.14204631818052499 0.47665887083461828 0 0.16195191008943449 0.46428239982158342 0 0.14591151591912241 0.46169459743723518 0 0.15168946199459379 0.45216900430921242 0 0.14591151591912241 0.46169459743723518 0 0.15168946199459379 0.45216900430921242 0 0.14066831038061239 0.4499203412635614 0 0.16187458975889629 0.44408478020972769 0 0.15168946199459379 0.45216900430921242 0 0.14804098382490319 0.44086290281395452 0 0.15168946199459379 0.45216900430921242 0 0.14066831038061239 0.4499203412635614 0 0.14804098382490319 0.44086290281395452 0 0.1412276995525758 0.43120491826918478 0 0.14804098382490319 0.44086290281395452 0 0.14029014232030029 0.44122670166503991 0 0.14066831038061239 0.4499203412635614 0 0.14804098382490319 0.44086290281395452 0 0.14029014232030029 0.44122670166503991 0 0.1222164728074869 0.44357218025957901 0 0.1412276995525758 0.43120491826918478 0 0.1331416653001094 0.44438240060382811 0 0.1222164728074869 0.44357218025957901 0 0.1331416653001094 0.44438240060382811 0 0.1305125323691684 0.4630138917555483 0 0.14066831038061239 0.4499203412635614 0 0.1331416653001094 0.44438240060382811 0 0.1305125323691684 0.4630138917555483 0 0.14066831038061239 0.4499203412635614 0 0.1331416653001094 0.44438240060382811 0 0.14029014232030029 0.44122670166503991 0 0.1412276995525758 0.43120491826918478 0 0.1331416653001094 0.44438240060382811 0 0.14029014232030029 0.44122670166503991 0 0.1222164728074869 0.44357218025957901 0 0.1305125323691684 0.4630138917555483 0 0.14591151591912241 0.46169459743723518 0 0.1305125323691684 0.4630138917555483 0 0.13913674476784141 0.47005634583077821 0 0.14591151591912241 0.46169459743723518 0 0.14066831038061239 0.4499203412635614 0 0.1305125323691684 0.4630138917555483 0 0.1305125323691684 0.4630138917555483 0 0.13880859193084899 0.48245560325151787 0 0.1305125323691684 0.4630138917555483 0 0.13880859193084899 0.48245560325151787 0 0.12668001619786909 0.48103964315399739 0 0.119461910338056 0.47410814557822523 0 0.1305125323691684 0.4630138917555483 0 0.12668001619786909 0.48103964315399739 0 0.1305125323691684 0.4630138917555483 0 0.13913674476784141 0.47005634583077821 0 0.13880859193084899 0.48245560325151787 0 0.13913674476784141 0.47005634583077821 0 0.13880859193084899 0.48245560325151787 0 0.14204631818052499 0.47665887083461828 0 0.1243215920390261 0.5 0 0.1323020434166261 0.4923463277215106 0 0.15393732637933469 0.5 0 0.13880859193084899 0.48245560325151787 0 0.12668001619786909 0.48103964315399739 0 0.1323020434166261 0.4923463277215106 0 0.13880859193084899 0.48245560325151787 0 0.1323020434166261 0.4923463277215106 0 0.14409836377895219 0.48270618959422351 0 0.1323020434166261 0.4923463277215106 0 0.15003040449032509 0.48537005899601943 0 0.14409836377895219 0.48270618959422351 0 0.15792755206813469 0.49617316386075599 0 0.1323020434166261 0.4923463277215106 0 0.15393732637933469 0.5 0 0.15792755206813469 0.49617316386075599 0 0.1323020434166261 0.4923463277215106 0 0.1544617828881428 0.48978246734296471 0 0.1323020434166261 0.4923463277215106 0 0.15003040449032509 0.48537005899601943 0 0.1544617828881428 0.48978246734296471 0 0.15792755206813469 0.49617316386075599 0 0.1323020434166261 0.4923463277215106 0 0.1565007492551336 0.48213674998762007 0 0.15003040449032509 0.48537005899601943 0 0.1544617828881428 0.48978246734296471 0 0.15735165613183899 0.47532246158650421 0 0.16195191008943449 0.46428239982158342 0 0.14204631818052499 0.47665887083461828 0 0.15735165613183899 0.47532246158650421 0 0.15000549836735499 0.48043886619979709 0 0.14204631818052499 0.47665887083461828 0 0.16195191008943449 0.46428239982158342 0 0.14204631818052499 0.47665887083461828 0 0.1565007492551336 0.48213674998762007 0 0.15003040449032509 0.48537005899601943 0 0.15000549836735499 0.48043886619979709 0 0.15735165613183899 0.47532246158650421 0 0.1565007492551336 0.48213674998762007 0 0.15000549836735499 0.48043886619979709 0 0.14591151591912241 0.46169459743723518 0 0.13913674476784141 0.47005634583077821 0 0.14204631818052499 0.47665887083461828 0 0.15000549836735499 0.48043886619979709 0 0.14204631818052499 0.47665887083461828 0 0.14409836377895219 0.48270618959422351 0 0.13880859193084899 0.48245560325151787 0 0.14204631818052499 0.47665887083461828 0 0.14409836377895219 0.48270618959422351 0 0.15003040449032509 0.48537005899601943 0 0.15000549836735499 0.48043886619979709 0 0.14409836377895219 0.48270618959422351 0 0.34982954648663478 0.48389427743217311 0 0.36184706985359483 0.47180707637630659 0 0.34374344656642419 0.46326520457213638 0 0.34982954648663478 0.48389427743217311 0 0.3460057185318931 0.5 0 0.37497156080490041 0.5 0 0.34982954648663478 0.48389427743217311 0 0.37497156080490041 0.5 0 0.36184706985359483 0.47180707637630659 0 0.37497156080490041 0.5 0 0.36184706985359483 0.47180707637630659 0 0.38048745808744933 0.47567252741133792 0 0.36184706985359483 0.47180707637630659 0 0.35928706922373832 0.44259909410868398 0 0.3785563831823523 0.45648440261919337 0 0.36184706985359483 0.47180707637630659 0 0.3785563831823523 0.45648440261919337 0 0.38048745808744933 0.47567252741133792 0 0.35928706922373832 0.44259909410868398 0 0.37368228861478181 0.42952799850357443 0 0.37893985474013808 0.44134751313141951 0 0.35928706922373832 0.44259909410868398 0 0.37893985474013808 0.44134751313141951 0 0.3785563831823523 0.45648440261919337 0 0.35928706922373832 0.44259909410868398 0 0.34374344656642419 0.46326520457213638 0 0.33622120904618719 0.43833144105817129 0 0.36184706985359483 0.47180707637630659 0 0.35928706922373832 0.44259909410868398 0 0.34374344656642419 0.46326520457213638 0 0.34374344656642419 0.46326520457213638 0 0.33622120904618719 0.43833144105817129 0 0.32322843549847757 0.45925248812887109 0 0.34374344656642419 0.46326520457213638 0 0.32322843549847757 0.45925248812887109 0 0.33276414309772229 0.48365443846581568 0 0.33622120904618719 0.43833144105817129 0 0.32322843549847757 0.45925248812887109 0 0.31369272789923291 0.43485053779192639 0 0.32322843549847757 0.45925248812887109 0 0.30938620405771639 0.45059756606829388 0 0.31369272789923291 0.43485053779192639 0 0.32322843549847757 0.45925248812887109 0 0.31369272789923291 0.43485053779192639 0 0.32322843549847757 0.45925248812887109 0 0.30896384258265908 0.47612825986409052 0 0.30938620405771639 0.45059756606829388 0 0.32322843549847757 0.45925248812887109 0 0.33276414309772229 0.48365443846581568 0 0.30896384258265908 0.47612825986409052 0 0.32322843549847757 0.45925248812887109 0 0.33276414309772229 0.48365443846581568 0 0.34982954648663478 0.48389427743217311 0 0.34374344656642419 0.46326520457213638 0 0.33276414309772229 0.48365443846581568 0 0.3460057185318931 0.5 0 0.33276414309772229 0.48365443846581568 0 0.31703987625888602 0.5 0 0.34982954648663478 0.48389427743217311 0 0.3460057185318931 0.5 0 0.33276414309772229 0.48365443846581568 0 0.33276414309772229 0.48365443846581568 0 0.31703987625888602 0.5 0 0.30896384258265908 0.47612825986409052 0 0.31703987625888602 0.5 0 0.30896384258265908 0.47612825986409052 0 0.28807403398587872 0.50000000000000111 0 0.30896384258265908 0.47612825986409052 0 0.29071215301973041 0.47682881014935252 0 0.29335027205358188 0.45365762029870399 0 0.30896384258265908 0.47612825986409052 0 0.29071215301973041 0.47682881014935252 0 0.28807403398587872 0.50000000000000111 0 0.29071215301973041 0.47682881014935252 0 0.28807403398587872 0.50000000000000111 0 0.27072827970719521 0.4789186090432036 0 0.29071215301973041 0.47682881014935252 0 0.28807403398587872 0.50000000000000111 0 0.28807403398587872 0.50000000000000111 0 0.27072827970719521 0.4789186090432036 0 0.26194379066931978 0.5 0 0.29071215301973041 0.47682881014935252 0 0.27072827970719521 0.4789186090432036 0 0.27809257484588251 0.45895734143302369 0 0.24663781853992861 0.47955760102400152 0 0.27072827970719521 0.4789186090432036 0 0.26018067079373802 0.46178724965396312 0 0.24663781853992861 0.47955760102400152 0 0.27072827970719521 0.4789186090432036 0 0.26194379066931978 0.5 0 0.24945355728707039 0.44667451153876869 0 0.26748621946799289 0.44145562604648397 0 0.25436220635734441 0.42988841315614318 0 0.24945355728707039 0.44667451153876869 0 0.26018067079373802 0.46178724965396312 0 0.26748621946799289 0.44145562604648397 0 0.24416463713724279 0.46181065726225118 0 0.24945355728707039 0.44667451153876869 0 0.26018067079373802 0.46178724965396312 0 0.24416463713724279 0.46181065726225118 0 0.24663781853992861 0.47955760102400152 0 0.26018067079373802 0.46178724965396312 0 0.26018067079373802 0.46178724965396312 0 0.27809257484588251 0.45895734143302369 0 0.26748621946799289 0.44145562604648397 0 0.27072827970719521 0.4789186090432036 0 0.26018067079373802 0.46178724965396312 0 0.27809257484588251 0.45895734143302369 0 0.27809257484588251 0.45895734143302369 0 0.26748621946799289 0.44145562604648397 0 0.28295733572160281 0.44265550381753521 0 0.26748621946799289 0.44145562604648397 0 0.28295733572160281 0.44265550381753521 0 0.27986922115312318 0.42872050086140823 0 0.29335027205358188 0.45365762029870399 0 0.29598839108743352 0.43048643044805568 0 0.27809257484588251 0.45895734143302369 0 0.28295733572160281 0.44265550381753521 0 0.29335027205358188 0.45365762029870399 0 0.28295733572160281 0.44265550381753521 0 0.29335027205358188 0.45365762029870399 0 0.29598839108743352 0.43048643044805568 0 0.29071215301973041 0.47682881014935252 0 0.29335027205358188 0.45365762029870399 0 0.29071215301973041 0.47682881014935252 0 0.27809257484588251 0.45895734143302369 0 0.29335027205358188 0.45365762029870399 0 0.30896384258265908 0.47612825986409052 0 0.29335027205358188 0.45365762029870399 0 0.30938620405771639 0.45059756606829388 0 0.30938620405771639 0.45059756606829388 0 0.29598839108743352 0.43048643044805568 0 0.31369272789923291 0.43485053779192639 0 0.29335027205358188 0.45365762029870399 0 0.30938620405771639 0.45059756606829388 0 0.29598839108743352 0.43048643044805568 0 0.30415702029998831 0.41044858745498197 0 0.29598839108743352 0.43048643044805568 0 0.31369272789923291 0.43485053779192639 0 0.30415702029998831 0.41044858745498197 0 0.31369272789923291 0.43485053779192639 0 0.30415702029998831 0.41044858745498197 0 0.31573129064935129 0.41986218377049861 0 0.31369272789923291 0.43485053779192639 0 0.29862651012128499 0.4073152405974072 0 0.29598839108743352 0.43048643044805568 0 0.29862651012128499 0.4073152405974072 0 0.30415702029998831 0.41044858745498197 0 0.29598839108743352 0.43048643044805568 0 0.30415702029998831 0.41044858745498197 0 0.31499602907152119 0.41115644331961049 0 0.31573129064935129 0.41986218377049861 0 0.30415702029998831 0.41044858745498197 0 0.31197401047194762 0.40367267468776818 0 0.31499602907152119 0.41115644331961049 0 0.29862651012128499 0.4073152405974072 0 0.28953914442389311 0.4186142417555046 0 0.29598839108743352 0.43048643044805568 0 0.29862651012128499 0.4073152405974072 0 0.2908584782252473 0.40902704215662472 0 0.28953914442389311 0.4186142417555046 0 0.28953914442389311 0.4186142417555046 0 0.28508582605357502 0.41215278338426531 0 0.2811241981529865 0.41911959140405869 0 0.2908584782252473 0.40902704215662472 0 0.28953914442389311 0.4186142417555046 0 0.28508582605357502 0.41215278338426531 0 0.2908584782252473 0.40902704215662472 0 0.28508582605357502 0.41215278338426531 0 0.28498884298499821 0.40405462340293452 0 0.28508582605357502 0.41215278338426531 0 0.27546982916704932 0.41082955464932219 0 0.28498884298499821 0.40405462340293452 0 0.28295733572160281 0.44265550381753521 0 0.29598839108743352 0.43048643044805568 0 0.27986922115312318 0.42872050086140823 0 0.28953914442389311 0.4186142417555046 0 0.29598839108743352 0.43048643044805568 0 0.27986922115312318 0.42872050086140823 0 0.28953914442389311 0.4186142417555046 0 0.27986922115312318 0.42872050086140823 0 0.2811241981529865 0.41911959140405869 0 0.26748621946799289 0.44145562604648397 0 0.26783881468127962 0.42682647869768892 0 0.27986922115312318 0.42872050086140823 0 0.26783881468127962 0.42682647869768892 0 0.27986922115312318 0.42872050086140823 0 0.2725973659270759 0.41906353664235552 0 0.27986922115312318 0.42872050086140823 0 0.2811241981529865 0.41911959140405869 0 0.2725973659270759 0.41906353664235552 0 0.2811241981529865 0.41911959140405869 0 0.27546982916704932 0.41082955464932219 0 0.2725973659270759 0.41906353664235552 0 0.28508582605357502 0.41215278338426531 0 0.2811241981529865 0.41911959140405869 0 0.27546982916704932 0.41082955464932219 0 0.26487906050086152 0.41500431678205352 0 0.27539591464437763 0.40012022040796308 0 0.27546982916704932 0.41082955464932219 0 0.26487906050086152 0.41500431678205352 0 0.27539591464437763 0.40012022040796308 0 0.26783881468127962 0.42682647869768892 0 0.2725973659270759 0.41906353664235552 0 0.26487906050086152 0.41500431678205352 0 0.27546982916704932 0.41082955464932219 0 0.2725973659270759 0.41906353664235552 0 0.26487906050086152 0.41500431678205352 0 0.24901467690965801 0.4179117790159943 0 0.26487906050086152 0.41500431678205352 0 0.25436220635734441 0.42988841315614318 0 0.24901467690965801 0.4179117790159943 0 0.26487906050086152 0.41500431678205352 0 0.25666697324072107 0.39928421942776871 0 0.26748621946799289 0.44145562604648397 0 0.26783881468127962 0.42682647869768892 0 0.25436220635734441 0.42988841315614318 0 0.26783881468127962 0.42682647869768892 0 0.26487906050086152 0.41500431678205352 0 0.25436220635734441 0.42988841315614318 0 0.26487906050086152 0.41500431678205352 0 0.25436220635734441 0.42988841315614318 0 0.24187349327321819 0.39091137009518412 0 0.25416475686077911 0.37891195317824311 0 0.25666697324072107 0.39928421942776871 0 0.25416475686077911 0.37891195317824311 0 0.27526116181802668 0.38059614036025169 0 0.25416475686077911 0.37891195317824311 0 0.27526116181802668 0.38059614036025169 0 0.2649187015028176 0.36686430758129868 0 0.26537220164097591 0.3897281333435566 0 0.25416475686077911 0.37891195317824311 0 0.27526116181802668 0.38059614036025169 0 0.26537220164097591 0.3897281333435566 0 0.25416475686077911 0.37891195317824311 0 0.25666697324072107 0.39928421942776871 0 0.26537220164097591 0.3897281333435566 0 0.25666697324072107 0.39928421942776871 0 0.27539591464437763 0.40012022040796308 0 0.26487906050086152 0.41500431678205352 0 0.25666697324072107 0.39928421942776871 0 0.27539591464437763 0.40012022040796308 0 0.27546982916704932 0.41082955464932219 0 0.27539591464437763 0.40012022040796308 0 0.28498884298499821 0.40405462340293452 0 0.27546982916704932 0.41082955464932219 0 0.27539591464437763 0.40012022040796308 0 0.26537220164097591 0.3897281333435566 0 0.27539591464437763 0.40012022040796308 0 0.27526116181802668 0.38059614036025169 0 0.27539591464437763 0.40012022040796308 0 0.27526116181802668 0.38059614036025169 0 0.27539591464437763 0.40012022040796308 0 0.27526116181802668 0.38059614036025169 0 0.28844748203438619 0.38164884254013581 0 0.27526116181802668 0.38059614036025169 0 0.28512317502911111 0.37625644803148639 0 0.28844748203438619 0.38164884254013581 0 0.27526116181802668 0.38059614036025169 0 0.28844748203438619 0.38164884254013581 0 0.28512317502911111 0.37625644803148639 0 0.28844748203438619 0.38164884254013581 0 0.29131620735712832 0.37758884669043802 0 0.28844748203438619 0.38164884254013581 0 0.29462131270074321 0.38604663711803761 0 0.29304622425585791 0.3820159734668741 0 0.28844748203438619 0.38164884254013581 0 0.29462131270074321 0.38604663711803761 0 0.28742760383558902 0.39456840721564962 0 0.29462131270074321 0.38604663711803761 0 0.29486520207147487 0.38216118774047309 0 0.29304622425585791 0.3820159734668741 0 0.29462131270074321 0.38604663711803761 0 0.29304622425585791 0.3820159734668741 0 0.29462131270074321 0.38604663711803761 0 0.29486520207147487 0.38216118774047309 0 0.29486520207147487 0.38216118774047309 0 0.29304622425585791 0.3820159734668741 0 0.29131620735712832 0.37758884669043802 0 0.29486520207147487 0.38216118774047309 0 0.29131620735712832 0.37758884669043802 0 0.29552620640752891 0.3716305980786509 0 0.29486520207147487 0.38216118774047309 0 0.29552620640752891 0.3716305980786509 0 0.29486520207147487 0.38216118774047309 0 0.29304622425585791 0.3820159734668741 0 0.28844748203438619 0.38164884254013581 0 0.29304622425585791 0.3820159734668741 0 0.29131620735712832 0.37758884669043802 0 0.28844748203438619 0.38164884254013581 0 0.29304622425585791 0.3820159734668741 0 0.29304622425585791 0.3820159734668741 0 0.29131620735712832 0.37758884669043802 0 0.28844748203438619 0.38164884254013581 0 0.29131620735712832 0.37758884669043802 0 0.29862651012128499 0.4073152405974072 0 0.29462131270074321 0.38604663711803761 0 0.2936844668134404 0.40097171260917552 0 0.27539591464437763 0.40012022040796308 0 0.28844748203438619 0.38164884254013581 0 0.28742760383558902 0.39456840721564962 0 0.27539591464437763 0.40012022040796308 0 0.28844748203438619 0.38164884254013581 0 0.28498884298499821 0.40405462340293452 0 0.28742760383558902 0.39456840721564962 0 0.2936844668134404 0.40097171260917552 0 0.27539591464437763 0.40012022040796308 0 0.28498884298499821 0.40405462340293452 0 0.28742760383558902 0.39456840721564962 0 0.29462131270074321 0.38604663711803761 0 0.2936844668134404 0.40097171260917552 0 0.29462131270074321 0.38604663711803761 0 0.28742760383558902 0.39456840721564962 0 0.2936844668134404 0.40097171260917552 0 0.29862651012128499 0.4073152405974072 0 0.2908584782252473 0.40902704215662472 0 0.2936844668134404 0.40097171260917552 0 0.2908584782252473 0.40902704215662472 0 0.28498884298499821 0.40405462340293452 0 0.2936844668134404 0.40097171260917552 0 0.30415702029998831 0.41044858745498197 0 0.29462131270074321 0.38604663711803761 0 0.30656174223519972 0.39435263309015189 0 0.29862651012128499 0.4073152405974072 0 0.30415702029998831 0.41044858745498197 0 0.29462131270074321 0.38604663711803761 0 0.30415702029998831 0.41044858745498197 0 0.30656174223519972 0.39435263309015189 0 0.31197401047194762 0.40367267468776818 0 0.30415702029998831 0.41044858745498197 0 0.29462131270074321 0.38604663711803761 0 0.29486520207147487 0.38216118774047309 0 0.32239790714158911 0.3843592034241442 0 0.29486520207147487 0.38216118774047309 0 0.30656174223519972 0.39435263309015189 0 0.31100022150631579 0.38903529765010803 0 0.29486520207147487 0.38216118774047309 0 0.30907010924036099 0.37776678828771371 0 0.32239790714158911 0.3843592034241442 0 0.29486520207147487 0.38216118774047309 0 0.31100022150631579 0.38903529765010803 0 0.32239790714158911 0.3843592034241442 0 0.30031089216405732 0.37564369310295892 0 0.30907010924036099 0.37776678828771371 0 0.30213137755261199 0.37168878956193241 0 0.29486520207147487 0.38216118774047309 0 0.30031089216405732 0.37564369310295892 0 0.29552620640752891 0.3716305980786509 0 0.29486520207147487 0.38216118774047309 0 0.30031089216405732 0.37564369310295892 0 0.30907010924036099 0.37776678828771371 0 0.29462131270074321 0.38604663711803761 0 0.29486520207147487 0.38216118774047309 0 0.30656174223519972 0.39435263309015189 0 0.30907010924036099 0.37776678828771371 0 0.318871983699551 0.37622375502056121 0 0.32239790714158911 0.3843592034241442 0 0.31100022150631579 0.38903529765010803 0 0.32239790714158911 0.3843592034241442 0 0.32017603457699761 0.39526816634566259 0 0.318871983699551 0.37622375502056121 0 0.32239790714158911 0.3843592034241442 0 0.32756109698484381 0.37277544392792811 0 0.32239790714158911 0.3843592034241442 0 0.34993061221170318 0.38655721910781532 0 0.32239790714158911 0.3843592034241442 0 0.34993061221170318 0.38655721910781532 0 0.32756109698484381 0.37277544392792811 0 0.32239790714158911 0.3843592034241442 0 0.33496539547380771 0.39576640540190289 0 0.34993061221170318 0.38655721910781532 0 0.33496539547380771 0.39576640540190289 0 0.33508365040394822 0.41072700705697479 0 0.34930347098396453 0.40404955161771078 0 0.33496539547380771 0.39576640540190289 0 0.32741827967786452 0.40262374209094581 0 0.33508365040394822 0.41072700705697479 0 0.32741827967786452 0.40262374209094581 0 0.32017603457699761 0.39526816634566259 0 0.31934254172414162 0.40636985447768009 0 0.33496539547380771 0.39576640540190289 0 0.32741827967786452 0.40262374209094581 0 0.32017603457699761 0.39526816634566259 0 0.32239790714158911 0.3843592034241442 0 0.33496539547380771 0.39576640540190289 0 0.32017603457699761 0.39526816634566259 0 0.30656174223519972 0.39435263309015189 0 0.31100022150631579 0.38903529765010803 0 0.32017603457699761 0.39526816634566259 0 0.30656174223519972 0.39435263309015189 0 0.31197401047194762 0.40367267468776818 0 0.32017603457699761 0.39526816634566259 0 0.31197401047194762 0.40367267468776818 0 0.32017603457699761 0.39526816634566259 0 0.31934254172414162 0.40636985447768009 0 0.31197401047194762 0.40367267468776818 0 0.31934254172414162 0.40636985447768009 0 0.31499602907152119 0.41115644331961049 0 0.31934254172414162 0.40636985447768009 0 0.31499602907152119 0.41115644331961049 0 0.32361026943077043 0.41327248036568281 0 0.31499602907152119 0.41115644331961049 0 0.31573129064935129 0.41986218377049861 0 0.32361026943077043 0.41327248036568281 0 0.31573129064935129 0.41986218377049861 0 0.32361026943077043 0.41327248036568281 0 0.32869379438242058 0.42372020545892908 0 0.32741827967786452 0.40262374209094581 0 0.31934254172414162 0.40636985447768009 0 0.32361026943077043 0.41327248036568281 0 0.33622120904618719 0.43833144105817129 0 0.31369272789923291 0.43485053779192639 0 0.32869379438242058 0.42372020545892908 0 0.31573129064935129 0.41986218377049861 0 0.31369272789923291 0.43485053779192639 0 0.32869379438242058 0.42372020545892908 0 0.33622120904618719 0.43833144105817129 0 0.32869379438242058 0.42372020545892908 0 0.34765860608362731 0.42312114686888003 0 0.32869379438242058 0.42372020545892908 0 0.33508365040394822 0.41072700705697479 0 0.34765860608362731 0.42312114686888003 0 0.32741827967786452 0.40262374209094581 0 0.32361026943077043 0.41327248036568281 0 0.33508365040394822 0.41072700705697479 0 0.32361026943077043 0.41327248036568281 0 0.32869379438242058 0.42372020545892908 0 0.33508365040394822 0.41072700705697479 0 0.34765860608362731 0.42312114686888003 0 0.36480649129318349 0.41446617869761138 0 0.34930347098396453 0.40404955161771078 0 0.34765860608362731 0.42312114686888003 0 0.36135861380383272 0.4274286045446874 0 0.36480649129318349 0.41446617869761138 0 0.33508365040394822 0.41072700705697479 0 0.34765860608362731 0.42312114686888003 0 0.34930347098396453 0.40404955161771078 0 0.35928706922373832 0.44259909410868398 0 0.34765860608362731 0.42312114686888003 0 0.36135861380383272 0.4274286045446874 0 0.35928706922373832 0.44259909410868398 0 0.33622120904618719 0.43833144105817129 0 0.34765860608362731 0.42312114686888003 0 0.35928706922373832 0.44259909410868398 0 0.36135861380383272 0.4274286045446874 0 0.37368228861478181 0.42952799850357443 0 0.36135861380383272 0.4274286045446874 0 0.37368228861478181 0.42952799850357443 0 0.36480649129318349 0.41446617869761138 0 0.37368228861478181 0.42952799850357443 0 0.36480649129318349 0.41446617869761138 0 0.37889828243241369 0.41836445231234182 0 0.36480649129318349 0.41446617869761138 0 0.36404584034627069 0.40001251155505752 0 0.37872530996068521 0.40623437356066378 0 0.36480649129318349 0.41446617869761138 0 0.37872530996068521 0.40623437356066378 0 0.37889828243241369 0.41836445231234182 0 0.36404584034627069 0.40001251155505752 0 0.37746331728181731 0.38875523479148633 0 0.37872530996068521 0.40623437356066378 0 0.36404584034627069 0.40001251155505752 0 0.34993061221170318 0.38655721910781532 0 0.37746331728181731 0.38875523479148633 0 0.36480649129318349 0.41446617869761138 0 0.36404584034627069 0.40001251155505752 0 0.34930347098396453 0.40404955161771078 0 0.34993061221170318 0.38655721910781532 0 0.35612785049776208 0.37335964545819061 0 0.37746331728181731 0.38875523479148633 0 0.34993061221170318 0.38655721910781532 0 0.37746331728181731 0.38875523479148633 0 0.35612785049776208 0.37335964545819061 0 0.38469460401068029 0.37394384698845312 0 0.37746331728181731 0.38875523479148633 0 0.34993061221170318 0.38655721910781532 0 0.35612785049776208 0.37335964545819061 0 0.32756109698484381 0.37277544392792811 0 0.36404584034627069 0.40001251155505752 0 0.34993061221170318 0.38655721910781532 0 0.34930347098396453 0.40404955161771078 0 0.33496539547380771 0.39576640540190289 0 0.34993061221170318 0.38655721910781532 0 0.34930347098396453 0.40404955161771078 0 0.35582800502834988 0.35814070164562112 0 0.3421649280443978 0.35143052389788138 0 0.33571402281983198 0.36268523068214759 0 0.35582800502834988 0.35814070164562112 0 0.36850160778237329 0.34298513840757378 0 0.3421649280443978 0.35143052389788138 0 0.36850160778237329 0.34298513840757378 0 0.3421649280443978 0.35143052389788138 0 0.35582800502834988 0.35814070164562112 0 0.35612785049776208 0.37335964545819061 0 0.33571402281983198 0.36268523068214759 0 0.35582800502834988 0.35814070164562112 0 0.35612785049776208 0.37335964545819061 0 0.37065827662053402 0.3615713287862069 0 0.35612785049776208 0.37335964545819061 0 0.37065827662053402 0.3615713287862069 0 0.38469460401068029 0.37394384698845312 0 0.35612785049776208 0.37335964545819061 0 0.38469460401068029 0.37394384698845312 0 0.35582800502834988 0.35814070164562112 0 0.37065827662053402 0.3615713287862069 0 0.36850160778237329 0.34298513840757378 0 0.36850160778237329 0.34298513840757378 0 0.36259388413757399 0.32168574422975132 0 0.37824824069966811 0.32784001140610952 0 0.36259388413757399 0.32168574422975132 0 0.37030044860525752 0.30314010148048748 0 0.37932549680105782 0.31469006695558999 0 0.36259388413757399 0.32168574422975132 0 0.37824824069966811 0.32784001140610952 0 0.37932549680105782 0.31469006695558999 0 0.36259388413757399 0.32168574422975132 0 0.35056419508036341 0.31607643694626542 0 0.34552753211766168 0.33051695205737341 0 0.36259388413757399 0.32168574422975132 0 0.35056419508036341 0.31607643694626542 0 0.35635386960710341 0.30434786928103091 0 0.35056419508036341 0.31607643694626542 0 0.34552753211766168 0.33051695205737341 0 0.33875863668826001 0.31044541380173779 0 0.36850160778237329 0.34298513840757378 0 0.34552753211766168 0.33051695205737341 0 0.3421649280443978 0.35143052389788138 0 0.36850160778237329 0.34298513840757378 0 0.36259388413757399 0.32168574422975132 0 0.34552753211766168 0.33051695205737341 0 0.34552753211766168 0.33051695205737341 0 0.33438678963067109 0.33993403451964749 0 0.3421649280443978 0.35143052389788138 0 0.34552753211766168 0.33051695205737341 0 0.33438678963067109 0.33993403451964749 0 0.32434782659468292 0.33084047522737547 0 0.32434782659468292 0.33084047522737547 0 0.33875863668826001 0.31044541380173779 0 0.32548011449240821 0.31766785293015948 0 0.32434782659468292 0.33084047522737547 0 0.33875863668826001 0.31044541380173779 0 0.34552753211766168 0.33051695205737341 0 0.32434782659468292 0.33084047522737547 0 0.33875863668826001 0.31044541380173779 0 0.32548011449240821 0.31766785293015948 0 0.31463870284711609 0.32373591680351349 0 0.32434782659468292 0.33084047522737547 0 0.31463870284711609 0.32373591680351349 0 0.31505242485258012 0.33035609087343032 0 0.30933421748698331 0.32952197910611147 0 0.32548011449240821 0.31766785293015948 0 0.31463870284711609 0.32373591680351349 0 0.31384243651617438 0.31393103165053948 0 0.31463870284711609 0.32373591680351349 0 0.31384243651617438 0.31393103165053948 0 0.30951985489943279 0.31859280681154201 0 0.33438678963067109 0.33993403451964749 0 0.32434782659468292 0.33084047522737547 0 0.32550687176594212 0.34694818689595958 0 0.32434782659468292 0.33084047522737547 0 0.30993701650110589 0.35123553665301321 0 0.31188895248153792 0.33732599235672089 0 0.32434782659468292 0.33084047522737547 0 0.30993701650110589 0.35123553665301321 0 0.32434782659468292 0.33084047522737547 0 0.31857253486012987 0.35057652827246821 0 0.32550687176594212 0.34694818689595958 0 0.32434782659468292 0.33084047522737547 0 0.31505242485258012 0.33035609087343032 0 0.31188895248153792 0.33732599235672089 0 0.31463870284711609 0.32373591680351349 0 0.32434782659468292 0.33084047522737547 0 0.31505242485258012 0.33035609087343032 0 0.32550687176594212 0.34694818689595958 0 0.3421649280443978 0.35143052389788138 0 0.31582824830642209 0.35987590938818892 0 0.32434782659468292 0.33084047522737547 0 0.31857253486012987 0.35057652827246821 0 0.30993701650110589 0.35123553665301321 0 0.31857253486012987 0.35057652827246821 0 0.31582824830642209 0.35987590938818892 0 0.30993701650110589 0.35123553665301321 0 0.31857253486012987 0.35057652827246821 0 0.32550687176594212 0.34694818689595958 0 0.31582824830642209 0.35987590938818892 0 0.33438678963067109 0.33993403451964749 0 0.32550687176594212 0.34694818689595958 0 0.3421649280443978 0.35143052389788138 0 0.3421649280443978 0.35143052389788138 0 0.33571402281983198 0.36268523068214759 0 0.31582824830642209 0.35987590938818892 0 0.3421649280443978 0.35143052389788138 0 0.31582824830642209 0.35987590938818892 0 0.35612785049776208 0.37335964545819061 0 0.33571402281983198 0.36268523068214759 0 0.32756109698484381 0.37277544392792811 0 0.35612785049776208 0.37335964545819061 0 0.32756109698484381 0.37277544392792811 0 0.33571402281983198 0.36268523068214759 0 0.32756109698484381 0.37277544392792811 0 0.323890547385627 0.3663325421101809 0 0.33571402281983198 0.36268523068214759 0 0.323890547385627 0.3663325421101809 0 0.31582824830642209 0.35987590938818892 0 0.318871983699551 0.37622375502056121 0 0.32756109698484381 0.37277544392792811 0 0.31645882143141019 0.36999358444245922 0 0.32756109698484381 0.37277544392792811 0 0.323890547385627 0.3663325421101809 0 0.31645882143141019 0.36999358444245922 0 0.323890547385627 0.3663325421101809 0 0.31582824830642209 0.35987590938818892 0 0.31645882143141019 0.36999358444245922 0 0.31582824830642209 0.35987590938818892 0 0.31645882143141019 0.36999358444245922 0 0.30605520486997068 0.36640607538678321 0 0.30907010924036099 0.37776678828771371 0 0.318871983699551 0.37622375502056121 0 0.31645882143141019 0.36999358444245922 0 0.30605520486997068 0.36640607538678321 0 0.30993701650110589 0.35123553665301321 0 0.29552620640752891 0.3716305980786509 0 0.30907010924036099 0.37776678828771371 0 0.31645882143141019 0.36999358444245922 0 0.30605520486997068 0.36640607538678321 0 0.30993701650110589 0.35123553665301321 0 0.29552620640752891 0.3716305980786509 0 0.30907010924036099 0.37776678828771371 0 0.30605520486997068 0.36640607538678321 0 0.30213137755261199 0.37168878956193241 0 0.30605520486997068 0.36640607538678321 0 0.30213137755261199 0.37168878956193241 0 0.29552620640752891 0.3716305980786509 0 0.30031089216405732 0.37564369310295892 0 0.30213137755261199 0.37168878956193241 0 0.29552620640752891 0.3716305980786509 0 0.30993701650110589 0.35123553665301321 0 0.29696217562455252 0.34875389097291709 0 0.29552620640752891 0.3716305980786509 0 0.30993701650110589 0.35123553665301321 0 0.30512164372978579 0.34419831543042362 0 0.31188895248153792 0.33732599235672089 0 0.31582824830642209 0.35987590938818892 0 0.30605520486997068 0.36640607538678321 0 0.30993701650110589 0.35123553665301321 0 0.30512164372978579 0.34419831543042362 0 0.29696217562455252 0.34875389097291709 0 0.30169843031194687 0.33947784173904322 0 0.30993701650110589 0.35123553665301321 0 0.30512164372978579 0.34419831543042362 0 0.29696217562455252 0.34875389097291709 0 0.2862496889572092 0.34608434539236133 0 0.27508253370578101 0.35471505380553681 0 0.2824955658706052 0.33568931859132178 0 0.29696217562455252 0.34875389097291709 0 0.28852424944309152 0.35870745007598909 0 0.2862496889572092 0.34608434539236133 0 0.29696217562455252 0.34875389097291709 0 0.2862496889572092 0.34608434539236133 0 0.28845404355631948 0.33689348172679789 0 0.28852424944309152 0.35870745007598909 0 0.2862496889572092 0.34608434539236133 0 0.27508253370578101 0.35471505380553681 0 0.28852424944309152 0.35870745007598909 0 0.28877196037813269 0.37107809876950959 0 0.27508253370578101 0.35471505380553681 0 0.29696217562455252 0.34875389097291709 0 0.29552620640752891 0.3716305980786509 0 0.28512317502911111 0.37625644803148639 0 0.28877196037813269 0.37107809876950959 0 0.27508253370578101 0.35471505380553681 0 0.29696217562455252 0.34875389097291709 0 0.28852424944309152 0.35870745007598909 0 0.29552620640752891 0.3716305980786509 0 0.29131620735712832 0.37758884669043802 0 0.28877196037813269 0.37107809876950959 0 0.29131620735712832 0.37758884669043802 0 0.29552620640752891 0.3716305980786509 0 0.28877196037813269 0.37107809876950959 0 0.29131620735712832 0.37758884669043802 0 0.29552620640752891 0.3716305980786509 0 0.28852424944309152 0.35870745007598909 0 0.29552620640752891 0.3716305980786509 0 0.28877196037813269 0.37107809876950959 0 0.28512317502911111 0.37625644803148639 0 0.29131620735712832 0.37758884669043802 0 0.28877196037813269 0.37107809876950959 0 0.27526116181802668 0.38059614036025169 0 0.27508253370578101 0.35471505380553681 0 0.2649187015028176 0.36686430758129868 0 0.27526116181802668 0.38059614036025169 0 0.28512317502911111 0.37625644803148639 0 0.27508253370578101 0.35471505380553681 0 0.27526116181802668 0.38059614036025169 0 0.27508253370578101 0.35471505380553681 0 0.27508253370578101 0.35471505380553681 0 0.26289430521760487 0.35443580767434019 0 0.26314629182133181 0.33586319568756312 0 0.27508253370578101 0.35471505380553681 0 0.26289430521760487 0.35443580767434019 0 0.2649187015028176 0.36686430758129868 0 0.26289430521760487 0.35443580767434019 0 0.25239597569650518 0.35286344302893841 0 0.26314629182133181 0.33586319568756312 0 0.24480238070269891 0.35229455515062053 0 0.25239597569650518 0.35286344302893841 0 0.26314629182133181 0.33586319568756312 0 0.24480238070269891 0.35229455515062053 0 0.26314629182133181 0.33586319568756312 0 0.26289430521760487 0.35443580767434019 0 0.25239597569650518 0.35286344302893841 0 0.25610736044374399 0.35975236729711058 0 0.24876486793562599 0.35484358400223942 0 0.25239597569650518 0.35286344302893841 0 0.25012460765216399 0.35850163101615989 0 0.25239597569650518 0.35286344302893841 0 0.25012460765216399 0.35850163101615989 0 0.25610736044374399 0.35975236729711058 0 0.25610736044374399 0.35975236729711058 0 0.25020321214962848 0.36609664718481572 0 0.2649187015028176 0.36686430758129868 0 0.25012460765216399 0.35850163101615989 0 0.25610736044374399 0.35975236729711058 0 0.25020321214962848 0.36609664718481572 0 0.25416475686077911 0.37891195317824311 0 0.25020321214962848 0.36609664718481572 0 0.2649187015028176 0.36686430758129868 0 0.26289430521760487 0.35443580767434019 0 0.25610736044374399 0.35975236729711058 0 0.2649187015028176 0.36686430758129868 0 0.2434401456618274 0.31142558504640289 0 0.25245275997598482 0.32568808150890582 0 0.25911206773310141 0.3109909740030084 0 0.25245275997598482 0.32568808150890582 0 0.26314629182133181 0.33586319568756312 0 0.26572625445895298 0.32043017427507742 0 0.25245275997598482 0.32568808150890582 0 0.26572625445895298 0.32043017427507742 0 0.25911206773310141 0.3109909740030084 0 0.26572625445895298 0.32043017427507742 0 0.27065696402191081 0.31019179775388839 0 0.25911206773310141 0.3109909740030084 0 0.24480238070269891 0.35229455515062053 0 0.251761280019137 0.34053204412622701 0 0.26314629182133181 0.33586319568756312 0 0.2464865700036242 0.33275759577526792 0 0.25245275997598482 0.32568808150890582 0 0.251761280019137 0.34053204412622701 0 0.25245275997598482 0.32568808150890582 0 0.251761280019137 0.34053204412622701 0 0.26314629182133181 0.33586319568756312 0 0.27508253370578101 0.35471505380553681 0 0.27490390559353528 0.32883396725082192 0 0.2824955658706052 0.33568931859132178 0 0.27508253370578101 0.35471505380553681 0 0.26314629182133181 0.33586319568756312 0 0.27490390559353528 0.32883396725082192 0 0.27508253370578101 0.35471505380553681 0 0.27490390559353528 0.32883396725082192 0 0.26314629182133181 0.33586319568756312 0 0.28149020293996468 0.31943183622450572 0 0.26314629182133181 0.33586319568756312 0 0.26572625445895298 0.32043017427507742 0 0.28149020293996468 0.31943183622450572 0 0.26572625445895298 0.32043017427507742 0 0.28149020293996468 0.31943183622450572 0 0.27065696402191081 0.31019179775388839 0 0.27490390559353528 0.32883396725082192 0 0.28149020293996468 0.31943183622450572 0 0.2824955658706052 0.33568931859132178 0 0.26314629182133181 0.33586319568756312 0 0.27490390559353528 0.32883396725082192 0 0.28149020293996468 0.31943183622450572 0 0.28149020293996468 0.31943183622450572 0 0.29164127093784947 0.3231719676911714 0 0.29301409053818622 0.31711664755183311 0 0.28149020293996468 0.31943183622450572 0 0.29301409053818622 0.31711664755183311 0 0.29983411405859861 0.30300047676144942 0 0.28149020293996468 0.31943183622450572 0 0.2824955658706052 0.33568931859132178 0 0.28879302047082178 0.32817722714790731 0 0.28149020293996468 0.31943183622450572 0 0.29164127093784947 0.3231719676911714 0 0.28879302047082178 0.32817722714790731 0 0.29164127093784947 0.3231719676911714 0 0.29301409053818622 0.31711664755183311 0 0.29839814484157612 0.32587718386718328 0 0.29164127093784947 0.3231719676911714 0 0.29302077237710578 0.32764764758378678 0 0.28879302047082178 0.32817722714790731 0 0.29164127093784947 0.3231719676911714 0 0.29302077237710578 0.32764764758378678 0 0.29839814484157612 0.32587718386718328 0 0.29696217562455252 0.34875389097291709 0 0.29325065325817601 0.33336421162888541 0 0.29839814484157612 0.32587718386718328 0 0.2862496889572092 0.34608434539236133 0 0.28845404355631948 0.33689348172679789 0 0.2824955658706052 0.33568931859132178 0 0.28845404355631948 0.33689348172679789 0 0.2824955658706052 0.33568931859132178 0 0.28879302047082178 0.32817722714790731 0 0.28845404355631948 0.33689348172679789 0 0.28879302047082178 0.32817722714790731 0 0.29325065325817601 0.33336421162888541 0 0.29302077237710578 0.32764764758378678 0 0.28879302047082178 0.32817722714790731 0 0.29325065325817601 0.33336421162888541 0 0.29302077237710578 0.32764764758378678 0 0.29325065325817601 0.33336421162888541 0 0.29839814484157612 0.32587718386718328 0 0.29696217562455252 0.34875389097291709 0 0.28845404355631948 0.33689348172679789 0 0.29325065325817601 0.33336421162888541 0 0.29696217562455252 0.34875389097291709 0 0.29839814484157612 0.32587718386718328 0 0.29696217562455252 0.34875389097291709 0 0.30169843031194687 0.33947784173904322 0 0.29839814484157612 0.32587718386718328 0 0.30169843031194687 0.33947784173904322 0 0.30047930722765442 0.32913419940384742 0 0.29839814484157612 0.32587718386718328 0 0.30169843031194687 0.33947784173904322 0 0.30047930722765442 0.32913419940384742 0 0.30561488068140102 0.3326467821189002 0 0.30047930722765442 0.32913419940384742 0 0.30540502325551239 0.32871273696675318 0 0.30561488068140102 0.3326467821189002 0 0.30540502325551239 0.32871273696675318 0 0.30933421748698331 0.32952197910611147 0 0.30561488068140102 0.3326467821189002 0 0.30933421748698331 0.32952197910611147 0 0.30561488068140102 0.3326467821189002 0 0.31188895248153792 0.33732599235672089 0 0.31505242485258012 0.33035609087343032 0 0.30933421748698331 0.32952197910611147 0 0.31188895248153792 0.33732599235672089 0 0.30512164372978579 0.34419831543042362 0 0.30169843031194687 0.33947784173904322 0 0.31188895248153792 0.33732599235672089 0 0.30169843031194687 0.33947784173904322 0 0.30561488068140102 0.3326467821189002 0 0.31188895248153792 0.33732599235672089 0 0.30047930722765442 0.32913419940384742 0 0.30340659260842989 0.31315629155396107 0 0.30047930722765442 0.32913419940384742 0 0.30340659260842989 0.31315629155396107 0 0.30619168762601112 0.32354798723815392 0 0.30340659260842989 0.31315629155396107 0 0.29839814484157612 0.32587718386718328 0 0.29983411405859861 0.30300047676144942 0 0.29301409053818622 0.31711664755183311 0 0.29839814484157612 0.32587718386718328 0 0.29983411405859861 0.30300047676144942 0 0.30047930722765442 0.32913419940384742 0 0.30340659260842989 0.31315629155396107 0 0.29839814484157612 0.32587718386718328 0 0.29839814484157612 0.32587718386718328 0 0.29983411405859861 0.30300047676144942 0 0.30047930722765442 0.32913419940384742 0 0.30540502325551239 0.32871273696675318 0 0.30619168762601112 0.32354798723815392 0 0.31463870284711609 0.32373591680351349 0 0.30933421748698331 0.32952197910611147 0 0.30619168762601112 0.32354798723815392 0 0.31463870284711609 0.32373591680351349 0 0.30619168762601112 0.32354798723815392 0 0.30951985489943279 0.31859280681154201 0 0.30540502325551239 0.32871273696675318 0 0.30933421748698331 0.32952197910611147 0 0.30619168762601112 0.32354798723815392 0 0.30340659260842989 0.31315629155396107 0 0.30619168762601112 0.32354798723815392 0 0.30951985489943279 0.31859280681154201 0 0.31384243651617438 0.31393103165053948 0 0.30340659260842989 0.31315629155396107 0 0.30951985489943279 0.31859280681154201 0 0.30340659260842989 0.31315629155396107 0 0.30633387798920608 0.2971783837040749 0 0.29983411405859861 0.30300047676144942 0 0.31384243651617438 0.31393103165053948 0 0.30340659260842989 0.31315629155396107 0 0.31111253443465781 0.30581254897399179 0 0.30340659260842989 0.31315629155396107 0 0.30633387798920608 0.2971783837040749 0 0.30340659260842989 0.31315629155396107 0 0.31111253443465781 0.30581254897399179 0 0.30633387798920608 0.2971783837040749 0 0.31111253443465781 0.30581254897399179 0 0.30633387798920608 0.2971783837040749 0 0.31299173880819181 0.29963748806829388 0 0.30633387798920608 0.2971783837040749 0 0.29983411405859861 0.30300047676144942 0 0.30633387798920608 0.2971783837040749 0 0.29983411405859861 0.30300047676144942 0 0.30124877242542403 0.28046327698804852 0 0.29983411405859861 0.30300047676144942 0 0.30124877242542403 0.28046327698804852 0 0.30633387798920608 0.2971783837040749 0 0.31100049105989008 0.29299831565078488 0 0.310704306987865 0.2733234113588241 0 0.30633387798920608 0.2971783837040749 0 0.30124877242542403 0.28046327698804852 0 0.310704306987865 0.2733234113588241 0 0.30633387798920608 0.2971783837040749 0 0.310704306987865 0.2733234113588241 0 0.29983411405859861 0.30300047676144942 0 0.2916775325120094 0.29117548985226771 0 0.30124877242542403 0.28046327698804852 0 0.30633387798920608 0.2971783837040749 0 0.31100049105989008 0.29299831565078488 0 0.31299173880819181 0.29963748806829388 0 0.30633387798920608 0.2971783837040749 0 0.31100049105989008 0.29299831565078488 0 0.2916775325120094 0.29117548985226771 0 0.29043219657464148 0.28044345053284669 0 0.30124877242542403 0.28046327698804852 0 0.2916775325120094 0.29117548985226771 0 0.27916663915257939 0.29976543166583203 0 0.28034268107418892 0.28516208073719002 0 0.2916775325120094 0.29117548985226771 0 0.28034268107418892 0.28516208073719002 0 0.29043219657464148 0.28044345053284669 0 0.28149020293996468 0.31943183622450572 0 0.28804212216578801 0.30334330862601372 0 0.27916663915257939 0.29976543166583203 0 0.28149020293996468 0.31943183622450572 0 0.29983411405859861 0.30300047676144942 0 0.28804212216578801 0.30334330862601372 0 0.28149020293996468 0.31943183622450572 0 0.29983411405859861 0.30300047676144942 0 0.29983411405859861 0.30300047676144942 0 0.2916775325120094 0.29117548985226771 0 0.28804212216578801 0.30334330862601372 0 0.2916775325120094 0.29117548985226771 0 0.28804212216578801 0.30334330862601372 0 0.27916663915257939 0.29976543166583203 0 0.28149020293996468 0.31943183622450572 0 0.27065696402191081 0.31019179775388839 0 0.27916663915257939 0.29976543166583203 0 0.27065696402191081 0.31019179775388839 0 0.27916663915257939 0.29976543166583203 0 0.26554379932387978 0.30069929199995638 0 0.27916663915257939 0.29976543166583203 0 0.2710152165062536 0.29049265684060349 0 0.26554379932387978 0.30069929199995638 0 0.27916663915257939 0.29976543166583203 0 0.28034268107418892 0.28516208073719002 0 0.2710152165062536 0.29049265684060349 0 0.28034268107418892 0.28516208073719002 0 0.2710152165062536 0.29049265684060349 0 0.26681767420338498 0.27660072346837572 0 0.2491925681970294 0.27423095351175492 0 0.25400866170411829 0.29363332034749851 0 0.26681767420338498 0.27660072346837572 0 0.2710152165062536 0.29049265684060349 0 0.25400866170411829 0.29363332034749851 0 0.26681767420338498 0.27660072346837572 0 0.2710152165062536 0.29049265684060349 0 0.25400866170411829 0.29363332034749851 0 0.26554379932387978 0.30069929199995638 0 0.25400866170411829 0.29363332034749851 0 0.25911206773310141 0.3109909740030084 0 0.26554379932387978 0.30069929199995638 0 0.2434401456618274 0.31142558504640289 0 0.25400866170411829 0.29363332034749851 0 0.25911206773310141 0.3109909740030084 0 0.27065696402191081 0.31019179775388839 0 0.25911206773310141 0.3109909740030084 0 0.26554379932387978 0.30069929199995638 0 0.25559606925188771 0.25996470708327518 0 0.26681767420338498 0.27660072346837572 0 0.27306056941964368 0.25966207096392357 0 0.25559606925188771 0.25996470708327518 0 0.27306056941964368 0.25966207096392357 0 0.26406622851233441 0.24783688697654291 0 0.2447078346749649 0.24804890927139139 0 0.25559606925188771 0.25996470708327518 0 0.26406622851233441 0.24783688697654291 0 0.2491925681970294 0.27423095351175492 0 0.25559606925188771 0.25996470708327518 0 0.26681767420338498 0.27660072346837572 0 0.26681767420338498 0.27660072346837572 0 0.27306056941964368 0.25966207096392357 0 0.28294682749626449 0.27249473206321478 0 0.28034268107418892 0.28516208073719002 0 0.26681767420338498 0.27660072346837572 0 0.28294682749626449 0.27249473206321478 0 0.27306056941964368 0.25966207096392357 0 0.26406622851233441 0.24783688697654291 0 0.28232817733657761 0.24361575565767479 0 0.27306056941964368 0.25966207096392357 0 0.28742555254427749 0.25944826943857019 0 0.28294682749626449 0.27249473206321478 0 0.27306056941964368 0.25966207096392357 0 0.28742555254427749 0.25944826943857019 0 0.28232817733657761 0.24361575565767479 0 0.28742555254427749 0.25944826943857019 0 0.29307701897464772 0.27027205614736788 0 0.30266343079224822 0.25792607721464761 0 0.28294682749626449 0.27249473206321478 0 0.29307701897464772 0.27027205614736788 0 0.29043219657464148 0.28044345053284669 0 0.28034268107418892 0.28516208073719002 0 0.28294682749626449 0.27249473206321478 0 0.29043219657464148 0.28044345053284669 0 0.28742555254427749 0.25944826943857019 0 0.28294682749626449 0.27249473206321478 0 0.29307701897464772 0.27027205614736788 0 0.29307701897464772 0.27027205614736788 0 0.29043219657464148 0.28044345053284669 0 0.30124877242542403 0.28046327698804852 0 0.30124877242542403 0.28046327698804852 0 0.30266343079224822 0.25792607721464761 0 0.30124877242542403 0.28046327698804852 0 0.310704306987865 0.2733234113588241 0 0.30266343079224822 0.25792607721464761 0 0.29307701897464772 0.27027205614736788 0 0.30124877242542403 0.28046327698804852 0 0.30266343079224822 0.25792607721464761 0 0.310704306987865 0.2733234113588241 0 0.30266343079224822 0.25792607721464761 0 0.31507473598652458 0.24946843901357341 0 0.28742555254427749 0.25944826943857019 0 0.30266343079224822 0.25792607721464761 0 0.3010203368197118 0.242179481312498 0 0.310704306987865 0.2733234113588241 0 0.31507473598652458 0.24946843901357341 0 0.310704306987865 0.2733234113588241 0 0.32048882603123252 0.26347988452560223 0 0.31507473598652458 0.24946843901357341 0 0.32048882603123252 0.26347988452560223 0 0.32499536315921562 0.25696145551394439 0 0.31507473598652458 0.24946843901357341 0 0.32048882603123252 0.26347988452560223 0 0.32745734778432051 0.2643171397904398 0 0.32499536315921562 0.25696145551394439 0 0.32499536315921562 0.25696145551394439 0 0.32688066024586032 0.24979909687531501 0 0.31507473598652458 0.24946843901357341 0 0.32499536315921562 0.25696145551394439 0 0.33559214492556549 0.25683547732343381 0 0.32688066024586032 0.24979909687531501 0 0.33559214492556549 0.25683547732343381 0 0.33507534876679529 0.24427488539088191 0 0.32688066024586032 0.24979909687531501 0 0.32745734778432051 0.2643171397904398 0 0.32499536315921562 0.25696145551394439 0 0.33559214492556549 0.25683547732343381 0 0.32745734778432051 0.2643171397904398 0 0.33559214492556549 0.25683547732343381 0 0.33559145658002998 0.27199848345222932 0 0.33559214492556549 0.25683547732343381 0 0.35054683222527211 0.25520351352275811 0 0.34481244947751838 0.2478366172573653 0 0.33559145658002998 0.27199848345222932 0 0.34253108091786921 0.28293064883316771 0 0.34930289612484 0.26804804219405592 0 0.33559145658002998 0.27199848345222932 0 0.32996135220087569 0.28287319920514059 0 0.34253108091786921 0.28293064883316771 0 0.33559214492556549 0.25683547732343381 0 0.33559145658002998 0.27199848345222932 0 0.34930289612484 0.26804804219405592 0 0.32745734778432051 0.2643171397904398 0 0.33559145658002998 0.27199848345222932 0 0.32421237623823651 0.27332897695122887 0 0.33559145658002998 0.27199848345222932 0 0.32421237623823651 0.27332897695122887 0 0.32996135220087569 0.28287319920514059 0 0.32421237623823651 0.27332897695122887 0 0.32036190919357371 0.28216350980005672 0 0.32996135220087569 0.28287319920514059 0 0.32048882603123252 0.26347988452560223 0 0.32745734778432051 0.2643171397904398 0 0.32421237623823651 0.27332897695122887 0 0.310704306987865 0.2733234113588241 0 0.32048882603123252 0.26347988452560223 0 0.32421237623823651 0.27332897695122887 0 0.310704306987865 0.2733234113588241 0 0.32421237623823651 0.27332897695122887 0 0.32036190919357371 0.28216350980005672 0 0.310704306987865 0.2733234113588241 0 0.31646303972579698 0.28743402319554801 0 0.32036190919357371 0.28216350980005672 0 0.31100049105989008 0.29299831565078488 0 0.310704306987865 0.2733234113588241 0 0.31646303972579698 0.28743402319554801 0 0.31646303972579698 0.28743402319554801 0 0.32356973922865739 0.29310753872347672 0 0.32036190919357371 0.28216350980005672 0 0.31100049105989008 0.29299831565078488 0 0.31646303972579698 0.28743402319554801 0 0.31667875215899888 0.2955773404445976 0 0.31646303972579698 0.28743402319554801 0 0.31667875215899888 0.2955773404445976 0 0.32356973922865739 0.29310753872347672 0 0.31100049105989008 0.29299831565078488 0 0.31667875215899888 0.2955773404445976 0 0.31299173880819181 0.29963748806829388 0 0.32356973922865739 0.29310753872347672 0 0.32036190919357371 0.28216350980005672 0 0.32996135220087569 0.28287319920514059 0 0.32548011449240821 0.31766785293015948 0 0.31896313129469978 0.3044944419164452 0 0.32908928519717873 0.30150516420489792 0 0.31384243651617438 0.31393103165053948 0 0.31111253443465781 0.30581254897399179 0 0.31896313129469978 0.3044944419164452 0 0.32548011449240821 0.31766785293015948 0 0.31384243651617438 0.31393103165053948 0 0.31896313129469978 0.3044944419164452 0 0.31667875215899888 0.2955773404445976 0 0.32356973922865739 0.29310753872347672 0 0.31896313129469978 0.3044944419164452 0 0.31111253443465781 0.30581254897399179 0 0.31896313129469978 0.3044944419164452 0 0.31299173880819181 0.29963748806829388 0 0.31667875215899888 0.2955773404445976 0 0.31896313129469978 0.3044944419164452 0 0.31299173880819181 0.29963748806829388 0 0.32356973922865739 0.29310753872347672 0 0.31896313129469978 0.3044944419164452 0 0.32908928519717873 0.30150516420489792 0 0.32548011449240821 0.31766785293015948 0 0.33875863668826001 0.31044541380173779 0 0.3434349738742995 0.29962114705695347 0 0.32548011449240821 0.31766785293015948 0 0.32908928519717873 0.30150516420489792 0 0.3434349738742995 0.29962114705695347 0 0.32548011449240821 0.31766785293015948 0 0.3434349738742995 0.29962114705695347 0 0.32908928519717873 0.30150516420489792 0 0.3434349738742995 0.29962114705695347 0 0.33399846709582859 0.29263484039745452 0 0.3434349738742995 0.29962114705695347 0 0.33399846709582859 0.29263484039745452 0 0.34253108091786921 0.28293064883316771 0 0.32996135220087569 0.28287319920514059 0 0.33399846709582859 0.29263484039745452 0 0.34253108091786921 0.28293064883316771 0 0.32356973922865739 0.29310753872347672 0 0.32996135220087569 0.28287319920514059 0 0.33399846709582859 0.29263484039745452 0 0.32356973922865739 0.29310753872347672 0 0.32908928519717873 0.30150516420489792 0 0.33399846709582859 0.29263484039745452 0 0.3434349738742995 0.29962114705695347 0 0.35635386960710341 0.30434786928103091 0 0.36138983325619117 0.28157444118374758 0 0.3434349738742995 0.29962114705695347 0 0.36138983325619117 0.28157444118374758 0 0.35635386960710341 0.30434786928103091 0 0.36138983325619117 0.28157444118374758 0 0.3434349738742995 0.29962114705695347 0 0.34253108091786921 0.28293064883316771 0 0.36138983325619117 0.28157444118374758 0 0.35056419508036341 0.31607643694626542 0 0.33875863668826001 0.31044541380173779 0 0.3434349738742995 0.29962114705695347 0 0.35056419508036341 0.31607643694626542 0 0.3434349738742995 0.29962114705695347 0 0.35635386960710341 0.30434786928103091 0 0.36259388413757399 0.32168574422975132 0 0.35635386960710341 0.30434786928103091 0 0.37030044860525752 0.30314010148048748 0 0.37030044860525752 0.30314010148048748 0 0.36138983325619117 0.28157444118374758 0 0.37688718764387741 0.29111917647657037 0 0.35635386960710341 0.30434786928103091 0 0.37030044860525752 0.30314010148048748 0 0.36138983325619117 0.28157444118374758 0 0.36138983325619117 0.28157444118374758 0 0.37844321524178509 0.27975312400466801 0 0.37688718764387741 0.29111917647657037 0 0.36138983325619117 0.28157444118374758 0 0.36685660703731288 0.2568528211913117 0 0.3778629700218914 0.26501703754740769 0 0.36138983325619117 0.28157444118374758 0 0.3778629700218914 0.26501703754740769 0 0.36138983325619117 0.28157444118374758 0 0.36685660703731288 0.2568528211913117 0 0.36138983325619117 0.28157444118374758 0 0.3778629700218914 0.26501703754740769 0 0.37844321524178509 0.27975312400466801 0 0.36685660703731288 0.2568528211913117 0 0.3778629700218914 0.26501703754740769 0 0.38021145675286783 0.24955287181248939 0 0.36685660703731288 0.2568528211913117 0 0.35054683222527211 0.25520351352275811 0 0.34930289612484 0.26804804219405592 0 0.36685660703731288 0.2568528211913117 0 0.35054683222527211 0.25520351352275811 0 0.35617006356112352 0.24644460964762391 0 0.33559214492556549 0.25683547732343381 0 0.35054683222527211 0.25520351352275811 0 0.34930289612484 0.26804804219405592 0 0.34253108091786921 0.28293064883316771 0 0.36138983325619117 0.28157444118374758 0 0.34930289612484 0.26804804219405592 0 0.36138983325619117 0.28157444118374758 0 0.36685660703731288 0.2568528211913117 0 0.34930289612484 0.26804804219405592 0 0.39239121048137149 0.27717133021030999 0 0.40043488560984469 0.28625627886775862 0 0.41008720994934339 0.27395798053610071 0 0.39239121048137149 0.27717133021030999 0 0.39743935623307669 0.26352827229321518 0 0.41008720994934339 0.27395798053610071 0 0.39743935623307669 0.26352827229321518 0 0.41401967184311589 0.25282507102002483 0 0.39433610678759179 0.24845963391106821 0 0.3778629700218914 0.26501703754740769 0 0.39433610678759179 0.24845963391106821 0 0.3778629700218914 0.26501703754740769 0 0.39433610678759179 0.24845963391106821 0 0.38021145675286783 0.24955287181248939 0 0.39743935623307669 0.26352827229321518 0 0.3778629700218914 0.26501703754740769 0 0.39433610678759179 0.24845963391106821 0 0.39239121048137149 0.27717133021030999 0 0.39743935623307669 0.26352827229321518 0 0.3778629700218914 0.26501703754740769 0 0.39239121048137149 0.27717133021030999 0 0.3778629700218914 0.26501703754740769 0 0.37844321524178509 0.27975312400466801 0 0.37844321524178509 0.27975312400466801 0 0.37688718764387741 0.29111917647657037 0 0.38835578056568082 0.2888207191114836 0 0.38835578056568082 0.2888207191114836 0 0.3843973333181856 0.30072149310686452 0 0.39735237801053641 0.29709210506970518 0 0.37688718764387741 0.29111917647657037 0 0.38835578056568082 0.2888207191114836 0 0.3843973333181856 0.30072149310686452 0 0.39239121048137149 0.27717133021030999 0 0.37844321524178509 0.27975312400466801 0 0.38835578056568082 0.2888207191114836 0 0.37030044860525752 0.30314010148048748 0 0.3843973333181856 0.30072149310686452 0 0.37932549680105782 0.31469006695558999 0 0.37030044860525752 0.30314010148048748 0 0.37688718764387741 0.29111917647657037 0 0.3843973333181856 0.30072149310686452 0 0.3843973333181856 0.30072149310686452 0 0.39416270828270378 0.30946678954735007 0 0.37932549680105782 0.31469006695558999 0 0.3843973333181856 0.30072149310686452 0 0.39416270828270378 0.30946678954735007 0 0.39735237801053641 0.29709210506970518 0 0.39416270828270378 0.30946678954735007 0 0.39735237801053641 0.29709210506970518 0 0.40795724165038461 0.30429075688105173 0 0.39735237801053641 0.29709210506970518 0 0.41131526846848221 0.28929227329783741 0 0.40795724165038461 0.30429075688105173 0 0.39416270828270378 0.30946678954735007 0 0.40795724165038461 0.30429075688105173 0 0.40364468033226508 0.31851594533691341 0 0.39239121048137149 0.27717133021030999 0 0.38835578056568082 0.2888207191114836 0 0.40043488560984469 0.28625627886775862 0 0.38835578056568082 0.2888207191114836 0 0.39735237801053641 0.29709210506970518 0 0.40043488560984469 0.28625627886775862 0 0.39735237801053641 0.29709210506970518 0 0.40043488560984469 0.28625627886775862 0 0.41131526846848221 0.28929227329783741 0 0.41131526846848221 0.28929227329783741 0 0.42635645061840621 0.28559876785710792 0 0.41008720994934339 0.27395798053610071 0 0.41131526846848221 0.28929227329783741 0 0.42128304227986779 0.30195575828909998 0 0.42635645061840621 0.28559876785710792 0 0.40043488560984469 0.28625627886775862 0 0.41131526846848221 0.28929227329783741 0 0.41008720994934339 0.27395798053610071 0 0.40795724165038461 0.30429075688105173 0 0.4169191750959928 0.31261768852190241 0 0.40364468033226508 0.31851594533691341 0 0.41131526846848221 0.28929227329783741 0 0.40795724165038461 0.30429075688105173 0 0.42128304227986779 0.30195575828909998 0 0.40795724165038461 0.30429075688105173 0 0.42128304227986779 0.30195575828909998 0 0.4169191750959928 0.31261768852190241 0 0.42128304227986779 0.30195575828909998 0 0.43053594395912193 0.31223161467548821 0 0.4440182012110343 0.29777788827005269 0 0.42128304227986779 0.30195575828909998 0 0.43053594395912193 0.31223161467548821 0 0.4169191750959928 0.31261768852190241 0 0.42635645061840621 0.28559876785710792 0 0.44052475542576852 0.27790679460345419 0 0.4440182012110343 0.29777788827005269 0 0.42128304227986779 0.30195575828909998 0 0.42635645061840621 0.28559876785710792 0 0.4440182012110343 0.29777788827005269 0 0.42635645061840621 0.28559876785710792 0 0.42922446049869589 0.2667431419702293 0 0.44052475542576852 0.27790679460345419 0 0.42635645061840621 0.28559876785710792 0 0.42922446049869589 0.2667431419702293 0 0.41008720994934339 0.27395798053610071 0 0.39743935623307669 0.26352827229321518 0 0.41008720994934339 0.27395798053610071 0 0.41401967184311589 0.25282507102002483 0 0.42922446049869589 0.2667431419702293 0 0.41008720994934339 0.27395798053610071 0 0.41401967184311589 0.25282507102002483 0 0.42922446049869589 0.2667431419702293 0 0.41401967184311589 0.25282507102002483 0 0.43289203165404438 0.25018508703621772 0 0.42922446049869589 0.2667431419702293 0 0.43289203165404438 0.25018508703621772 0 0.45146664350149729 0.25998515076847079 0 0.45146664350149729 0.25998515076847079 0 0.44052475542576852 0.27790679460345419 0 0.45509288464011999 0.28077135034956507 0 0.42922446049869589 0.2667431419702293 0 0.45146664350149729 0.25998515076847079 0 0.44052475542576852 0.27790679460345419 0 0.45146664350149729 0.25998515076847079 0 0.45509288464011999 0.28077135034956507 0 0.46917447596602779 0.27424809149331802 0 0.45146664350149729 0.25998515076847079 0 0.46917447596602779 0.27424809149331802 0 0.4728882082761563 0.24689499181635879 0 0.46917447596602779 0.27424809149331802 0 0.48654587856209641 0.27327926239021783 0 0.4728882082761563 0.24689499181635879 0 0.46917447596602779 0.27424809149331802 0 0.48654587856209641 0.27327926239021783 0 0.48056402422701738 0.29052226449379481 0 0.48654587856209641 0.27327926239021783 0 0.5 0.26141177140325789 0 0.5 0.29013290899277477 0 0.48654587856209641 0.27327926239021783 0 0.5 0.26141177140325789 0 0.4728882082761563 0.24689499181635879 0 0.5 0.29013290899277477 0 0.48432213061461249 0.30701320112213432 0 0.49999999999999961 0.31885404658229177 0 0.5 0.29013290899277477 0 0.48056402422701738 0.29052226449379481 0 0.48432213061461249 0.30701320112213432 0 0.48654587856209641 0.27327926239021783 0 0.5 0.29013290899277477 0 0.48056402422701738 0.29052226449379481 0 0.46917447596602779 0.27424809149331802 0 0.48056402422701738 0.29052226449379481 0 0.46411656358053072 0.29355162669304602 0 0.48056402422701738 0.29052226449379481 0 0.4712235681719138 0.30471597202972478 0 0.46411656358053072 0.29355162669304602 0 0.48056402422701738 0.29052226449379481 0 0.4712235681719138 0.30471597202972478 0 0.48432213061461249 0.30701320112213432 0 0.46411656358053072 0.29355162669304602 0 0.4440182012110343 0.29777788827005269 0 0.46106813646393291 0.31330182122434752 0 0.4712235681719138 0.30471597202972478 0 0.46411656358053072 0.29355162669304602 0 0.46106813646393291 0.31330182122434752 0 0.45509288464011999 0.28077135034956507 0 0.46411656358053072 0.29355162669304602 0 0.4440182012110343 0.29777788827005269 0 0.45509288464011999 0.28077135034956507 0 0.46917447596602779 0.27424809149331802 0 0.46411656358053072 0.29355162669304602 0 0.44052475542576852 0.27790679460345419 0 0.45509288464011999 0.28077135034956507 0 0.4440182012110343 0.29777788827005269 0 0.44052475542576852 0.27790679460345419 0 0.4440182012110343 0.29777788827005269 0 0.4440182012110343 0.29777788827005269 0 0.44751164699630019 0.31764898193665109 0 0.46106813646393291 0.31330182122434752 0 0.4440182012110343 0.29777788827005269 0 0.44751164699630019 0.31764898193665109 0 0.43053594395912193 0.31223161467548821 0 0.4440182012110343 0.29777788827005269 0 0.44751164699630019 0.31764898193665109 0 0.44751164699630019 0.31764898193665109 0 0.45054964731701769 0.33492945303678567 0 0.4583767652202736 0.32326591681121242 0 0.44751164699630019 0.31764898193665109 0 0.45054964731701769 0.33492945303678567 0 0.49999999999999961 0.31885404658229177 0 0.49290256263818882 0.37396364173176883 0 0.5 0.384723550918743 0 0.43968085029769538 0.32777646195052201 0 0.44751164699630019 0.31764898193665109 0 0.45054964731701769 0.33492945303678567 0 0.45054964731701769 0.33492945303678567 0 0.42979218947637188 0.34167732344914992 0 0.43409278938418988 0.33313100069845741 0 0.45054964731701769 0.33492945303678567 0 0.43968419169114348 0.35019700265841769 0 0.42979218947637188 0.34167732344914992 0 0.43968085029769538 0.32777646195052201 0 0.45054964731701769 0.33492945303678567 0 0.43409278938418988 0.33313100069845741 0 0.45054964731701769 0.33492945303678567 0 0.42979218947637188 0.34167732344914992 0 0.45054964731701769 0.33492945303678567 0 0.45317935849506008 0.34988753177822279 0 0.45054964731701769 0.33492945303678567 0 0.4583767652202736 0.32326591681121242 0 0.47437763010384332 0.32718341104706528 0 0.45054964731701769 0.33492945303678567 0 0.47437763010384332 0.32718341104706528 0 0.46509334988847167 0.34601451078336293 0 0.45054964731701769 0.33492945303678567 0 0.47437763010384332 0.32718341104706528 0 0.45054964731701769 0.33492945303678567 0 0.46509334988847167 0.34601451078336293 0 0.45317935849506008 0.34988753177822279 0 0.4583767652202736 0.32326591681121242 0 0.46106813646393291 0.31330182122434752 0 0.47437763010384332 0.32718341104706528 0 0.44751164699630019 0.31764898193665109 0 0.4583767652202736 0.32326591681121242 0 0.46106813646393291 0.31330182122434752 0 0.44751164699630019 0.31764898193665109 0 0.46106813646393291 0.31330182122434752 0 0.4712235681719138 0.30471597202972478 0 0.46106813646393291 0.31330182122434752 0 0.47437763010384332 0.32718341104706528 0 0.47835958105355048 0.34085088879520842 0 0.49999999999999961 0.31885404658229177 0 0.48577839058994637 0.35114896808184032 0 0.48432213061461249 0.30701320112213432 0 0.47437763010384332 0.32718341104706528 0 0.4712235681719138 0.30471597202972478 0 0.48432213061461249 0.30701320112213432 0 0.47437763010384332 0.32718341104706528 0 0.47437763010384332 0.32718341104706528 0 0.47835958105355048 0.34085088879520842 0 0.49999999999999961 0.31885404658229177 0 0.47437763010384332 0.32718341104706528 0 0.46509334988847167 0.34601451078336293 0 0.47437763010384332 0.32718341104706528 0 0.47835958105355048 0.34085088879520842 0 0.46509334988847167 0.34601451078336293 0 0.48432213061461249 0.30701320112213432 0 0.47437763010384332 0.32718341104706528 0 0.49999999999999961 0.31885404658229177 0 0.47437763010384332 0.32718341104706528 0 0.49999999999999961 0.31885404658229177 0 0.49999999999999961 0.31885404658229177 0 0.49290256263818882 0.37396364173176883 0 0.48577839058994637 0.35114896808184032 0 0.49290256263818882 0.37396364173176883 0 0.48577839058994637 0.35114896808184032 0 0.48188222351608351 0.36546877549796108 0 0.49290256263818882 0.37396364173176883 0 0.48188222351608351 0.36546877549796108 0 0.47946577796801298 0.37609377181071563 0 0.47835958105355048 0.34085088879520842 0 0.48577839058994637 0.35114896808184032 0 0.47227096591256912 0.35874813105493347 0 0.47835958105355048 0.34085088879520842 0 0.47227096591256912 0.35874813105493347 0 0.46509334988847167 0.34601451078336293 0 0.48577839058994637 0.35114896808184032 0 0.47227096591256912 0.35874813105493347 0 0.48188222351608351 0.36546877549796108 0 0.47227096591256912 0.35874813105493347 0 0.48188222351608351 0.36546877549796108 0 0.4745814319311773 0.37048242401385512 0 0.48188222351608351 0.36546877549796108 0 0.4745814319311773 0.37048242401385512 0 0.47946577796801298 0.37609377181071563 0 0.4745814319311773 0.37048242401385512 0 0.46439271473565502 0.37242573969264708 0 0.47053729863464699 0.38003899837879401 0 0.47227096591256912 0.35874813105493347 0 0.4745814319311773 0.37048242401385512 0 0.46439271473565502 0.37242573969264708 0 0.46439271473565502 0.37242573969264708 0 0.45580906967310009 0.36484561051966052 0 0.45901675545503973 0.38309127069127652 0 0.45580906967310009 0.36484561051966052 0 0.45901675545503973 0.38309127069127652 0 0.47227096591256912 0.35874813105493347 0 0.46439271473565502 0.37242573969264708 0 0.45580906967310009 0.36484561051966052 0 0.45580906967310009 0.36484561051966052 0 0.46509334988847167 0.34601451078336293 0 0.47227096591256912 0.35874813105493347 0 0.45580906967310009 0.36484561051966052 0 0.46509334988847167 0.34601451078336293 0 0.45580906967310009 0.36484561051966052 0 0.46509334988847167 0.34601451078336293 0 0.45317935849506008 0.34988753177822279 0 0.45580906967310009 0.36484561051966052 0 0.45317935849506008 0.34988753177822279 0 0.45054964731701769 0.33492945303678567 0 0.45317935849506008 0.34988753177822279 0 0.43968419169114348 0.35019700265841769 0 0.45580906967310009 0.36484561051966052 0 0.45317935849506008 0.34988753177822279 0 0.44103873845053743 0.36284559295572838 0 0.45317935849506008 0.34988753177822279 0 0.43968419169114348 0.35019700265841769 0 0.44103873845053743 0.36284559295572838 0 0.45580906967310009 0.36484561051966052 0 0.44103873845053743 0.36284559295572838 0 0.44865475077744171 0.37935655693059961 0 0.44103873845053743 0.36284559295572838 0 0.43407841402913921 0.37144254318424302 0 0.44865475077744171 0.37935655693059961 0 0.45580906967310009 0.36484561051966052 0 0.44865475077744171 0.37935655693059961 0 0.44103873845053743 0.36284559295572838 0 0.43407841402913921 0.37144254318424302 0 0.42152677349998702 0.35810268598393408 0 0.43407841402913921 0.37144254318424302 0 0.4245282617202556 0.37475846121402001 0 0.42152677349998702 0.35810268598393408 0 0.4245282617202556 0.37475846121402001 0 0.41326135752359849 0.37452804851871663 0 0.42152677349998702 0.35810268598393408 0 0.41326135752359849 0.37452804851871663 0 0.40942793369408709 0.35774444334754879 0 0.39847042327967741 0.36264801175432232 0 0.41326135752359849 0.37452804851871663 0 0.42152677349998702 0.35810268598393408 0 0.41326135752359849 0.37452804851871663 0 0.40942793369408709 0.35774444334754879 0 0.42152677349998702 0.35810268598393408 0 0.4245282617202556 0.37475846121402001 0 0.41326135752359849 0.37452804851871663 0 0.4143643223610467 0.34669264126082738 0 0.39893645524572202 0.35170795907250618 0 0.4143643223610467 0.34669264126082738 0 0.41000434712778477 0.33936670750420161 0 0.39893645524572202 0.35170795907250618 0 0.40942793369408709 0.35774444334754879 0 0.4143643223610467 0.34669264126082738 0 0.39893645524572202 0.35170795907250618 0 0.40942793369408709 0.35774444334754879 0 0.42152677349998702 0.35810268598393408 0 0.4143643223610467 0.34669264126082738 0 0.42152677349998702 0.35810268598393408 0 0.42979218947637188 0.34167732344914992 0 0.43968419169114348 0.35019700265841769 0 0.42152677349998702 0.35810268598393408 0 0.42979218947637188 0.34167732344914992 0 0.43968419169114348 0.35019700265841769 0 0.44103873845053743 0.36284559295572838 0 0.42152677349998702 0.35810268598393408 0 0.4143643223610467 0.34669264126082738 0 0.42979218947637188 0.34167732344914992 0 0.42152677349998702 0.35810268598393408 0 0.4143643223610467 0.34669264126082738 0 0.42979218947637188 0.34167732344914992 0 0.43968085029769538 0.32777646195052201 0 0.43409278938418988 0.33313100069845741 0 0.4211749672583246 0.32609436742695869 0 0.42979218947637188 0.34167732344914992 0 0.43409278938418988 0.33313100069845741 0 0.43409278938418988 0.33313100069845741 0 0.4211749672583246 0.32609436742695869 0 0.42070770325348211 0.3377988168434492 0 0.42979218947637188 0.34167732344914992 0 0.43409278938418988 0.33313100069845741 0 0.42070770325348211 0.3377988168434492 0 0.43053594395912193 0.31223161467548821 0 0.44751164699630019 0.31764898193665109 0 0.4211749672583246 0.32609436742695869 0 0.43968085029769538 0.32777646195052201 0 0.44751164699630019 0.31764898193665109 0 0.4211749672583246 0.32609436742695869 0 0.44751164699630019 0.31764898193665109 0 0.4211749672583246 0.32609436742695869 0 0.43053594395912193 0.31223161467548821 0 0.4169191750959928 0.31261768852190241 0 0.4211749672583246 0.32609436742695869 0 0.4211749672583246 0.32609436742695869 0 0.394838287520349 0.33453975291726618 0 0.40364468033226508 0.31851594533691341 0 0.4169191750959928 0.31261768852190241 0 0.4211749672583246 0.32609436742695869 0 0.40364468033226508 0.31851594533691341 0 0.4211749672583246 0.32609436742695869 0 0.394838287520349 0.33453975291726618 0 0.4211749672583246 0.32609436742695869 0 0.41000434712778477 0.33936670750420161 0 0.394838287520349 0.33453975291726618 0 0.4143643223610467 0.34669264126082738 0 0.42979218947637188 0.34167732344914992 0 0.42070770325348211 0.3377988168434492 0 0.4143643223610467 0.34669264126082738 0 0.42070770325348211 0.3377988168434492 0 0.41000434712778477 0.33936670750420161 0 0.4211749672583246 0.32609436742695869 0 0.42070770325348211 0.3377988168434492 0 0.41000434712778477 0.33936670750420161 0 0.41000434712778477 0.33936670750420161 0 0.394838287520349 0.33453975291726618 0 0.39893645524572202 0.35170795907250618 0 0.394838287520349 0.33453975291726618 0 0.40364468033226508 0.31851594533691341 0 0.38967461404809761 0.32140040789516588 0 0.39416270828270378 0.30946678954735007 0 0.40364468033226508 0.31851594533691341 0 0.38967461404809761 0.32140040789516588 0 0.394838287520349 0.33453975291726618 0 0.38967461404809761 0.32140040789516588 0 0.37824824069966811 0.32784001140610952 0 0.39416270828270378 0.30946678954735007 0 0.38967461404809761 0.32140040789516588 0 0.37932549680105782 0.31469006695558999 0 0.38967461404809761 0.32140040789516588 0 0.37824824069966811 0.32784001140610952 0 0.37932549680105782 0.31469006695558999 0 0.36850160778237329 0.34298513840757378 0 0.394838287520349 0.33453975291726618 0 0.37824824069966811 0.32784001140610952 0 0.36850160778237329 0.34298513840757378 0 0.394838287520349 0.33453975291726618 0 0.36850160778237329 0.34298513840757378 0 0.394838287520349 0.33453975291726618 0 0.38603176592429689 0.35531576084438532 0 0.37065827662053402 0.3615713287862069 0 0.36850160778237329 0.34298513840757378 0 0.38603176592429689 0.35531576084438532 0 0.38603176592429689 0.35531576084438532 0 0.38469460401068029 0.37394384698845312 0 0.39847042327967741 0.36264801175432232 0 0.37065827662053402 0.3615713287862069 0 0.38603176592429689 0.35531576084438532 0 0.38469460401068029 0.37394384698845312 0 0.41326135752359849 0.37452804851871663 0 0.38469460401068029 0.37394384698845312 0 0.41326135752359849 0.37452804851871663 0 0.38469460401068029 0.37394384698845312 0 0.39847042327967741 0.36264801175432232 0 0.40942793369408709 0.35774444334754879 0 0.39847042327967741 0.36264801175432232 0 0.39893645524572202 0.35170795907250618 0 0.394838287520349 0.33453975291726618 0 0.38603176592429689 0.35531576084438532 0 0.39893645524572202 0.35170795907250618 0 0.38603176592429689 0.35531576084438532 0 0.39847042327967741 0.36264801175432232 0 0.39893645524572202 0.35170795907250618 0 0.40499602235193138 0.39095325047515778 0 0.37746331728181731 0.38875523479148633 0 0.38979871987783049 0.39769463829263219 0 0.398010229916887 0.40483569434322009 0 0.40499602235193138 0.39095325047515778 0 0.41523486693011491 0.40920450743054793 0 0.398010229916887 0.40483569434322009 0 0.40499602235193138 0.39095325047515778 0 0.38979871987783049 0.39769463829263219 0 0.398010229916887 0.40483569434322009 0 0.40499602235193138 0.39095325047515778 0 0.41326135752359849 0.37452804851871663 0 0.38469460401068029 0.37394384698845312 0 0.40499602235193138 0.39095325047515778 0 0.40499602235193138 0.39095325047515778 0 0.37746331728181731 0.38875523479148633 0 0.38469460401068029 0.37394384698845312 0 0.40499602235193138 0.39095325047515778 0 0.37746331728181731 0.38875523479148633 0 0.37746331728181731 0.38875523479148633 0 0.38979871987783049 0.39769463829263219 0 0.37872530996068521 0.40623437356066378 0 0.398010229916887 0.40483569434322009 0 0.38979871987783049 0.39769463829263219 0 0.37872530996068521 0.40623437356066378 0 0.398010229916887 0.40483569434322009 0 0.37872530996068521 0.40623437356066378 0 0.39102443748184151 0.41871813821128212 0 0.37872530996068521 0.40623437356066378 0 0.37889828243241369 0.41836445231234182 0 0.39102443748184151 0.41871813821128212 0 0.37368228861478181 0.42952799850357443 0 0.3867013113428811 0.430280364382509 0 0.37893985474013808 0.44134751313141951 0 0.37368228861478181 0.42952799850357443 0 0.37889828243241369 0.41836445231234182 0 0.3867013113428811 0.430280364382509 0 0.37889828243241369 0.41836445231234182 0 0.3867013113428811 0.430280364382509 0 0.39102443748184151 0.41871813821128212 0 0.3867013113428811 0.430280364382509 0 0.39876663328653977 0.42861782593520048 0 0.39207551906831439 0.44133469029297762 0 0.3867013113428811 0.430280364382509 0 0.39876663328653977 0.42861782593520048 0 0.39102443748184151 0.41871813821128212 0 0.39876663328653977 0.42861782593520048 0 0.40343092243459738 0.41695178199720823 0 0.41251770714784147 0.42584022437868291 0 0.39876663328653977 0.42861782593520048 0 0.41251770714784147 0.42584022437868291 0 0.40684990224376322 0.43858175634854352 0 0.39876663328653977 0.42861782593520048 0 0.40684990224376322 0.43858175634854352 0 0.39207551906831439 0.44133469029297762 0 0.398010229916887 0.40483569434322009 0 0.40343092243459738 0.41695178199720823 0 0.41523486693011491 0.40920450743054793 0 0.398010229916887 0.40483569434322009 0 0.39102443748184151 0.41871813821128212 0 0.40343092243459738 0.41695178199720823 0 0.398010229916887 0.40483569434322009 0 0.39102443748184151 0.41871813821128212 0 0.39876663328653977 0.42861782593520048 0 0.39102443748184151 0.41871813821128212 0 0.40343092243459738 0.41695178199720823 0 0.40343092243459738 0.41695178199720823 0 0.41523486693011491 0.40920450743054793 0 0.41251770714784147 0.42584022437868291 0 0.41523486693011491 0.40920450743054793 0 0.41251770714784147 0.42584022437868291 0 0.42296756533857249 0.42009337406567998 0 0.41251770714784147 0.42584022437868291 0 0.4187391272071681 0.43546008093686212 0 0.40684990224376322 0.43858175634854352 0 0.41251770714784147 0.42584022437868291 0 0.42187855469275393 0.42742913740763838 0 0.42296756533857249 0.42009337406567998 0 0.41251770714784147 0.42584022437868291 0 0.4187391272071681 0.43546008093686212 0 0.42187855469275393 0.42742913740763838 0 0.43328981907743358 0.42832287024932858 0 0.44670911142852371 0.42336313104546502 0 0.4314700392552987 0.43965986496030102 0 0.4187391272071681 0.43546008093686212 0 0.43328981907743358 0.42832287024932858 0 0.41552419708677041 0.44808612312107282 0 0.4187391272071681 0.43546008093686212 0 0.42187855469275393 0.42742913740763838 0 0.43328981907743358 0.42832287024932858 0 0.42187855469275393 0.42742913740763838 0 0.43328981907743358 0.42832287024932858 0 0.42296756533857249 0.42009337406567998 0 0.41523486693011491 0.40920450743054793 0 0.43287290280230473 0.41136652930851458 0 0.42296756533857249 0.42009337406567998 0 0.43328981907743358 0.42832287024932858 0 0.43287290280230473 0.41136652930851458 0 0.42296756533857249 0.42009337406567998 0 0.43287290280230473 0.41136652930851458 0 0.42324822711685739 0.39241037690834718 0 0.44150043188178312 0.3938675033415388 0 0.42324822711685739 0.39241037690834718 0 0.44150043188178312 0.3938675033415388 0 0.41523486693011491 0.40920450743054793 0 0.43287290280230473 0.41136652930851458 0 0.42324822711685739 0.39241037690834718 0 0.43287290280230473 0.41136652930851458 0 0.44150043188178312 0.3938675033415388 0 0.40499602235193138 0.39095325047515778 0 0.41523486693011491 0.40920450743054793 0 0.42324822711685739 0.39241037690834718 0 0.40499602235193138 0.39095325047515778 0 0.42324822711685739 0.39241037690834718 0 0.41326135752359849 0.37452804851871663 0 0.40499602235193138 0.39095325047515778 0 0.40499602235193138 0.39095325047515778 0 0.42324822711685739 0.39241037690834718 0 0.4187196241360035 0.383209614823046 0 0.41326135752359849 0.37452804851871663 0 0.40499602235193138 0.39095325047515778 0 0.4187196241360035 0.383209614823046 0 0.4245282617202556 0.37475846121402001 0 0.41326135752359849 0.37452804851871663 0 0.4187196241360035 0.383209614823046 0 0.42324822711685739 0.39241037690834718 0 0.4187196241360035 0.383209614823046 0 0.43464354569747388 0.38214941883693232 0 0.4245282617202556 0.37475846121402001 0 0.4187196241360035 0.383209614823046 0 0.43464354569747388 0.38214941883693232 0 0.42324822711685739 0.39241037690834718 0 0.43464354569747388 0.38214941883693232 0 0.44150043188178312 0.3938675033415388 0 0.43407841402913921 0.37144254318424302 0 0.4245282617202556 0.37475846121402001 0 0.43464354569747388 0.38214941883693232 0 0.43407841402913921 0.37144254318424302 0 0.43464354569747388 0.38214941883693232 0 0.44865475077744171 0.37935655693059961 0 0.43464354569747388 0.38214941883693232 0 0.44865475077744171 0.37935655693059961 0 0.44150043188178312 0.3938675033415388 0 0.44865475077744171 0.37935655693059961 0 0.44150043188178312 0.3938675033415388 0 0.44865475077744171 0.37935655693059961 0 0.44150043188178312 0.3938675033415388 0 0.45475143554537079 0.38391322788866511 0 0.44150043188178312 0.3938675033415388 0 0.45818019540025212 0.3949441347077226 0 0.43287290280230473 0.41136652930851458 0 0.44150043188178312 0.3938675033415388 0 0.4510554410680967 0.40855961737758428 0 0.44150043188178312 0.3938675033415388 0 0.45818019540025212 0.3949441347077226 0 0.4510554410680967 0.40855961737758428 0 0.44150043188178312 0.3938675033415388 0 0.45818019540025212 0.3949441347077226 0 0.45475143554537079 0.38391322788866511 0 0.4646782849020048 0.38927174480372839 0 0.47742537311996869 0.39051501943119887 0 0.46194818360174639 0.40706639713062692 0 0.45818019540025212 0.3949441347077226 0 0.4646782849020048 0.38927174480372839 0 0.46194818360174639 0.40706639713062692 0 0.45818019540025212 0.3949441347077226 0 0.46194818360174639 0.40706639713062692 0 0.45818019540025212 0.3949441347077226 0 0.46194818360174639 0.40706639713062692 0 0.4510554410680967 0.40855961737758428 0 0.45580906967310009 0.36484561051966052 0 0.44865475077744171 0.37935655693059961 0 0.45901675545503973 0.38309127069127652 0 0.44865475077744171 0.37935655693059961 0 0.45475143554537079 0.38391322788866511 0 0.45901675545503973 0.38309127069127652 0 0.45818019540025212 0.3949441347077226 0 0.45475143554537079 0.38391322788866511 0 0.45818019540025212 0.3949441347077226 0 0.45475143554537079 0.38391322788866511 0 0.4646782849020048 0.38927174480372839 0 0.45475143554537079 0.38391322788866511 0 0.45901675545503973 0.38309127069127652 0 0.4646782849020048 0.38927174480372839 0 0.45901675545503973 0.38309127069127652 0 0.4646782849020048 0.38927174480372839 0 0.47053729863464699 0.38003899837879401 0 0.46439271473565502 0.37242573969264708 0 0.45901675545503973 0.38309127069127652 0 0.47053729863464699 0.38003899837879401 0 0.47053729863464699 0.38003899837879401 0 0.47946577796801298 0.37609377181071563 0 0.47742537311996869 0.39051501943119887 0 0.49290256263818882 0.37396364173176883 0 0.47946577796801298 0.37609377181071563 0 0.47742537311996869 0.39051501943119887 0 0.4745814319311773 0.37048242401385512 0 0.47053729863464699 0.38003899837879401 0 0.47946577796801298 0.37609377181071563 0 0.4646782849020048 0.38927174480372839 0 0.47053729863464699 0.38003899837879401 0 0.47742537311996869 0.39051501943119887 0 0.47742537311996869 0.39051501943119887 0 0.47386532709917673 0.40679655701997219 0 0.46194818360174639 0.40706639713062692 0 0.47742537311996869 0.39051501943119887 0 0.46194818360174639 0.40706639713062692 0 0.47742537311996869 0.39051501943119887 0 0.48462286924663078 0.41275744346746479 0 0.47386532709917673 0.40679655701997219 0 0.47742537311996869 0.39051501943119887 0 0.5 0.384723550918743 0 0.48462286924663078 0.41275744346746479 0 0.49290256263818882 0.37396364173176883 0 0.47742537311996869 0.39051501943119887 0 0.5 0.384723550918743 0 0.49290256263818882 0.37396364173176883 0 0.47742537311996869 0.39051501943119887 0 0.5 0.384723550918743 0 0.5 0.43434931037219537 0 0.48462286924663078 0.41275744346746479 0 0.5 0.43434931037219537 0 0.48462286924663078 0.41275744346746479 0 0.48409658032251102 0.42934325643154297 0 0.48462286924663078 0.41275744346746479 0 0.4732473954060204 0.41631416980844038 0 0.47721922276449108 0.42338943587855871 0 0.48462286924663078 0.41275744346746479 0 0.48409658032251102 0.42934325643154297 0 0.47721922276449108 0.42338943587855871 0 0.48462286924663078 0.41275744346746479 0 0.47386532709917673 0.40679655701997219 0 0.4732473954060204 0.41631416980844038 0 0.47386532709917673 0.40679655701997219 0 0.4732473954060204 0.41631416980844038 0 0.46194818360174639 0.40706639713062692 0 0.4732473954060204 0.41631416980844038 0 0.47721922276449108 0.42338943587855871 0 0.4691698701755409 0.43029979784797112 0 0.48409658032251102 0.42934325643154297 0 0.47721922276449108 0.42338943587855871 0 0.4691698701755409 0.43029979784797112 0 0.46532440613020393 0.43282314885147261 0 0.462143721247263 0.42470061479912652 0 0.45665584847949692 0.42901813573252112 0 0.4691698701755409 0.43029979784797112 0 0.46532440613020393 0.43282314885147261 0 0.462143721247263 0.42470061479912652 0 0.4573274066696647 0.42198090798084031 0 0.45665584847949692 0.42901813573252112 0 0.44670911142852371 0.42336313104546502 0 0.462143721247263 0.42470061479912652 0 0.4573274066696647 0.42198090798084031 0 0.45665584847949692 0.42901813573252112 0 0.46532440613020393 0.43282314885147261 0 0.45665584847949692 0.42901813573252112 0 0.45118881456250443 0.43759350308130041 0 0.46194818360174639 0.40706639713062692 0 0.4510554410680967 0.40855961737758428 0 0.44670911142852371 0.42336313104546502 0 0.46194818360174639 0.40706639713062692 0 0.44670911142852371 0.42336313104546502 0 0.4732473954060204 0.41631416980844038 0 0.4691698701755409 0.43029979784797112 0 0.46194818360174639 0.40706639713062692 0 0.4691698701755409 0.43029979784797112 0 0.462143721247263 0.42470061479912652 0 0.46194818360174639 0.40706639713062692 0 0.4573274066696647 0.42198090798084031 0 0.46194818360174639 0.40706639713062692 0 0.44670911142852371 0.42336313104546502 0 0.462143721247263 0.42470061479912652 0 0.4573274066696647 0.42198090798084031 0 0.46194818360174639 0.40706639713062692 0 0.4691698701755409 0.43029979784797112 0 0.46194818360174639 0.40706639713062692 0 0.43328981907743358 0.42832287024932858 0 0.4510554410680967 0.40855961737758428 0 0.44670911142852371 0.42336313104546502 0 0.43328981907743358 0.42832287024932858 0 0.4510554410680967 0.40855961737758428 0 0.43328981907743358 0.42832287024932858 0 0.43287290280230473 0.41136652930851458 0 0.4510554410680967 0.40855961737758428 0 0.44670911142852371 0.42336313104546502 0 0.4314700392552987 0.43965986496030102 0 0.44670911142852371 0.42336313104546502 0 0.45118881456250443 0.43759350308130041 0 0.4314700392552987 0.43965986496030102 0 0.45665584847949692 0.42901813573252112 0 0.44670911142852371 0.42336313104546502 0 0.45118881456250443 0.43759350308130041 0 0.5 0.43434931037219537 0 0.5 0.5 0 0.48361324332313282 0.47676659928265841 0 0.44686642846259789 0.45187244585904862 0 0.45118881456250443 0.43759350308130041 0 0.4314700392552987 0.43965986496030102 0 0.44686642846259789 0.45187244585904862 0 0.44898127237543001 0.47857757286865921 0 0.42840845079499201 0.47092174286662458 0 0.44686642846259789 0.45187244585904862 0 0.42840845079499201 0.47092174286662458 0 0.44686642846259789 0.45187244585904862 0 0.46385467870621849 0.46312958540756349 0 0.46278604839876569 0.4498497170843021 0 0.44686642846259789 0.45187244585904862 0 0.46385467870621849 0.46312958540756349 0 0.44898127237543001 0.47857757286865921 0 0.46385467870621849 0.46312958540756349 0 0.46278604839876569 0.4498497170843021 0 0.47639155674933692 0.45353319856531471 0 0.46532440613020393 0.43282314885147261 0 0.44686642846259789 0.45187244585904862 0 0.45118881456250443 0.43759350308130041 0 0.46532440613020393 0.43282314885147261 0 0.46278604839876569 0.4498497170843021 0 0.47639155674933692 0.45353319856531471 0 0.46532440613020393 0.43282314885147261 0 0.44686642846259789 0.45187244585904862 0 0.46278604839876569 0.4498497170843021 0 0.46532440613020393 0.43282314885147261 0 0.44686642846259789 0.45187244585904862 0 0.4691698701755409 0.43029979784797112 0 0.46532440613020393 0.43282314885147261 0 0.47639155674933692 0.45353319856531471 0 0.48409658032251102 0.42934325643154297 0 0.4691698701755409 0.43029979784797112 0 0.47639155674933692 0.45353319856531471 0 0.4691698701755409 0.43029979784797112 0 0.47639155674933692 0.45353319856531471 0 0.5 0.43434931037219537 0 0.47639155674933692 0.45353319856531471 0 0.48361324332313282 0.47676659928265841 0 0.46385467870621849 0.46312958540756349 0 0.47639155674933692 0.45353319856531471 0 0.48361324332313282 0.47676659928265841 0 0.47639155674933692 0.45353319856531471 0 0.48361324332313282 0.47676659928265841 0 0.5 0.43434931037219537 0 0.48409658032251102 0.42934325643154297 0 0.47639155674933692 0.45353319856531471 0 0.4908349298969294 0.500000000000002 0 0.5 0.5 0 0.48361324332313282 0.47676659928265841 0 0.4908349298969294 0.500000000000002 0 0.48361324332313282 0.47676659928265841 0 0.4908349298969294 0.500000000000002 0 0.48361324332313282 0.47676659928265841 0 0.46186908762392209 0.5 0 0.46385467870621849 0.46312958540756349 0 0.48361324332313282 0.47676659928265841 0 0.44898127237543001 0.47857757286865921 0 0.48361324332313282 0.47676659928265841 0 0.46186908762392209 0.5 0 0.44898127237543001 0.47857757286865921 0 0.46186908762392209 0.5 0 0.44898127237543001 0.47857757286865921 0 0.43290324535091468 0.5 0 0.44898127237543001 0.47857757286865921 0 0.42522151315335122 0.48630088804433719 0 0.43290324535091468 0.5 0 0.42522151315335122 0.48630088804433719 0 0.43290324535091468 0.5 0 0.40995047312738597 0.4899710398742006 0 0.43290324535091468 0.5 0 0.40995047312738597 0.4899710398742006 0 0.40393740307790749 0.5 0 0.40995047312738597 0.4899710398742006 0 0.42840845079499201 0.47092174286662458 0 0.40995047312738597 0.4899710398742006 0 0.41291223228569762 0.47109425215741679 0 0.42840845079499201 0.47092174286662458 0 0.42522151315335122 0.48630088804433719 0 0.40995047312738597 0.4899710398742006 0 0.42840845079499201 0.47092174286662458 0 0.40995047312738597 0.4899710398742006 0 0.41291223228569762 0.47109425215741679 0 0.403242067136516 0.47924775094250632 0 0.44898127237543001 0.47857757286865921 0 0.42522151315335122 0.48630088804433719 0 0.42840845079499201 0.47092174286662458 0 0.44686642846259789 0.45187244585904862 0 0.42840845079499201 0.47092174286662458 0 0.43112651634936328 0.4553930480515842 0 0.43112651634936328 0.4553930480515842 0 0.42277674380853519 0.46291016031736598 0 0.41623096708207369 0.45595659887513701 0 0.42840845079499201 0.47092174286662458 0 0.43112651634936328 0.4553930480515842 0 0.42277674380853519 0.46291016031736598 0 0.43328981907743358 0.42832287024932858 0 0.41552419708677041 0.44808612312107282 0 0.43112651634936328 0.4553930480515842 0 0.4314700392552987 0.43965986496030102 0 0.41623096708207369 0.45595659887513701 0 0.43328981907743358 0.42832287024932858 0 0.4314700392552987 0.43965986496030102 0 0.41552419708677041 0.44808612312107282 0 0.44686642846259789 0.45187244585904862 0 0.43112651634936328 0.4553930480515842 0 0.4314700392552987 0.43965986496030102 0 0.4314700392552987 0.43965986496030102 0 0.41623096708207369 0.45595659887513701 0 0.4314700392552987 0.43965986496030102 0 0.41552419708677041 0.44808612312107282 0 0.41623096708207369 0.45595659887513701 0 0.41552419708677041 0.44808612312107282 0 0.40684990224376322 0.43858175634854352 0 0.40036370740529281 0.45078219111158452 0 0.4187391272071681 0.43546008093686212 0 0.41552419708677041 0.44808612312107282 0 0.40684990224376322 0.43858175634854352 0 0.41552419708677041 0.44808612312107282 0 0.39775857509610718 0.46784937599281712 0 0.41552419708677041 0.44808612312107282 0 0.41623096708207369 0.45595659887513701 0 0.39775857509610718 0.46784937599281712 0 0.41291223228569762 0.47109425215741679 0 0.41623096708207369 0.45595659887513701 0 0.39775857509610718 0.46784937599281712 0 0.41291223228569762 0.47109425215741679 0 0.42277674380853519 0.46291016031736598 0 0.41623096708207369 0.45595659887513701 0 0.41291223228569762 0.47109425215741679 0 0.42840845079499201 0.47092174286662458 0 0.42277674380853519 0.46291016031736598 0 0.41552419708677041 0.44808612312107282 0 0.39775857509610718 0.46784937599281712 0 0.40036370740529281 0.45078219111158452 0 0.39775857509610718 0.46784937599281712 0 0.40036370740529281 0.45078219111158452 0 0.3785563831823523 0.45648440261919337 0 0.40684990224376322 0.43858175634854352 0 0.40036370740529281 0.45078219111158452 0 0.39207551906831439 0.44133469029297762 0 0.40036370740529281 0.45078219111158452 0 0.39207551906831439 0.44133469029297762 0 0.3785563831823523 0.45648440261919337 0 0.3867013113428811 0.430280364382509 0 0.39207551906831439 0.44133469029297762 0 0.37893985474013808 0.44134751313141951 0 0.39207551906831439 0.44133469029297762 0 0.37893985474013808 0.44134751313141951 0 0.3785563831823523 0.45648440261919337 0 0.39775857509610718 0.46784937599281712 0 0.3785563831823523 0.45648440261919337 0 0.38048745808744933 0.47567252741133792 0 0.39775857509610718 0.46784937599281712 0 0.38048745808744933 0.47567252741133792 0 0.39314895216381401 0.48544960832690948 0 0.37497156080490041 0.5 0 0.38048745808744933 0.47567252741133792 0 0.39314895216381401 0.48544960832690948 0 0.40995047312738597 0.4899710398742006 0 0.39314895216381401 0.48544960832690948 0 0.403242067136516 0.47924775094250632 0 0.40995047312738597 0.4899710398742006 0 0.39314895216381401 0.48544960832690948 0 0.40393740307790749 0.5 0 0.37497156080490041 0.5 0 0.39314895216381401 0.48544960832690948 0 0.40393740307790749 0.5 0 0.39775857509610718 0.46784937599281712 0 0.39314895216381401 0.48544960832690948 0 0.403242067136516 0.47924775094250632 0 0.41291223228569762 0.47109425215741679 0 0.39775857509610718 0.46784937599281712 0 0.403242067136516 0.47924775094250632 0 0.32699052585751548 0.083302428147111043 0 0.3367889412504026 0.097937584144726558 0 0.3448101572121659 0.084697708787509415 0 0.32699052585751548 0.083302428147111043 0 0.3448101572121659 0.084697708787509415 0 0.32699052585751548 0.083302428147111043 0 0.3448101572121659 0.084697708787509415 0 0.34403164112117107 0.075249013164109674 0 0.33342292024253622 0.066818051853576602 0 0.34403164112117107 0.075249013164109674 0 0.33342292024253622 0.066818051853576602 0 0.32699052585751548 0.083302428147111043 0 0.32808292211472911 0.055227610192347149 0 0.34403164112117107 0.075249013164109674 0 0.34235992826600681 0.05495976529766896 0 0.33342292024253622 0.066818051853576602 0 0.32699052585751548 0.083302428147111043 0 0.34403164112117107 0.075249013164109674 0 0.33342292024253622 0.066818051853576602 0 0.34403164112117107 0.075249013164109674 0 0.34235992826600681 0.05495976529766896 0 0.32699052585751548 0.083302428147111043 0 0.32808292211472911 0.055227610192347149 0 0.3123170466026447 0.068688215308104816 0 0.32699052585751548 0.083302428147111043 0 0.32808292211472911 0.055227610192347149 0 0.31922764315902208 0.082694592904767439 0 0.32699052585751548 0.083302428147111043 0 0.3123170466026447 0.068688215308104816 0 0.31922764315902208 0.082694592904767439 0 0.31452826283291752 0.091825040910775424 0 0.3123170466026447 0.068688215308104816 0 0.31452826283291752 0.091825040910775424 0 0.3123170466026447 0.068688215308104816 0 0.31922764315902208 0.082694592904767439 0 0.32699052585751548 0.083302428147111043 0 0.31922764315902208 0.082694592904767439 0 0.32699052585751548 0.083302428147111043 0 0.31452826283291752 0.091825040910775424 0 0.31452826283291752 0.091825040910775424 0 0.31673947906318878 0.1149618665134462 0 0.32699052585751548 0.083302428147111043 0 0.32595664676278541 0.1098733424834737 0 0.32699052585751548 0.083302428147111043 0 0.31452826283291752 0.091825040910775424 0 0.32595664676278541 0.1098733424834737 0 0.31452826283291752 0.091825040910775424 0 0.32595664676278541 0.1098733424834737 0 0.31673947906318878 0.1149618665134462 0 0.32595664676278541 0.1098733424834737 0 0.31673947906318878 0.1149618665134462 0 0.32492276766805522 0.13644425681983641 0 0.32595664676278541 0.1098733424834737 0 0.32492276766805522 0.13644425681983641 0 0.32595664676278541 0.1098733424834737 0 0.33729047810272639 0.1233033526776213 0 0.32492276766805522 0.13644425681983641 0 0.32595664676278541 0.1098733424834737 0 0.34174946130186229 0.1111434124501304 0 0.33729047810272639 0.1233033526776213 0 0.34174946130186229 0.1111434124501304 0 0.33729047810272639 0.1233033526776213 0 0.35043450064564308 0.12220890484815219 0 0.32699052585751548 0.083302428147111043 0 0.32595664676278541 0.1098733424834737 0 0.3367889412504026 0.097937584144726558 0 0.32595664676278541 0.1098733424834737 0 0.34174946130186229 0.1111434124501304 0 0.3367889412504026 0.097937584144726558 0 0.34174946130186229 0.1111434124501304 0 0.3367889412504026 0.097937584144726558 0 0.34601255200907438 0.099290936321997772 0 0.3367889412504026 0.097937584144726558 0 0.34601255200907438 0.099290936321997772 0 0.3448101572121659 0.084697708787509415 0 0.34174946130186229 0.1111434124501304 0 0.34601255200907438 0.099290936321997772 0 0.36006163341935821 0.10852893880857151 0 0.34601255200907438 0.099290936321997772 0 0.35711024571447458 0.096995370814085269 0 0.36006163341935821 0.10852893880857151 0 0.34174946130186229 0.1111434124501304 0 0.35043450064564308 0.12220890484815219 0 0.36006163341935821 0.10852893880857151 0 0.35043450064564308 0.12220890484815219 0 0.36159954394300342 0.12004768375494999 0 0.36006163341935821 0.10852893880857151 0 0.35043450064564308 0.12220890484815219 0 0.36159954394300342 0.12004768375494999 0 0.36138536393700271 0.1317110966259229 0 0.37352213783480492 0.1196480802948845 0 0.36006163341935821 0.10852893880857151 0 0.37744818977025452 0.10180580846630589 0 0.36159954394300342 0.12004768375494999 0 0.37352213783480492 0.1196480802948845 0 0.36138536393700271 0.1317110966259229 0 0.36159954394300342 0.12004768375494999 0 0.37352213783480492 0.1196480802948845 0 0.36006163341935821 0.10852893880857151 0 0.35711024571447458 0.096995370814085269 0 0.35713532597180742 0.085662771925892917 0 0.37744818977025452 0.10180580846630589 0 0.35711024571447458 0.096995370814085269 0 0.36006163341935821 0.10852893880857151 0 0.37744818977025452 0.10180580846630589 0 0.35713532597180742 0.085662771925892917 0 0.37978985072562421 0.08743662567053001 0 0.35713532597180742 0.085662771925892917 0 0.37040855985051452 0.073694595223060974 0 0.37978985072562421 0.08743662567053001 0 0.35713532597180742 0.085662771925892917 0 0.37744818977025452 0.10180580846630589 0 0.35713532597180742 0.085662771925892917 0 0.37978985072562421 0.08743662567053001 0 0.37744818977025452 0.10180580846630589 0 0.35711024571447458 0.096995370814085269 0 0.35713532597180742 0.085662771925892917 0 0.3448101572121659 0.084697708787509415 0 0.35713532597180742 0.085662771925892917 0 0.34403164112117107 0.075249013164109674 0 0.35713532597180742 0.085662771925892917 0 0.3448101572121659 0.084697708787509415 0 0.34403164112117107 0.075249013164109674 0 0.35713532597180742 0.085662771925892917 0 0.3448101572121659 0.084697708787509415 0 0.3448101572121659 0.084697708787509415 0 0.34403164112117107 0.075249013164109674 0 0.34601255200907438 0.099290936321997772 0 0.35711024571447458 0.096995370814085269 0 0.3448101572121659 0.084697708787509415 0 0.34601255200907438 0.099290936321997772 0 0.3448101572121659 0.084697708787509415 0 0.34403164112117107 0.075249013164109674 0 0.35189457458211432 0.06429899528595015 0 0.34235992826600681 0.05495976529766896 0 0.34403164112117107 0.075249013164109674 0 0.35682552264649509 0.073126867846356552 0 0.35189457458211432 0.06429899528595015 0 0.35713532597180742 0.085662771925892917 0 0.34403164112117107 0.075249013164109674 0 0.35682552264649509 0.073126867846356552 0 0.35682552264649509 0.073126867846356552 0 0.35189457458211432 0.06429899528595015 0 0.36415611428698302 0.063377383249179825 0 0.35682552264649509 0.073126867846356552 0 0.36415611428698302 0.063377383249179825 0 0.37040855985051452 0.073694595223060974 0 0.35713532597180742 0.085662771925892917 0 0.35682552264649509 0.073126867846356552 0 0.37040855985051452 0.073694595223060974 0 0.36415611428698302 0.063377383249179825 0 0.37040855985051452 0.073694595223060974 0 0.37975365107203612 0.059029135980681352 0 0.36608900849121612 0.051439520020870363 0 0.3747522558259625 0.041747478458223908 0 0.37975365107203612 0.059029135980681352 0 0.36415611428698302 0.063377383249179825 0 0.36608900849121612 0.051439520020870363 0 0.37975365107203612 0.059029135980681352 0 0.36415611428698302 0.063377383249179825 0 0.36608900849121612 0.051439520020870363 0 0.35445133846339871 0.053176903210724241 0 0.36608900849121612 0.051439520020870363 0 0.35903890031428631 0.042543780178595537 0 0.35445133846339871 0.053176903210724241 0 0.3747522558259625 0.041747478458223908 0 0.36254806519067162 0.031880883523179603 0 0.35903890031428631 0.042543780178595537 0 0.36608900849121612 0.051439520020870363 0 0.3747522558259625 0.041747478458223908 0 0.35903890031428631 0.042543780178595537 0 0.3747522558259625 0.041747478458223908 0 0.36254806519067162 0.031880883523179603 0 0.37260602952372279 0.028658729705807622 0 0.3495928695145667 0.043370687599477972 0 0.34235992826600681 0.05495976529766896 0 0.34068821541084049 0.034670517431228363 0 0.35903890031428631 0.042543780178595537 0 0.3495928695145667 0.043370687599477972 0 0.35445133846339871 0.053176903210724241 0 0.35903890031428631 0.042543780178595537 0 0.35202833570172598 0.031573218409257107 0 0.3495928695145667 0.043370687599477972 0 0.36254806519067162 0.031880883523179603 0 0.35903890031428631 0.042543780178595537 0 0.35202833570172598 0.031573218409257107 0 0.35202833570172598 0.031573218409257107 0 0.3495928695145667 0.043370687599477972 0 0.34068821541084049 0.034670517431228363 0 0.3495928695145667 0.043370687599477972 0 0.35445133846339871 0.053176903210724241 0 0.34235992826600681 0.05495976529766896 0 0.35189457458211432 0.06429899528595015 0 0.35445133846339871 0.053176903210724241 0 0.34235992826600681 0.05495976529766896 0 0.35189457458211432 0.06429899528595015 0 0.36415611428698302 0.063377383249179825 0 0.35445133846339871 0.053176903210724241 0 0.36276428608929701 0.002849668103477046 0 0.35414477090483149 0.00060085271846759165 0 0.37008206123831722 -0.0033606245182788391 0 0.36276428608929701 0.002849668103477046 0 0.37227446293662991 0.0094581904076930495 0 0.37008206123831722 -0.0033606245182788391 0 0.36276428608929701 0.002849668103477046 0 0.37227446293662991 0.0094581904076930495 0 0.36098220194636849 0.014278696243062151 0 0.37227446293662991 0.0094581904076930495 0 0.36098220194636849 0.014278696243062151 0 0.36739575644252592 0.021127109822355071 0 0.36098220194636849 0.014278696243062151 0 0.36739575644252592 0.021127109822355071 0 0.35852265364911351 0.0239438123769804 0 0.36739575644252592 0.021127109822355071 0 0.37260602952372279 0.028658729705807622 0 0.37744112540864921 0.01854234667740759 0 0.37227446293662991 0.0094581904076930495 0 0.36739575644252592 0.021127109822355071 0 0.37744112540864921 0.01854234667740759 0 0.36254806519067162 0.031880883523179603 0 0.36739575644252592 0.021127109822355071 0 0.37260602952372279 0.028658729705807622 0 0.36254806519067162 0.031880883523179603 0 0.36739575644252592 0.021127109822355071 0 0.35852265364911351 0.0239438123769804 0 0.35202833570172598 0.031573218409257107 0 0.35852265364911351 0.0239438123769804 0 0.35225101372590228 0.020479463636850319 0 0.36254806519067162 0.031880883523179603 0 0.35202833570172598 0.031573218409257107 0 0.35852265364911351 0.0239438123769804 0 0.35202833570172598 0.031573218409257107 0 0.34602135371684639 0.02401760517369592 0 0.34068821541084049 0.034670517431228363 0 0.35202833570172598 0.031573218409257107 0 0.34602135371684639 0.02401760517369592 0 0.35225101372590228 0.020479463636850319 0 0.34602135371684639 0.02401760517369592 0 0.34719963234523737 0.01799295618130967 0 0.33901650255567528 0.01438126956478763 0 0.34602135371684639 0.02401760517369592 0 0.34719963234523737 0.01799295618130967 0 0.35225101372590228 0.020479463636850319 0 0.34719963234523737 0.01799295618130967 0 0.35225101372590228 0.020479463636850319 0 0.3520890195477363 0.013518484861061979 0 0.36098220194636849 0.014278696243062151 0 0.35225101372590228 0.020479463636850319 0 0.3520890195477363 0.013518484861061979 0 0.36098220194636849 0.014278696243062151 0 0.35852265364911351 0.0239438123769804 0 0.35225101372590228 0.020479463636850319 0 0.35414477090483149 0.00060085271846759165 0 0.33820748057134631 0.0045623299552150698 0 0.34456684798536741 -0.0048999093308122214 0 0.36276428608929701 0.002849668103477046 0 0.35414477090483149 0.00060085271846759165 0 0.33901650255567528 0.01438126956478763 0 0.36276428608929701 0.002849668103477046 0 0.3520890195477363 0.013518484861061979 0 0.33901650255567528 0.01438126956478763 0 0.35414477090483149 0.00060085271846759165 0 0.33820748057134631 0.0045623299552150698 0 0.36276428608929701 0.002849668103477046 0 0.33901650255567528 0.01438126956478763 0 0.35414477090483149 0.00060085271846759165 0 0.33820748057134631 0.0045623299552150698 0 0.33901650255567528 0.01438126956478763 0 0.36276428608929701 0.002849668103477046 0 0.36098220194636849 0.014278696243062151 0 0.3520890195477363 0.013518484861061979 0 0.34719963234523737 0.01799295618130967 0 0.3520890195477363 0.013518484861061979 0 0.33901650255567528 0.01438126956478763 0 0.33820748057134631 0.0045623299552150698 0 0.32098837163059518 0.0088424244178530141 0 0.33820748057134631 0.0045623299552150698 0 0.32098837163059518 0.0088424244178530141 0 0.32926718857702247 -0.00014758446126416749 0 0.33820748057134631 0.0045623299552150698 0 0.32983023022629421 0.011733192340075031 0 0.32098837163059518 0.0088424244178530141 0 0.33901650255567528 0.01438126956478763 0 0.32983023022629421 0.011733192340075031 0 0.32110856614756023 0.01914674542244443 0 0.33820748057134631 0.0045623299552150698 0 0.33759817947011422 -0.0028326368478416991 0 0.32926718857702247 -0.00014758446126416749 0 0.33820748057134631 0.0045623299552150698 0 0.33759817947011422 -0.0028326368478416991 0 0.33820748057134631 0.0045623299552150698 0 0.33901650255567528 0.01438126956478763 0 0.33820748057134631 0.0045623299552150698 0 0.33901650255567528 0.01438126956478763 0 0.32983023022629421 0.011733192340075031 0 0.33901650255567528 0.01438126956478763 0 0.33431244035226843 0.027445580065390659 0 0.34068821541084049 0.034670517431228363 0 0.34602135371684639 0.02401760517369592 0 0.33901650255567528 0.01438126956478763 0 0.34068821541084049 0.034670517431228363 0 0.33901650255567528 0.01438126956478763 0 0.34068821541084049 0.034670517431228363 0 0.33901650255567528 0.01438126956478763 0 0.33431244035226843 0.027445580065390659 0 0.33001084417323162 0.025447098696246461 0 0.33901650255567528 0.01438126956478763 0 0.33001084417323162 0.025447098696246461 0 0.32391146194271359 0.025650389755275851 0 0.33431244035226843 0.027445580065390659 0 0.32869177528108329 0.030954913871357809 0 0.33383087339126588 0.032838556071843043 0 0.33431244035226843 0.027445580065390659 0 0.33001084417323162 0.025447098696246461 0 0.32869177528108329 0.030954913871357809 0 0.33901650255567528 0.01438126956478763 0 0.31435912427926799 0.026660344035074009 0 0.33901650255567528 0.01438126956478763 0 0.31435912427926799 0.026660344035074009 0 0.32110856614756023 0.01914674542244443 0 0.33901650255567528 0.01438126956478763 0 0.32391146194271359 0.025650389755275851 0 0.31435912427926799 0.026660344035074009 0 0.33001084417323162 0.025447098696246461 0 0.32869177528108329 0.030954913871357809 0 0.32412204073441753 0.028803340224420351 0 0.32869177528108329 0.030954913871357809 0 0.32412204073441753 0.028803340224420351 0 0.32321206655580309 0.032428833797920172 0 0.33001084417323162 0.025447098696246461 0 0.32391146194271359 0.025650389755275851 0 0.32412204073441753 0.028803340224420351 0 0.32391146194271359 0.025650389755275851 0 0.32412204073441753 0.028803340224420351 0 0.32006070246650919 0.029762632467986591 0 0.32391146194271359 0.025650389755275851 0 0.32006070246650919 0.029762632467986591 0 0.3180068003081909 0.028363266880936669 0 0.32412204073441753 0.028803340224420351 0 0.32006070246650919 0.029762632467986591 0 0.32321206655580309 0.032428833797920172 0 0.32006070246650919 0.029762632467986591 0 0.3180068003081909 0.028363266880936669 0 0.31707082633966088 0.030670331277827711 0 0.32391146194271359 0.025650389755275851 0 0.3180068003081909 0.028363266880936669 0 0.31435912427926799 0.026660344035074009 0 0.31707082633966088 0.030670331277827711 0 0.31435912427926799 0.026660344035074009 0 0.31461981637383801 0.036080885371806683 0 0.3180068003081909 0.028363266880936669 0 0.31707082633966088 0.030670331277827711 0 0.31435912427926799 0.026660344035074009 0 0.31435912427926799 0.026660344035074009 0 0.31489150776551161 0.022186873994592109 0 0.3112153077886175 0.02225819148970945 0 0.31435912427926799 0.026660344035074009 0 0.31489150776551161 0.022186873994592109 0 0.32110856614756023 0.01914674542244443 0 0.31425745022520463 0.020320602744659029 0 0.32110856614756023 0.01914674542244443 0 0.31137187366390529 0.01546029498290767 0 0.31489150776551161 0.022186873994592109 0 0.31425745022520463 0.020320602744659029 0 0.32110856614756023 0.01914674542244443 0 0.31489150776551161 0.022186873994592109 0 0.31425745022520463 0.020320602744659029 0 0.3112153077886175 0.02225819148970945 0 0.32098837163059518 0.0088424244178530141 0 0.32926718857702247 -0.00014758446126416749 0 0.32134872429562461 -0.0082775216404317939 0 0.32098837163059518 0.0088424244178530141 0 0.30835122456981617 0.00077510480041084132 0 0.32134872429562461 -0.0082775216404317939 0 0.32983023022629421 0.011733192340075031 0 0.32110856614756023 0.01914674542244443 0 0.32098837163059518 0.0088424244178530141 0 0.32098837163059518 0.0088424244178530141 0 0.30835122456981617 0.00077510480041084132 0 0.31137187366390529 0.01546029498290767 0 0.32110856614756023 0.01914674542244443 0 0.32098837163059518 0.0088424244178530141 0 0.31137187366390529 0.01546029498290767 0 0.32879683529941123 0.049144905415183432 0 0.33392244073553401 0.055000864565311371 0 0.33694959775498667 0.048853990067780753 0 0.32879683529941123 0.049144905415183432 0 0.33392244073553401 0.055000864565311371 0 0.32808292211472911 0.055227610192347149 0 0.33342292024253622 0.066818051853576602 0 0.33392244073553401 0.055000864565311371 0 0.32808292211472911 0.055227610192347149 0 0.33342292024253622 0.066818051853576602 0 0.33392244073553401 0.055000864565311371 0 0.34235992826600681 0.05495976529766896 0 0.33392244073553401 0.055000864565311371 0 0.34235992826600681 0.05495976529766896 0 0.33694959775498667 0.048853990067780753 0 0.34235992826600681 0.05495976529766896 0 0.33694959775498667 0.048853990067780753 0 0.34055957530638398 0.041538237920886359 0 0.34055957530638398 0.041538237920886359 0 0.318707166318213 0.048925284900916147 0 0.32879683529941123 0.049144905415183432 0 0.34055957530638398 0.041538237920886359 0 0.318707166318213 0.048925284900916147 0 0.34055957530638398 0.041538237920886359 0 0.32920618285943132 0.039684575415710237 0 0.318707166318213 0.048925284900916147 0 0.34235992826600681 0.05495976529766896 0 0.34068821541084049 0.034670517431228363 0 0.34235992826600681 0.05495976529766896 0 0.34055957530638398 0.041538237920886359 0 0.34068821541084049 0.034670517431228363 0 0.34055957530638398 0.041538237920886359 0 0.34068821541084049 0.034670517431228363 0 0.33515207757172039 0.036381837877222649 0 0.34068821541084049 0.034670517431228363 0 0.33383087339126588 0.032838556071843043 0 0.33515207757172039 0.036381837877222649 0 0.33431244035226843 0.027445580065390659 0 0.34068821541084049 0.034670517431228363 0 0.33383087339126588 0.032838556071843043 0 0.33383087339126588 0.032838556071843043 0 0.33515207757172039 0.036381837877222649 0 0.33030985834041732 0.034739931114015778 0 0.33030985834041732 0.034739931114015778 0 0.32920618285943132 0.039684575415710237 0 0.32591253965309219 0.035961145513727817 0 0.33515207757172039 0.036381837877222649 0 0.33030985834041732 0.034739931114015778 0 0.32920618285943132 0.039684575415710237 0 0.32869177528108329 0.030954913871357809 0 0.33030985834041732 0.034739931114015778 0 0.32591253965309219 0.035961145513727817 0 0.32869177528108329 0.030954913871357809 0 0.33383087339126588 0.032838556071843043 0 0.33030985834041732 0.034739931114015778 0 0.34055957530638398 0.041538237920886359 0 0.33515207757172039 0.036381837877222649 0 0.32920618285943132 0.039684575415710237 0 0.32879683529941123 0.049144905415183432 0 0.33694959775498667 0.048853990067780753 0 0.34055957530638398 0.041538237920886359 0 0.32920618285943132 0.039684575415710237 0 0.32289621682354941 0.040277269611988957 0 0.318707166318213 0.048925284900916147 0 0.32869177528108329 0.030954913871357809 0 0.32591253965309219 0.035961145513727817 0 0.32321206655580309 0.032428833797920172 0 0.32920618285943132 0.039684575415710237 0 0.32289621682354941 0.040277269611988957 0 0.32591253965309219 0.035961145513727817 0 0.32289621682354941 0.040277269611988957 0 0.32218284524171631 0.036572135302505908 0 0.31847235004529367 0.040243206927084642 0 0.32289621682354941 0.040277269611988957 0 0.32591253965309219 0.035961145513727817 0 0.32218284524171631 0.036572135302505908 0 0.32006070246650919 0.029762632467986591 0 0.32321206655580309 0.032428833797920172 0 0.31872138998763128 0.033666475106304203 0 0.32218284524171631 0.036572135302505908 0 0.32321206655580309 0.032428833797920172 0 0.31872138998763128 0.033666475106304203 0 0.32591253965309219 0.035961145513727817 0 0.32218284524171631 0.036572135302505908 0 0.32321206655580309 0.032428833797920172 0 0.31707082633966088 0.030670331277827711 0 0.31872138998763128 0.033666475106304203 0 0.31461981637383801 0.036080885371806683 0 0.32006070246650919 0.029762632467986591 0 0.31707082633966088 0.030670331277827711 0 0.31872138998763128 0.033666475106304203 0 0.31872138998763128 0.033666475106304203 0 0.31461981637383801 0.036080885371806683 0 0.31847235004529367 0.040243206927084642 0 0.32218284524171631 0.036572135302505908 0 0.31872138998763128 0.033666475106304203 0 0.31847235004529367 0.040243206927084642 0 0.31461981637383801 0.036080885371806683 0 0.31847235004529367 0.040243206927084642 0 0.31085220617440851 0.044609609407752902 0 0.31847235004529367 0.040243206927084642 0 0.318707166318213 0.048925284900916147 0 0.31085220617440851 0.044609609407752902 0 0.32289621682354941 0.040277269611988957 0 0.31847235004529367 0.040243206927084642 0 0.318707166318213 0.048925284900916147 0 0.32879683529941123 0.049144905415183432 0 0.3123170466026447 0.068688215308104816 0 0.32879683529941123 0.049144905415183432 0 0.318707166318213 0.048925284900916147 0 0.3123170466026447 0.068688215308104816 0 0.32879683529941123 0.049144905415183432 0 0.32808292211472911 0.055227610192347149 0 0.3123170466026447 0.068688215308104816 0 0.318707166318213 0.048925284900916147 0 0.31084211558098451 0.053255431595237247 0 0.3123170466026447 0.068688215308104816 0 0.318707166318213 0.048925284900916147 0 0.29685475733004241 0.056312331880947253 0 0.318707166318213 0.048925284900916147 0 0.31084211558098451 0.053255431595237247 0 0.29685475733004241 0.056312331880947253 0 0.30471888806284508 0.058766778572765972 0 0.31084211558098451 0.053255431595237247 0 0.3123170466026447 0.068688215308104816 0 0.318707166318213 0.048925284900916147 0 0.31085220617440851 0.044609609407752902 0 0.29685475733004241 0.056312331880947253 0 0.31084211558098451 0.053255431595237247 0 0.3123170466026447 0.068688215308104816 0 0.30471888806284508 0.058766778572765972 0 0.31084211558098451 0.053255431595237247 0 0.29685475733004241 0.056312331880947253 0 0.30471888806284508 0.058766778572765972 0 0.29685475733004241 0.056312331880947253 0 0.29864943209017542 0.064337287072124688 0 0.30560694080465589 0.041486337958011092 0 0.31085220617440851 0.044609609407752902 0 0.29685475733004241 0.056312331880947253 0 0.30560694080465589 0.041486337958011092 0 0.29685475733004241 0.056312331880947253 0 0.31435912427926799 0.026660344035074009 0 0.28695291124565181 0.039662643078321437 0 0.31435912427926799 0.026660344035074009 0 0.30560694080465589 0.041486337958011092 0 0.28695291124565181 0.039662643078321437 0 0.31461981637383801 0.036080885371806683 0 0.30560694080465589 0.041486337958011092 0 0.31085220617440851 0.044609609407752902 0 0.31435912427926799 0.026660344035074009 0 0.31461981637383801 0.036080885371806683 0 0.30560694080465589 0.041486337958011092 0 0.31435912427926799 0.026660344035074009 0 0.30560694080465589 0.041486337958011092 0 0.28695291124565181 0.039662643078321437 0 0.28389133287004592 0.022606766697987109 0 0.27386380294117602 0.046018536470958438 0 0.30560694080465589 0.041486337958011092 0 0.28695291124565181 0.039662643078321437 0 0.29685475733004241 0.056312331880947253 0 0.28695291124565181 0.039662643078321437 0 0.29033706869217601 0.058515588839718927 0 0.28695291124565181 0.039662643078321437 0 0.29033706869217601 0.058515588839718927 0 0.29685475733004241 0.056312331880947253 0 0.28695291124565181 0.039662643078321437 0 0.29033706869217601 0.058515588839718927 0 0.28069007256707401 0.052098674248702292 0 0.28230831800634831 0.061229649268443188 0 0.29033706869217601 0.058515588839718927 0 0.29155353857855443 0.065292472347808717 0 0.28230831800634831 0.061229649268443188 0 0.29033706869217601 0.058515588839718927 0 0.28069007256707401 0.052098674248702292 0 0.28230831800634831 0.061229649268443188 0 0.29033706869217601 0.058515588839718927 0 0.29685475733004241 0.056312331880947253 0 0.29155353857855443 0.065292472347808717 0 0.29864943209017542 0.064337287072124688 0 0.29685475733004241 0.056312331880947253 0 0.29155353857855443 0.065292472347808717 0 0.29033706869217601 0.058515588839718927 0 0.29685475733004241 0.056312331880947253 0 0.29155353857855443 0.065292472347808717 0 0.29033706869217601 0.058515588839718927 0 0.29155353857855443 0.065292472347808717 0 0.29033706869217601 0.058515588839718927 0 0.29685475733004241 0.056312331880947253 0 0.30835122456981617 0.00077510480041084132 0 0.29970115083533 0.01556288511736648 0 0.29336116678485102 0.00049707737526639983 0 0.30835122456981617 0.00077510480041084132 0 0.31137187366390529 0.01546029498290767 0 0.29970115083533 0.01556288511736648 0 0.31435912427926799 0.026660344035074009 0 0.28695291124565181 0.039662643078321437 0 0.29709380816458952 0.0260150155413536 0 0.31435912427926799 0.026660344035074009 0 0.30599096172829587 0.02195638087755393 0 0.29709380816458952 0.0260150155413536 0 0.29970115083533 0.01556288511736648 0 0.30599096172829587 0.02195638087755393 0 0.29709380816458952 0.0260150155413536 0 0.31137187366390529 0.01546029498290767 0 0.29970115083533 0.01556288511736648 0 0.30599096172829587 0.02195638087755393 0 0.31425745022520463 0.020320602744659029 0 0.31137187366390529 0.01546029498290767 0 0.3112153077886175 0.02225819148970945 0 0.31137187366390529 0.01546029498290767 0 0.3112153077886175 0.02225819148970945 0 0.30599096172829587 0.02195638087755393 0 0.31435912427926799 0.026660344035074009 0 0.3112153077886175 0.02225819148970945 0 0.30599096172829587 0.02195638087755393 0 0.29970115083533 0.01556288511736648 0 0.29709380816458952 0.0260150155413536 0 0.28389133287004592 0.022606766697987109 0 0.28695291124565181 0.039662643078321437 0 0.29709380816458952 0.0260150155413536 0 0.28389133287004592 0.022606766697987109 0 0.28695291124565181 0.039662643078321437 0 0.28389133287004592 0.022606766697987109 0 0.29970115083533 0.01556288511736648 0 0.28389133287004592 0.022606766697987109 0 0.29336116678485102 0.00049707737526639983 0 0.28389133287004592 0.022606766697987109 0 0.29336116678485102 0.00049707737526639983 0 0.27871335316674239 -0.0062394592954499034 0 0.28389133287004592 0.022606766697987109 0 0.29336116678485102 0.00049707737526639983 0 0.28389133287004592 0.022606766697987109 0 0.27871335316674239 -0.0062394592954499034 0 0.2482462572156027 0.044191243435874543 0 0.24702776976177079 0.01293941497543038 0 0.26300728899544079 0.032046228072348137 0 0.28389133287004592 0.022606766697987109 0 0.26658426328132101 0.010055963058717501 0 0.27871335316674239 -0.0062394592954499034 0 0.28389133287004592 0.022606766697987109 0 0.26658426328132101 0.010055963058717501 0 0.26300728899544079 0.032046228072348137 0 0.24702776976177079 0.01293941497543038 0 0.26658426328132101 0.010055963058717501 0 0.26300728899544079 0.032046228072348137 0 0.24702776976177079 0.01293941497543038 0 0.26028157161260368 -0.01107313515672873 0 0.24702776976177079 0.01293941497543038 0 0.26658426328132101 0.010055963058717501 0 0.26028157161260368 -0.01107313515672873 0 0.28230831800634831 0.061229649268443188 0 0.26998826195001718 0.055066953586067627 0 0.26481604498775407 0.067142784183952864 0 0.26998826195001718 0.055066953586067627 0 0.27386380294117602 0.046018536470958438 0 0.26271854652026938 0.051430521764160422 0 0.27386380294117602 0.046018536470958438 0 0.26271854652026938 0.051430521764160422 0 0.26998826195001718 0.055066953586067627 0 0.27386380294117602 0.046018536470958438 0 0.26998826195001718 0.055066953586067627 0 0.26271854652026938 0.051430521764160422 0 0.26998826195001718 0.055066953586067627 0 0.26339752648722092 0.058744765758035937 0 0.26481604498775407 0.067142784183952864 0 0.26998826195001718 0.055066953586067627 0 0.26481604498775407 0.067142784183952864 0 0.28230831800634831 0.061229649268443188 0 0.26998826195001718 0.055066953586067627 0 0.28069007256707401 0.052098674248702292 0 0.28230831800634831 0.061229649268443188 0 0.26998826195001718 0.055066953586067627 0 0.26998826195001718 0.055066953586067627 0 0.28069007256707401 0.052098674248702292 0 0.27386380294117602 0.046018536470958438 0 0.28695291124565181 0.039662643078321437 0 0.28069007256707401 0.052098674248702292 0 0.27386380294117602 0.046018536470958438 0 0.28389133287004592 0.022606766697987109 0 0.27386380294117602 0.046018536470958438 0 0.27386380294117602 0.046018536470958438 0 0.26300728899544079 0.032046228072348137 0 0.26271854652026938 0.051430521764160422 0 0.28389133287004592 0.022606766697987109 0 0.27386380294117602 0.046018536470958438 0 0.26300728899544079 0.032046228072348137 0 0.28695291124565181 0.039662643078321437 0 0.27386380294117602 0.046018536470958438 0 0.2482462572156027 0.044191243435874543 0 0.26300728899544079 0.032046228072348137 0 0.26271854652026938 0.051430521764160422 0 0.2482462572156027 0.044191243435874543 0 0.26271854652026938 0.051430521764160422 0 0.24473567149939551 0.060162761873041988 0 0.26271854652026938 0.051430521764160422 0 0.2560672524908435 0.061338803497964382 0 0.24473567149939551 0.060162761873041988 0 0.2482462572156027 0.044191243435874543 0 0.26271854652026938 0.051430521764160422 0 0.24473567149939551 0.060162761873041988 0 0.26271854652026938 0.051430521764160422 0 0.26339752648722092 0.058744765758035937 0 0.2560672524908435 0.061338803497964382 0 0.26481604498775407 0.067142784183952864 0 0.26271854652026938 0.051430521764160422 0 0.26339752648722092 0.058744765758035937 0 0.2560672524908435 0.061338803497964382 0 0.26998826195001718 0.055066953586067627 0 0.26271854652026938 0.051430521764160422 0 0.26339752648722092 0.058744765758035937 0 0.2452664021444558 0.073751397916396552 0 0.26481604498775407 0.067142784183952864 0 0.2452664021444558 0.073751397916396552 0 0.26481604498775407 0.067142784183952864 0 0.25753243436444861 0.084148189925787542 0 0.26481604498775407 0.067142784183952864 0 0.25753243436444861 0.084148189925787542 0 0.26481604498775407 0.067142784183952864 0 0.25753243436444861 0.084148189925787542 0 0.27021556152127479 0.080336079131488644 0 0.2452664021444558 0.073751397916396552 0 0.2560672524908435 0.061338803497964382 0 0.26481604498775407 0.067142784183952864 0 0.2448391823704954 0.091658429968371702 0 0.25753243436444861 0.084148189925787542 0 0.26332576136191288 0.093303877352261727 0 0.25753243436444861 0.084148189925787542 0 0.26332576136191288 0.093303877352261727 0 0.27021556152127479 0.080336079131488644 0 0.26332576136191288 0.093303877352261727 0 0.27021556152127479 0.080336079131488644 0 0.27550559870638769 0.09247730681917965 0 0.27021556152127479 0.080336079131488644 0 0.27550559870638769 0.09247730681917965 0 0.28340155140835321 0.079101747781287299 0 0.27550559870638769 0.09247730681917965 0 0.28340155140835321 0.079101747781287299 0 0.28230831800634831 0.061229649268443188 0 0.26481604498775407 0.067142784183952864 0 0.27840779600680982 0.07070728982171344 0 0.28230831800634831 0.061229649268443188 0 0.26481604498775407 0.067142784183952864 0 0.26481604498775407 0.067142784183952864 0 0.27021556152127479 0.080336079131488644 0 0.27840779600680982 0.07070728982171344 0 0.27021556152127479 0.080336079131488644 0 0.27840779600680982 0.07070728982171344 0 0.28340155140835321 0.079101747781287299 0 0.28230831800634831 0.061229649268443188 0 0.29155353857855443 0.065292472347808717 0 0.28230831800634831 0.061229649268443188 0 0.27840779600680982 0.07070728982171344 0 0.29155353857855443 0.065292472347808717 0 0.29155353857855443 0.065292472347808717 0 0.30158031606158731 0.070869821250013024 0 0.29155353857855443 0.065292472347808717 0 0.2926913544404981 0.071631178826631101 0 0.30158031606158731 0.070869821250013024 0 0.29155353857855443 0.065292472347808717 0 0.2926913544404981 0.071631178826631101 0 0.2926913544404981 0.071631178826631101 0 0.29138761197106311 0.080544596598417784 0 0.29891209663698431 0.07581591924365931 0 0.2926913544404981 0.071631178826631101 0 0.28340155140835321 0.079101747781287299 0 0.29138761197106311 0.080544596598417784 0 0.29155353857855443 0.065292472347808717 0 0.2926913544404981 0.071631178826631101 0 0.28340155140835321 0.079101747781287299 0 0.29155353857855443 0.065292472347808717 0 0.28340155140835321 0.079101747781287299 0 0.27840779600680982 0.07070728982171344 0 0.29155353857855443 0.065292472347808717 0 0.28340155140835321 0.079101747781287299 0 0.28340155140835321 0.079101747781287299 0 0.28564961927869281 0.089018699219420433 0 0.29138761197106311 0.080544596598417784 0 0.27550559870638769 0.09247730681917965 0 0.28340155140835321 0.079101747781287299 0 0.28564961927869281 0.089018699219420433 0 0.28564961927869281 0.089018699219420433 0 0.29658415410912659 0.087345784235129925 0 0.29138761197106311 0.080544596598417784 0 0.29658415410912659 0.087345784235129925 0 0.29138761197106311 0.080544596598417784 0 0.29891209663698431 0.07581591924365931 0 0.31452826283291752 0.091825040910775424 0 0.29658415410912659 0.087345784235129925 0 0.3123170466026447 0.068688215308104816 0 0.29658415410912659 0.087345784235129925 0 0.3123170466026447 0.068688215308104816 0 0.29891209663698431 0.07581591924365931 0 0.29658415410912659 0.087345784235129925 0 0.3123170466026447 0.068688215308104816 0 0.30471888806284508 0.058766778572765972 0 0.3123170466026447 0.068688215308104816 0 0.30431642070431347 0.065665525550752071 0 0.3123170466026447 0.068688215308104816 0 0.30431642070431347 0.065665525550752071 0 0.30158031606158731 0.070869821250013024 0 0.29155353857855443 0.065292472347808717 0 0.29864943209017542 0.064337287072124688 0 0.30158031606158731 0.070869821250013024 0 0.30431642070431347 0.065665525550752071 0 0.29864943209017542 0.064337287072124688 0 0.30158031606158731 0.070869821250013024 0 0.30471888806284508 0.058766778572765972 0 0.30431642070431347 0.065665525550752071 0 0.29864943209017542 0.064337287072124688 0 0.3123170466026447 0.068688215308104816 0 0.29891209663698431 0.07581591924365931 0 0.30158031606158731 0.070869821250013024 0 0.2926913544404981 0.071631178826631101 0 0.29891209663698431 0.07581591924365931 0 0.30158031606158731 0.070869821250013024 0 0.30518503638262978 0.1158436834645357 0 0.29219516173427901 0.1196852970636629 0 0.30865430922723291 0.12639172104604751 0 0.30518503638262978 0.1158436834645357 0 0.30177887271330223 0.1047175937429507 0 0.29219516173427901 0.1196852970636629 0 0.31673947906318878 0.1149618665134462 0 0.30518503638262978 0.1158436834645357 0 0.30865430922723291 0.12639172104604751 0 0.31673947906318878 0.1149618665134462 0 0.30518503638262978 0.1158436834645357 0 0.30177887271330223 0.1047175937429507 0 0.31452826283291752 0.091825040910775424 0 0.31673947906318878 0.1149618665134462 0 0.30177887271330223 0.1047175937429507 0 0.31452826283291752 0.091825040910775424 0 0.29658415410912659 0.087345784235129925 0 0.30177887271330223 0.1047175937429507 0 0.29658415410912659 0.087345784235129925 0 0.28085126161561019 0.10600335316215639 0 0.29658415410912659 0.087345784235129925 0 0.30177887271330223 0.1047175937429507 0 0.28085126161561019 0.10600335316215639 0 0.28564961927869281 0.089018699219420433 0 0.29658415410912659 0.087345784235129925 0 0.28085126161561019 0.10600335316215639 0 0.30177887271330223 0.1047175937429507 0 0.29219516173427901 0.1196852970636629 0 0.28085126161561019 0.10600335316215639 0 0.28085126161561019 0.10600335316215639 0 0.26164875308252739 0.10577306538275801 0 0.26511836912209358 0.12466092208918279 0 0.28085126161561019 0.10600335316215639 0 0.26511836912209358 0.12466092208918279 0 0.29219516173427901 0.1196852970636629 0 0.28085126161561019 0.10600335316215639 0 0.26511836912209358 0.12466092208918279 0 0.27550559870638769 0.09247730681917965 0 0.28564961927869281 0.089018699219420433 0 0.28085126161561019 0.10600335316215639 0 0.27550559870638769 0.09247730681917965 0 0.28085126161561019 0.10600335316215639 0 0.26164875308252739 0.10577306538275801 0 0.26332576136191288 0.093303877352261727 0 0.27550559870638769 0.09247730681917965 0 0.26164875308252739 0.10577306538275801 0 0.2448391823704954 0.091658429968371702 0 0.26332576136191288 0.093303877352261727 0 0.26164875308252739 0.10577306538275801 0 0.24167259635572219 0.10935996819857539 0 0.26164875308252739 0.10577306538275801 0 0.26511836912209358 0.12466092208918279 0 0.24167259635572219 0.10935996819857539 0 0.26511836912209358 0.12466092208918279 0 0.26233635206398598 0.12796010404438929 0 0.24787040798362911 0.12898602078595761 0 0.24167259635572219 0.10935996819857539 0 0.26233635206398598 0.12796010404438929 0 0.24167259635572219 0.10935996819857539 0 0.26511836912209358 0.12466092208918279 0 0.24787040798362911 0.12898602078595761 0 0.25582230818142082 0.1354056633142986 0 0.26233635206398598 0.12796010404438929 0 0.24720445311728409 0.13978922805857441 0 0.24787040798362911 0.12898602078595761 0 0.25582230818142082 0.1354056633142986 0 0.24720445311728409 0.13978922805857441 0 0.25582230818142082 0.1354056633142986 0 0.25801407144442712 0.14408974035849961 0 0.26260869907641698 0.13472047257444 0 0.27175239457015737 0.14148593306582971 0 0.25801407144442712 0.14408974035849961 0 0.25582230818142082 0.1354056633142986 0 0.26260869907641698 0.13472047257444 0 0.25801407144442712 0.14408974035849961 0 0.26511836912209358 0.12466092208918279 0 0.26260869907641698 0.13472047257444 0 0.26233635206398598 0.12796010404438929 0 0.25582230818142082 0.1354056633142986 0 0.26260869907641698 0.13472047257444 0 0.26233635206398598 0.12796010404438929 0 0.26511836912209358 0.12466092208918279 0 0.26233635206398598 0.12796010404438929 0 0.26511836912209358 0.12466092208918279 0 0.27175239457015737 0.14148593306582971 0 0.28813385885942372 0.13968106882308079 0 0.26511836912209358 0.12466092208918279 0 0.28813385885942372 0.13968106882308079 0 0.26511836912209358 0.12466092208918279 0 0.26260869907641698 0.13472047257444 0 0.27175239457015737 0.14148593306582971 0 0.27175239457015737 0.14148593306582971 0 0.2789995663122371 0.1583894503852657 0 0.28813385885942372 0.13968106882308079 0 0.27175239457015737 0.14148593306582971 0 0.26294218648634671 0.15766597142494701 0 0.2789995663122371 0.1583894503852657 0 0.24708537265548991 0.15383430280171209 0 0.25801407144442712 0.14408974035849961 0 0.26294218648634671 0.15766597142494701 0 0.27175239457015737 0.14148593306582971 0 0.25801407144442712 0.14408974035849961 0 0.26294218648634671 0.15766597142494701 0 0.24708537265548991 0.15383430280171209 0 0.24720445311728409 0.13978922805857441 0 0.25801407144442712 0.14408974035849961 0 0.26294218648634671 0.15766597142494701 0 0.25185488787338761 0.16793578955033589 0 0.26902049886793078 0.17787749367662101 0 0.24708537265548991 0.15383430280171209 0 0.26294218648634671 0.15766597142494701 0 0.25185488787338761 0.16793578955033589 0 0.24391600298847449 0.18405819756430669 0 0.25185488787338761 0.16793578955033589 0 0.26902049886793078 0.17787749367662101 0 0.24391600298847449 0.18405819756430669 0 0.26902049886793078 0.17787749367662101 0 0.2621153105579041 0.19806482719031079 0 0.26902049886793078 0.17787749367662101 0 0.28832857986063171 0.17465463986889171 0 0.27818286989890151 0.19156785777792051 0 0.26294218648634671 0.15766597142494701 0 0.26902049886793078 0.17787749367662101 0 0.2789995663122371 0.1583894503852657 0 0.26902049886793078 0.17787749367662101 0 0.2789995663122371 0.1583894503852657 0 0.28832857986063171 0.17465463986889171 0 0.2789995663122371 0.1583894503852657 0 0.2938198792289326 0.15897159545222411 0 0.28832857986063171 0.17465463986889171 0 0.2938198792289326 0.15897159545222411 0 0.28832857986063171 0.17465463986889171 0 0.30156654716797771 0.16892169825159839 0 0.28832857986063171 0.17465463986889171 0 0.27818286989890151 0.19156785777792051 0 0.29598810096850692 0.1933828443927377 0 0.28832857986063171 0.17465463986889171 0 0.2998136112028924 0.17921760188298519 0 0.29598810096850692 0.1933828443927377 0 0.28832857986063171 0.17465463986889171 0 0.2998136112028924 0.17921760188298519 0 0.30156654716797771 0.16892169825159839 0 0.2998136112028924 0.17921760188298519 0 0.29598810096850692 0.1933828443927377 0 0.31337121681445362 0.1799112250187129 0 0.2998136112028924 0.17921760188298519 0 0.30156654716797771 0.16892169825159839 0 0.31337121681445362 0.1799112250187129 0 0.2938198792289326 0.15897159545222411 0 0.30156654716797771 0.16892169825159839 0 0.31114934859675292 0.15470121555697991 0 0.30156654716797771 0.16892169825159839 0 0.31114934859675292 0.15470121555697991 0 0.31337121681445362 0.1799112250187129 0 0.31114934859675292 0.15470121555697991 0 0.31337121681445362 0.1799112250187129 0 0.2938198792289326 0.15897159545222411 0 0.31114934859675292 0.15470121555697991 0 0.28813385885942372 0.13968106882308079 0 0.31114934859675292 0.15470121555697991 0 0.28813385885942372 0.13968106882308079 0 0.31114934859675292 0.15470121555697991 0 0.30865430922723291 0.12639172104604751 0 0.31114934859675292 0.15470121555697991 0 0.30865430922723291 0.12639172104604751 0 0.28813385885942372 0.13968106882308079 0 0.29219516173427901 0.1196852970636629 0 0.26511836912209358 0.12466092208918279 0 0.28813385885942372 0.13968106882308079 0 0.29219516173427901 0.1196852970636629 0 0.30865430922723291 0.12639172104604751 0 0.28813385885942372 0.13968106882308079 0 0.2789995663122371 0.1583894503852657 0 0.2938198792289326 0.15897159545222411 0 0.28813385885942372 0.13968106882308079 0 0.28004491477638199 0.22757023609874991 0 0.26674587972968622 0.23404473666041639 0 0.28232817733657761 0.24361575565767479 0 0.26406622851233441 0.24783688697654291 0 0.26674587972968622 0.23404473666041639 0 0.28232817733657761 0.24361575565767479 0 0.2447078346749649 0.24804890927139139 0 0.26406622851233441 0.24783688697654291 0 0.25223030040566918 0.23413303164844129 0 0.26406622851233441 0.24783688697654291 0 0.25223030040566918 0.23413303164844129 0 0.26674587972968622 0.23404473666041639 0 0.24283618348122021 0.22208583823479069 0 0.25223030040566918 0.23413303164844129 0 0.26105363861205438 0.2177187028149116 0 0.25223030040566918 0.23413303164844129 0 0.26674587972968622 0.23404473666041639 0 0.26105363861205438 0.2177187028149116 0 0.28004491477638199 0.22757023609874991 0 0.26674587972968622 0.23404473666041639 0 0.26105363861205438 0.2177187028149116 0 0.28004491477638199 0.22757023609874991 0 0.28031461812733371 0.2120714568163149 0 0.26105363861205438 0.2177187028149116 0 0.28031461812733371 0.2120714568163149 0 0.2621153105579041 0.19806482719031079 0 0.28031461812733371 0.2120714568163149 0 0.26105363861205438 0.2177187028149116 0 0.2621153105579041 0.19806482719031079 0 0.23938224183196399 0.203673552150757 0 0.26105363861205438 0.2177187028149116 0 0.2621153105579041 0.19806482719031079 0 0.24391600298847449 0.18405819756430669 0 0.2621153105579041 0.19806482719031079 0 0.26902049886793078 0.17787749367662101 0 0.2621153105579041 0.19806482719031079 0 0.27818286989890151 0.19156785777792051 0 0.28031461812733371 0.2120714568163149 0 0.2621153105579041 0.19806482719031079 0 0.27818286989890151 0.19156785777792051 0 0.28031461812733371 0.2120714568163149 0 0.27818286989890151 0.19156785777792051 0 0.29598810096850692 0.1933828443927377 0 0.29598810096850692 0.1933828443927377 0 0.31559308503215411 0.20512123448044581 0 0.31337121681445362 0.1799112250187129 0 0.29598810096850692 0.1933828443927377 0 0.29708782409988388 0.20910425479939951 0 0.31559308503215411 0.20512123448044581 0 0.29708782409988388 0.20910425479939951 0 0.29851392569676333 0.22607808644231889 0 0.31559308503215411 0.20512123448044581 0 0.29851392569676333 0.22607808644231889 0 0.32154293686398278 0.22483065883964101 0 0.31559308503215411 0.20512123448044581 0 0.28031461812733371 0.2120714568163149 0 0.29708782409988388 0.20910425479939951 0 0.29851392569676333 0.22607808644231889 0 0.28031461812733371 0.2120714568163149 0 0.29598810096850692 0.1933828443927377 0 0.29708782409988388 0.20910425479939951 0 0.28004491477638199 0.22757023609874991 0 0.29851392569676333 0.22607808644231889 0 0.28232817733657761 0.24361575565767479 0 0.28004491477638199 0.22757023609874991 0 0.28031461812733371 0.2120714568163149 0 0.29851392569676333 0.22607808644231889 0 0.28031461812733371 0.2120714568163149 0 0.29851392569676333 0.22607808644231889 0 0.29851392569676333 0.22607808644231889 0 0.31671323326619272 0.24008471606832291 0 0.32154293686398278 0.22483065883964101 0 0.29851392569676333 0.22607808644231889 0 0.31671323326619272 0.24008471606832291 0 0.29851392569676333 0.22607808644231889 0 0.3010203368197118 0.242179481312498 0 0.31671323326619272 0.24008471606832291 0 0.30266343079224822 0.25792607721464761 0 0.3010203368197118 0.242179481312498 0 0.31507473598652458 0.24946843901357341 0 0.3010203368197118 0.242179481312498 0 0.31507473598652458 0.24946843901357341 0 0.31671323326619272 0.24008471606832291 0 0.29851392569676333 0.22607808644231889 0 0.3010203368197118 0.242179481312498 0 0.28232817733657761 0.24361575565767479 0 0.28742555254427749 0.25944826943857019 0 0.3010203368197118 0.242179481312498 0 0.28232817733657761 0.24361575565767479 0 0.33507534876679529 0.24427488539088191 0 0.3315879950568183 0.23383434206726669 0 0.34777205992867372 0.23452203317025591 0 0.33559214492556549 0.25683547732343381 0 0.33507534876679529 0.24427488539088191 0 0.34481244947751838 0.2478366172573653 0 0.33507534876679529 0.24427488539088191 0 0.34777205992867372 0.23452203317025591 0 0.34481244947751838 0.2478366172573653 0 0.33507534876679529 0.24427488539088191 0 0.32457816826101982 0.241893404492146 0 0.3315879950568183 0.23383434206726669 0 0.33507534876679529 0.24427488539088191 0 0.32688066024586032 0.24979909687531501 0 0.32457816826101982 0.241893404492146 0 0.32688066024586032 0.24979909687531501 0 0.31507473598652458 0.24946843901357341 0 0.32457816826101982 0.241893404492146 0 0.31507473598652458 0.24946843901357341 0 0.31671323326619272 0.24008471606832291 0 0.32457816826101982 0.241893404492146 0 0.32457816826101982 0.241893404492146 0 0.3236055833620034 0.23516078036684421 0 0.3315879950568183 0.23383434206726669 0 0.31671323326619272 0.24008471606832291 0 0.32457816826101982 0.241893404492146 0 0.3236055833620034 0.23516078036684421 0 0.3236055833620034 0.23516078036684421 0 0.32154293686398278 0.22483065883964101 0 0.3315879950568183 0.23383434206726669 0 0.31671323326619272 0.24008471606832291 0 0.3236055833620034 0.23516078036684421 0 0.32154293686398278 0.22483065883964101 0 0.3315879950568183 0.23383434206726669 0 0.33798460243017792 0.22362081795438701 0 0.34777205992867372 0.23452203317025591 0 0.32154293686398278 0.22483065883964101 0 0.3315879950568183 0.23383434206726669 0 0.33798460243017792 0.22362081795438701 0 0.32154293686398278 0.22483065883964101 0 0.33798460243017792 0.22362081795438701 0 0.32911640576156559 0.21393929418435159 0 0.33798460243017792 0.22362081795438701 0 0.34351016307274312 0.21266126288168771 0 0.32911640576156559 0.21393929418435159 0 0.34351016307274312 0.21266126288168771 0 0.32911640576156559 0.21393929418435159 0 0.33636814327851561 0.2024313065174532 0 0.32911640576156559 0.21393929418435159 0 0.31559308503215411 0.20512123448044581 0 0.33636814327851561 0.2024313065174532 0 0.32154293686398278 0.22483065883964101 0 0.32911640576156559 0.21393929418435159 0 0.31559308503215411 0.20512123448044581 0 0.31559308503215411 0.20512123448044581 0 0.32969732975907518 0.18785773427879029 0 0.31337121681445362 0.1799112250187129 0 0.31559308503215411 0.20512123448044581 0 0.31337121681445362 0.1799112250187129 0 0.31559308503215411 0.20512123448044581 0 0.32969732975907518 0.18785773427879029 0 0.33636814327851561 0.2024313065174532 0 0.32969732975907518 0.18785773427879029 0 0.33636814327851561 0.2024313065174532 0 0.34459214581363551 0.190625068182281 0 0.33636814327851561 0.2024313065174532 0 0.34459214581363551 0.190625068182281 0 0.35366695766932132 0.2006183739355375 0 0.34459214581363551 0.190625068182281 0 0.35366695766932132 0.2006183739355375 0 0.36085590271640228 0.18714022706768271 0 0.35366695766932132 0.2006183739355375 0 0.36085590271640228 0.18714022706768271 0 0.35366695766932132 0.2006183739355375 0 0.36534685350769902 0.2046296700707278 0 0.36085590271640228 0.18714022706768271 0 0.36534685350769902 0.2046296700707278 0 0.36085590271640228 0.18714022706768271 0 0.37749138343819238 0.1979967139068472 0 0.36085590271640228 0.18714022706768271 0 0.37749138343819238 0.1979967139068472 0 0.36748583148498071 0.2155987527243812 0 0.3723233808184343 0.23213120119887559 0 0.37779015459955573 0.2074095812064396 0 0.36534685350769902 0.2046296700707278 0 0.36748583148498071 0.2155987527243812 0 0.37779015459955573 0.2074095812064396 0 0.36534685350769902 0.2046296700707278 0 0.37779015459955573 0.2074095812064396 0 0.37749138343819238 0.1979967139068472 0 0.36534685350769902 0.2046296700707278 0 0.36748583148498071 0.2155987527243812 0 0.35448293701423389 0.21822455842148181 0 0.34351016307274312 0.21266126288168771 0 0.35366695766932132 0.2006183739355375 0 0.35448293701423389 0.21822455842148181 0 0.34351016307274312 0.21266126288168771 0 0.33636814327851561 0.2024313065174532 0 0.35366695766932132 0.2006183739355375 0 0.33798460243017792 0.22362081795438701 0 0.34351016307274312 0.21266126288168771 0 0.35448293701423389 0.21822455842148181 0 0.35366695766932132 0.2006183739355375 0 0.36534685350769902 0.2046296700707278 0 0.35448293701423389 0.21822455842148181 0 0.35448293701423389 0.21822455842148181 0 0.3723233808184343 0.23213120119887559 0 0.34777205992867372 0.23452203317025591 0 0.33798460243017792 0.22362081795438701 0 0.35448293701423389 0.21822455842148181 0 0.34777205992867372 0.23452203317025591 0 0.36748583148498071 0.2155987527243812 0 0.35448293701423389 0.21822455842148181 0 0.3723233808184343 0.23213120119887559 0 0.36685660703731288 0.2568528211913117 0 0.3723233808184343 0.23213120119887559 0 0.35617006356112352 0.24644460964762391 0 0.36685660703731288 0.2568528211913117 0 0.3723233808184343 0.23213120119887559 0 0.38021145675286783 0.24955287181248939 0 0.36685660703731288 0.2568528211913117 0 0.3723233808184343 0.23213120119887559 0 0.3723233808184343 0.23213120119887559 0 0.35617006356112352 0.24644460964762391 0 0.34777205992867372 0.23452203317025591 0 0.35054683222527211 0.25520351352275811 0 0.35617006356112352 0.24644460964762391 0 0.34481244947751838 0.2478366172573653 0 0.35617006356112352 0.24644460964762391 0 0.34777205992867372 0.23452203317025591 0 0.34481244947751838 0.2478366172573653 0 0.3401898747275971 0.15406477230032681 0 0.34338901413528572 0.13684684678651399 0 0.32492276766805522 0.13644425681983641 0 0.3401898747275971 0.15406477230032681 0 0.32492276766805522 0.13644425681983641 0 0.32388888857332399 0.16301517115619901 0 0.33729047810272639 0.1233033526776213 0 0.34338901413528572 0.13684684678651399 0 0.32492276766805522 0.13644425681983641 0 0.33729047810272639 0.1233033526776213 0 0.35043450064564308 0.12220890484815219 0 0.34338901413528572 0.13684684678651399 0 0.31673947906318878 0.1149618665134462 0 0.31895069529345998 0.13809869211611711 0 0.31673947906318878 0.1149618665134462 0 0.30865430922723291 0.12639172104604751 0 0.31895069529345998 0.13809869211611711 0 0.31114934859675292 0.15470121555697991 0 0.30865430922723291 0.12639172104604751 0 0.31895069529345998 0.13809869211611711 0 0.31673947906318878 0.1149618665134462 0 0.32492276766805522 0.13644425681983641 0 0.31895069529345998 0.13809869211611711 0 0.32492276766805522 0.13644425681983641 0 0.3211619115237323 0.1612355177187878 0 0.32388888857332399 0.16301517115619901 0 0.32492276766805522 0.13644425681983641 0 0.31895069529345998 0.13809869211611711 0 0.3211619115237323 0.1612355177187878 0 0.31895069529345998 0.13809869211611711 0 0.3211619115237323 0.1612355177187878 0 0.32492276766805522 0.13644425681983641 0 0.32388888857332399 0.16301517115619901 0 0.31114934859675292 0.15470121555697991 0 0.31895069529345998 0.13809869211611711 0 0.3211619115237323 0.1612355177187878 0 0.31114934859675292 0.15470121555697991 0 0.32166653863405609 0.1665156297612615 0 0.31337121681445362 0.1799112250187129 0 0.31114934859675292 0.15470121555697991 0 0.3211619115237323 0.1612355177187878 0 0.31114934859675292 0.15470121555697991 0 0.32166653863405609 0.1665156297612615 0 0.3211619115237323 0.1612355177187878 0 0.32357671326412141 0.17103814351443489 0 0.32388888857332399 0.16301517115619901 0 0.32166653863405609 0.1665156297612615 0 0.32357671326412141 0.17103814351443489 0 0.32388888857332399 0.16301517115619901 0 0.32166653863405609 0.1665156297612615 0 0.3211619115237323 0.1612355177187878 0 0.32166653863405609 0.1665156297612615 0 0.3211619115237323 0.1612355177187878 0 0.32388888857332399 0.16301517115619901 0 0.3211619115237323 0.1612355177187878 0 0.32388888857332399 0.16301517115619901 0 0.32969732975907518 0.18785773427879029 0 0.32357671326412141 0.17103814351443489 0 0.31337121681445362 0.1799112250187129 0 0.32166653863405609 0.1665156297612615 0 0.32357671326412141 0.17103814351443489 0 0.31337121681445362 0.1799112250187129 0 0.32969732975907518 0.18785773427879029 0 0.32357671326412141 0.17103814351443489 0 0.34237239564486271 0.17507769911194171 0 0.32969732975907518 0.18785773427879029 0 0.34459214581363551 0.190625068182281 0 0.34237239564486271 0.17507769911194171 0 0.3401898747275971 0.15406477230032681 0 0.32388888857332399 0.16301517115619901 0 0.34237239564486271 0.17507769911194171 0 0.32388888857332399 0.16301517115619901 0 0.34237239564486271 0.17507769911194171 0 0.32357671326412141 0.17103814351443489 0 0.32388888857332399 0.16301517115619901 0 0.34237239564486271 0.17507769911194171 0 0.3401898747275971 0.15406477230032681 0 0.34237239564486271 0.17507769911194171 0 0.3552046827455882 0.16425864742150481 0 0.34237239564486271 0.17507769911194171 0 0.3552046827455882 0.16425864742150481 0 0.36085590271640228 0.18714022706768271 0 0.34237239564486271 0.17507769911194171 0 0.36085590271640228 0.18714022706768271 0 0.34459214581363551 0.190625068182281 0 0.34237239564486271 0.17507769911194171 0 0.36085590271640228 0.18714022706768271 0 0.36085590271640228 0.18714022706768271 0 0.3707144520382466 0.16865698998718059 0 0.38734993276003471 0.17951347682634761 0 0.3552046827455882 0.16425864742150481 0 0.36085590271640228 0.18714022706768271 0 0.3707144520382466 0.16865698998718059 0 0.36085590271640228 0.18714022706768271 0 0.3707144520382466 0.16865698998718059 0 0.3552046827455882 0.16425864742150481 0 0.3707144520382466 0.16865698998718059 0 0.36640270726379531 0.14948129653119591 0 0.3707144520382466 0.16865698998718059 0 0.36640270726379531 0.14948129653119591 0 0.38057300136009309 0.15017375290667959 0 0.36640270726379531 0.14948129653119591 0 0.35349117390439211 0.14717637564510541 0 0.36138536393700271 0.1317110966259229 0 0.36640270726379531 0.14948129653119591 0 0.37704756959744901 0.134910916600782 0 0.38057300136009309 0.15017375290667959 0 0.3552046827455882 0.16425864742150481 0 0.36640270726379531 0.14948129653119591 0 0.35349117390439211 0.14717637564510541 0 0.3401898747275971 0.15406477230032681 0 0.3552046827455882 0.16425864742150481 0 0.35349117390439211 0.14717637564510541 0 0.3401898747275971 0.15406477230032681 0 0.34338901413528572 0.13684684678651399 0 0.35349117390439211 0.14717637564510541 0 0.34338901413528572 0.13684684678651399 0 0.35349117390439211 0.14717637564510541 0 0.36138536393700271 0.1317110966259229 0 0.35043450064564308 0.12220890484815219 0 0.34338901413528572 0.13684684678651399 0 0.36138536393700271 0.1317110966259229 0 0.36640270726379531 0.14948129653119591 0 0.36138536393700271 0.1317110966259229 0 0.37704756959744901 0.134910916600782 0 0.37352213783480492 0.1196480802948845 0 0.36138536393700271 0.1317110966259229 0 0.37704756959744901 0.134910916600782 0 0.37352213783480492 0.1196480802948845 0 0.37704756959744901 0.134910916600782 0 0.38439656420386042 0.1218099912124135 0 0.37352213783480492 0.1196480802948845 0 0.37704756959744901 0.134910916600782 0 0.37704756959744901 0.134910916600782 0 0.38916702746439669 0.13406129895669991 0 0.38057300136009309 0.15017375290667959 0 0.37704756959744901 0.134910916600782 0 0.38916702746439669 0.13406129895669991 0 0.38439656420386042 0.1218099912124135 0 0.38916702746439669 0.13406129895669991 0 0.39941844038578111 0.14814433203088651 0 0.41577983027037319 0.1322687249406824 0 0.38916702746439669 0.13406129895669991 0 0.39776105356870051 0.1179488450067204 0 0.38916702746439669 0.13406129895669991 0 0.41577983027037319 0.1322687249406824 0 0.39776105356870051 0.1179488450067204 0 0.39941844038578111 0.14814433203088651 0 0.38057300136009309 0.15017375290667959 0 0.39263914636633418 0.16108137062091371 0 0.38916702746439669 0.13406129895669991 0 0.38057300136009309 0.15017375290667959 0 0.38916702746439669 0.13406129895669991 0 0.39941844038578111 0.14814433203088651 0 0.38057300136009309 0.15017375290667959 0 0.37704756959744901 0.134910916600782 0 0.38057300136009309 0.15017375290667959 0 0.3707144520382466 0.16865698998718059 0 0.38057300136009309 0.15017375290667959 0 0.38734993276003471 0.17951347682634761 0 0.38057300136009309 0.15017375290667959 0 0.38734993276003471 0.17951347682634761 0 0.39263914636633418 0.16108137062091371 0 0.3707144520382466 0.16865698998718059 0 0.38057300136009309 0.15017375290667959 0 0.38057300136009309 0.15017375290667959 0 0.38734993276003471 0.17951347682634761 0 0.38734993276003471 0.17951347682634761 0 0.39683966525776881 0.18150682605138671 0 0.39087074717994352 0.1901552162005373 0 0.39683966525776881 0.18150682605138671 0 0.39087074717994352 0.1901552162005373 0 0.40344024936095613 0.18894551073460569 0 0.38734993276003471 0.17951347682634761 0 0.39683966525776881 0.18150682605138671 0 0.39628612741873498 0.1706680402743897 0 0.39683966525776881 0.18150682605138671 0 0.39628612741873498 0.1706680402743897 0 0.40625126956917479 0.1782518862210534 0 0.39683966525776881 0.18150682605138671 0 0.40625126956917479 0.1782518862210534 0 0.40344024936095613 0.18894551073460569 0 0.38734993276003471 0.17951347682634761 0 0.39263914636633418 0.16108137062091371 0 0.39628612741873498 0.1706680402743897 0 0.39628612741873498 0.1706680402743897 0 0.40406901135269291 0.161232452809634 0 0.40625126956917479 0.1782518862210534 0 0.39263914636633418 0.16108137062091371 0 0.39628612741873498 0.1706680402743897 0 0.40406901135269291 0.161232452809634 0 0.39941844038578111 0.14814433203088651 0 0.39263914636633418 0.16108137062091371 0 0.40406901135269291 0.161232452809634 0 0.40406901135269291 0.161232452809634 0 0.41553623974226622 0.16658928607799209 0 0.41653301622362959 0.15221099282239389 0 0.40406901135269291 0.161232452809634 0 0.41553623974226622 0.16658928607799209 0 0.40625126956917479 0.1782518862210534 0 0.41553623974226622 0.16658928607799209 0 0.4284261697017771 0.1622551284945864 0 0.41653301622362959 0.15221099282239389 0 0.41553623974226622 0.16658928607799209 0 0.40625126956917479 0.1782518862210534 0 0.42305373243151162 0.1779216521145284 0 0.40625126956917479 0.1782518862210534 0 0.42305373243151162 0.1779216521145284 0 0.41454949654257989 0.19090106272140381 0 0.40625126956917479 0.1782518862210534 0 0.40344024936095613 0.18894551073460569 0 0.41454949654257989 0.19090106272140381 0 0.42305373243151162 0.1779216521145284 0 0.41454949654257989 0.19090106272140381 0 0.42577474914055968 0.1933201528091712 0 0.42305373243151162 0.1779216521145284 0 0.4356470168489282 0.17562999757823419 0 0.4284261697017771 0.1622551284945864 0 0.42305373243151162 0.1779216521145284 0 0.43390861322443258 0.18562277584804229 0 0.42577474914055968 0.1933201528091712 0 0.4356470168489282 0.17562999757823419 0 0.43390861322443258 0.18562277584804229 0 0.44164102073883138 0.18196620548515829 0 0.42305373243151162 0.1779216521145284 0 0.4356470168489282 0.17562999757823419 0 0.43390861322443258 0.18562277584804229 0 0.41553623974226622 0.16658928607799209 0 0.42305373243151162 0.1779216521145284 0 0.4284261697017771 0.1622551284945864 0 0.42305373243151162 0.1779216521145284 0 0.4284261697017771 0.1622551284945864 0 0.4284261697017771 0.1622551284945864 0 0.43379860697204542 0.14658860487464531 0 0.43964808486355228 0.1659968551015302 0 0.4356470168489282 0.17562999757823419 0 0.4284261697017771 0.1622551284945864 0 0.43964808486355228 0.1659968551015302 0 0.4284261697017771 0.1622551284945864 0 0.43379860697204542 0.14658860487464531 0 0.41653301622362959 0.15221099282239389 0 0.4284261697017771 0.1622551284945864 0 0.43379860697204542 0.14658860487464531 0 0.43379860697204542 0.14658860487464531 0 0.41577983027037319 0.1322687249406824 0 0.41653301622362959 0.15221099282239389 0 0.43379860697204542 0.14658860487464531 0 0.41577983027037319 0.1322687249406824 0 0.41577983027037319 0.1322687249406824 0 0.43964558696226352 0.12953827082437841 0 0.42873834153093199 0.1174778551089113 0 0.43379860697204542 0.14658860487464531 0 0.41577983027037319 0.1322687249406824 0 0.43964558696226352 0.12953827082437841 0 0.43379860697204542 0.14658860487464531 0 0.43964558696226352 0.12953827082437841 0 0.41577983027037319 0.1322687249406824 0 0.39776105356870051 0.1179488450067204 0 0.39941844038578111 0.14814433203088651 0 0.41577983027037319 0.1322687249406824 0 0.41653301622362959 0.15221099282239389 0 0.39941844038578111 0.14814433203088651 0 0.40406901135269291 0.161232452809634 0 0.41653301622362959 0.15221099282239389 0 0.39433610678759179 0.24845963391106821 0 0.39289393123234201 0.2296440377395314 0 0.41080924355329218 0.2319022302747287 0 0.39433610678759179 0.24845963391106821 0 0.41080924355329218 0.2319022302747287 0 0.39433610678759179 0.24845963391106821 0 0.38021145675286783 0.24955287181248939 0 0.39289393123234201 0.2296440377395314 0 0.3723233808184343 0.23213120119887559 0 0.38021145675286783 0.24955287181248939 0 0.39289393123234201 0.2296440377395314 0 0.3723233808184343 0.23213120119887559 0 0.37779015459955573 0.2074095812064396 0 0.3723233808184343 0.23213120119887559 0 0.38396894555516209 0.21931610748851449 0 0.39289393123234201 0.2296440377395314 0 0.3723233808184343 0.23213120119887559 0 0.38396894555516209 0.21931610748851449 0 0.37779015459955573 0.2074095812064396 0 0.39289393123234201 0.2296440377395314 0 0.40314321640533601 0.21982661904410841 0 0.41080924355329218 0.2319022302747287 0 0.39519385470258789 0.22015319325216379 0 0.39289393123234201 0.2296440377395314 0 0.40314321640533601 0.21982661904410841 0 0.38396894555516209 0.21931610748851449 0 0.39519385470258789 0.22015319325216379 0 0.39289393123234201 0.2296440377395314 0 0.40314321640533601 0.21982661904410841 0 0.39924879749893272 0.21219582743744009 0 0.40586470042852318 0.21194110852512901 0 0.40314321640533601 0.21982661904410841 0 0.39924879749893272 0.21219582743744009 0 0.39633999435372252 0.21576793815166009 0 0.40586470042852318 0.21194110852512901 0 0.40085198201821232 0.20560420280437161 0 0.40907656374946788 0.20275002141946311 0 0.39924879749893272 0.21219582743744009 0 0.40586470042852318 0.21194110852512901 0 0.40085198201821232 0.20560420280437161 0 0.39924879749893272 0.21219582743744009 0 0.40085198201821232 0.20560420280437161 0 0.39412686415998072 0.2088532007460146 0 0.39924879749893272 0.21219582743744009 0 0.39412686415998072 0.2088532007460146 0 0.39924879749893272 0.21219582743744009 0 0.39412686415998072 0.2088532007460146 0 0.39467751479034641 0.21123716134968751 0 0.39412686415998072 0.2088532007460146 0 0.39467751479034641 0.21123716134968751 0 0.39467751479034641 0.21123716134968751 0 0.39633999435372252 0.21576793815166009 0 0.39034955469355848 0.2137895303657468 0 0.39412686415998072 0.2088532007460146 0 0.39467751479034641 0.21123716134968751 0 0.39034955469355848 0.2137895303657468 0 0.39519385470258789 0.22015319325216379 0 0.40314321640533601 0.21982661904410841 0 0.39633999435372252 0.21576793815166009 0 0.39924879749893272 0.21219582743744009 0 0.39467751479034641 0.21123716134968751 0 0.39633999435372252 0.21576793815166009 0 0.39519385470258789 0.22015319325216379 0 0.39633999435372252 0.21576793815166009 0 0.39034955469355848 0.2137895303657468 0 0.39412686415998072 0.2088532007460146 0 0.39034955469355848 0.2137895303657468 0 0.37779015459955573 0.2074095812064396 0 0.38396894555516209 0.21931610748851449 0 0.39034955469355848 0.2137895303657468 0 0.37779015459955573 0.2074095812064396 0 0.39412686415998072 0.2088532007460146 0 0.37749138343819238 0.1979967139068472 0 0.39412686415998072 0.2088532007460146 0 0.37779015459955573 0.2074095812064396 0 0.37749138343819238 0.1979967139068472 0 0.38396894555516209 0.21931610748851449 0 0.39519385470258789 0.22015319325216379 0 0.39034955469355848 0.2137895303657468 0 0.36085590271640228 0.18714022706768271 0 0.38734993276003471 0.17951347682634761 0 0.37749138343819238 0.1979967139068472 0 0.38734993276003471 0.17951347682634761 0 0.39412686415998072 0.2088532007460146 0 0.37749138343819238 0.1979967139068472 0 0.38734993276003471 0.17951347682634761 0 0.39412686415998072 0.2088532007460146 0 0.39087074717994352 0.1901552162005373 0 0.40085198201821232 0.20560420280437161 0 0.39087074717994352 0.1901552162005373 0 0.40907656374946788 0.20275002141946311 0 0.38734993276003471 0.17951347682634761 0 0.39412686415998072 0.2088532007460146 0 0.39087074717994352 0.1901552162005373 0 0.40344024936095613 0.18894551073460569 0 0.40907656374946788 0.20275002141946311 0 0.39087074717994352 0.1901552162005373 0 0.40907656374946788 0.20275002141946311 0 0.40085198201821232 0.20560420280437161 0 0.39412686415998072 0.2088532007460146 0 0.39087074717994352 0.1901552162005373 0 0.40344024936095613 0.18894551073460569 0 0.40907656374946788 0.20275002141946311 0 0.41454949654257989 0.19090106272140381 0 0.41454949654257989 0.19090106272140381 0 0.42577474914055968 0.1933201528091712 0 0.42445550932987741 0.20214990324768281 0 0.40907656374946788 0.20275002141946311 0 0.41454949654257989 0.19090106272140381 0 0.42445550932987741 0.20214990324768281 0 0.43390861322443258 0.18562277584804229 0 0.4338495934354048 0.1967215215067146 0 0.44185216896200702 0.1897678662316854 0 0.43390861322443258 0.18562277584804229 0 0.42577474914055968 0.1933201528091712 0 0.4338495934354048 0.1967215215067146 0 0.4338495934354048 0.1967215215067146 0 0.42445550932987741 0.20214990324768281 0 0.43497538341135639 0.20761247067075769 0 0.42577474914055968 0.1933201528091712 0 0.4338495934354048 0.1967215215067146 0 0.42445550932987741 0.20214990324768281 0 0.43497538341135639 0.20761247067075769 0 0.42728238031899229 0.21534482663838889 0 0.44542661558694252 0.21287656009920489 0 0.42445550932987741 0.20214990324768281 0 0.43497538341135639 0.20761247067075769 0 0.42728238031899229 0.21534482663838889 0 0.43497538341135639 0.20761247067075769 0 0.42728238031899229 0.21534482663838889 0 0.40907656374946788 0.20275002141946311 0 0.42728238031899229 0.21534482663838889 0 0.40907656374946788 0.20275002141946311 0 0.42728238031899229 0.21534482663838889 0 0.41294640365039809 0.2166118350250294 0 0.40907656374946788 0.20275002141946311 0 0.42445550932987741 0.20214990324768281 0 0.42728238031899229 0.21534482663838889 0 0.40586470042852318 0.21194110852512901 0 0.40907656374946788 0.20275002141946311 0 0.41294640365039809 0.2166118350250294 0 0.40314321640533601 0.21982661904410841 0 0.40586470042852318 0.21194110852512901 0 0.41294640365039809 0.2166118350250294 0 0.42728238031899229 0.21534482663838889 0 0.41294640365039809 0.2166118350250294 0 0.41080924355329218 0.2319022302747287 0 0.42728238031899229 0.21534482663838889 0 0.41080924355329218 0.2319022302747287 0 0.40314321640533601 0.21982661904410841 0 0.41294640365039809 0.2166118350250294 0 0.41080924355329218 0.2319022302747287 0 0.42728238031899229 0.21534482663838889 0 0.42899067306478073 0.23351777643686369 0 0.45008529429757432 0.2311199092273738 0 0.42728238031899229 0.21534482663838889 0 0.41080924355329218 0.2319022302747287 0 0.42899067306478073 0.23351777643686369 0 0.43289203165404438 0.25018508703621772 0 0.42899067306478073 0.23351777643686369 0 0.45008529429757432 0.2311199092273738 0 0.41401967184311589 0.25282507102002483 0 0.43289203165404438 0.25018508703621772 0 0.42899067306478073 0.23351777643686369 0 0.41401967184311589 0.25282507102002483 0 0.41080924355329218 0.2319022302747287 0 0.42899067306478073 0.23351777643686369 0 0.41401967184311589 0.25282507102002483 0 0.39433610678759179 0.24845963391106821 0 0.41080924355329218 0.2319022302747287 0 0.45008529429757432 0.2311199092273738 0 0.4728882082761563 0.24689499181635879 0 0.45146664350149729 0.25998515076847079 0 0.45008529429757432 0.2311199092273738 0 0.4728882082761563 0.24689499181635879 0 0.43289203165404438 0.25018508703621772 0 0.45146664350149729 0.25998515076847079 0 0.45008529429757432 0.2311199092273738 0 0.42728238031899229 0.21534482663838889 0 0.45008529429757432 0.2311199092273738 0 0.44542661558694252 0.21287656009920489 0 0.45008529429757432 0.2311199092273738 0 0.46384486300605782 0.21851133087179381 0 0.44542661558694252 0.21287656009920489 0 0.42728238031899229 0.21534482663838889 0 0.45008529429757432 0.2311199092273738 0 0.45008529429757432 0.2311199092273738 0 0.46384486300605782 0.21851133087179381 0 0.4728882082761563 0.24689499181635879 0 0.46384486300605782 0.21851133087179381 0 0.45461904511166751 0.20365638044228199 0 0.44542661558694252 0.21287656009920489 0 0.46384486300605782 0.21851133087179381 0 0.45461904511166751 0.20365638044228199 0 0.47003781580065268 0.19831184345800809 0 0.43497538341135639 0.20761247067075769 0 0.44542661558694252 0.21287656009920489 0 0.4437667109068697 0.2005728587014256 0 0.45461904511166751 0.20365638044228199 0 0.44542661558694252 0.21287656009920489 0 0.4437667109068697 0.2005728587014256 0 0.45461904511166751 0.20365638044228199 0 0.4437667109068697 0.2005728587014256 0 0.45033009185275741 0.19338748551453999 0 0.4338495934354048 0.1967215215067146 0 0.4437667109068697 0.2005728587014256 0 0.44185216896200702 0.1897678662316854 0 0.4338495934354048 0.1967215215067146 0 0.43497538341135639 0.20761247067075769 0 0.4437667109068697 0.2005728587014256 0 0.45033009185275741 0.19338748551453999 0 0.45501315135476028 0.18885792439726989 0 0.45009605377011358 0.1841412437843189 0 0.4437667109068697 0.2005728587014256 0 0.44185216896200702 0.1897678662316854 0 0.45033009185275741 0.19338748551453999 0 0.44185216896200702 0.1897678662316854 0 0.45033009185275741 0.19338748551453999 0 0.45009605377011358 0.1841412437843189 0 0.45033009185275741 0.19338748551453999 0 0.45917674516214718 0.19355445333774271 0 0.45501315135476028 0.18885792439726989 0 0.45917674516214718 0.19355445333774271 0 0.45501315135476028 0.18885792439726989 0 0.46016757737597969 0.18440182553691031 0 0.45461904511166751 0.20365638044228199 0 0.45033009185275741 0.19338748551453999 0 0.45917674516214718 0.19355445333774271 0 0.45461904511166751 0.20365638044228199 0 0.45917674516214718 0.19355445333774271 0 0.47003781580065268 0.19831184345800809 0 0.45917674516214718 0.19355445333774271 0 0.46016757737597969 0.18440182553691031 0 0.46620446565285789 0.1873070035191127 0 0.45917674516214718 0.19355445333774271 0 0.47003781580065268 0.19831184345800809 0 0.46620446565285789 0.1873070035191127 0 0.47003781580065268 0.19831184345800809 0 0.48308731670872129 0.1906070100796137 0 0.47921574232798508 0.20789722005583661 0 0.47387810483730358 0.18983100381808321 0 0.47003781580065268 0.19831184345800809 0 0.48308731670872129 0.1906070100796137 0 0.47387810483730358 0.18983100381808321 0 0.47003781580065268 0.19831184345800809 0 0.46620446565285789 0.1873070035191127 0 0.47387810483730358 0.18983100381808321 0 0.48308731670872129 0.1906070100796137 0 0.47618282118698252 0.18309815821559849 0 0.48308731670872129 0.1906070100796137 0 0.5 0.20396949622422389 0 0.47921574232798508 0.20789722005583661 0 0.48308731670872129 0.1906070100796137 0 0.5 0.20396949622422389 0 0.5 0.175248358634707 0 0.5 0.20396949622422389 0 0.47921574232798508 0.20789722005583661 0 0.48103778537556008 0.22613000912531661 0 0.46384486300605782 0.21851133087179381 0 0.47003781580065268 0.19831184345800809 0 0.47921574232798508 0.20789722005583661 0 0.46384486300605782 0.21851133087179381 0 0.47921574232798508 0.20789722005583661 0 0.48103778537556008 0.22613000912531661 0 0.46384486300605782 0.21851133087179381 0 0.48103778537556008 0.22613000912531661 0 0.4728882082761563 0.24689499181635879 0 0.5 0.20396949622422389 0 0.48103778537556008 0.22613000912531661 0 0.5 0.23269063381374089 0 0.5 0.26141177140325789 0 0.5 0.23269063381374089 0 0.4728882082761563 0.24689499181635879 0 0.48103778537556008 0.22613000912531661 0 0.5 0.23269063381374089 0 0.4728882082761563 0.24689499181635879 0 0.45772553840687658 0.1412596650938186 0 0.45894655789142819 0.1628307453153644 0 0.45772553840687658 0.1412596650938186 0 0.46535546022251489 0.1310303757634442 0 0.46577996293768642 0.15916868964127839 0 0.45772553840687658 0.1412596650938186 0 0.44882003670435761 0.1585264336054473 0 0.45894655789142819 0.1628307453153644 0 0.46535546022251489 0.1310303757634442 0 0.46577996293768642 0.15916868964127839 0 0.47222275452914098 0.14304517094047259 0 0.45772553840687658 0.1412596650938186 0 0.45894655789142819 0.1628307453153644 0 0.46577996293768642 0.15916868964127839 0 0.46535546022251489 0.1310303757634442 0 0.46577996293768642 0.15916868964127839 0 0.45772553840687658 0.1412596650938186 0 0.449859322861202 0.13011847967177101 0 0.45650451892232458 0.1196885848722727 0 0.45772553840687658 0.1412596650938186 0 0.45650451892232458 0.1196885848722727 0 0.46309159774855241 0.1239958354625786 0 0.45772553840687658 0.1412596650938186 0 0.45650451892232458 0.1196885848722727 0 0.45772553840687658 0.1412596650938186 0 0.46535546022251489 0.1310303757634442 0 0.46309159774855241 0.1239958354625786 0 0.45772553840687658 0.1412596650938186 0 0.449859322861202 0.13011847967177101 0 0.44617284905236709 0.1444381186166864 0 0.43379860697204542 0.14658860487464531 0 0.43964558696226352 0.12953827082437841 0 0.44617284905236709 0.1444381186166864 0 0.449859322861202 0.13011847967177101 0 0.43964558696226352 0.12953827082437841 0 0.44617284905236709 0.1444381186166864 0 0.45772553840687658 0.1412596650938186 0 0.44617284905236709 0.1444381186166864 0 0.44882003670435761 0.1585264336054473 0 0.43379860697204542 0.14658860487464531 0 0.44617284905236709 0.1444381186166864 0 0.44882003670435761 0.1585264336054473 0 0.43379860697204542 0.14658860487464531 0 0.44882003670435761 0.1585264336054473 0 0.43379860697204542 0.14658860487464531 0 0.43964808486355228 0.1659968551015302 0 0.44882003670435761 0.1585264336054473 0 0.43964808486355228 0.1659968551015302 0 0.44829793274376439 0.16646068677498049 0 0.44670125088867541 0.17466914398351069 0 0.44829793274376439 0.16646068677498049 0 0.44670125088867541 0.17466914398351069 0 0.45410117219051982 0.17161916878732841 0 0.43964808486355228 0.1659968551015302 0 0.44829793274376439 0.16646068677498049 0 0.44882003670435761 0.1585264336054473 0 0.44829793274376439 0.16646068677498049 0 0.44882003670435761 0.1585264336054473 0 0.45894655789142819 0.1628307453153644 0 0.44185216896200702 0.1897678662316854 0 0.44164102073883138 0.18196620548515829 0 0.45009605377011358 0.1841412437843189 0 0.43390861322443258 0.18562277584804229 0 0.44185216896200702 0.1897678662316854 0 0.44164102073883138 0.18196620548515829 0 0.4356470168489282 0.17562999757823419 0 0.44164102073883138 0.18196620548515829 0 0.44670125088867541 0.17466914398351069 0 0.4356470168489282 0.17562999757823419 0 0.43964808486355228 0.1659968551015302 0 0.44670125088867541 0.17466914398351069 0 0.44670125088867541 0.17466914398351069 0 0.45296946034023189 0.17826823331281791 0 0.45009605377011358 0.1841412437843189 0 0.44670125088867541 0.17466914398351069 0 0.45296946034023189 0.17826823331281791 0 0.45410117219051982 0.17161916878732841 0 0.44164102073883138 0.18196620548515829 0 0.44670125088867541 0.17466914398351069 0 0.45009605377011358 0.1841412437843189 0 0.46016757737597969 0.18440182553691031 0 0.45894655789142819 0.1628307453153644 0 0.45410117219051982 0.17161916878732841 0 0.46016757737597969 0.18440182553691031 0 0.46620446565285789 0.1873070035191127 0 0.46577996293768642 0.15916868964127839 0 0.46016757737597969 0.18440182553691031 0 0.45894655789142819 0.1628307453153644 0 0.46620446565285789 0.1873070035191127 0 0.46577996293768642 0.15916868964127839 0 0.45501315135476028 0.18885792439726989 0 0.45009605377011358 0.1841412437843189 0 0.46016757737597969 0.18440182553691031 0 0.45296946034023189 0.17826823331281791 0 0.45009605377011358 0.1841412437843189 0 0.46016757737597969 0.18440182553691031 0 0.45296946034023189 0.17826823331281791 0 0.46016757737597969 0.18440182553691031 0 0.45410117219051982 0.17161916878732841 0 0.46016757737597969 0.18440182553691031 0 0.45894655789142819 0.1628307453153644 0 0.46577996293768642 0.15916868964127839 0 0.44829793274376439 0.16646068677498049 0 0.45894655789142819 0.1628307453153644 0 0.45410117219051982 0.17161916878732841 0 0.46577996293768642 0.15916868964127839 0 0.48140459733512758 0.15963837219684759 0 0.47442982460642241 0.1728068825649749 0 0.46577996293768642 0.15916868964127839 0 0.48140459733512758 0.15963837219684759 0 0.47421721193218219 0.1514246017236793 0 0.48140459733512758 0.15963837219684759 0 0.47442982460642241 0.1728068825649749 0 0.48257727591945759 0.1748221892520376 0 0.46620446565285789 0.1873070035191127 0 0.46577996293768642 0.15916868964127839 0 0.47442982460642241 0.1728068825649749 0 0.48308731670872129 0.1906070100796137 0 0.47618282118698252 0.18309815821559849 0 0.48257727591945759 0.1748221892520376 0 0.46620446565285789 0.1873070035191127 0 0.47618282118698252 0.18309815821559849 0 0.47442982460642241 0.1728068825649749 0 0.47387810483730358 0.18983100381808321 0 0.46620446565285789 0.1873070035191127 0 0.47618282118698252 0.18309815821559849 0 0.47618282118698252 0.18309815821559849 0 0.47442982460642241 0.1728068825649749 0 0.48257727591945759 0.1748221892520376 0 0.48308731670872129 0.1906070100796137 0 0.48257727591945759 0.1748221892520376 0 0.5 0.175248358634707 0 0.48140459733512758 0.15963837219684759 0 0.48257727591945759 0.1748221892520376 0 0.5 0.175248358634707 0 0.48140459733512758 0.15963837219684759 0 0.5 0.175248358634707 0 0.5 0.14652722104519 0 0.48140459733512758 0.15963837219684759 0 0.5 0.14652722104519 0 0.48019593074815631 0.1456028441242263 0 0.5 0.14652722104519 0 0.48019593074815631 0.1456028441242263 0 0.48103400244792938 0.13151268346595071 0 0.48140459733512758 0.15963837219684759 0 0.48019593074815631 0.1456028441242263 0 0.47421721193218219 0.1514246017236793 0 0.46577996293768642 0.15916868964127839 0 0.47222275452914098 0.14304517094047259 0 0.47421721193218219 0.1514246017236793 0 0.48019593074815631 0.1456028441242263 0 0.47222275452914098 0.14304517094047259 0 0.47421721193218219 0.1514246017236793 0 0.46535546022251489 0.1310303757634442 0 0.48103400244792938 0.13151268346595071 0 0.47280934056090329 0.1200387929232808 0 0.46535546022251489 0.1310303757634442 0 0.47222275452914098 0.14304517094047259 0 0.48103400244792938 0.13151268346595071 0 0.48019593074815631 0.1456028441242263 0 0.47222275452914098 0.14304517094047259 0 0.48103400244792938 0.13151268346595071 0 0.5 0.14652722104519 0 0.48103400244792938 0.13151268346595071 0 0.5 0.1178060834556731 0 0.48103400244792938 0.13151268346595071 0 0.5 0.1178060834556731 0 0.47991694206582569 0.1147200505781185 0 0.5 0.1178060834556731 0 0.48294125992375792 0.098473690456380103 0 0.47991694206582569 0.1147200505781185 0 0.5 0.1178060834556731 0 0.48294125992375792 0.098473690456380103 0 0.5 0.089084945866156118 0 0.48294125992375792 0.098473690456380103 0 0.46724991017785689 0.087475811669288667 0 0.46493095750734348 0.10289206188560999 0 0.48294125992375792 0.098473690456380103 0 0.47991694206582569 0.1147200505781185 0 0.46493095750734348 0.10289206188560999 0 0.47280934056090329 0.1200387929232808 0 0.47991694206582569 0.1147200505781185 0 0.46493095750734348 0.10289206188560999 0 0.48103400244792938 0.13151268346595071 0 0.47280934056090329 0.1200387929232808 0 0.47991694206582569 0.1147200505781185 0 0.5 0.089084945866156118 0 0.47987009368092859 0.076166928750620616 0 0.5 0.060363808276639341 0 0.48294125992375792 0.098473690456380103 0 0.5 0.089084945866156118 0 0.47987009368092859 0.076166928750620616 0 0.48294125992375792 0.098473690456380103 0 0.47987009368092859 0.076166928750620616 0 0.46724991017785689 0.087475811669288667 0 0.47987009368092859 0.076166928750620616 0 0.4535033202107282 0.066668056545130888 0 0.4770499547622758 0.050662380914723477 0 0.47987009368092859 0.076166928750620616 0 0.4535033202107282 0.066668056545130888 0 0.46724991017785689 0.087475811669288667 0 0.4535033202107282 0.066668056545130888 0 0.45500391956652658 0.093178320708701773 0 0.4535033202107282 0.066668056545130888 0 0.46724991017785689 0.087475811669288667 0 0.45500391956652658 0.093178320708701773 0 0.4535033202107282 0.066668056545130888 0 0.45500391956652658 0.093178320708701773 0 0.44364504146133221 0.076797112971870668 0 0.45500391956652658 0.093178320708701773 0 0.441591992588452 0.089694153534205623 0 0.44364504146133221 0.076797112971870668 0 0.441591992588452 0.089694153534205623 0 0.44364504146133221 0.076797112971870668 0 0.43231683462225973 0.076826209209359897 0 0.4535033202107282 0.066668056545130888 0 0.44364504146133221 0.076797112971870668 0 0.43580914031869478 0.057618824861955159 0 0.45650451892232458 0.1196885848722727 0 0.46309159774855241 0.1239958354625786 0 0.46493095750734348 0.10289206188560999 0 0.46535546022251489 0.1310303757634442 0 0.47280934056090329 0.1200387929232808 0 0.46493095750734348 0.10289206188560999 0 0.46535546022251489 0.1310303757634442 0 0.46493095750734348 0.10289206188560999 0 0.46535546022251489 0.1310303757634442 0 0.46309159774855241 0.1239958354625786 0 0.46493095750734348 0.10289206188560999 0 0.45650451892232458 0.1196885848722727 0 0.46309159774855241 0.1239958354625786 0 0.45500391956652658 0.093178320708701773 0 0.45650451892232458 0.1196885848722727 0 0.45500391956652658 0.093178320708701773 0 0.45650451892232458 0.1196885848722727 0 0.44911350248614301 0.1019289540981651 0 0.45500391956652658 0.093178320708701773 0 0.45650451892232458 0.1196885848722727 0 0.46493095750734348 0.10289206188560999 0 0.46724991017785689 0.087475811669288667 0 0.45500391956652658 0.093178320708701773 0 0.46493095750734348 0.10289206188560999 0 0.43904832908231611 0.099028302499728341 0 0.44549256695248451 0.1124879367741126 0 0.42853950221361381 0.1014024313428976 0 0.44911350248614301 0.1019289540981651 0 0.44549256695248451 0.1124879367741126 0 0.45500391956652658 0.093178320708701773 0 0.441591992588452 0.089694153534205623 0 0.44911350248614301 0.1019289540981651 0 0.441591992588452 0.089694153534205623 0 0.44911350248614301 0.1019289540981651 0 0.43904832908231611 0.099028302499728341 0 0.44911350248614301 0.1019289540981651 0 0.43904832908231611 0.099028302499728341 0 0.44549256695248451 0.1124879367741126 0 0.43964558696226352 0.12953827082437841 0 0.44549256695248451 0.1124879367741126 0 0.43964558696226352 0.12953827082437841 0 0.44549256695248451 0.1124879367741126 0 0.42873834153093199 0.1174778551089113 0 0.449859322861202 0.13011847967177101 0 0.45650451892232458 0.1196885848722727 0 0.44549256695248451 0.1124879367741126 0 0.45650451892232458 0.1196885848722727 0 0.44911350248614301 0.1019289540981651 0 0.44549256695248451 0.1124879367741126 0 0.449859322861202 0.13011847967177101 0 0.43964558696226352 0.12953827082437841 0 0.44549256695248451 0.1124879367741126 0 0.45650451892232458 0.1196885848722727 0 0.44549256695248451 0.1124879367741126 0 0.42873834153093199 0.1174778551089113 0 0.41423422125592457 0.11169191166248529 0 0.42853950221361381 0.1014024313428976 0 0.44549256695248451 0.1124879367741126 0 0.42873834153093199 0.1174778551089113 0 0.42853950221361381 0.1014024313428976 0 0.41577983027037319 0.1322687249406824 0 0.41423422125592457 0.11169191166248529 0 0.39776105356870051 0.1179488450067204 0 0.41577983027037319 0.1322687249406824 0 0.42873834153093199 0.1174778551089113 0 0.41423422125592457 0.11169191166248529 0 0.41615363698941521 0.099484267241510244 0 0.42853950221361381 0.1014024313428976 0 0.41158643747474311 0.090316925911682722 0 0.41423422125592457 0.11169191166248529 0 0.41025438701337941 0.094525800048975345 0 0.39776105356870051 0.1179488450067204 0 0.42853950221361381 0.1014024313428976 0 0.41158643747474311 0.090316925911682722 0 0.41423422125592457 0.11169191166248529 0 0.41025438701337941 0.094525800048975345 0 0.41615363698941521 0.099484267241510244 0 0.41025438701337941 0.094525800048975345 0 0.41615363698941521 0.099484267241510244 0 0.41158643747474311 0.090316925911682722 0 0.41423422125592457 0.11169191166248529 0 0.41615363698941521 0.099484267241510244 0 0.42853950221361381 0.1014024313428976 0 0.44549256695248451 0.1124879367741126 0 0.42853950221361381 0.1014024313428976 0 0.43904832908231611 0.099028302499728341 0 0.42853950221361381 0.1014024313428976 0 0.43050408117088718 0.089628036749260745 0 0.441591992588452 0.089694153534205623 0 0.43904832908231611 0.099028302499728341 0 0.43050408117088718 0.089628036749260745 0 0.441591992588452 0.089694153534205623 0 0.43050408117088718 0.089628036749260745 0 0.43231683462225973 0.076826209209359897 0 0.43050408117088718 0.089628036749260745 0 0.43231683462225973 0.076826209209359897 0 0.42147620341925568 0.080001572797743836 0 0.43050408117088718 0.089628036749260745 0 0.42096968467529178 0.088848497478011129 0 0.42147620341925568 0.080001572797743836 0 0.42853950221361381 0.1014024313428976 0 0.43050408117088718 0.089628036749260745 0 0.42096968467529178 0.088848497478011129 0 0.44364504146133221 0.076797112971870668 0 0.43231683462225973 0.076826209209359897 0 0.43580914031869478 0.057618824861955159 0 0.43231683462225973 0.076826209209359897 0 0.42279260988580297 0.06809662387197371 0 0.43580914031869478 0.057618824861955159 0 0.43231683462225973 0.076826209209359897 0 0.42279260988580297 0.06809662387197371 0 0.42147620341925568 0.080001572797743836 0 0.41159393168925268 0.072144347939800582 0 0.3985993805636005 0.065280312944611119 0 0.41276693937955161 0.05389216455100905 0 0.42279260988580297 0.06809662387197371 0 0.41159393168925268 0.072144347939800582 0 0.41276693937955161 0.05389216455100905 0 0.42279260988580297 0.06809662387197371 0 0.41159393168925268 0.072144347939800582 0 0.42147620341925568 0.080001572797743836 0 0.41159393168925268 0.072144347939800582 0 0.41383162150278419 0.082287126492499363 0 0.40571069506502838 0.078911500143315896 0 0.42853950221361381 0.1014024313428976 0 0.42096968467529178 0.088848497478011129 0 0.41158643747474311 0.090316925911682722 0 0.42096968467529178 0.088848497478011129 0 0.41383162150278419 0.082287126492499363 0 0.41158643747474311 0.090316925911682722 0 0.42096968467529178 0.088848497478011129 0 0.42147620341925568 0.080001572797743836 0 0.41383162150278419 0.082287126492499363 0 0.41159393168925268 0.072144347939800582 0 0.42147620341925568 0.080001572797743836 0 0.41383162150278419 0.082287126492499363 0 0.41383162150278419 0.082287126492499363 0 0.41158643747474311 0.090316925911682722 0 0.40571069506502838 0.078911500143315896 0 0.41025438701337941 0.094525800048975345 0 0.41158643747474311 0.090316925911682722 0 0.40244437547944117 0.089210479415165023 0 0.40244437547944117 0.089210479415165023 0 0.39463337273587229 0.079231420480467801 0 0.37978985072562421 0.08743662567053001 0 0.41158643747474311 0.090316925911682722 0 0.40244437547944117 0.089210479415165023 0 0.39463337273587229 0.079231420480467801 0 0.40244437547944117 0.089210479415165023 0 0.37978985072562421 0.08743662567053001 0 0.41158643747474311 0.090316925911682722 0 0.40571069506502838 0.078911500143315896 0 0.39463337273587229 0.079231420480467801 0 0.40244437547944117 0.089210479415165023 0 0.37978985072562421 0.08743662567053001 0 0.39179274707399919 0.095121127436046976 0 0.41158643747474311 0.090316925911682722 0 0.39463337273587229 0.079231420480467801 0 0.41025438701337941 0.094525800048975345 0 0.40244437547944117 0.089210479415165023 0 0.40076060017713339 0.095546044402206654 0 0.40244437547944117 0.089210479415165023 0 0.40076060017713339 0.095546044402206654 0 0.39179274707399919 0.095121127436046976 0 0.41159393168925268 0.072144347939800582 0 0.40571069506502838 0.078911500143315896 0 0.3985993805636005 0.065280312944611119 0 0.40571069506502838 0.078911500143315896 0 0.39463337273587229 0.079231420480467801 0 0.3985993805636005 0.065280312944611119 0 0.39463337273587229 0.079231420480467801 0 0.3985993805636005 0.065280312944611119 0 0.38463696298952949 0.072934418059870249 0 0.3985993805636005 0.065280312944611119 0 0.38463696298952949 0.072934418059870249 0 0.37975365107203612 0.059029135980681352 0 0.37040855985051452 0.073694595223060974 0 0.38463696298952949 0.072934418059870249 0 0.37978985072562421 0.08743662567053001 0 0.37040855985051452 0.073694595223060974 0 0.38463696298952949 0.072934418059870249 0 0.37975365107203612 0.059029135980681352 0 0.39463337273587229 0.079231420480467801 0 0.38463696298952949 0.072934418059870249 0 0.37978985072562421 0.08743662567053001 0 0.37744818977025452 0.10180580846630589 0 0.39855089114171383 0.1033267707086393 0 0.39179274707399919 0.095121127436046976 0 0.37978985072562421 0.08743662567053001 0 0.37744818977025452 0.10180580846630589 0 0.39179274707399919 0.095121127436046976 0 0.37744818977025452 0.10180580846630589 0 0.38439656420386042 0.1218099912124135 0 0.39776105356870051 0.1179488450067204 0 0.37744818977025452 0.10180580846630589 0 0.39776105356870051 0.1179488450067204 0 0.37352213783480492 0.1196480802948845 0 0.37744818977025452 0.10180580846630589 0 0.38439656420386042 0.1218099912124135 0 0.38916702746439669 0.13406129895669991 0 0.38439656420386042 0.1218099912124135 0 0.39776105356870051 0.1179488450067204 0 0.37744818977025452 0.10180580846630589 0 0.39776105356870051 0.1179488450067204 0 0.39855089114171383 0.1033267707086393 0 0.41025438701337941 0.094525800048975345 0 0.39776105356870051 0.1179488450067204 0 0.39855089114171383 0.1033267707086393 0 0.41025438701337941 0.094525800048975345 0 0.39776105356870051 0.1179488450067204 0 0.41025438701337941 0.094525800048975345 0 0.39855089114171383 0.1033267707086393 0 0.40076060017713339 0.095546044402206654 0 0.39855089114171383 0.1033267707086393 0 0.40076060017713339 0.095546044402206654 0 0.39179274707399919 0.095121127436046976 0 0.40166968972688538 0.022963851367171301 0 0.39474863539633398 0.0095615824544464829 0 0.41941520955435052 0.02248378942717218 0 0.40166968972688538 0.022963851367171301 0 0.39474863539633398 0.0095615824544464829 0 0.38731090694098619 0.02832482941848628 0 0.40166968972688538 0.022963851367171301 0 0.38731090694098619 0.02832482941848628 0 0.39912777867660909 0.032952343459647343 0 0.40166968972688538 0.022963851367171301 0 0.39912777867660909 0.032952343459647343 0 0.40954032672016411 0.027819916274663049 0 0.39474863539633398 0.0095615824544464829 0 0.41237583595914012 0.0059173912485140368 0 0.39725106277372468 -0.010113929432444961 0 0.37227446293662991 0.0094581904076930495 0 0.39474863539633398 0.0095615824544464829 0 0.37008206123831722 -0.0033606245182788391 0 0.37227446293662991 0.0094581904076930495 0 0.39474863539633398 0.0095615824544464829 0 0.37744112540864921 0.01854234667740759 0 0.39474863539633398 0.0095615824544464829 0 0.37008206123831722 -0.0033606245182788391 0 0.39474863539633398 0.0095615824544464829 0 0.37744112540864921 0.01854234667740759 0 0.38731090694098619 0.02832482941848628 0 0.37260602952372279 0.028658729705807622 0 0.37744112540864921 0.01854234667740759 0 0.38731090694098619 0.02832482941848628 0 0.3747522558259625 0.041747478458223908 0 0.37260602952372279 0.028658729705807622 0 0.38731090694098619 0.02832482941848628 0 0.3747522558259625 0.041747478458223908 0 0.38731090694098619 0.02832482941848628 0 0.39396015015738162 0.046195365279611739 0 0.3747522558259625 0.041747478458223908 0 0.37975365107203612 0.059029135980681352 0 0.39396015015738162 0.046195365279611739 0 0.3985993805636005 0.065280312944611119 0 0.39396015015738162 0.046195365279611739 0 0.41276693937955161 0.05389216455100905 0 0.3985993805636005 0.065280312944611119 0 0.37975365107203612 0.059029135980681352 0 0.39396015015738162 0.046195365279611739 0 0.39396015015738162 0.046195365279611739 0 0.40751068366804849 0.038440092716093617 0 0.41276693937955161 0.05389216455100905 0 0.38731090694098619 0.02832482941848628 0 0.39396015015738162 0.046195365279611739 0 0.39912777867660909 0.032952343459647343 0 0.39396015015738162 0.046195365279611739 0 0.39912777867660909 0.032952343459647343 0 0.40751068366804849 0.038440092716093617 0 0.39912777867660909 0.032952343459647343 0 0.40751068366804849 0.038440092716093617 0 0.40954032672016411 0.027819916274663049 0 0.41276693937955161 0.05389216455100905 0 0.4205818984353964 0.025802181213065659 0 0.40751068366804849 0.038440092716093617 0 0.41276693937955161 0.05389216455100905 0 0.4205818984353964 0.025802181213065659 0 0.41276693937955161 0.05389216455100905 0 0.42773446940335991 0.041046468049571558 0 0.4205818984353964 0.025802181213065659 0 0.41276693937955161 0.05389216455100905 0 0.43580914031869478 0.057618824861955159 0 0.42773446940335991 0.041046468049571558 0 0.42279260988580297 0.06809662387197371 0 0.41276693937955161 0.05389216455100905 0 0.43580914031869478 0.057618824861955159 0 0.43580914031869478 0.057618824861955159 0 0.42773446940335991 0.041046468049571558 0 0.43927620873745338 0.033030197418357873 0 0.42773446940335991 0.041046468049571558 0 0.42955837271050679 0.029937263266545999 0 0.4205818984353964 0.025802181213065659 0 0.42773446940335991 0.041046468049571558 0 0.42955837271050679 0.029937263266545999 0 0.43927620873745338 0.033030197418357873 0 0.43355192507912133 0.02279847227548765 0 0.42955837271050679 0.029937263266545999 0 0.43927620873745338 0.033030197418357873 0 0.43355192507912133 0.02279847227548765 0 0.42892518185001338 0.022529658079443661 0 0.42955837271050679 0.029937263266545999 0 0.43355192507912133 0.02279847227548765 0 0.43200853117502908 0.01158071556267534 0 0.44252819793551651 0.01655219293980607 0 0.43355192507912133 0.02279847227548765 0 0.42892518185001338 0.022529658079443661 0 0.43200853117502908 0.01158071556267534 0 0.42892518185001338 0.022529658079443661 0 0.4205818984353964 0.025802181213065659 0 0.43200853117502908 0.01158071556267534 0 0.42892518185001338 0.022529658079443661 0 0.42955837271050679 0.029937263266545999 0 0.4205818984353964 0.025802181213065659 0 0.40166968972688538 0.022963851367171301 0 0.41941520955435052 0.02248378942717218 0 0.40954032672016411 0.027819916274663049 0 0.4205818984353964 0.025802181213065659 0 0.41941520955435052 0.02248378942717218 0 0.40954032672016411 0.027819916274663049 0 0.39474863539633398 0.0095615824544464829 0 0.41941520955435052 0.02248378942717218 0 0.40751068366804849 0.038440092716093617 0 0.4205818984353964 0.025802181213065659 0 0.40954032672016411 0.027819916274663049 0 0.39474863539633398 0.0095615824544464829 0 0.41941520955435052 0.02248378942717218 0 0.41237583595914012 0.0059173912485140368 0 0.41941520955435052 0.02248378942717218 0 0.41237583595914012 0.0059173912485140368 0 0.42839685749124101 -0.002287802124877478 0 0.4205818984353964 0.025802181213065659 0 0.43200853117502908 0.01158071556267534 0 0.42839685749124101 -0.002287802124877478 0 0.43200853117502908 0.01158071556267534 0 0.44560029829194792 0.0011096397821343041 0 0.42839685749124101 -0.002287802124877478 0 0.4205818984353964 0.025802181213065659 0 0.42839685749124101 -0.002287802124877478 0 0.4205818984353964 0.025802181213065659 0 0.41941520955435052 0.02248378942717218 0 0.42839685749124101 -0.002287802124877478 0 0.44560029829194792 0.0011096397821343041 0 0.44252819793551651 0.01655219293980607 0 0.46318172628775528 0.009631107891625839 0 0.43200853117502908 0.01158071556267534 0 0.44560029829194792 0.0011096397821343041 0 0.44252819793551651 0.01655219293980607 0 0.43355192507912133 0.02279847227548765 0 0.44252819793551651 0.01655219293980607 0 0.43927620873745338 0.033030197418357873 0 0.44252819793551651 0.01655219293980607 0 0.45656015169357272 0.02428661475007457 0 0.43927620873745338 0.033030197418357873 0 0.45656015169357272 0.02428661475007457 0 0.45200272085492971 0.040157792381560017 0 0.47658209673464208 0.027276271952266219 0 0.45656015169357272 0.02428661475007457 0 0.46318172628775528 0.009631107891625839 0 0.47658209673464208 0.027276271952266219 0 0.44252819793551651 0.01655219293980607 0 0.45656015169357272 0.02428661475007457 0 0.46318172628775528 0.009631107891625839 0 0.46318172628775528 0.009631107891625839 0 0.47913465340203321 -0.002375154617094088 0 0.46180020666602439 -0.0063073581871850208 0 0.44560029829194792 0.0011096397821343041 0 0.46318172628775528 0.009631107891625839 0 0.46180020666602439 -0.0063073581871850208 0 0.4535033202107282 0.066668056545130888 0 0.45200272085492971 0.040157792381560017 0 0.4535033202107282 0.066668056545130888 0 0.43580914031869478 0.057618824861955159 0 0.45200272085492971 0.040157792381560017 0 0.45656015169357272 0.02428661475007457 0 0.45200272085492971 0.040157792381560017 0 0.43927620873745338 0.033030197418357873 0 0.43580914031869478 0.057618824861955159 0 0.45200272085492971 0.040157792381560017 0 0.43927620873745338 0.033030197418357873 0 0.45200272085492971 0.040157792381560017 0 0.4770499547622758 0.050662380914723477 0 0.47658209673464208 0.027276271952266219 0 0.4535033202107282 0.066668056545130888 0 0.45200272085492971 0.040157792381560017 0 0.4770499547622758 0.050662380914723477 0 0.4770499547622758 0.050662380914723477 0 0.5 0.031642670687122558 0 0.47658209673464208 0.027276271952266219 0 0.4770499547622758 0.050662380914723477 0 0.5 0.031642670687122558 0 0.5 0.060363808276639341 0 0.47987009368092859 0.076166928750620616 0 0.4770499547622758 0.050662380914723477 0 0.5 0.060363808276639341 0 0.46318172628775528 0.009631107891625839 0 0.47658209673464208 0.027276271952266219 0 0.47913465340203321 -0.002375154617094088 0 0.5 0.031642670687122558 0 0.47658209673464208 0.027276271952266219 0 0.5 0.002921533097605677 0 0.47658209673464208 0.027276271952266219 0 0.5 0.002921533097605677 0 0.47913465340203321 -0.002375154617094088 0 0.5 0.002921533097605677 0 0.47913465340203321 -0.002375154617094088 0 0.5 -0.025799604491911151 0 0.47913465340203321 -0.002375154617094088 0 0.47324389072377748 -0.021972877964966098 0 0.46180020666602439 -0.0063073581871850208 0 0.47913465340203321 -0.002375154617094088 0 0.47324389072377748 -0.021972877964966098 0 0.5 -0.025799604491911151 0 0.47324389072377748 -0.021972877964966098 0 0.5 -0.025799604491911151 0 0.47324389072377748 -0.021972877964966098 0 0.5 -0.025799604491911151 0 0.48510719726051549 -0.037797362099788068 0 0.5 -0.025799604491911151 0 0.48510719726051549 -0.037797362099788068 0 0.5 -0.046962812214364491 0 0.48510719726051549 -0.037797362099788068 0 0.5 -0.046962812214364491 0 0.48250936391197108 -0.053036118290878877 0 0.5 -0.046962812214364491 0 0.48250936391197108 -0.053036118290878877 0 0.5 -0.068126019936817772 0 0.48250936391197108 -0.053036118290878877 0 0.46978273166682888 -0.041215397536819728 0 0.46307205825554609 -0.05663281793921085 0 0.48250936391197108 -0.053036118290878877 0 0.46307205825554609 -0.05663281793921085 0 0.47150000352544852 -0.067566270477631044 0 0.47324389072377748 -0.021972877964966098 0 0.48510719726051549 -0.037797362099788068 0 0.46978273166682888 -0.041215397536819728 0 0.48510719726051549 -0.037797362099788068 0 0.48250936391197108 -0.053036118290878877 0 0.46978273166682888 -0.041215397536819728 0 0.47324389072377748 -0.021972877964966098 0 0.46978273166682888 -0.041215397536819728 0 0.45475646310499401 -0.033986395877333847 0 0.46978273166682888 -0.041215397536819728 0 0.45663938825707451 -0.046448252087309953 0 0.45475646310499401 -0.033986395877333847 0 0.46978273166682888 -0.041215397536819728 0 0.45663938825707451 -0.046448252087309953 0 0.46307205825554609 -0.05663281793921085 0 0.45663938825707451 -0.046448252087309953 0 0.46307205825554609 -0.05663281793921085 0 0.45117329386693061 -0.055777101258593309 0 0.46307205825554609 -0.05663281793921085 0 0.45117329386693061 -0.055777101258593309 0 0.45162929312662198 -0.066610623832600302 0 0.44294688415087702 -0.046960118408430139 0 0.44107018234926182 -0.063046839670552537 0 0.43607343852561647 -0.062202456540563313 0 0.45117329386693061 -0.055777101258593309 0 0.44294688415087702 -0.046960118408430139 0 0.44107018234926182 -0.063046839670552537 0 0.45117329386693061 -0.055777101258593309 0 0.45162929312662198 -0.066610623832600302 0 0.44107018234926182 -0.063046839670552537 0 0.45663938825707451 -0.046448252087309953 0 0.45117329386693061 -0.055777101258593309 0 0.44294688415087702 -0.046960118408430139 0 0.44294688415087702 -0.046960118408430139 0 0.43607343852561647 -0.062202456540563313 0 0.43418551653799098 -0.049719191796774358 0 0.44294688415087702 -0.046960118408430139 0 0.43607343852561647 -0.062202456540563313 0 0.45475646310499401 -0.033986395877333847 0 0.44294688415087702 -0.046960118408430139 0 0.43621181654708568 -0.03037778546282062 0 0.45663938825707451 -0.046448252087309953 0 0.45475646310499401 -0.033986395877333847 0 0.44294688415087702 -0.046960118408430139 0 0.45475646310499401 -0.033986395877333847 0 0.44648778144755491 -0.01814615143802106 0 0.43621181654708568 -0.03037778546282062 0 0.44560029829194792 0.0011096397821343041 0 0.44648778144755491 -0.01814615143802106 0 0.42839685749124101 -0.002287802124877478 0 0.44560029829194792 0.0011096397821343041 0 0.44648778144755491 -0.01814615143802106 0 0.46180020666602439 -0.0063073581871850208 0 0.47324389072377748 -0.021972877964966098 0 0.44648778144755491 -0.01814615143802106 0 0.46180020666602439 -0.0063073581871850208 0 0.47324389072377748 -0.021972877964966098 0 0.44648778144755491 -0.01814615143802106 0 0.47324389072377748 -0.021972877964966098 0 0.45475646310499401 -0.033986395877333847 0 0.44648778144755491 -0.01814615143802106 0 0.4735550633500355 -0.1227347071645474 0 0.5 -0.1085278227164324 0 0.48266798722821652 -0.1013794079911608 0 0.4735550633500355 -0.1227347071645474 0 0.5 -0.1085278227164324 0 0.49999999999999928 -0.12776641777359371 0 0.5 -0.1085278227164324 0 0.48266798722821652 -0.1013794079911608 0 0.5 -0.089289227659271053 0 0.4735550633500355 -0.1227347071645474 0 0.48266798722821652 -0.1013794079911608 0 0.46376044717196829 -0.1014833552761133 0 0.48266798722821652 -0.1013794079911608 0 0.47726310195285071 -0.083427090175183169 0 0.46376044717196829 -0.1014833552761133 0 0.48266798722821652 -0.1013794079911608 0 0.47726310195285071 -0.083427090175183169 0 0.5 -0.089289227659271053 0 0.47726310195285071 -0.083427090175183169 0 0.5 -0.089289227659271053 0 0.5 -0.068126019936817772 0 0.47726310195285071 -0.083427090175183169 0 0.5 -0.089289227659271053 0 0.48250936391197108 -0.053036118290878877 0 0.5 -0.068126019936817772 0 0.47150000352544852 -0.067566270477631044 0 0.47726310195285071 -0.083427090175183169 0 0.5 -0.068126019936817772 0 0.47150000352544852 -0.067566270477631044 0 0.46307205825554609 -0.05663281793921085 0 0.47150000352544852 -0.067566270477631044 0 0.45162929312662198 -0.066610623832600302 0 0.47150000352544852 -0.067566270477631044 0 0.45452620390570131 -0.077564952691095312 0 0.45162929312662198 -0.066610623832600302 0 0.47726310195285071 -0.083427090175183169 0 0.47150000352544852 -0.067566270477631044 0 0.45452620390570131 -0.077564952691095312 0 0.45452620390570131 -0.077564952691095312 0 0.43178930585855119 -0.071702815207010245 0 0.45162929312662198 -0.066610623832600302 0 0.44107018234926182 -0.063046839670552537 0 0.43178930585855119 -0.071702815207010245 0 0.45452620390570131 -0.077564952691095312 0 0.45162929312662198 -0.066610623832600302 0 0.43178930585855119 -0.071702815207010245 0 0.45452620390570131 -0.077564952691095312 0 0.43831424544300329 -0.084892137634670087 0 0.43178930585855119 -0.071702815207010245 0 0.44107018234926182 -0.063046839670552537 0 0.43607343852561647 -0.062202456540563313 0 0.45452620390570131 -0.077564952691095312 0 0.43831424544300329 -0.084892137634670087 0 0.44455105223409658 -0.097316089837280767 0 0.43831424544300329 -0.084892137634670087 0 0.44455105223409658 -0.097316089837280767 0 0.43098675760922728 -0.096930424182082114 0 0.47726310195285071 -0.083427090175183169 0 0.45452620390570131 -0.077564952691095312 0 0.47726310195285071 -0.083427090175183169 0 0.45452620390570131 -0.077564952691095312 0 0.46376044717196829 -0.1014833552761133 0 0.45452620390570131 -0.077564952691095312 0 0.46376044717196829 -0.1014833552761133 0 0.44455105223409658 -0.097316089837280767 0 0.44455105223409658 -0.097316089837280767 0 0.44711012670007172 -0.117702996555501 0 0.43265306211284288 -0.1062740555476596 0 0.46376044717196829 -0.1014833552761133 0 0.44455105223409658 -0.097316089837280767 0 0.44711012670007172 -0.117702996555501 0 0.4735550633500355 -0.1227347071645474 0 0.46376044717196829 -0.1014833552761133 0 0.44711012670007172 -0.117702996555501 0 0.4735550633500355 -0.1227347071645474 0 0.44711012670007172 -0.117702996555501 0 0.41062449399306511 -0.11863724031850111 0 0.41768768918009302 -0.1029741194903897 0 0.41062449399306511 -0.11863724031850111 0 0.420665190050108 -0.1126712859464547 0 0.41768768918009302 -0.1029741194903897 0 0.41062449399306511 -0.11863724031850111 0 0.41768768918009302 -0.1029741194903897 0 0.40556473048658032 -0.1145013155816461 0 0.41062449399306511 -0.11863724031850111 0 0.40556473048658032 -0.1145013155816461 0 0.40279000816415911 -0.1233975584275331 0 0.41062449399306511 -0.11863724031850111 0 0.4241033290372026 -0.1234260288937115 0 0.41456425222518489 -0.13242364204711271 0 0.41062449399306511 -0.11863724031850111 0 0.420665190050108 -0.1126712859464547 0 0.4241033290372026 -0.1234260288937115 0 0.44711012670007172 -0.117702996555501 0 0.420665190050108 -0.1126712859464547 0 0.4241033290372026 -0.1234260288937115 0 0.44711012670007172 -0.117702996555501 0 0.420665190050108 -0.1126712859464547 0 0.43265306211284288 -0.1062740555476596 0 0.44711012670007172 -0.117702996555501 0 0.420665190050108 -0.1126712859464547 0 0.420665190050108 -0.1126712859464547 0 0.42449985331645379 -0.1049377566730348 0 0.43265306211284288 -0.1062740555476596 0 0.42449985331645379 -0.1049377566730348 0 0.43265306211284288 -0.1062740555476596 0 0.43098675760922728 -0.096930424182082114 0 0.44455105223409658 -0.097316089837280767 0 0.43265306211284288 -0.1062740555476596 0 0.43098675760922728 -0.096930424182082114 0 0.43098675760922728 -0.096930424182082114 0 0.42133680013481561 -0.099504338012347635 0 0.42473849751932202 -0.087338467348699933 0 0.42449985331645379 -0.1049377566730348 0 0.43098675760922728 -0.096930424182082114 0 0.42133680013481561 -0.099504338012347635 0 0.41768768918009302 -0.1029741194903897 0 0.41252829864620671 -0.091716651467521518 0 0.42473849751932202 -0.087338467348699933 0 0.41768768918009302 -0.1029741194903897 0 0.42473849751932202 -0.087338467348699933 0 0.42133680013481561 -0.099504338012347635 0 0.41768768918009302 -0.1029741194903897 0 0.42473849751932202 -0.087338467348699933 0 0.42133680013481561 -0.099504338012347635 0 0.41768768918009302 -0.1029741194903897 0 0.42449985331645379 -0.1049377566730348 0 0.42133680013481561 -0.099504338012347635 0 0.41768768918009302 -0.1029741194903897 0 0.420665190050108 -0.1126712859464547 0 0.42449985331645379 -0.1049377566730348 0 0.41768768918009302 -0.1029741194903897 0 0.41768768918009302 -0.1029741194903897 0 0.40556473048658032 -0.1145013155816461 0 0.41768768918009302 -0.1029741194903897 0 0.41012112122922001 -0.10566191009924369 0 0.4107525521901495 -0.099570736806089521 0 0.41012112122922001 -0.10566191009924369 0 0.40647951306005742 -0.10560146851884961 0 0.40556473048658032 -0.1145013155816461 0 0.40647951306005742 -0.10560146851884961 0 0.4107525521901495 -0.099570736806089521 0 0.40244796561973251 -0.1016351477640772 0 0.41768768918009302 -0.1029741194903897 0 0.41012112122922001 -0.10566191009924369 0 0.40556473048658032 -0.1145013155816461 0 0.41012112122922001 -0.10566191009924369 0 0.40647951306005742 -0.10560146851884961 0 0.4107525521901495 -0.099570736806089521 0 0.41768768918009302 -0.1029741194903897 0 0.4107525521901495 -0.099570736806089521 0 0.41252829864620671 -0.091716651467521518 0 0.4107525521901495 -0.099570736806089521 0 0.41252829864620671 -0.091716651467521518 0 0.40438443486787268 -0.09520893139410988 0 0.41252829864620671 -0.091716651467521518 0 0.4127808067956345 -0.080516801769372065 0 0.4014090630713697 -0.086265734370525204 0 0.4127808067956345 -0.080516801769372065 0 0.42473849751932202 -0.087338467348699933 0 0.42111348230192702 -0.07674241650294604 0 0.41252829864620671 -0.091716651467521518 0 0.4127808067956345 -0.080516801769372065 0 0.42473849751932202 -0.087338467348699933 0 0.43831424544300329 -0.084892137634670087 0 0.42473849751932202 -0.087338467348699933 0 0.43178930585855119 -0.071702815207010245 0 0.42473849751932202 -0.087338467348699933 0 0.43178930585855119 -0.071702815207010245 0 0.42473849751932202 -0.087338467348699933 0 0.43178930585855119 -0.071702815207010245 0 0.42111348230192702 -0.07674241650294604 0 0.43831424544300329 -0.084892137634670087 0 0.43098675760922728 -0.096930424182082114 0 0.42473849751932202 -0.087338467348699933 0 0.43178930585855119 -0.071702815207010245 0 0.41514531903420032 -0.06741158168670193 0 0.43607343852561647 -0.062202456540563313 0 0.43178930585855119 -0.071702815207010245 0 0.41514531903420032 -0.06741158168670193 0 0.42111348230192702 -0.07674241650294604 0 0.43178930585855119 -0.071702815207010245 0 0.41514531903420032 -0.06741158168670193 0 0.44107018234926182 -0.063046839670552537 0 0.43178930585855119 -0.071702815207010245 0 0.43607343852561647 -0.062202456540563313 0 0.43178930585855119 -0.071702815207010245 0 0.43607343852561647 -0.062202456540563313 0 0.41514531903420032 -0.06741158168670193 0 0.39850133220984868 -0.063120348166396417 0 0.40923225349856007 -0.057666653900770963 0 0.41514531903420032 -0.06741158168670193 0 0.39850133220984868 -0.063120348166396417 0 0.4127808067956345 -0.080516801769372065 0 0.41514531903420032 -0.06741158168670193 0 0.42111348230192702 -0.07674241650294604 0 0.4127808067956345 -0.080516801769372065 0 0.41514531903420032 -0.06741158168670193 0 0.40357658028024579 -0.074607427946037808 0 0.41514531903420032 -0.06741158168670193 0 0.39850133220984868 -0.063120348166396417 0 0.40357658028024579 -0.074607427946037808 0 0.39850133220984868 -0.063120348166396417 0 0.40357658028024579 -0.074607427946037808 0 0.39004638029017591 -0.075722673737193463 0 0.39850133220984868 -0.063120348166396417 0 0.38562374315968351 -0.065847707754118384 0 0.39004638029017591 -0.075722673737193463 0 0.38562374315968351 -0.065847707754118384 0 0.3798328990174959 -0.075760198280269683 0 0.37435586827380402 -0.067491421465466467 0 0.38562374315968351 -0.065847707754118384 0 0.3798328990174959 -0.075760198280269683 0 0.39004638029017591 -0.075722673737193463 0 0.3798328990174959 -0.075760198280269683 0 0.385404385651129 -0.086440620972852406 0 0.36839367541975188 -0.080534136664988695 0 0.3798328990174959 -0.075760198280269683 0 0.39004638029017591 -0.075722673737193463 0 0.385404385651129 -0.086440620972852406 0 0.385404385651129 -0.086440620972852406 0 0.3809177236064093 -0.1032813241689441 0 0.36839367541975188 -0.080534136664988695 0 0.39004638029017591 -0.075722673737193463 0 0.385404385651129 -0.086440620972852406 0 0.4014090630713697 -0.086265734370525204 0 0.385404385651129 -0.086440620972852406 0 0.4014090630713697 -0.086265734370525204 0 0.39478429481190541 -0.096856386562335917 0 0.40357658028024579 -0.074607427946037808 0 0.39004638029017591 -0.075722673737193463 0 0.4014090630713697 -0.086265734370525204 0 0.4127808067956345 -0.080516801769372065 0 0.40357658028024579 -0.074607427946037808 0 0.4014090630713697 -0.086265734370525204 0 0.41252829864620671 -0.091716651467521518 0 0.4014090630713697 -0.086265734370525204 0 0.40438443486787268 -0.09520893139410988 0 0.4014090630713697 -0.086265734370525204 0 0.40438443486787268 -0.09520893139410988 0 0.39478429481190541 -0.096856386562335917 0 0.4107525521901495 -0.099570736806089521 0 0.40438443486787268 -0.09520893139410988 0 0.40244796561973251 -0.1016351477640772 0 0.40438443486787268 -0.09520893139410988 0 0.40244796561973251 -0.1016351477640772 0 0.39478429481190541 -0.096856386562335917 0 0.40244796561973251 -0.1016351477640772 0 0.40107233612638371 -0.10925731079113971 0 0.3932068136280541 -0.1089669159902895 0 0.40647951306005742 -0.10560146851884961 0 0.40244796561973251 -0.1016351477640772 0 0.40107233612638371 -0.10925731079113971 0 0.40244796561973251 -0.1016351477640772 0 0.3932068136280541 -0.1089669159902895 0 0.39478429481190541 -0.096856386562335917 0 0.385404385651129 -0.086440620972852406 0 0.39478429481190541 -0.096856386562335917 0 0.3809177236064093 -0.1032813241689441 0 0.3932068136280541 -0.1089669159902895 0 0.39478429481190541 -0.096856386562335917 0 0.3809177236064093 -0.1032813241689441 0 0.3932068136280541 -0.1089669159902895 0 0.3809177236064093 -0.1032813241689441 0 0.39344177179306539 -0.12602851167290011 0 0.3809177236064093 -0.1032813241689441 0 0.39344177179306539 -0.12602851167290011 0 0.3809177236064093 -0.1032813241689441 0 0.37001289064690768 -0.12225401689685619 0 0.39344177179306539 -0.12602851167290011 0 0.3932068136280541 -0.1089669159902895 0 0.39813319724537027 -0.1149437113923774 0 0.39344177179306539 -0.12602851167290011 0 0.40107233612638371 -0.10925731079113971 0 0.3932068136280541 -0.1089669159902895 0 0.39813319724537027 -0.1149437113923774 0 0.40647951306005742 -0.10560146851884961 0 0.40107233612638371 -0.10925731079113971 0 0.40556473048658032 -0.1145013155816461 0 0.40107233612638371 -0.10925731079113971 0 0.39813319724537027 -0.1149437113923774 0 0.40556473048658032 -0.1145013155816461 0 0.40556473048658032 -0.1145013155816461 0 0.40279000816415911 -0.1233975584275331 0 0.39344177179306539 -0.12602851167290011 0 0.39813319724537027 -0.1149437113923774 0 0.40556473048658032 -0.1145013155816461 0 0.39344177179306539 -0.12602851167290011 0 0.40556473048658032 -0.1145013155816461 0 0.39344177179306539 -0.12602851167290011 0 0.41872651538224759 -0.020688472630309099 0 0.42139799361526159 -0.034912281465716129 0 0.40477341692313612 -0.033504355963099967 0 0.41872651538224759 -0.020688472630309099 0 0.40477341692313612 -0.033504355963099967 0 0.40448694185548351 -0.018875806775587929 0 0.41872651538224759 -0.020688472630309099 0 0.41231665426187147 -0.0085877923467729024 0 0.40448694185548351 -0.018875806775587929 0 0.41237583595914012 0.0059173912485140368 0 0.41231665426187147 -0.0085877923467729024 0 0.42839685749124101 -0.002287802124877478 0 0.41237583595914012 0.0059173912485140368 0 0.41231665426187147 -0.0085877923467729024 0 0.39725106277372468 -0.010113929432444961 0 0.41872651538224759 -0.020688472630309099 0 0.41231665426187147 -0.0085877923467729024 0 0.42839685749124101 -0.002287802124877478 0 0.41872651538224759 -0.020688472630309099 0 0.42839685749124101 -0.002287802124877478 0 0.43621181654708568 -0.03037778546282062 0 0.41872651538224759 -0.020688472630309099 0 0.43621181654708568 -0.03037778546282062 0 0.42139799361526159 -0.034912281465716129 0 0.44648778144755491 -0.01814615143802106 0 0.42839685749124101 -0.002287802124877478 0 0.43621181654708568 -0.03037778546282062 0 0.42839685749124101 -0.002287802124877478 0 0.43621181654708568 -0.03037778546282062 0 0.43621181654708568 -0.03037778546282062 0 0.43226627673563273 -0.041823128001836248 0 0.42139799361526159 -0.034912281465716129 0 0.44294688415087702 -0.046960118408430139 0 0.43621181654708568 -0.03037778546282062 0 0.43226627673563273 -0.041823128001836248 0 0.43226627673563273 -0.041823128001836248 0 0.43418551653799098 -0.049719191796774358 0 0.42432176065272709 -0.048635865597095443 0 0.44294688415087702 -0.046960118408430139 0 0.43226627673563273 -0.041823128001836248 0 0.43418551653799098 -0.049719191796774358 0 0.43226627673563273 -0.041823128001836248 0 0.42432176065272709 -0.048635865597095443 0 0.42139799361526159 -0.034912281465716129 0 0.43607343852561647 -0.062202456540563313 0 0.40923225349856007 -0.057666653900770963 0 0.43607343852561647 -0.062202456540563313 0 0.42432176065272709 -0.048635865597095443 0 0.40923225349856007 -0.057666653900770963 0 0.43607343852561647 -0.062202456540563313 0 0.43418551653799098 -0.049719191796774358 0 0.42432176065272709 -0.048635865597095443 0 0.41514531903420032 -0.06741158168670193 0 0.43607343852561647 -0.062202456540563313 0 0.40923225349856007 -0.057666653900770963 0 0.42432176065272709 -0.048635865597095443 0 0.40923225349856007 -0.057666653900770963 0 0.41175477132852528 -0.044176737961865283 0 0.40923225349856007 -0.057666653900770963 0 0.41175477132852528 -0.044176737961865283 0 0.39868896976674939 -0.044550987523276832 0 0.42139799361526159 -0.034912281465716129 0 0.41175477132852528 -0.044176737961865283 0 0.40477341692313612 -0.033504355963099967 0 0.42432176065272709 -0.048635865597095443 0 0.42139799361526159 -0.034912281465716129 0 0.41175477132852528 -0.044176737961865283 0 0.40477341692313612 -0.033504355963099967 0 0.39868896976674939 -0.044550987523276832 0 0.38520251701971248 -0.033761239258713577 0 0.41175477132852528 -0.044176737961865283 0 0.40477341692313612 -0.033504355963099967 0 0.39868896976674939 -0.044550987523276832 0 0.40923225349856007 -0.057666653900770963 0 0.38239106847150428 -0.053130851260975248 0 0.39850133220984868 -0.063120348166396417 0 0.40923225349856007 -0.057666653900770963 0 0.38239106847150428 -0.053130851260975248 0 0.40923225349856007 -0.057666653900770963 0 0.39868896976674939 -0.044550987523276832 0 0.38239106847150428 -0.053130851260975248 0 0.39850133220984868 -0.063120348166396417 0 0.38562374315968351 -0.065847707754118384 0 0.38239106847150428 -0.053130851260975248 0 0.38562374315968351 -0.065847707754118384 0 0.38239106847150428 -0.053130851260975248 0 0.37435586827380402 -0.067491421465466467 0 0.39868896976674939 -0.044550987523276832 0 0.38239106847150428 -0.053130851260975248 0 0.38520251701971248 -0.033761239258713577 0 0.38239106847150428 -0.053130851260975248 0 0.38520251701971248 -0.033761239258713577 0 0.37076228452052779 -0.043919672014500422 0 0.38520251701971248 -0.033761239258713577 0 0.37076228452052779 -0.043919672014500422 0 0.37322308378058278 -0.034017221549525078 0 0.38520251701971248 -0.033761239258713577 0 0.37198737605836352 -0.019323574578126512 0 0.37322308378058278 -0.034017221549525078 0 0.38520251701971248 -0.033761239258713577 0 0.38634383104919451 -0.01944966696632637 0 0.37198737605836352 -0.019323574578126512 0 0.38634383104919451 -0.01944966696632637 0 0.40448694185548351 -0.018875806775587929 0 0.39725106277372468 -0.010113929432444961 0 0.40477341692313612 -0.033504355963099967 0 0.38520251701971248 -0.033761239258713577 0 0.38634383104919451 -0.01944966696632637 0 0.40477341692313612 -0.033504355963099967 0 0.38634383104919451 -0.01944966696632637 0 0.40448694185548351 -0.018875806775587929 0 0.41231665426187147 -0.0085877923467729024 0 0.40448694185548351 -0.018875806775587929 0 0.39725106277372468 -0.010113929432444961 0 0.39474863539633398 0.0095615824544464829 0 0.39725106277372468 -0.010113929432444961 0 0.37008206123831722 -0.0033606245182788391 0 0.39725106277372468 -0.010113929432444961 0 0.37008206123831722 -0.0033606245182788391 0 0.38634383104919451 -0.01944966696632637 0 0.37008206123831722 -0.0033606245182788391 0 0.37198737605836352 -0.019323574578126512 0 0.38634383104919451 -0.01944966696632637 0 0.39725106277372468 -0.010113929432444961 0 0.37008206123831722 -0.0033606245182788391 0 0.37008206123831722 -0.0033606245182788391 0 0.36223142593252389 -0.01488110932619539 0 0.37198737605836352 -0.019323574578126512 0 0.37008206123831722 -0.0033606245182788391 0 0.36223142593252389 -0.01488110932619539 0 0.34825702976924022 -0.01479421768865506 0 0.35414477090483149 0.00060085271846759165 0 0.37008206123831722 -0.0033606245182788391 0 0.37198737605836352 -0.019323574578126512 0 0.36124559613795648 -0.033682352269486973 0 0.37322308378058278 -0.034017221549525078 0 0.36223142593252389 -0.01488110932619539 0 0.37198737605836352 -0.019323574578126512 0 0.35859923666417481 -0.022046020519721161 0 0.37198737605836352 -0.019323574578126512 0 0.36124559613795648 -0.033682352269486973 0 0.37198737605836352 -0.019323574578126512 0 0.35859923666417481 -0.022046020519721161 0 0.36124559613795648 -0.033682352269486973 0 0.35859923666417481 -0.022046020519721161 0 0.34825702976924022 -0.01479421768865506 0 0.34331891139809628 -0.03499132572101174 0 0.35859923666417481 -0.022046020519721161 0 0.34331891139809628 -0.03499132572101174 0 0.36124559613795648 -0.033682352269486973 0 0.36223142593252389 -0.01488110932619539 0 0.35859923666417481 -0.022046020519721161 0 0.34825702976924022 -0.01479421768865506 0 0.35414477090483149 0.00060085271846759165 0 0.37008206123831722 -0.0033606245182788391 0 0.34825702976924022 -0.01479421768865506 0 0.37008206123831722 -0.0033606245182788391 0 0.34825702976924022 -0.01479421768865506 0 0.34825702976924022 -0.01479421768865506 0 0.34456684798536741 -0.0048999093308122214 0 0.33858356513646959 -0.0087798130814727357 0 0.35414477090483149 0.00060085271846759165 0 0.34825702976924022 -0.01479421768865506 0 0.34456684798536741 -0.0048999093308122214 0 0.33820748057134631 0.0045623299552150698 0 0.34456684798536741 -0.0048999093308122214 0 0.33759817947011422 -0.0028326368478416991 0 0.34825702976924022 -0.01479421768865506 0 0.33245361720918259 -0.01473952713590319 0 0.33858356513646959 -0.0087798130814727357 0 0.34456684798536741 -0.0048999093308122214 0 0.33759817947011422 -0.0028326368478416991 0 0.33858356513646959 -0.0087798130814727357 0 0.33759817947011422 -0.0028326368478416991 0 0.32926718857702247 -0.00014758446126416749 0 0.33133365388361441 -0.0068632331393166596 0 0.33759817947011422 -0.0028326368478416991 0 0.33133365388361441 -0.0068632331393166596 0 0.33858356513646959 -0.0087798130814727357 0 0.33133365388361441 -0.0068632331393166596 0 0.33245361720918259 -0.01473952713590319 0 0.32134872429562461 -0.0082775216404317939 0 0.33133365388361441 -0.0068632331393166596 0 0.33245361720918259 -0.01473952713590319 0 0.33858356513646959 -0.0087798130814727357 0 0.34825702976924022 -0.01479421768865506 0 0.32643199830016301 -0.026227810859030878 0 0.34331891139809628 -0.03499132572101174 0 0.34825702976924022 -0.01479421768865506 0 0.32643199830016301 -0.026227810859030878 0 0.34825702976924022 -0.01479421768865506 0 0.33245361720918259 -0.01473952713590319 0 0.32643199830016301 -0.026227810859030878 0 0.32643199830016301 -0.026227810859030878 0 0.30283100069965491 -0.021612611947454719 0 0.31230083461445879 -0.043722301270175852 0 0.33245361720918259 -0.01473952713590319 0 0.32643199830016301 -0.026227810859030878 0 0.32134872429562461 -0.0082775216404317939 0 0.32643199830016301 -0.026227810859030878 0 0.32134872429562461 -0.0082775216404317939 0 0.30283100069965491 -0.021612611947454719 0 0.32926718857702247 -0.00014758446126416749 0 0.33133365388361441 -0.0068632331393166596 0 0.32134872429562461 -0.0082775216404317939 0 0.33208989067102551 -0.048582525717500033 0 0.3152947619011372 -0.064949764054001324 0 0.31230083461445879 -0.043722301270175852 0 0.33208989067102551 -0.048582525717500033 0 0.33667417903426539 -0.066527515582069818 0 0.3152947619011372 -0.064949764054001324 0 0.32643199830016301 -0.026227810859030878 0 0.33208989067102551 -0.048582525717500033 0 0.31230083461445879 -0.043722301270175852 0 0.32643199830016301 -0.026227810859030878 0 0.34331891139809628 -0.03499132572101174 0 0.33208989067102551 -0.048582525717500033 0 0.34331891139809628 -0.03499132572101174 0 0.33208989067102551 -0.048582525717500033 0 0.35050381621754728 -0.04804112996084587 0 0.33208989067102551 -0.048582525717500033 0 0.35050381621754728 -0.04804112996084587 0 0.33667417903426539 -0.066527515582069818 0 0.35050381621754728 -0.04804112996084587 0 0.33667417903426539 -0.066527515582069818 0 0.35050381621754728 -0.04804112996084587 0 0.35944874581865011 -0.064287633312917036 0 0.33667417903426539 -0.066527515582069818 0 0.35050381621754728 -0.04804112996084587 0 0.35944874581865011 -0.064287633312917036 0 0.35050381621754728 -0.04804112996084587 0 0.35554988344444821 -0.048595048621179512 0 0.35944874581865011 -0.064287633312917036 0 0.34331891139809628 -0.03499132572101174 0 0.35050381621754728 -0.04804112996084587 0 0.36124559613795648 -0.033682352269486973 0 0.34331891139809628 -0.03499132572101174 0 0.35050381621754728 -0.04804112996084587 0 0.35050381621754728 -0.04804112996084587 0 0.35554988344444821 -0.048595048621179512 0 0.36171296215006299 -0.042404907013605997 0 0.35050381621754728 -0.04804112996084587 0 0.36124559613795648 -0.033682352269486973 0 0.36171296215006299 -0.042404907013605997 0 0.35050381621754728 -0.04804112996084587 0 0.36124559613795648 -0.033682352269486973 0 0.36124559613795648 -0.033682352269486973 0 0.36171296215006299 -0.042404907013605997 0 0.37322308378058278 -0.034017221549525078 0 0.35554988344444821 -0.048595048621179512 0 0.36171296215006299 -0.042404907013605997 0 0.37076228452052779 -0.043919672014500422 0 0.36171296215006299 -0.042404907013605997 0 0.37076228452052779 -0.043919672014500422 0 0.37322308378058278 -0.034017221549525078 0 0.38239106847150428 -0.053130851260975248 0 0.35554988344444821 -0.048595048621179512 0 0.35944874581865011 -0.064287633312917036 0 0.38239106847150428 -0.053130851260975248 0 0.35554988344444821 -0.048595048621179512 0 0.38239106847150428 -0.053130851260975248 0 0.37435586827380402 -0.067491421465466467 0 0.35944874581865011 -0.064287633312917036 0 0.38239106847150428 -0.053130851260975248 0 0.35554988344444821 -0.048595048621179512 0 0.37076228452052779 -0.043919672014500422 0 0.35944874581865011 -0.064287633312917036 0 0.36839367541975188 -0.080534136664988695 0 0.37435586827380402 -0.067491421465466467 0 0.35944874581865011 -0.064287633312917036 0 0.36839367541975188 -0.080534136664988695 0 0.35944874581865011 -0.064287633312917036 0 0.36839367541975188 -0.080534136664988695 0 0.35518560056847143 -0.076144509834571328 0 0.3798328990174959 -0.075760198280269683 0 0.37435586827380402 -0.067491421465466467 0 0.36839367541975188 -0.080534136664988695 0 0.37435586827380402 -0.067491421465466467 0 0.36839367541975188 -0.080534136664988695 0 0.3809177236064093 -0.1032813241689441 0 0.36839367541975188 -0.080534136664988695 0 0.36839367541975188 -0.080534136664988695 0 0.35679875114561332 -0.10589884706087779 0 0.36839367541975188 -0.080534136664988695 0 0.34699117294558351 -0.086082987944320677 0 0.35679875114561332 -0.10589884706087779 0 0.36839367541975188 -0.080534136664988695 0 0.34699117294558351 -0.086082987944320677 0 0.35518560056847143 -0.076144509834571328 0 0.35944874581865011 -0.064287633312917036 0 0.35518560056847143 -0.076144509834571328 0 0.33667417903426539 -0.066527515582069818 0 0.34699117294558351 -0.086082987944320677 0 0.35518560056847143 -0.076144509834571328 0 0.33667417903426539 -0.066527515582069818 0 0.3809177236064093 -0.1032813241689441 0 0.37001289064690768 -0.12225401689685619 0 0.35679875114561332 -0.10589884706087779 0 0.3809177236064093 -0.1032813241689441 0 0.36839367541975188 -0.080534136664988695 0 0.35679875114561332 -0.10589884706087779 0 0.34699117294558351 -0.086082987944320677 0 0.35679875114561332 -0.10589884706087779 0 0.33527462764380289 -0.1031234679827082 0 0.35679875114561332 -0.10589884706087779 0 0.34155872130262921 -0.1151202034054806 0 0.33527462764380289 -0.1031234679827082 0 0.37001289064690768 -0.12225401689685619 0 0.35679875114561332 -0.10589884706087779 0 0.34520382687147788 -0.13126355745676829 0 0.35679875114561332 -0.10589884706087779 0 0.34520382687147788 -0.13126355745676829 0 0.35679875114561332 -0.10589884706087779 0 0.34155872130262921 -0.1151202034054806 0 0.34520382687147788 -0.13126355745676829 0 0.34155872130262921 -0.1151202034054806 0 0.32629719089327519 -0.1171883519879711 0 0.32959244510166852 -0.12901246947716399 0 0.34155872130262921 -0.1151202034054806 0 0.33527462764380289 -0.1031234679827082 0 0.32629719089327519 -0.1171883519879711 0 0.3186944865266188 -0.10650654576304799 0 0.32284454185098138 -0.085013901203292108 0 0.30901490466769738 -0.1035002868245144 0 0.32284454185098138 -0.085013901203292108 0 0.30901490466769738 -0.1035002868245144 0 0.33527462764380289 -0.1031234679827082 0 0.3186944865266188 -0.10650654576304799 0 0.32284454185098138 -0.085013901203292108 0 0.33527462764380289 -0.1031234679827082 0 0.3186944865266188 -0.10650654576304799 0 0.32629719089327519 -0.1171883519879711 0 0.32629719089327519 -0.1171883519879711 0 0.31221426938746211 -0.1182129215781299 0 0.31545338683896401 -0.13308033386471399 0 0.3186944865266188 -0.10650654576304799 0 0.32629719089327519 -0.1171883519879711 0 0.31221426938746211 -0.1182129215781299 0 0.33667417903426539 -0.066527515582069818 0 0.32284454185098138 -0.085013901203292108 0 0.34699117294558351 -0.086082987944320677 0 0.33667417903426539 -0.066527515582069818 0 0.32284454185098138 -0.085013901203292108 0 0.34699117294558351 -0.086082987944320677 0 0.33527462764380289 -0.1031234679827082 0 0.32284454185098138 -0.085013901203292108 0 0.33667417903426539 -0.066527515582069818 0 0.32284454185098138 -0.085013901203292108 0 0.3152947619011372 -0.064949764054001324 0 0.3152947619011372 -0.064949764054001324 0 0.29805817555561742 -0.07951482503662749 0 0.30187004918913468 -0.056018325725983767 0 0.32284454185098138 -0.085013901203292108 0 0.3152947619011372 -0.064949764054001324 0 0.29805817555561742 -0.07951482503662749 0 0.32284454185098138 -0.085013901203292108 0 0.29805817555561742 -0.07951482503662749 0 0.30901490466769738 -0.1035002868245144 0 0.28458233987840093 -0.083380396125151954 0 0.29509088923676852 -0.099876680197543491 0 0.28071673751799042 -0.096322982461688411 0 0.29805817555561742 -0.07951482503662749 0 0.28458233987840093 -0.083380396125151954 0 0.29509088923676852 -0.099876680197543491 0 0.29805817555561742 -0.07951482503662749 0 0.30187004918913468 -0.056018325725983767 0 0.28579677450952712 -0.057300255162757698 0 0.29805817555561742 -0.07951482503662749 0 0.28579677450952712 -0.057300255162757698 0 0.29805817555561742 -0.07951482503662749 0 0.28016774588269411 -0.070146666692631698 0 0.28579677450952712 -0.057300255162757698 0 0.29805817555561742 -0.07951482503662749 0 0.28458233987840093 -0.083380396125151954 0 0.28016774588269411 -0.070146666692631698 0 0.31221426938746211 -0.1182129215781299 0 0.29808506217847702 -0.11470165816320139 0 0.31545338683896401 -0.13308033386471399 0 0.29808506217847702 -0.11470165816320139 0 0.31545338683896401 -0.13308033386471399 0 0.29808506217847702 -0.11470165816320139 0 0.29328623084032529 -0.1241216046803366 0 0.30113348233893561 -0.129136989373133 0 0.3186944865266188 -0.10650654576304799 0 0.31221426938746211 -0.1182129215781299 0 0.30652138471649459 -0.1120003450016723 0 0.31221426938746211 -0.1182129215781299 0 0.30652138471649459 -0.1120003450016723 0 0.29808506217847702 -0.11470165816320139 0 0.29805817555561742 -0.07951482503662749 0 0.30901490466769738 -0.1035002868245144 0 0.29509088923676852 -0.099876680197543491 0 0.30652138471649459 -0.1120003450016723 0 0.29808506217847702 -0.11470165816320139 0 0.29509088923676852 -0.099876680197543491 0 0.30652138471649459 -0.1120003450016723 0 0.30901490466769738 -0.1035002868245144 0 0.29509088923676852 -0.099876680197543491 0 0.3186944865266188 -0.10650654576304799 0 0.30652138471649459 -0.1120003450016723 0 0.30901490466769738 -0.1035002868245144 0 0.29808506217847702 -0.11470165816320139 0 0.29084577138066831 -0.1138352869609834 0 0.28071673751799042 -0.096322982461688411 0 0.29808506217847702 -0.11470165816320139 0 0.28071673751799042 -0.096322982461688411 0 0.29084577138066831 -0.1138352869609834 0 0.27732934068518322 -0.11372835211354659 0 0.28071673751799042 -0.096322982461688411 0 0.29808506217847702 -0.11470165816320139 0 0.29509088923676852 -0.099876680197543491 0 0.28071673751799042 -0.096322982461688411 0 0.29084577138066831 -0.1138352869609834 0 0.28071673751799042 -0.096322982461688411 0 0.29084577138066831 -0.1138352869609834 0 0.28508034116868641 -0.12002919301770371 0 0.27732934068518322 -0.11372835211354659 0 0.28508034116868641 -0.12002919301770371 0 0.29328623084032529 -0.1241216046803366 0 0.27902874049906518 -0.12742090506804121 0 0.29084577138066831 -0.1138352869609834 0 0.28508034116868641 -0.12002919301770371 0 0.29328623084032529 -0.1241216046803366 0 0.29808506217847702 -0.11470165816320139 0 0.29084577138066831 -0.1138352869609834 0 0.29328623084032529 -0.1241216046803366 0 0.28508034116868641 -0.12002919301770371 0 0.27732934068518322 -0.11372835211354659 0 0.27902874049906518 -0.12742090506804121 0 0.26635414199029411 -0.1188400260701749 0 0.27732934068518322 -0.11372835211354659 0 0.27902874049906518 -0.12742090506804121 0 0.26635414199029411 -0.1188400260701749 0 0.27732934068518322 -0.11372835211354659 0 0.26662095263023278 -0.1046447483532697 0 0.28071673751799042 -0.096322982461688411 0 0.26662095263023278 -0.1046447483532697 0 0.2631894840228482 -0.09132396833477438 0 0.27732934068518322 -0.11372835211354659 0 0.28071673751799042 -0.096322982461688411 0 0.26662095263023278 -0.1046447483532697 0 0.26662095263023278 -0.1046447483532697 0 0.25550936174494199 -0.098310443576828985 0 0.2631894840228482 -0.09132396833477438 0 0.25550936174494199 -0.098310443576828985 0 0.25572797017110382 -0.109937385370313 0 0.24617848514840879 -0.10392773958876669 0 0.26662095263023278 -0.1046447483532697 0 0.25550936174494199 -0.098310443576828985 0 0.25572797017110382 -0.109937385370313 0 0.26635414199029411 -0.1188400260701749 0 0.26662095263023278 -0.1046447483532697 0 0.25572797017110382 -0.109937385370313 0 0.25572797017110382 -0.109937385370313 0 0.25258971186482732 -0.12280835053062091 0 0.24605030955152241 -0.11391659394298111 0 0.26635414199029411 -0.1188400260701749 0 0.25258971186482732 -0.12280835053062091 0 0.26508477269822439 -0.13202406717537299 0 0.26635414199029411 -0.1188400260701749 0 0.25572797017110382 -0.109937385370313 0 0.25258971186482732 -0.12280835053062091 0 0.27049752166796692 -0.068895260398932262 0 0.27051310766451703 -0.0786817073495054 0 0.26030947781104358 -0.061040432237322341 0 0.2685127383389605 -0.063066495602015979 0 0.28016774588269411 -0.070146666692631698 0 0.28579677450952712 -0.057300255162757698 0 0.2685127383389605 -0.063066495602015979 0 0.27049752166796692 -0.068895260398932262 0 0.26030947781104358 -0.061040432237322341 0 0.2685127383389605 -0.063066495602015979 0 0.27049752166796692 -0.068895260398932262 0 0.28016774588269411 -0.070146666692631698 0 0.28458233987840093 -0.083380396125151954 0 0.28016774588269411 -0.070146666692631698 0 0.27051310766451703 -0.0786817073495054 0 0.27049752166796692 -0.068895260398932262 0 0.28016774588269411 -0.070146666692631698 0 0.27051310766451703 -0.0786817073495054 0 0.28071673751799042 -0.096322982461688411 0 0.27051310766451703 -0.0786817073495054 0 0.28071673751799042 -0.096322982461688411 0 0.27051310766451703 -0.0786817073495054 0 0.26446812482508941 -0.079129154667709881 0 0.28071673751799042 -0.096322982461688411 0 0.26446812482508941 -0.079129154667709881 0 0.28458233987840093 -0.083380396125151954 0 0.28071673751799042 -0.096322982461688411 0 0.27051310766451703 -0.0786817073495054 0 0.28071673751799042 -0.096322982461688411 0 0.26446812482508941 -0.079129154667709881 0 0.2631894840228482 -0.09132396833477438 0 0.26446812482508941 -0.079129154667709881 0 0.2631894840228482 -0.09132396833477438 0 0.25767889695598462 -0.08243201397259789 0 0.26446812482508941 -0.079129154667709881 0 0.25767889695598462 -0.08243201397259789 0 0.25823412527243628 -0.076119000600218062 0 0.2631894840228482 -0.09132396833477438 0 0.25258155346446631 -0.086891950456372949 0 0.25767889695598462 -0.08243201397259789 0 0.25550936174494199 -0.098310443576828985 0 0.25258155346446631 -0.086891950456372949 0 0.24596652986288989 -0.094965661132552989 0 0.25550936174494199 -0.098310443576828985 0 0.2631894840228482 -0.09132396833477438 0 0.25258155346446631 -0.086891950456372949 0 0.25767889695598462 -0.08243201397259789 0 0.25823412527243628 -0.076119000600218062 0 0.24956525484064351 -0.078555741640626744 0 0.25258155346446631 -0.086891950456372949 0 0.25767889695598462 -0.08243201397259789 0 0.24956525484064351 -0.078555741640626744 0 0.27051310766451703 -0.0786817073495054 0 0.26030947781104358 -0.061040432237322341 0 0.25309775576048582 -0.072220830368008013 0 0.25823412527243628 -0.076119000600218062 0 0.24956525484064351 -0.078555741640626744 0 0.27051310766451703 -0.0786817073495054 0 0.26060526893766212 -0.072238951493237391 0 0.26030947781104358 -0.061040432237322341 0 0.25309775576048582 -0.072220830368008013 0 0.26060526893766212 -0.072238951493237391 0 0.25306768124251872 -0.066703691066638787 0 0.25309775576048582 -0.072220830368008013 0 0.25823412527243628 -0.076119000600218062 0 0.26060526893766212 -0.072238951493237391 0 0.27051310766451703 -0.0786817073495054 0 0.26446812482508941 -0.079129154667709881 0 0.26060526893766212 -0.072238951493237391 0 0.26446812482508941 -0.079129154667709881 0 0.25823412527243628 -0.076119000600218062 0 0.26060526893766212 -0.072238951493237391 0 0.26060526893766212 -0.072238951493237391 0 0.25306768124251872 -0.066703691066638787 0 0.26030947781104358 -0.061040432237322341 0 0.25309775576048582 -0.072220830368008013 0 0.25306768124251872 -0.066703691066638787 0 0.24547647332149511 -0.069836836904294514 0 0.25306768124251872 -0.066703691066638787 0 0.26030947781104358 -0.061040432237322341 0 0.24594979975042949 -0.059694067994732772 0 0.26030947781104358 -0.061040432237322341 0 0.25010584795757029 -0.043399157125139268 0 0.26030947781104358 -0.061040432237322341 0 0.25010584795757029 -0.043399157125139268 0 0.24594979975042949 -0.059694067994732772 0 0.2685127383389605 -0.063066495602015979 0 0.2735353734634387 -0.035085685288886823 0 0.28579677450952712 -0.057300255162757698 0 0.2685127383389605 -0.063066495602015979 0 0.26030947781104358 -0.061040432237322341 0 0.2735353734634387 -0.035085685288886823 0 0.2685127383389605 -0.063066495602015979 0 0.2735353734634387 -0.035085685288886823 0 0.2735353734634387 -0.035085685288886823 0 0.28579677450952712 -0.057300255162757698 0 0.26030947781104358 -0.061040432237322341 0 0.2735353734634387 -0.035085685288886823 0 0.25010584795757029 -0.043399157125139268 0 0.2735353734634387 -0.035085685288886823 0 0.25010584795757029 -0.043399157125139268 0 0.2434765185659564 -0.02412504457924667 0 0.2735353734634387 -0.035085685288886823 0 0.26028157161260368 -0.01107313515672873 0 0.2434765185659564 -0.02412504457924667 0 0.26658426328132101 0.010055963058717501 0 0.26028157161260368 -0.01107313515672873 0 0.27871335316674239 -0.0062394592954499034 0 0.2735353734634387 -0.035085685288886823 0 0.26028157161260368 -0.01107313515672873 0 0.27871335316674239 -0.0062394592954499034 0 0.2735353734634387 -0.035085685288886823 0 0.27871335316674239 -0.0062394592954499034 0 0.2735353734634387 -0.035085685288886823 0 0.27871335316674239 -0.0062394592954499034 0 0.28838229698470852 -0.020329970691225621 0 0.2735353734634387 -0.035085685288886823 0 0.26028157161260368 -0.01107313515672873 0 0.28838229698470852 -0.020329970691225621 0 0.30283100069965491 -0.021612611947454719 0 0.29347059080885762 -0.039209174299601968 0 0.29336116678485102 0.00049707737526639983 0 0.28838229698470852 -0.020329970691225621 0 0.30283100069965491 -0.021612611947454719 0 0.29336116678485102 0.00049707737526639983 0 0.27871335316674239 -0.0062394592954499034 0 0.28838229698470852 -0.020329970691225621 0 0.30835122456981617 0.00077510480041084132 0 0.29336116678485102 0.00049707737526639983 0 0.30283100069965491 -0.021612611947454719 0 0.29336116678485102 0.00049707737526639983 0 0.30283100069965491 -0.021612611947454719 0 0.30835122456981617 0.00077510480041084132 0 0.32134872429562461 -0.0082775216404317939 0 0.30283100069965491 -0.021612611947454719 0 0.31230083461445879 -0.043722301270175852 0 0.30187004918913468 -0.056018325725983767 0 0.29347059080885762 -0.039209174299601968 0 0.30283100069965491 -0.021612611947454719 0 0.31230083461445879 -0.043722301270175852 0 0.30283100069965491 -0.021612611947454719 0 0.31230083461445879 -0.043722301270175852 0 0.29347059080885762 -0.039209174299601968 0 0.3152947619011372 -0.064949764054001324 0 0.31230083461445879 -0.043722301270175852 0 0.30187004918913468 -0.056018325725983767 0 0.30187004918913468 -0.056018325725983767 0 0.28579677450952712 -0.057300255162757698 0 0.29347059080885762 -0.039209174299601968 0 0.2735353734634387 -0.035085685288886823 0 0.28838229698470852 -0.020329970691225621 0 0.29347059080885762 -0.039209174299601968 0 0.2735353734634387 -0.035085685288886823 0 0.28579677450952712 -0.057300255162757698 0 0.29347059080885762 -0.039209174299601968 0 0.29128003018238519 -0.20175248642732391 0 0.29474481191759611 -0.21987517393234751 0 0.2759579984355921 -0.2102686049091044 0 0.29128003018238519 -0.20175248642732391 0 0.27385252884064692 -0.19404787607178781 0 0.29200343705614562 -0.18510048850313629 0 0.29128003018238519 -0.20175248642732391 0 0.30131126743705322 -0.1902343993671114 0 0.29200343705614562 -0.18510048850313629 0 0.29128003018238519 -0.20175248642732391 0 0.30131126743705322 -0.1902343993671114 0 0.31448420389269027 -0.2011058414804584 0 0.30131126743705322 -0.1902343993671114 0 0.30988552188109147 -0.18348268560970471 0 0.31448420389269027 -0.2011058414804584 0 0.29474481191759611 -0.21987517393234751 0 0.31448420389269027 -0.2011058414804584 0 0.29474481191759611 -0.21987517393234751 0 0.31448420389269027 -0.2011058414804584 0 0.31878087208792211 -0.21882367109205031 0 0.29128003018238519 -0.20175248642732391 0 0.29474481191759611 -0.21987517393234751 0 0.31448420389269027 -0.2011058414804584 0 0.29474481191759611 -0.21987517393234751 0 0.31268960433824111 -0.23297493347026149 0 0.31878087208792211 -0.21882367109205031 0 0.29067411227554779 -0.24403405856345761 0 0.29474481191759611 -0.21987517393234751 0 0.31268960433824111 -0.23297493347026149 0 0.29067411227554779 -0.24403405856345761 0 0.31295185665910491 -0.2487046357402711 0 0.29067411227554779 -0.24403405856345761 0 0.31295185665910491 -0.2487046357402711 0 0.31268960433824111 -0.23297493347026149 0 0.29067411227554779 -0.24403405856345761 0 0.29474481191759611 -0.21987517393234751 0 0.27500541994250188 -0.2386445063842367 0 0.29474481191759611 -0.21987517393234751 0 0.27500541994250188 -0.2386445063842367 0 0.29474481191759611 -0.21987517393234751 0 0.27197512151162712 -0.22548159854701069 0 0.27500541994250188 -0.2386445063842367 0 0.27197512151162712 -0.22548159854701069 0 0.26839636789199067 -0.23936348138664409 0 0.26161892227164801 -0.22847709357107429 0 0.29067411227554779 -0.24403405856345761 0 0.26839636789199067 -0.23936348138664409 0 0.27239139279938401 -0.25827070867164342 0 0.29067411227554779 -0.24403405856345761 0 0.26839636789199067 -0.23936348138664409 0 0.29067411227554779 -0.24403405856345761 0 0.27500541994250188 -0.2386445063842367 0 0.26839636789199067 -0.23936348138664409 0 0.27197512151162712 -0.22548159854701069 0 0.27500541994250188 -0.2386445063842367 0 0.26839636789199067 -0.23936348138664409 0 0.26839636789199067 -0.23936348138664409 0 0.24611862350843269 -0.23469290420983491 0 0.26839636789199067 -0.23936348138664409 0 0.25459827700782978 -0.25420491646283988 0 0.24611862350843269 -0.23469290420983491 0 0.25998557617454049 -0.2143703901408118 0 0.24611862350843269 -0.23469290420983491 0 0.26839636789199067 -0.23936348138664409 0 0.26161892227164801 -0.22847709357107429 0 0.24611862350843269 -0.23469290420983491 0 0.26161892227164801 -0.22847709357107429 0 0.25998557617454049 -0.2143703901408118 0 0.24611862350843269 -0.23469290420983491 0 0.27197512151162712 -0.22548159854701069 0 0.26161892227164801 -0.22847709357107429 0 0.25998557617454049 -0.2143703901408118 0 0.25998557617454049 -0.2143703901408118 0 0.25248293686829648 -0.20086366113063539 0 0.2420707897744904 -0.21192296407560471 0 0.25998557617454049 -0.2143703901408118 0 0.27385252884064692 -0.19404787607178781 0 0.29474481191759611 -0.21987517393234751 0 0.27197512151162712 -0.22548159854701069 0 0.2759579984355921 -0.2102686049091044 0 0.27197512151162712 -0.22548159854701069 0 0.25998557617454049 -0.2143703901408118 0 0.2759579984355921 -0.2102686049091044 0 0.25998557617454049 -0.2143703901408118 0 0.2759579984355921 -0.2102686049091044 0 0.27385252884064692 -0.19404787607178781 0 0.29128003018238519 -0.20175248642732391 0 0.2759579984355921 -0.2102686049091044 0 0.27385252884064692 -0.19404787607178781 0 0.25998557617454049 -0.2143703901408118 0 0.27385252884064692 -0.19404787607178781 0 0.25248293686829648 -0.20086366113063539 0 0.27385252884064692 -0.19404787607178781 0 0.25248293686829648 -0.20086366113063539 0 0.24671845295456821 -0.18489455311555009 0 0.27385252884064692 -0.19404787607178781 0 0.25836943801988149 -0.1721600829543844 0 0.24671845295456821 -0.18489455311555009 0 0.25836943801988149 -0.1721600829543844 0 0.26573390519004081 -0.15132092015394721 0 0.24023735862829851 -0.16282264027858931 0 0.25836943801988149 -0.1721600829543844 0 0.27401025735437218 -0.17138342085754019 0 0.26573390519004081 -0.15132092015394721 0 0.26573390519004081 -0.15132092015394721 0 0.288728589648798 -0.16749736095756429 0 0.27401025735437218 -0.17138342085754019 0 0.26573390519004081 -0.15132092015394721 0 0.288728589648798 -0.16749736095756429 0 0.27385252884064692 -0.19404787607178781 0 0.25836943801988149 -0.1721600829543844 0 0.27401025735437218 -0.17138342085754019 0 0.27385252884064692 -0.19404787607178781 0 0.28771948150675342 -0.1737253620027637 0 0.27385252884064692 -0.19404787607178781 0 0.27401025735437218 -0.17138342085754019 0 0.28771948150675342 -0.1737253620027637 0 0.26508477269822439 -0.13202406717537299 0 0.26573390519004081 -0.15132092015394721 0 0.24273922073128351 -0.13514447935033019 0 0.25258971186482732 -0.12280835053062091 0 0.26508477269822439 -0.13202406717537299 0 0.24273922073128351 -0.13514447935033019 0 0.26573390519004081 -0.15132092015394721 0 0.24273922073128351 -0.13514447935033019 0 0.26573390519004081 -0.15132092015394721 0 0.27568657479397152 -0.13995490128272881 0 0.28495825463050112 -0.14969564349234549 0 0.26573390519004081 -0.15132092015394721 0 0.28495825463050112 -0.14969564349234549 0 0.288728589648798 -0.16749736095756429 0 0.26508477269822439 -0.13202406717537299 0 0.26573390519004081 -0.15132092015394721 0 0.27568657479397152 -0.13995490128272881 0 0.26508477269822439 -0.13202406717537299 0 0.27568657479397152 -0.13995490128272881 0 0.27902874049906518 -0.12742090506804121 0 0.26635414199029411 -0.1188400260701749 0 0.26508477269822439 -0.13202406717537299 0 0.27902874049906518 -0.12742090506804121 0 0.27568657479397152 -0.13995490128272881 0 0.27902874049906518 -0.12742090506804121 0 0.29305576934683519 -0.13630218713374759 0 0.29328623084032529 -0.1241216046803366 0 0.29305576934683519 -0.13630218713374759 0 0.30113348233893561 -0.129136989373133 0 0.29328623084032529 -0.1241216046803366 0 0.27902874049906518 -0.12742090506804121 0 0.29305576934683519 -0.13630218713374759 0 0.29305576934683519 -0.13630218713374759 0 0.28495825463050112 -0.14969564349234549 0 0.3015864341728598 -0.15340284793373959 0 0.27568657479397152 -0.13995490128272881 0 0.29305576934683519 -0.13630218713374759 0 0.28495825463050112 -0.14969564349234549 0 0.3015864341728598 -0.15340284793373959 0 0.30280726817439862 -0.1379805895763335 0 0.31545338683896401 -0.13308033386471399 0 0.29305576934683519 -0.13630218713374759 0 0.3015864341728598 -0.15340284793373959 0 0.30280726817439862 -0.1379805895763335 0 0.3015864341728598 -0.15340284793373959 0 0.31860617051346429 -0.13641652142703581 0 0.31545338683896401 -0.13308033386471399 0 0.3015864341728598 -0.15340284793373959 0 0.3108128744834765 -0.16230216704460559 0 0.31811892251866908 -0.15284508409120201 0 0.3015864341728598 -0.15340284793373959 0 0.31545338683896401 -0.13308033386471399 0 0.29808506217847702 -0.11470165816320139 0 0.30113348233893561 -0.129136989373133 0 0.31545338683896401 -0.13308033386471399 0 0.29305576934683519 -0.13630218713374759 0 0.30280726817439862 -0.1379805895763335 0 0.30113348233893561 -0.129136989373133 0 0.30280726817439862 -0.1379805895763335 0 0.30113348233893561 -0.129136989373133 0 0.31545338683896401 -0.13308033386471399 0 0.27385252884064692 -0.19404787607178781 0 0.29200343705614562 -0.18510048850313629 0 0.28771948150675342 -0.1737253620027637 0 0.29200343705614562 -0.18510048850313629 0 0.28771948150675342 -0.1737253620027637 0 0.2968400314477263 -0.170817964424924 0 0.29200343705614562 -0.18510048850313629 0 0.2968400314477263 -0.170817964424924 0 0.30101728292230878 -0.1800248427249074 0 0.27401025735437218 -0.17138342085754019 0 0.28771948150675342 -0.1737253620027637 0 0.288728589648798 -0.16749736095756429 0 0.3015864341728598 -0.15340284793373959 0 0.28771948150675342 -0.1737253620027637 0 0.288728589648798 -0.16749736095756429 0 0.28495825463050112 -0.14969564349234549 0 0.3015864341728598 -0.15340284793373959 0 0.288728589648798 -0.16749736095756429 0 0.3015864341728598 -0.15340284793373959 0 0.28771948150675342 -0.1737253620027637 0 0.2968400314477263 -0.170817964424924 0 0.3015864341728598 -0.15340284793373959 0 0.28771948150675342 -0.1737253620027637 0 0.3015864341728598 -0.15340284793373959 0 0.2968400314477263 -0.170817964424924 0 0.3037873468882023 -0.1647310268576678 0 0.2968400314477263 -0.170817964424924 0 0.3037873468882023 -0.1647310268576678 0 0.30591004744874678 -0.1724011280274021 0 0.3015864341728598 -0.15340284793373959 0 0.3037873468882023 -0.1647310268576678 0 0.3108128744834765 -0.16230216704460559 0 0.3037873468882023 -0.1647310268576678 0 0.3108128744834765 -0.16230216704460559 0 0.30591004744874678 -0.1724011280274021 0 0.3108128744834765 -0.16230216704460559 0 0.30591004744874678 -0.1724011280274021 0 0.31457463999610907 -0.17460579082853869 0 0.30591004744874678 -0.1724011280274021 0 0.30988552188109147 -0.18348268560970471 0 0.31457463999610907 -0.17460579082853869 0 0.30591004744874678 -0.1724011280274021 0 0.30101728292230878 -0.1800248427249074 0 0.30988552188109147 -0.18348268560970471 0 0.2968400314477263 -0.170817964424924 0 0.30591004744874678 -0.1724011280274021 0 0.30101728292230878 -0.1800248427249074 0 0.30131126743705322 -0.1902343993671114 0 0.29200343705614562 -0.18510048850313629 0 0.30101728292230878 -0.1800248427249074 0 0.30131126743705322 -0.1902343993671114 0 0.30101728292230878 -0.1800248427249074 0 0.30988552188109147 -0.18348268560970471 0 0.30988552188109147 -0.18348268560970471 0 0.322013978323207 -0.18199297824854949 0 0.31457463999610907 -0.17460579082853869 0 0.322013978323207 -0.18199297824854949 0 0.31457463999610907 -0.17460579082853869 0 0.31996651871090459 -0.16569267451851391 0 0.322013978323207 -0.18199297824854949 0 0.31996651871090459 -0.16569267451851391 0 0.33360890259734238 -0.15662826785265879 0 0.322013978323207 -0.18199297824854949 0 0.33360890259734238 -0.15662826785265879 0 0.3108128744834765 -0.16230216704460559 0 0.31457463999610907 -0.17460579082853869 0 0.31996651871090459 -0.16569267451851391 0 0.3108128744834765 -0.16230216704460559 0 0.31996651871090459 -0.16569267451851391 0 0.31811892251866908 -0.15284508409120201 0 0.31996651871090459 -0.16569267451851391 0 0.33360890259734238 -0.15662826785265879 0 0.31811892251866908 -0.15284508409120201 0 0.33360890259734238 -0.15662826785265879 0 0.3342235958677845 -0.18233650902856921 0 0.35396298784287872 -0.16356717657667999 0 0.322013978323207 -0.18199297824854949 0 0.33360890259734238 -0.15662826785265879 0 0.3342235958677845 -0.18233650902856921 0 0.32629719089327519 -0.1171883519879711 0 0.31545338683896401 -0.13308033386471399 0 0.32629719089327519 -0.1171883519879711 0 0.31545338683896401 -0.13308033386471399 0 0.32959244510166852 -0.12901246947716399 0 0.31860617051346429 -0.13641652142703581 0 0.31545338683896401 -0.13308033386471399 0 0.31860617051346429 -0.13641652142703581 0 0.32940590031229361 -0.1417720140460485 0 0.32959244510166852 -0.12901246947716399 0 0.31860617051346429 -0.13641652142703581 0 0.31545338683896401 -0.13308033386471399 0 0.32959244510166852 -0.12901246947716399 0 0.31860617051346429 -0.13641652142703581 0 0.31811892251866908 -0.15284508409120201 0 0.32940590031229361 -0.1417720140460485 0 0.3015864341728598 -0.15340284793373959 0 0.31860617051346429 -0.13641652142703581 0 0.31811892251866908 -0.15284508409120201 0 0.33360890259734238 -0.15662826785265879 0 0.31811892251866908 -0.15284508409120201 0 0.32940590031229361 -0.1417720140460485 0 0.33360890259734238 -0.15662826785265879 0 0.34520382687147788 -0.13126355745676829 0 0.34982679160315328 -0.148472301573563 0 0.33360890259734238 -0.15662826785265879 0 0.34520382687147788 -0.13126355745676829 0 0.33360890259734238 -0.15662826785265879 0 0.32940590031229361 -0.1417720140460485 0 0.34520382687147788 -0.13126355745676829 0 0.34155872130262921 -0.1151202034054806 0 0.32959244510166852 -0.12901246947716399 0 0.34520382687147788 -0.13126355745676829 0 0.32940590031229361 -0.1417720140460485 0 0.32959244510166852 -0.12901246947716399 0 0.34520382687147788 -0.13126355745676829 0 0.33360890259734238 -0.15662826785265879 0 0.34982679160315328 -0.148472301573563 0 0.35396298784287872 -0.16356717657667999 0 0.34982679160315328 -0.148472301573563 0 0.37370237981797289 -0.14479784412479091 0 0.35396298784287872 -0.16356717657667999 0 0.34520382687147788 -0.13126355745676829 0 0.34982679160315328 -0.148472301573563 0 0.37370237981797289 -0.14479784412479091 0 0.37370237981797289 -0.14479784412479091 0 0.35396298784287872 -0.16356717657667999 0 0.37001289064690768 -0.12225401689685619 0 0.34520382687147788 -0.13126355745676829 0 0.37370237981797289 -0.14479784412479091 0 0.3342235958677845 -0.18233650902856921 0 0.35578381408876869 -0.17945190487853041 0 0.34575508831058011 -0.19058341142265789 0 0.3342235958677845 -0.18233650902856921 0 0.35396298784287872 -0.16356717657667999 0 0.3342235958677845 -0.18233650902856921 0 0.35578381408876869 -0.17945190487853041 0 0.35396298784287872 -0.16356717657667999 0 0.35578381408876869 -0.17945190487853041 0 0.35396298784287872 -0.16356717657667999 0 0.3717399787246346 -0.16556008414903869 0 0.37370237981797289 -0.14479784412479091 0 0.35396298784287872 -0.16356717657667999 0 0.3717399787246346 -0.16556008414903869 0 0.35578381408876869 -0.17945190487853041 0 0.3717399787246346 -0.16556008414903869 0 0.37009438535757161 -0.18200890877027959 0 0.35578381408876869 -0.17945190487853041 0 0.37009438535757161 -0.18200890877027959 0 0.36066616707521942 -0.19274674711500581 0 0.37009438535757161 -0.18200890877027959 0 0.36066616707521942 -0.19274674711500581 0 0.37772672788642969 -0.1967675717695232 0 0.36066616707521942 -0.19274674711500581 0 0.36402102088664839 -0.20508304160022309 0 0.37772672788642969 -0.1967675717695232 0 0.36066616707521942 -0.19274674711500581 0 0.36402102088664839 -0.20508304160022309 0 0.35456334593461281 -0.20388825380293829 0 0.37277952709006129 -0.21684256409322089 0 0.36402102088664839 -0.20508304160022309 0 0.37772672788642969 -0.1967675717695232 0 0.37277952709006129 -0.21684256409322089 0 0.36402102088664839 -0.20508304160022309 0 0.35864773094446711 -0.21393764258773351 0 0.35456334593461281 -0.20388825380293829 0 0.34575508831058011 -0.19058341142265789 0 0.34372672245614871 -0.2170904262890711 0 0.34575508831058011 -0.19058341142265789 0 0.34372672245614871 -0.2170904262890711 0 0.35864773094446711 -0.21393764258773351 0 0.35456334593461281 -0.20388825380293829 0 0.34372672245614871 -0.2170904262890711 0 0.36402102088664839 -0.20508304160022309 0 0.35864773094446711 -0.21393764258773351 0 0.35456334593461281 -0.20388825380293829 0 0.35578381408876869 -0.17945190487853041 0 0.36066616707521942 -0.19274674711500581 0 0.34575508831058011 -0.19058341142265789 0 0.36066616707521942 -0.19274674711500581 0 0.35456334593461281 -0.20388825380293829 0 0.34575508831058011 -0.19058341142265789 0 0.34575508831058011 -0.19058341142265789 0 0.33290507268217873 -0.19636576427491931 0 0.3326413851286481 -0.21045437581162971 0 0.3342235958677845 -0.18233650902856921 0 0.34575508831058011 -0.19058341142265789 0 0.33290507268217873 -0.19636576427491931 0 0.34575508831058011 -0.19058341142265789 0 0.34372672245614871 -0.2170904262890711 0 0.3326413851286481 -0.21045437581162971 0 0.34372672245614871 -0.2170904262890711 0 0.3326413851286481 -0.21045437581162971 0 0.34372672245614871 -0.2170904262890711 0 0.3326413851286481 -0.21045437581162971 0 0.33175703775476001 -0.22065975896100479 0 0.3326413851286481 -0.21045437581162971 0 0.31448420389269027 -0.2011058414804584 0 0.31878087208792211 -0.21882367109205031 0 0.3326413851286481 -0.21045437581162971 0 0.31878087208792211 -0.21882367109205031 0 0.33175703775476001 -0.22065975896100479 0 0.322013978323207 -0.18199297824854949 0 0.3342235958677845 -0.18233650902856921 0 0.31448420389269027 -0.2011058414804584 0 0.30988552188109147 -0.18348268560970471 0 0.322013978323207 -0.18199297824854949 0 0.31448420389269027 -0.2011058414804584 0 0.33290507268217873 -0.19636576427491931 0 0.3326413851286481 -0.21045437581162971 0 0.31448420389269027 -0.2011058414804584 0 0.3342235958677845 -0.18233650902856921 0 0.31448420389269027 -0.2011058414804584 0 0.3342235958677845 -0.18233650902856921 0 0.33290507268217873 -0.19636576427491931 0 0.31448420389269027 -0.2011058414804584 0 0.31295185665910491 -0.2487046357402711 0 0.32779996720901339 -0.24057586442072201 0 0.31268960433824111 -0.23297493347026149 0 0.31295185665910491 -0.2487046357402711 0 0.32779996720901339 -0.24057586442072201 0 0.33522960104266208 -0.25337521291708431 0 0.31268960433824111 -0.23297493347026149 0 0.31878087208792211 -0.21882367109205031 0 0.32745032047819661 -0.22891588353176959 0 0.31878087208792211 -0.21882367109205031 0 0.32745032047819661 -0.22891588353176959 0 0.33175703775476001 -0.22065975896100479 0 0.32779996720901339 -0.24057586442072201 0 0.31268960433824111 -0.23297493347026149 0 0.32745032047819661 -0.22891588353176959 0 0.34372672245614871 -0.2170904262890711 0 0.34166105558213938 -0.24408489694570171 0 0.32745032047819661 -0.22891588353176959 0 0.33618588862288479 -0.22801443808050359 0 0.33377421168717819 -0.23480589096929619 0 0.34372672245614871 -0.2170904262890711 0 0.34166105558213938 -0.24408489694570171 0 0.34530501137950059 -0.23882115753256589 0 0.34372672245614871 -0.2170904262890711 0 0.33618588862288479 -0.22801443808050359 0 0.34166105558213938 -0.24408489694570171 0 0.32745032047819661 -0.22891588353176959 0 0.33175703775476001 -0.22065975896100479 0 0.33618588862288479 -0.22801443808050359 0 0.34372672245614871 -0.2170904262890711 0 0.33175703775476001 -0.22065975896100479 0 0.33618588862288479 -0.22801443808050359 0 0.33618588862288479 -0.22801443808050359 0 0.33377421168717819 -0.23480589096929619 0 0.34166105558213938 -0.24408489694570171 0 0.34166105558213938 -0.24408489694570171 0 0.34530501137950059 -0.23882115753256589 0 0.32779996720901339 -0.24057586442072201 0 0.32745032047819661 -0.22891588353176959 0 0.33377421168717819 -0.23480589096929619 0 0.32779996720901339 -0.24057586442072201 0 0.33377421168717819 -0.23480589096929619 0 0.34166105558213938 -0.24408489694570171 0 0.32779996720901339 -0.24057586442072201 0 0.34166105558213938 -0.24408489694570171 0 0.33522960104266208 -0.25337521291708431 0 0.34166105558213938 -0.24408489694570171 0 0.34827194410883477 -0.24962947829423141 0 0.34085981799452653 -0.25455560004888428 0 0.34166105558213938 -0.24408489694570171 0 0.33522960104266208 -0.25337521291708431 0 0.34166105558213938 -0.24408489694570171 0 0.34085981799452653 -0.25455560004888428 0 0.34827194410883477 -0.24962947829423141 0 0.34869784867717718 -0.24371515388954229 0 0.35416600398950149 -0.2473491277707037 0 0.34166105558213938 -0.24408489694570171 0 0.34869784867717718 -0.24371515388954229 0 0.34530501137950059 -0.23882115753256589 0 0.34166105558213938 -0.24408489694570171 0 0.34827194410883477 -0.24962947829423141 0 0.34869784867717718 -0.24371515388954229 0 0.34869784867717718 -0.24371515388954229 0 0.34530501137950059 -0.23882115753256589 0 0.35408522832591011 -0.23869110890450901 0 0.34530501137950059 -0.23882115753256589 0 0.35408522832591011 -0.23869110890450901 0 0.35130309513242958 -0.23067230735836941 0 0.35408522832591011 -0.23869110890450901 0 0.35416600398950149 -0.2473491277707037 0 0.36623137691718621 -0.24612340234968069 0 0.34869784867717718 -0.24371515388954229 0 0.35408522832591011 -0.23869110890450901 0 0.35416600398950149 -0.2473491277707037 0 0.34372672245614871 -0.2170904262890711 0 0.34530501137950059 -0.23882115753256589 0 0.35130309513242958 -0.23067230735836941 0 0.34372672245614871 -0.2170904262890711 0 0.35130309513242958 -0.23067230735836941 0 0.36209541836815901 -0.22808653670733151 0 0.35864773094446711 -0.21393764258773351 0 0.34372672245614871 -0.2170904262890711 0 0.36209541836815901 -0.22808653670733151 0 0.34372672245614871 -0.2170904262890711 0 0.36209541836815901 -0.22808653670733151 0 0.35408522832591011 -0.23869110890450901 0 0.35130309513242958 -0.23067230735836941 0 0.36209541836815901 -0.22808653670733151 0 0.37277952709006129 -0.21684256409322089 0 0.36209541836815901 -0.22808653670733151 0 0.38046411428016919 -0.23908264712559241 0 0.36209541836815901 -0.22808653670733151 0 0.38046411428016919 -0.23908264712559241 0 0.37277952709006129 -0.21684256409322089 0 0.35864773094446711 -0.21393764258773351 0 0.36209541836815901 -0.22808653670733151 0 0.36209541836815901 -0.22808653670733151 0 0.36623137691718621 -0.24612340234968069 0 0.38046411428016919 -0.23908264712559241 0 0.35408522832591011 -0.23869110890450901 0 0.36209541836815901 -0.22808653670733151 0 0.36623137691718621 -0.24612340234968069 0 0.38046411428016919 -0.23908264712559241 0 0.38321218571859827 -0.25330458634709963 0 0.39883281019217942 -0.25007875754385311 0 0.36623137691718621 -0.24612340234968069 0 0.38046411428016919 -0.23908264712559241 0 0.38321218571859827 -0.25330458634709963 0 0.38046411428016919 -0.23908264712559241 0 0.39883281019217942 -0.25007875754385311 0 0.38046411428016919 -0.23908264712559241 0 0.407746097856374 -0.23061072207108499 0 0.39883281019217942 -0.25007875754385311 0 0.38046411428016919 -0.23908264712559241 0 0.39049535336539631 -0.2133608952969388 0 0.407746097856374 -0.23061072207108499 0 0.37277952709006129 -0.21684256409322089 0 0.38046411428016919 -0.23908264712559241 0 0.39049535336539631 -0.2133608952969388 0 0.37277952709006129 -0.21684256409322089 0 0.39049535336539631 -0.2133608952969388 0 0.37772672788642969 -0.1967675717695232 0 0.39049535336539631 -0.2133608952969388 0 0.37772672788642969 -0.1967675717695232 0 0.40117756879425109 -0.18920379736119219 0 0.37772672788642969 -0.1967675717695232 0 0.40117756879425109 -0.18920379736119219 0 0.38544817876834858 -0.17771686223228661 0 0.39049535336539631 -0.2133608952969388 0 0.40117756879425109 -0.18920379736119219 0 0.40765264290954961 -0.21043221442868279 0 0.39049535336539631 -0.2133608952969388 0 0.40765264290954961 -0.21043221442868279 0 0.407746097856374 -0.23061072207108499 0 0.40765264290954961 -0.21043221442868279 0 0.42415753945052681 -0.20454219671901849 0 0.42621901867621792 -0.22293896351684911 0 0.40117756879425109 -0.18920379736119219 0 0.42415753945052681 -0.20454219671901849 0 0.40117756879425109 -0.18920379736119219 0 0.40765264290954961 -0.21043221442868279 0 0.42415753945052681 -0.20454219671901849 0 0.40117756879425109 -0.18920379736119219 0 0.42415753945052681 -0.20454219671901849 0 0.424121299687027 -0.17835862894423671 0 0.42415753945052681 -0.20454219671901849 0 0.424121299687027 -0.17835862894423671 0 0.44402699351307562 -0.19452790934892089 0 0.42415753945052681 -0.20454219671901849 0 0.42621901867621792 -0.22293896351684911 0 0.44713751010680219 -0.21988059607684471 0 0.42415753945052681 -0.20454219671901849 0 0.44713751010680219 -0.21988059607684471 0 0.42621901867621792 -0.22293896351684911 0 0.42860292956935092 -0.2417180878668071 0 0.44713751010680219 -0.21988059607684471 0 0.42860292956935092 -0.2417180878668071 0 0.45029837128493749 -0.24639577695204529 0 0.43302317439326049 -0.26092671332752532 0 0.407746097856374 -0.23061072207108499 0 0.39883281019217942 -0.25007875754385311 0 0.41556641988521709 -0.25523272671780151 0 0.42860292956935092 -0.2417180878668071 0 0.407746097856374 -0.23061072207108499 0 0.41556641988521709 -0.25523272671780151 0 0.40765264290954961 -0.21043221442868279 0 0.42621901867621792 -0.22293896351684911 0 0.407746097856374 -0.23061072207108499 0 0.42621901867621792 -0.22293896351684911 0 0.42860292956935092 -0.2417180878668071 0 0.407746097856374 -0.23061072207108499 0 0.41062449399306511 -0.11863724031850111 0 0.40279000816415911 -0.1233975584275331 0 0.4035612988060378 -0.13430036114661281 0 0.4035612988060378 -0.13430036114661281 0 0.39344177179306539 -0.12602851167290011 0 0.40224658895958781 -0.1420205315086556 0 0.39115576827819171 -0.13898020463174071 0 0.39344177179306539 -0.12602851167290011 0 0.40224658895958781 -0.1420205315086556 0 0.39344177179306539 -0.12602851167290011 0 0.40224658895958781 -0.1420205315086556 0 0.40279000816415911 -0.1233975584275331 0 0.4035612988060378 -0.13430036114661281 0 0.39344177179306539 -0.12602851167290011 0 0.4035612988060378 -0.13430036114661281 0 0.40224658895958781 -0.1420205315086556 0 0.40916763466295381 -0.13836208764106619 0 0.37001289064690768 -0.12225401689685619 0 0.37370237981797289 -0.14479784412479091 0 0.39344177179306539 -0.12602851167290011 0 0.37370237981797289 -0.14479784412479091 0 0.39344177179306539 -0.12602851167290011 0 0.37370237981797289 -0.14479784412479091 0 0.39115576827819171 -0.13898020463174071 0 0.39344177179306539 -0.12602851167290011 0 0.37370237981797289 -0.14479784412479091 0 0.39115576827819171 -0.13898020463174071 0 0.39126694552298269 -0.14729430649047809 0 0.37370237981797289 -0.14479784412479091 0 0.39126694552298269 -0.14729430649047809 0 0.38679215375334591 -0.15961105409604859 0 0.39126694552298269 -0.14729430649047809 0 0.39891621071526451 -0.1551142639873104 0 0.38679215375334591 -0.15961105409604859 0 0.40224658895958781 -0.1420205315086556 0 0.39891621071526451 -0.1551142639873104 0 0.41105140612611057 -0.15801255134441081 0 0.39126694552298269 -0.14729430649047809 0 0.40224658895958781 -0.1420205315086556 0 0.39891621071526451 -0.1551142639873104 0 0.39115576827819171 -0.13898020463174071 0 0.39126694552298269 -0.14729430649047809 0 0.40224658895958781 -0.1420205315086556 0 0.39891621071526451 -0.1551142639873104 0 0.40113744080714098 -0.17146213920194281 0 0.38679215375334591 -0.15961105409604859 0 0.40113744080714098 -0.17146213920194281 0 0.38679215375334591 -0.15961105409604859 0 0.38544817876834858 -0.17771686223228661 0 0.39891621071526451 -0.1551142639873104 0 0.40113744080714098 -0.17146213920194281 0 0.41105140612611057 -0.15801255134441081 0 0.3717399787246346 -0.16556008414903869 0 0.38679215375334591 -0.15961105409604859 0 0.38544817876834858 -0.17771686223228661 0 0.37370237981797289 -0.14479784412479091 0 0.3717399787246346 -0.16556008414903869 0 0.38679215375334591 -0.15961105409604859 0 0.37009438535757161 -0.18200890877027959 0 0.37772672788642969 -0.1967675717695232 0 0.38544817876834858 -0.17771686223228661 0 0.3717399787246346 -0.16556008414903869 0 0.37009438535757161 -0.18200890877027959 0 0.38544817876834858 -0.17771686223228661 0 0.40117756879425109 -0.18920379736119219 0 0.40113744080714098 -0.17146213920194281 0 0.38544817876834858 -0.17771686223228661 0 0.40117756879425109 -0.18920379736119219 0 0.40113744080714098 -0.17146213920194281 0 0.424121299687027 -0.17835862894423671 0 0.424121299687027 -0.17835862894423671 0 0.43161388081959451 -0.156402509562443 0 0.45444520158041052 -0.17293866945759159 0 0.424121299687027 -0.17835862894423671 0 0.43161388081959451 -0.156402509562443 0 0.41105140612611057 -0.15801255134441081 0 0.40113744080714098 -0.17146213920194281 0 0.424121299687027 -0.17835862894423671 0 0.41105140612611057 -0.15801255134441081 0 0.40224658895958781 -0.1420205315086556 0 0.41105140612611057 -0.15801255134441081 0 0.40224658895958781 -0.1420205315086556 0 0.41105140612611057 -0.15801255134441081 0 0.41629839866100482 -0.14470381586188369 0 0.43161388081959451 -0.156402509562443 0 0.41105140612611057 -0.15801255134441081 0 0.41629839866100482 -0.14470381586188369 0 0.40224658895958781 -0.1420205315086556 0 0.41629839866100482 -0.14470381586188369 0 0.40916763466295381 -0.13836208764106619 0 0.43161388081959451 -0.156402509562443 0 0.41629839866100482 -0.14470381586188369 0 0.42755258221758352 -0.135694979600988 0 0.44711012670007172 -0.117702996555501 0 0.4241033290372026 -0.1234260288937115 0 0.42755258221758352 -0.135694979600988 0 0.4241033290372026 -0.1234260288937115 0 0.42755258221758352 -0.135694979600988 0 0.41456425222518489 -0.13242364204711271 0 0.41062449399306511 -0.11863724031850111 0 0.4035612988060378 -0.13430036114661281 0 0.41062449399306511 -0.11863724031850111 0 0.4035612988060378 -0.13430036114661281 0 0.41456425222518489 -0.13242364204711271 0 0.41629839866100482 -0.14470381586188369 0 0.42755258221758352 -0.135694979600988 0 0.41456425222518489 -0.13242364204711271 0 0.41629839866100482 -0.14470381586188369 0 0.41456425222518489 -0.13242364204711271 0 0.40916763466295381 -0.13836208764106619 0 0.4035612988060378 -0.13430036114661281 0 0.41456425222518489 -0.13242364204711271 0 0.40916763466295381 -0.13836208764106619 0 0.4735550633500355 -0.1227347071645474 0 0.44711012670007172 -0.117702996555501 0 0.45623209833367367 -0.14384583575156781 0 0.44711012670007172 -0.117702996555501 0 0.42755258221758352 -0.135694979600988 0 0.45623209833367367 -0.14384583575156781 0 0.43161388081959451 -0.156402509562443 0 0.42755258221758352 -0.135694979600988 0 0.45623209833367367 -0.14384583575156781 0 0.45623209833367367 -0.14384583575156781 0 0.45444520158041052 -0.17293866945759159 0 0.47486811529749817 -0.1581548339629289 0 0.43161388081959451 -0.156402509562443 0 0.45623209833367367 -0.14384583575156781 0 0.45444520158041052 -0.17293866945759159 0 0.424121299687027 -0.17835862894423671 0 0.45444520158041052 -0.17293866945759159 0 0.44402699351307562 -0.19452790934892089 0 0.45444520158041052 -0.17293866945759159 0 0.47904059412676803 -0.179075045516499 0 0.46778053189758317 -0.19812867666362219 0 0.47904059412676803 -0.179075045516499 0 0.47486811529749817 -0.1581548339629289 0 0.5 -0.15402094013479281 0 0.47904059412676803 -0.179075045516499 0 0.5 -0.18027546249599191 0 0.5 -0.15402094013479281 0 0.45444520158041052 -0.17293866945759159 0 0.47904059412676803 -0.179075045516499 0 0.47486811529749817 -0.1581548339629289 0 0.45623209833367367 -0.14384583575156781 0 0.47486811529749817 -0.1581548339629289 0 0.48462268244663892 -0.14089367895419319 0 0.47486811529749817 -0.1581548339629289 0 0.5 -0.15402094013479281 0 0.48462268244663892 -0.14089367895419319 0 0.5 -0.15402094013479281 0 0.48462268244663892 -0.14089367895419319 0 0.49999999999999928 -0.12776641777359371 0 0.4735550633500355 -0.1227347071645474 0 0.48462268244663892 -0.14089367895419319 0 0.49999999999999928 -0.12776641777359371 0 0.4735550633500355 -0.1227347071645474 0 0.49999999999999928 -0.12776641777359371 0 0.4735550633500355 -0.1227347071645474 0 0.45623209833367367 -0.14384583575156781 0 0.48462268244663892 -0.14089367895419319 0 0.44713751010680219 -0.21988059607684471 0 0.48078644963692918 -0.21642446528304021 0 0.47011748076307769 -0.23521899543467081 0 0.44713751010680219 -0.21988059607684471 0 0.47011748076307769 -0.23521899543467081 0 0.45029837128493749 -0.24639577695204529 0 0.44713751010680219 -0.21988059607684471 0 0.47011748076307769 -0.23521899543467081 0 0.45029837128493749 -0.24639577695204529 0 0.47011748076307769 -0.23521899543467081 0 0.46576262399019219 -0.25757956025364048 0 0.42860292956935092 -0.2417180878668071 0 0.45029837128493749 -0.24639577695204529 0 0.44713751010680219 -0.21988059607684471 0 0.42415753945052681 -0.20454219671901849 0 0.44713751010680219 -0.21988059607684471 0 0.44402699351307562 -0.19452790934892089 0 0.44713751010680219 -0.21988059607684471 0 0.44402699351307562 -0.19452790934892089 0 0.46778053189758317 -0.19812867666362219 0 0.44713751010680219 -0.21988059607684471 0 0.46778053189758317 -0.19812867666362219 0 0.48078644963692918 -0.21642446528304021 0 0.45444520158041052 -0.17293866945759159 0 0.44402699351307562 -0.19452790934892089 0 0.46778053189758317 -0.19812867666362219 0 0.46778053189758317 -0.19812867666362219 0 0.48078644963692918 -0.21642446528304021 0 0.5 -0.20652998485719101 0 0.47904059412676803 -0.179075045516499 0 0.46778053189758317 -0.19812867666362219 0 0.5 -0.20652998485719101 0 0.47904059412676803 -0.179075045516499 0 0.5 -0.18027546249599191 0 0.5 -0.20652998485719101 0 0.48078644963692918 -0.21642446528304021 0 0.5 -0.20652998485719101 0 0.5 -0.23278450721838989 0 0.48078644963692918 -0.21642446528304021 0 0.5 -0.23278450721838989 0 0.47011748076307769 -0.23521899543467081 0 0.47011748076307769 -0.23521899543467081 0 0.48295877555737721 -0.25058295938973513 0 0.46576262399019219 -0.25757956025364048 0 0.5 -0.23278450721838989 0 0.47011748076307769 -0.23521899543467081 0 0.48295877555737721 -0.25058295938973513 0 0.5 -0.23278450721838989 0 0.5 -0.25903902957958891 0 0.48295877555737721 -0.25058295938973513 0 0.5 -0.25903902957958891 0 0.48140303405392221 -0.26908345029609759 0 0.48295877555737721 -0.25058295938973513 0 0.48140303405392221 -0.26908345029609759 0 0.4762386024647845 -0.28745449419216851 0 0.5 -0.28529355194078798 0 0.5 -0.25903902957958891 0 0.48140303405392221 -0.26908345029609759 0 0.5 -0.28529355194078798 0 0.48140303405392221 -0.26908345029609759 0 0.46576262399019219 -0.25757956025364048 0 0.46477050640648521 -0.27703758843654169 0 0.48140303405392221 -0.26908345029609759 0 0.46477050640648521 -0.27703758843654169 0 0.4762386024647845 -0.28745449419216851 0 0.48140303405392221 -0.26908345029609759 0 0.48295877555737721 -0.25058295938973513 0 0.46576262399019219 -0.25757956025364048 0 0.45029837128493749 -0.24639577695204529 0 0.46576262399019219 -0.25757956025364048 0 0.45100180232408837 -0.26905638101366203 0 0.46477050640648521 -0.27703758843654169 0 0.45100180232408837 -0.26905638101366203 0 0.44937974305119971 -0.28701619315187432 0 0.46576262399019219 -0.25757956025364048 0 0.46477050640648521 -0.27703758843654169 0 0.45100180232408837 -0.26905638101366203 0 0.45100180232408837 -0.26905638101366203 0 0.43302317439326049 -0.26092671332752532 0 0.43309210155579358 -0.28118244784154489 0 0.45100180232408837 -0.26905638101366203 0 0.44937974305119971 -0.28701619315187432 0 0.43309210155579358 -0.28118244784154489 0 0.45029837128493749 -0.24639577695204529 0 0.45100180232408837 -0.26905638101366203 0 0.43302317439326049 -0.26092671332752532 0 0.45969816542376019 -0.30668064664118422 0 0.4311858205908039 -0.30125648762431179 0 0.45969816542376019 -0.30668064664118422 0 0.44251710871009547 -0.31426257074885899 0 0.4311858205908039 -0.30125648762431179 0 0.45072561150679902 -0.296844750591026 0 0.45969816542376019 -0.30668064664118422 0 0.4311858205908039 -0.30125648762431179 0 0.44937974305119971 -0.28701619315187432 0 0.43309210155579358 -0.28118244784154489 0 0.4311858205908039 -0.30125648762431179 0 0.44937974305119971 -0.28701619315187432 0 0.45072561150679902 -0.296844750591026 0 0.4311858205908039 -0.30125648762431179 0 0.44937974305119971 -0.28701619315187432 0 0.45072561150679902 -0.296844750591026 0 0.46263871696143222 -0.29242567494673383 0 0.46477050640648521 -0.27703758843654169 0 0.44937974305119971 -0.28701619315187432 0 0.46263871696143222 -0.29242567494673383 0 0.46477050640648521 -0.27703758843654169 0 0.46263871696143222 -0.29242567494673383 0 0.4762386024647845 -0.28745449419216851 0 0.46263871696143222 -0.29242567494673383 0 0.45969816542376019 -0.30668064664118422 0 0.47225225475878557 -0.30075514832823358 0 0.45969816542376019 -0.30668064664118422 0 0.46536380948340589 -0.31318368820345738 0 0.44251710871009547 -0.31426257074885899 0 0.45072561150679902 -0.296844750591026 0 0.46263871696143222 -0.29242567494673383 0 0.45969816542376019 -0.30668064664118422 0 0.47225225475878557 -0.30075514832823358 0 0.48821051025671652 -0.31210480565805609 0 0.4873402734960573 -0.29943121488424662 0 0.45969816542376019 -0.30668064664118422 0 0.48821051025671652 -0.31210480565805609 0 0.45969816542376019 -0.30668064664118422 0 0.47225225475878557 -0.30075514832823358 0 0.48821051025671652 -0.31210480565805609 0 0.45969816542376019 -0.30668064664118422 0 0.48821051025671652 -0.31210480565805609 0 0.46536380948340589 -0.31318368820345738 0 0.46263871696143222 -0.29242567494673383 0 0.47225225475878557 -0.30075514832823358 0 0.4762386024647845 -0.28745449419216851 0 0.47225225475878557 -0.30075514832823358 0 0.4762386024647845 -0.28745449419216851 0 0.4873402734960573 -0.29943121488424662 0 0.4762386024647845 -0.28745449419216851 0 0.5 -0.28529355194078798 0 0.4873402734960573 -0.29943121488424662 0 0.5 -0.28529355194078798 0 0.4873402734960573 -0.29943121488424662 0 0.50000000000000067 -0.31154807430198689 0 0.48821051025671652 -0.31210480565805609 0 0.4873402734960573 -0.29943121488424662 0 0.50000000000000067 -0.31154807430198689 0 0.48821051025671652 -0.31210480565805609 0 0.50000000000000067 -0.31154807430198689 0 0.48821051025671652 -0.31210480565805609 0 0.50000000000000178 -0.31434762600377081 0 0.4822703232908982 -0.3207970355306734 0 0.50000000000000178 -0.31434762600377081 0 0.4863919786675811 -0.33367965373691533 0 0.4822703232908982 -0.3207970355306734 0 0.48821051025671652 -0.31210480565805609 0 0.50000000000000178 -0.31434762600377081 0 0.48821051025671652 -0.31210480565805609 0 0.50000000000000067 -0.31154807430198689 0 0.50000000000000178 -0.31434762600377081 0 0.50000000000000178 -0.31434762600377081 0 0.5 -0.3431876315453527 0 0.4863919786675811 -0.33367965373691533 0 0.5 -0.3431876315453527 0 0.4863919786675811 -0.33367965373691533 0 0.47369467852488578 -0.34686956782058881 0 0.4863919786675811 -0.33367965373691533 0 0.4730727476026852 -0.33336297889601052 0 0.4822703232908982 -0.3207970355306734 0 0.4863919786675811 -0.33367965373691533 0 0.4730727476026852 -0.33336297889601052 0 0.47369467852488578 -0.34686956782058881 0 0.4730727476026852 -0.33336297889601052 0 0.47369467852488578 -0.34686956782058881 0 0.46495201343411757 -0.33829941848418438 0 0.4822703232908982 -0.3207970355306734 0 0.45994225849391568 -0.32618719174630351 0 0.48821051025671652 -0.31210480565805609 0 0.46536380948340589 -0.31318368820345738 0 0.48821051025671652 -0.31210480565805609 0 0.4822703232908982 -0.3207970355306734 0 0.46536380948340589 -0.31318368820345738 0 0.4730727476026852 -0.33336297889601052 0 0.4822703232908982 -0.3207970355306734 0 0.45994225849391568 -0.32618719174630351 0 0.4822703232908982 -0.3207970355306734 0 0.46536380948340589 -0.31318368820345738 0 0.45994225849391568 -0.32618719174630351 0 0.5 -0.3431876315453527 0 0.48095558064487409 -0.36712002401655752 0 0.5 -0.38149899770551798 0 0.5 -0.3431876315453527 0 0.47369467852488578 -0.34686956782058881 0 0.48095558064487409 -0.36712002401655752 0 0.47369467852488578 -0.34686956782058881 0 0.48095558064487409 -0.36712002401655752 0 0.45879342238603449 -0.36772110244363848 0 0.47369467852488578 -0.34686956782058881 0 0.45309836911498358 -0.34677793547383512 0 0.46495201343411757 -0.33829941848418438 0 0.47369467852488578 -0.34686956782058881 0 0.45879342238603449 -0.36772110244363848 0 0.45309836911498358 -0.34677793547383512 0 0.45309836911498358 -0.34677793547383512 0 0.43761419369693322 -0.33157734796193361 0 0.43145018339374608 -0.35861339152640198 0 0.45879342238603449 -0.36772110244363848 0 0.45309836911498358 -0.34677793547383512 0 0.43145018339374608 -0.35861339152640198 0 0.45879342238603449 -0.36772110244363848 0 0.43145018339374608 -0.35861339152640198 0 0.44388213408701571 -0.38226725436767162 0 0.46536380948340589 -0.31318368820345738 0 0.45994225849391568 -0.32618719174630351 0 0.44251710871009547 -0.31426257074885899 0 0.46536380948340589 -0.31318368820345738 0 0.44251710871009547 -0.31426257074885899 0 0.4730727476026852 -0.33336297889601052 0 0.45994225849391568 -0.32618719174630351 0 0.46495201343411757 -0.33829941848418438 0 0.45309836911498358 -0.34677793547383512 0 0.45994225849391568 -0.32618719174630351 0 0.46495201343411757 -0.33829941848418438 0 0.45309836911498358 -0.34677793547383512 0 0.45994225849391568 -0.32618719174630351 0 0.43761419369693322 -0.33157734796193361 0 0.45994225849391568 -0.32618719174630351 0 0.43761419369693322 -0.33157734796193361 0 0.45994225849391568 -0.32618719174630351 0 0.43761419369693322 -0.33157734796193361 0 0.44251710871009547 -0.31426257074885899 0 0.43761419369693322 -0.33157734796193361 0 0.44251710871009547 -0.31426257074885899 0 0.42125621414817199 -0.31769670513101678 0 0.43761419369693322 -0.33157734796193361 0 0.41528612889995059 -0.33696750417756371 0 0.43145018339374608 -0.35861339152640198 0 0.43761419369693322 -0.33157734796193361 0 0.41528612889995059 -0.33696750417756371 0 0.42125621414817199 -0.31769670513101678 0 0.43761419369693322 -0.33157734796193361 0 0.41528612889995059 -0.33696750417756371 0 0.41528612889995059 -0.33696750417756371 0 0.42125621414817199 -0.31769670513101678 0 0.40174020037955332 -0.32717698428758241 0 0.42125621414817199 -0.31769670513101678 0 0.40174020037955332 -0.32717698428758241 0 0.40310933009984501 -0.30838006464602569 0 0.43145018339374608 -0.35861339152640198 0 0.44388213408701571 -0.38226725436767162 0 0.42612985557065852 -0.37952182067304219 0 0.41528612889995059 -0.33696750417756371 0 0.43145018339374608 -0.35861339152640198 0 0.4073028259799672 -0.35235237280900261 0 0.43145018339374608 -0.35861339152640198 0 0.4073186861252584 -0.3694035143014 0 0.42612985557065852 -0.37952182067304219 0 0.43145018339374608 -0.35861339152640198 0 0.4073028259799672 -0.35235237280900261 0 0.4073186861252584 -0.3694035143014 0 0.4073186861252584 -0.3694035143014 0 0.39279266390799711 -0.36114983588285332 0 0.38909938604898381 -0.380556295219112 0 0.4073028259799672 -0.35235237280900261 0 0.4073186861252584 -0.3694035143014 0 0.39279266390799711 -0.36114983588285332 0 0.41528612889995059 -0.33696750417756371 0 0.4073028259799672 -0.35235237280900261 0 0.39295806410296802 -0.34235766039319382 0 0.4073028259799672 -0.35235237280900261 0 0.39279266390799711 -0.36114983588285332 0 0.39295806410296802 -0.34235766039319382 0 0.39279266390799711 -0.36114983588285332 0 0.38319883874072153 -0.35210382565903581 0 0.39295806410296802 -0.34235766039319382 0 0.38319883874072153 -0.35210382565903581 0 0.39295806410296802 -0.34235766039319382 0 0.37005033969993217 -0.34011240061162762 0 0.38319883874072153 -0.35210382565903581 0 0.37699428725198858 -0.36479540574846819 0 0.37005033969993217 -0.34011240061162762 0 0.39279266390799711 -0.36114983588285332 0 0.38319883874072153 -0.35210382565903581 0 0.37699428725198858 -0.36479540574846819 0 0.39279266390799711 -0.36114983588285332 0 0.37699428725198858 -0.36479540574846819 0 0.38909938604898381 -0.380556295219112 0 0.40174020037955332 -0.32717698428758241 0 0.38328451301518091 -0.3230710404466291 0 0.40310933009984501 -0.30838006464602569 0 0.41528612889995059 -0.33696750417756371 0 0.40174020037955332 -0.32717698428758241 0 0.39295806410296802 -0.34235766039319382 0 0.40174020037955332 -0.32717698428758241 0 0.39295806410296802 -0.34235766039319382 0 0.38328451301518091 -0.3230710404466291 0 0.41528612889995059 -0.33696750417756371 0 0.39295806410296802 -0.34235766039319382 0 0.39295806410296802 -0.34235766039319382 0 0.38328451301518091 -0.3230710404466291 0 0.37005033969993217 -0.34011240061162762 0 0.38328451301518091 -0.3230710404466291 0 0.38581660823989672 -0.3047253364055178 0 0.36310639214787582 -0.31542939547478688 0 0.38328451301518091 -0.3230710404466291 0 0.38581660823989672 -0.3047253364055178 0 0.40310933009984501 -0.30838006464602569 0 0.38581660823989672 -0.3047253364055178 0 0.40310933009984501 -0.30838006464602569 0 0.39462332790387838 -0.29031806573949148 0 0.40310933009984501 -0.30838006464602569 0 0.39462332790387838 -0.29031806573949148 0 0.41408790655157018 -0.28996820528252648 0 0.39462332790387838 -0.29031806573949148 0 0.39889958507879419 -0.26981127733643562 0 0.41408790655157018 -0.28996820528252648 0 0.39462332790387838 -0.29031806573949148 0 0.37530930730634948 -0.29018265971069779 0 0.38466347784096888 -0.28005487272263963 0 0.38581660823989672 -0.3047253364055178 0 0.39462332790387838 -0.29031806573949148 0 0.37530930730634948 -0.29018265971069779 0 0.38466347784096888 -0.28005487272263963 0 0.38063313079776628 -0.26755814476478218 0 0.39889958507879419 -0.26981127733643562 0 0.38466347784096888 -0.28005487272263963 0 0.38063313079776628 -0.26755814476478218 0 0.36540545610919711 -0.27330697177037949 0 0.37530930730634948 -0.29018265971069779 0 0.38466347784096888 -0.28005487272263963 0 0.36540545610919711 -0.27330697177037949 0 0.38063313079776628 -0.26755814476478218 0 0.38321218571859827 -0.25330458634709963 0 0.39889958507879419 -0.26981127733643562 0 0.38063313079776628 -0.26755814476478218 0 0.38321218571859827 -0.25330458634709963 0 0.37055245103467022 -0.25965825080247862 0 0.38321218571859827 -0.25330458634709963 0 0.39883281019217942 -0.25007875754385311 0 0.39889958507879419 -0.26981127733643562 0 0.39883281019217942 -0.25007875754385311 0 0.39889958507879419 -0.26981127733643562 0 0.41556641988521709 -0.25523272671780151 0 0.39462332790387838 -0.29031806573949148 0 0.38466347784096888 -0.28005487272263963 0 0.39889958507879419 -0.26981127733643562 0 0.39889958507879419 -0.26981127733643562 0 0.41957742174017609 -0.27197485957329109 0 0.41408790655157018 -0.28996820528252648 0 0.39889958507879419 -0.26981127733643562 0 0.41957742174017609 -0.27197485957329109 0 0.41556641988521709 -0.25523272671780151 0 0.42860292956935092 -0.2417180878668071 0 0.41556641988521709 -0.25523272671780151 0 0.43302317439326049 -0.26092671332752532 0 0.41957742174017609 -0.27197485957329109 0 0.41556641988521709 -0.25523272671780151 0 0.43302317439326049 -0.26092671332752532 0 0.41957742174017609 -0.27197485957329109 0 0.43309210155579358 -0.28118244784154489 0 0.41408790655157018 -0.28996820528252648 0 0.41957742174017609 -0.27197485957329109 0 0.43302317439326049 -0.26092671332752532 0 0.43309210155579358 -0.28118244784154489 0 0.43309210155579358 -0.28118244784154489 0 0.4311858205908039 -0.30125648762431179 0 0.41408790655157018 -0.28996820528252648 0 0.42125621414817199 -0.31769670513101678 0 0.4311858205908039 -0.30125648762431179 0 0.41740981784759768 -0.30432536567097018 0 0.44251710871009547 -0.31426257074885899 0 0.42125621414817199 -0.31769670513101678 0 0.4311858205908039 -0.30125648762431179 0 0.40310933009984501 -0.30838006464602569 0 0.41740981784759768 -0.30432536567097018 0 0.41408790655157018 -0.28996820528252648 0 0.42125621414817199 -0.31769670513101678 0 0.40310933009984501 -0.30838006464602569 0 0.41740981784759768 -0.30432536567097018 0 0.4311858205908039 -0.30125648762431179 0 0.41740981784759768 -0.30432536567097018 0 0.41408790655157018 -0.28996820528252648 0 0.5 -0.5 0 0.44871354901832339 -0.46346304465454269 0 0.41635061591449452 -0.5 0 0.5 -0.5 0 0.4700978440141621 -0.44160063632434071 0 0.5 -0.43239238835251209 0 0.5 -0.5 0 0.4700978440141621 -0.44160063632434071 0 0.44871354901832339 -0.46346304465454269 0 0.4700978440141621 -0.44160063632434071 0 0.44871354901832339 -0.46346304465454269 0 0.43710744835602272 -0.4273921339045238 0 0.4700978440141621 -0.44160063632434071 0 0.46601334686607637 -0.39938333751356159 0 0.43710744835602272 -0.4273921339045238 0 0.46601334686607637 -0.39938333751356159 0 0.43220881553407953 -0.40051270012641338 0 0.43710744835602272 -0.4273921339045238 0 0.4700978440141621 -0.44160063632434071 0 0.5 -0.43239238835251209 0 0.46601334686607637 -0.39938333751356159 0 0.5 -0.43239238835251209 0 0.5 -0.38149899770551798 0 0.46601334686607637 -0.39938333751356159 0 0.48095558064487409 -0.36712002401655752 0 0.5 -0.38149899770551798 0 0.46601334686607637 -0.39938333751356159 0 0.45879342238603449 -0.36772110244363848 0 0.46601334686607637 -0.39938333751356159 0 0.44388213408701571 -0.38226725436767162 0 0.48095558064487409 -0.36712002401655752 0 0.45879342238603449 -0.36772110244363848 0 0.46601334686607637 -0.39938333751356159 0 0.46601334686607637 -0.39938333751356159 0 0.44388213408701571 -0.38226725436767162 0 0.43220881553407953 -0.40051270012641338 0 0.42612985557065852 -0.37952182067304219 0 0.43220881553407953 -0.40051270012641338 0 0.41027102085218498 -0.38972933836229262 0 0.44388213408701571 -0.38226725436767162 0 0.42612985557065852 -0.37952182067304219 0 0.43220881553407953 -0.40051270012641338 0 0.43220881553407953 -0.40051270012641338 0 0.41027102085218498 -0.38972933836229262 0 0.41282445279093682 -0.4090037643478221 0 0.4073186861252584 -0.3694035143014 0 0.42612985557065852 -0.37952182067304219 0 0.41027102085218498 -0.38972933836229262 0 0.41027102085218498 -0.38972933836229262 0 0.38909938604898381 -0.380556295219112 0 0.39404492904319349 -0.39937793550596601 0 0.4073186861252584 -0.3694035143014 0 0.41027102085218498 -0.38972933836229262 0 0.38909938604898381 -0.380556295219112 0 0.38909938604898381 -0.380556295219112 0 0.37510509055728197 -0.40019208212240848 0 0.36760885981555541 -0.38222571953646228 0 0.37699428725198858 -0.36479540574846819 0 0.38909938604898381 -0.380556295219112 0 0.36760885981555541 -0.38222571953646228 0 0.38909938604898381 -0.380556295219112 0 0.37510509055728197 -0.40019208212240848 0 0.39404492904319349 -0.39937793550596601 0 0.41027102085218498 -0.38972933836229262 0 0.39404492904319349 -0.39937793550596601 0 0.41282445279093682 -0.4090037643478221 0 0.39102428701755071 -0.41952783609925681 0 0.41247407127496172 -0.42941864755042108 0 0.41282445279093682 -0.4090037643478221 0 0.39404492904319349 -0.39937793550596601 0 0.39102428701755071 -0.41952783609925681 0 0.41282445279093682 -0.4090037643478221 0 0.37510509055728197 -0.40019208212240848 0 0.39102428701755071 -0.41952783609925681 0 0.36680042144197977 -0.42080827559957301 0 0.37510509055728197 -0.40019208212240848 0 0.39404492904319349 -0.39937793550596601 0 0.39102428701755071 -0.41952783609925681 0 0.39102428701755071 -0.41952783609925681 0 0.39714492591987932 -0.43959603059043501 0 0.3787611042597992 -0.43882342200209451 0 0.39102428701755071 -0.41952783609925681 0 0.3787611042597992 -0.43882342200209451 0 0.36680042144197977 -0.42080827559957301 0 0.39102428701755071 -0.41952783609925681 0 0.41247407127496172 -0.42941864755042108 0 0.39714492591987932 -0.43959603059043501 0 0.41247407127496172 -0.42941864755042108 0 0.41282445279093682 -0.4090037643478221 0 0.43710744835602272 -0.4273921339045238 0 0.43220881553407953 -0.40051270012641338 0 0.41282445279093682 -0.4090037643478221 0 0.43710744835602272 -0.4273921339045238 0 0.44871354901832339 -0.46346304465454269 0 0.43710744835602272 -0.4273921339045238 0 0.41807760724360171 -0.45620197324020612 0 0.41247407127496172 -0.42941864755042108 0 0.43710744835602272 -0.4273921339045238 0 0.41807760724360171 -0.45620197324020612 0 0.41247407127496172 -0.42941864755042108 0 0.41807760724360171 -0.45620197324020612 0 0.39714492591987932 -0.43959603059043501 0 0.41807760724360171 -0.45620197324020612 0 0.39714492591987932 -0.43959603059043501 0 0.39072178707761862 -0.45683856840461612 0 0.3787611042597992 -0.43882342200209451 0 0.39072178707761862 -0.45683856840461612 0 0.39714492591987932 -0.43959603059043501 0 0.3787611042597992 -0.43882342200209451 0 0.39072178707761862 -0.45683856840461612 0 0.3787611042597992 -0.43882342200209451 0 0.39072178707761862 -0.45683856840461612 0 0.37068200429889647 -0.45243417911798278 0 0.39072178707761862 -0.45683856840461612 0 0.3683024848809906 -0.47075394097621442 0 0.37068200429889647 -0.45243417911798278 0 0.39072178707761862 -0.45683856840461612 0 0.38975144860083483 -0.47675889652420739 0 0.3683024848809906 -0.47075394097621442 0 0.41807760724360171 -0.45620197324020612 0 0.39072178707761862 -0.45683856840461612 0 0.38975144860083483 -0.47675889652420739 0 0.38975144860083483 -0.47675889652420739 0 0.41635061591449452 -0.5 0 0.35530474788746857 -0.5 0 0.44871354901832339 -0.46346304465454269 0 0.41807760724360171 -0.45620197324020612 0 0.41635061591449452 -0.5 0 0.41807760724360171 -0.45620197324020612 0 0.38975144860083483 -0.47675889652420739 0 0.41635061591449452 -0.5 0 0.35530474788746857 -0.5 0 0.31118241508372929 -0.46631971942050859 0 0.28776857214884471 -0.48099450415421457 0 0.35530474788746857 -0.5 0 0.33899919897556807 -0.46478313649072978 0 0.31118241508372929 -0.46631971942050859 0 0.38975144860083483 -0.47675889652420739 0 0.35530474788746857 -0.5 0 0.3683024848809906 -0.47075394097621442 0 0.35530474788746857 -0.5 0 0.3683024848809906 -0.47075394097621442 0 0.33899919897556807 -0.46478313649072978 0 0.3683024848809906 -0.47075394097621442 0 0.35194463710987151 -0.45014213106005052 0 0.33899919897556807 -0.46478313649072978 0 0.3683024848809906 -0.47075394097621442 0 0.37068200429889647 -0.45243417911798278 0 0.35194463710987151 -0.45014213106005052 0 0.37068200429889647 -0.45243417911798278 0 0.36301423853945808 -0.43894205172039391 0 0.35194463710987151 -0.45014213106005052 0 0.3787611042597992 -0.43882342200209451 0 0.37068200429889647 -0.45243417911798278 0 0.36301423853945808 -0.43894205172039391 0 0.35194463710987151 -0.45014213106005052 0 0.33012700752139018 -0.44508421157319089 0 0.34967924103704162 -0.43056615208900789 0 0.36301423853945808 -0.43894205172039391 0 0.35194463710987151 -0.45014213106005052 0 0.34967924103704162 -0.43056615208900789 0 0.35194463710987151 -0.45014213106005052 0 0.33012700752139018 -0.44508421157319089 0 0.35194463710987151 -0.45014213106005052 0 0.33012700752139018 -0.44508421157319089 0 0.33899919897556807 -0.46478313649072978 0 0.33012700752139018 -0.44508421157319089 0 0.33899919897556807 -0.46478313649072978 0 0.31908893489675771 -0.45183937440667882 0 0.33899919897556807 -0.46478313649072978 0 0.31908893489675771 -0.45183937440667882 0 0.31118241508372929 -0.46631971942050859 0 0.33012700752139018 -0.44508421157319089 0 0.31908893489675771 -0.45183937440667882 0 0.30830937793290902 -0.44002629208633143 0 0.33012700752139018 -0.44508421157319089 0 0.30830937793290902 -0.44002629208633143 0 0.33012700752139018 -0.44508421157319089 0 0.32276080687214381 -0.43396608763537908 0 0.30830937793290902 -0.44002629208633143 0 0.31770209348936729 -0.42129271528045809 0 0.30830937793290902 -0.44002629208633143 0 0.32276080687214381 -0.43396608763537908 0 0.31770209348936729 -0.42129271528045809 0 0.30830937793290902 -0.44002629208633143 0 0.32276080687214381 -0.43396608763537908 0 0.31770209348936729 -0.42129271528045809 0 0.33251903550153328 -0.42967384109857981 0 0.31770209348936729 -0.42129271528045809 0 0.3316120836180797 -0.40655572502431969 0 0.31790875865657298 -0.40261360673177737 0 0.31770209348936729 -0.42129271528045809 0 0.31790875865657298 -0.40261360673177737 0 0.31141033558344211 -0.41175302061781172 0 0.3316120836180797 -0.40655572502431969 0 0.33755460250097319 -0.41788545790895049 0 0.3548498158806026 -0.40278643866757791 0 0.31770209348936729 -0.42129271528045809 0 0.3316120836180797 -0.40655572502431969 0 0.33755460250097319 -0.41788545790895049 0 0.33755460250097319 -0.41788545790895049 0 0.33251903550153328 -0.42967384109857981 0 0.34967924103704162 -0.43056615208900789 0 0.31770209348936729 -0.42129271528045809 0 0.33755460250097319 -0.41788545790895049 0 0.33251903550153328 -0.42967384109857981 0 0.33012700752139018 -0.44508421157319089 0 0.33251903550153328 -0.42967384109857981 0 0.34967924103704162 -0.43056615208900789 0 0.33012700752139018 -0.44508421157319089 0 0.32276080687214381 -0.43396608763537908 0 0.33251903550153328 -0.42967384109857981 0 0.36301423853945808 -0.43894205172039391 0 0.34967924103704162 -0.43056615208900789 0 0.36680042144197977 -0.42080827559957301 0 0.3787611042597992 -0.43882342200209451 0 0.36680042144197977 -0.42080827559957301 0 0.3787611042597992 -0.43882342200209451 0 0.36301423853945808 -0.43894205172039391 0 0.36680042144197977 -0.42080827559957301 0 0.36680042144197977 -0.42080827559957301 0 0.3548498158806026 -0.40278643866757791 0 0.37510509055728197 -0.40019208212240848 0 0.36680042144197977 -0.42080827559957301 0 0.3548498158806026 -0.40278643866757791 0 0.33755460250097319 -0.41788545790895049 0 0.34967924103704162 -0.43056615208900789 0 0.3548498158806026 -0.40278643866757791 0 0.34967924103704162 -0.43056615208900789 0 0.36680042144197977 -0.42080827559957301 0 0.3548498158806026 -0.40278643866757791 0 0.3548498158806026 -0.40278643866757791 0 0.33472500387552528 -0.3941277974999402 0 0.3548498158806026 -0.40278643866757791 0 0.34227209971440781 -0.38386378725714898 0 0.33472500387552528 -0.3941277974999402 0 0.3548498158806026 -0.40278643866757791 0 0.34227209971440781 -0.38386378725714898 0 0.37510509055728197 -0.40019208212240848 0 0.3548498158806026 -0.40278643866757791 0 0.36760885981555541 -0.38222571953646228 0 0.36760885981555541 -0.38222571953646228 0 0.35434771413026589 -0.38001681696233941 0 0.36119575370287221 -0.36629832868809531 0 0.35434771413026589 -0.38001681696233941 0 0.34227209971440781 -0.38386378725714898 0 0.34837505013091891 -0.36762919676572547 0 0.3548498158806026 -0.40278643866757791 0 0.35434771413026589 -0.38001681696233941 0 0.34227209971440781 -0.38386378725714898 0 0.3548498158806026 -0.40278643866757791 0 0.36760885981555541 -0.38222571953646228 0 0.35434771413026589 -0.38001681696233941 0 0.32916117830117042 -0.38003920481521691 0 0.34227209971440781 -0.38386378725714898 0 0.32970446080465438 -0.364934445317247 0 0.32916117830117042 -0.38003920481521691 0 0.34227209971440781 -0.38386378725714898 0 0.33472500387552528 -0.3941277974999402 0 0.3316120836180797 -0.40655572502431969 0 0.3548498158806026 -0.40278643866757791 0 0.33472500387552528 -0.3941277974999402 0 0.33472500387552528 -0.3941277974999402 0 0.31790875865657298 -0.40261360673177737 0 0.31460019187044808 -0.3854691563323025 0 0.3316120836180797 -0.40655572502431969 0 0.33472500387552528 -0.3941277974999402 0 0.31790875865657298 -0.40261360673177737 0 0.33472500387552528 -0.3941277974999402 0 0.31460019187044808 -0.3854691563323025 0 0.32916117830117042 -0.38003920481521691 0 0.33472500387552528 -0.3941277974999402 0 0.31460019187044808 -0.3854691563323025 0 0.31460019187044808 -0.3854691563323025 0 0.32235835866870732 -0.37527386148074909 0 0.31596760369855648 -0.37065263945823018 0 0.32916117830117042 -0.38003920481521691 0 0.31460019187044808 -0.3854691563323025 0 0.32235835866870732 -0.37527386148074909 0 0.31460019187044808 -0.3854691563323025 0 0.29447537986537131 -0.3768105151646638 0 0.30113149545930068 -0.36918084242875432 0 0.31460019187044808 -0.3854691563323025 0 0.31596760369855648 -0.37065263945823018 0 0.30113149545930068 -0.36918084242875432 0 0.31460019187044808 -0.3854691563323025 0 0.2983778135677097 -0.39771809875397912 0 0.29447537986537131 -0.3768105151646638 0 0.31460019187044808 -0.3854691563323025 0 0.29447537986537131 -0.3768105151646638 0 0.31790875865657298 -0.40261360673177737 0 0.31460019187044808 -0.3854691563323025 0 0.2983778135677097 -0.39771809875397912 0 0.31790875865657298 -0.40261360673177737 0 0.2983778135677097 -0.39771809875397912 0 0.31141033558344211 -0.41175302061781172 0 0.2983778135677097 -0.39771809875397912 0 0.28339392031288452 -0.38440683884716542 0 0.27883201281244158 -0.39782695857524281 0 0.2983778135677097 -0.39771809875397912 0 0.27883201281244158 -0.39782695857524281 0 0.28181570821149898 -0.41441759684661278 0 0.2983778135677097 -0.39771809875397912 0 0.28339392031288452 -0.38440683884716542 0 0.29447537986537131 -0.3768105151646638 0 0.2983778135677097 -0.39771809875397912 0 0.29447537986537131 -0.3768105151646638 0 0.29418417212580589 -0.37525034768425602 0 0.29447537986537131 -0.3768105151646638 0 0.28339392031288452 -0.38440683884716542 0 0.29447537986537131 -0.3768105151646638 0 0.28096274193657372 -0.37045374016907939 0 0.28339392031288452 -0.38440683884716542 0 0.27464971511150321 -0.37630027735682092 0 0.28096274193657372 -0.37045374016907939 0 0.28339392031288452 -0.38440683884716542 0 0.27464971511150321 -0.37630027735682092 0 0.27532430703815702 -0.38574899237441201 0 0.28339392031288452 -0.38440683884716542 0 0.27532430703815702 -0.38574899237441201 0 0.27883201281244158 -0.39782695857524281 0 0.27464971511150321 -0.37630027735682092 0 0.27532430703815702 -0.38574899237441201 0 0.262690742381811 -0.37333920002399568 0 0.27532430703815702 -0.38574899237441201 0 0.25190404077164091 -0.37878861243398149 0 0.2652131979444235 -0.39624534460664518 0 0.27532430703815702 -0.38574899237441201 0 0.25190404077164091 -0.37878861243398149 0 0.262690742381811 -0.37333920002399568 0 0.25190404077164091 -0.37878861243398149 0 0.2652131979444235 -0.39624534460664518 0 0.24883035261557479 -0.39285847107779309 0 0.27532430703815702 -0.38574899237441201 0 0.25190404077164091 -0.37878861243398149 0 0.2652131979444235 -0.39624534460664518 0 0.25590541344332102 -0.41189188973833563 0 0.2394990313801024 -0.40717914280705608 0 0.2652131979444235 -0.39624534460664518 0 0.2394990313801024 -0.40717914280705608 0 0.2652131979444235 -0.39624534460664518 0 0.2394990313801024 -0.40717914280705608 0 0.24883035261557479 -0.39285847107779309 0 0.2652131979444235 -0.39624534460664518 0 0.26886712979997601 -0.40842488002264221 0 0.25590541344332102 -0.41189188973833563 0 0.2652131979444235 -0.39624534460664518 0 0.27883201281244158 -0.39782695857524281 0 0.26886712979997601 -0.40842488002264221 0 0.27532430703815702 -0.38574899237441201 0 0.2652131979444235 -0.39624534460664518 0 0.27883201281244158 -0.39782695857524281 0 0.26886712979997601 -0.40842488002264221 0 0.25998377289408248 -0.42882310347003921 0 0.28181570821149898 -0.41441759684661278 0 0.27883201281244158 -0.39782695857524281 0 0.26886712979997601 -0.40842488002264221 0 0.28181570821149898 -0.41441759684661278 0 0.26886712979997601 -0.40842488002264221 0 0.25590541344332102 -0.41189188973833563 0 0.25998377289408248 -0.42882310347003921 0 0.25590541344332102 -0.41189188973833563 0 0.25998377289408248 -0.42882310347003921 0 0.23688431885493191 -0.42346802223875268 0 0.25998377289408248 -0.42882310347003921 0 0.28308322693323329 -0.43417818470132558 0 0.25998377289408248 -0.42882310347003921 0 0.28308322693323329 -0.43417818470132558 0 0.26054322255929718 -0.44653917479166833 0 0.25998377289408248 -0.42882310347003921 0 0.28308322693323329 -0.43417818470132558 0 0.28181570821149898 -0.41441759684661278 0 0.28308322693323329 -0.43417818470132558 0 0.30618268097238449 -0.43953326593261022 0 0.28308322693323329 -0.43417818470132558 0 0.28181570821149898 -0.41441759684661278 0 0.30228024727004749 -0.41862568234329461 0 0.2983778135677097 -0.39771809875397912 0 0.28181570821149898 -0.41441759684661278 0 0.30228024727004749 -0.41862568234329461 0 0.2983778135677097 -0.39771809875397912 0 0.30228024727004749 -0.41862568234329461 0 0.2983778135677097 -0.39771809875397912 0 0.30228024727004749 -0.41862568234329461 0 0.31141033558344211 -0.41175302061781172 0 0.31770209348936729 -0.42129271528045809 0 0.30228024727004749 -0.41862568234329461 0 0.31141033558344211 -0.41175302061781172 0 0.28308322693323329 -0.43417818470132558 0 0.30228024727004749 -0.41862568234329461 0 0.30618268097238449 -0.43953326593261022 0 0.31770209348936729 -0.42129271528045809 0 0.30228024727004749 -0.41862568234329461 0 0.30618268097238449 -0.43953326593261022 0 0.30228024727004749 -0.41862568234329461 0 0.30618268097238449 -0.43953326593261022 0 0.31770209348936729 -0.42129271528045809 0 0.30618268097238449 -0.43953326593261022 0 0.30830937793290902 -0.44002629208633143 0 0.35530474788746857 -0.5 0 0.27823952073816938 -0.50000000000000455 0 0.28776857214884471 -0.48099450415421457 0 0.30682667497019112 -0.44298351246263229 0 0.29729762355951822 -0.4619890083084236 0 0.30682667497019112 -0.44298351246263229 0 0.29729762355951822 -0.4619890083084236 0 0.2935650232433048 -0.44696407462854709 0 0.30682667497019112 -0.44298351246263229 0 0.30618268097238449 -0.43953326593261022 0 0.2935650232433048 -0.44696407462854709 0 0.31908893489675771 -0.45183937440667882 0 0.30682667497019112 -0.44298351246263229 0 0.30830937793290902 -0.44002629208633143 0 0.30682667497019112 -0.44298351246263229 0 0.30830937793290902 -0.44002629208633143 0 0.30682667497019112 -0.44298351246263229 0 0.30618268097238449 -0.43953326593261022 0 0.30682667497019112 -0.44298351246263229 0 0.30618268097238449 -0.43953326593261022 0 0.30830937793290902 -0.44002629208633143 0 0.30618268097238449 -0.43953326593261022 0 0.30830937793290902 -0.44002629208633143 0 0.30682667497019112 -0.44298351246263229 0 0.29729762355951822 -0.4619890083084236 0 0.31118241508372929 -0.46631971942050859 0 0.31908893489675771 -0.45183937440667882 0 0.30682667497019112 -0.44298351246263229 0 0.31118241508372929 -0.46631971942050859 0 0.30682667497019112 -0.44298351246263229 0 0.31118241508372929 -0.46631971942050859 0 0.29729762355951822 -0.4619890083084236 0 0.2935650232433048 -0.44696407462854709 0 0.27443490978119572 -0.45613640173774361 0 0.29729762355951822 -0.4619890083084236 0 0.27443490978119572 -0.45613640173774361 0 0.28776857214884471 -0.48099450415421457 0 0.28308322693323329 -0.43417818470132558 0 0.30618268097238449 -0.43953326593261022 0 0.2935650232433048 -0.44696407462854709 0 0.28308322693323329 -0.43417818470132558 0 0.2935650232433048 -0.44696407462854709 0 0.27443490978119572 -0.45613640173774361 0 0.28308322693323329 -0.43417818470132558 0 0.26054322255929718 -0.44653917479166833 0 0.27443490978119572 -0.45613640173774361 0 0.26054322255929718 -0.44653917479166833 0 0.25298271180224102 -0.46354055015615803 0 0.24434451285023129 -0.44825182353877879 0 0.25998377289408248 -0.42882310347003921 0 0.26054322255929718 -0.44653917479166833 0 0.24434451285023129 -0.44825182353877879 0 0.25298271180224102 -0.46354055015615803 0 0.27443490978119572 -0.45613640173774361 0 0.26514745253477628 -0.48042461603523801 0 0.26054322255929718 -0.44653917479166833 0 0.25298271180224102 -0.46354055015615803 0 0.27443490978119572 -0.45613640173774361 0 0.27443490978119572 -0.45613640173774361 0 0.26514745253477628 -0.48042461603523801 0 0.28776857214884471 -0.48099450415421457 0 0.25298271180224102 -0.46354055015615803 0 0.26514745253477628 -0.48042461603523801 0 0.24600828960534091 -0.48187624016330638 0 0.26514745253477628 -0.48042461603523801 0 0.25145071113286471 -0.5 0 0.27823952073816938 -0.50000000000000455 0 0.26514745253477628 -0.48042461603523801 0 0.25145071113286471 -0.5 0 0.24600828960534091 -0.48187624016330638 0 0.26514745253477628 -0.48042461603523801 0 0.27823952073816938 -0.50000000000000455 0 0.28776857214884471 -0.48099450415421457 0 0.27823952073816938 -0.50000000000000455 0 0.28776857214884471 -0.48099450415421457 0 0.29729762355951822 -0.4619890083084236 0 0.28776857214884471 -0.48099450415421457 0 0.29729762355951822 -0.4619890083084236 0 0.31118241508372929 -0.46631971942050859 0 0.28776857214884471 -0.48099450415421457 0 0.32666292307505129 -0.29752119537578642 0 0.32740284203575348 -0.28542391023041169 0 0.33886639212725589 -0.28060601348064751 0 0.33687296625998531 -0.30665642691241052 0 0.32666292307505129 -0.29752119537578642 0 0.33886639212725589 -0.28060601348064751 0 0.33687296625998531 -0.30665642691241052 0 0.33886639212725589 -0.28060601348064751 0 0.32740284203575348 -0.28542391023041169 0 0.32962004950497359 -0.27793659764073442 0 0.33886639212725589 -0.28060601348064751 0 0.33687296625998531 -0.30665642691241052 0 0.32666292307505129 -0.29752119537578642 0 0.31638967623209591 -0.30711562477148141 0 0.33687296625998531 -0.30665642691241052 0 0.31638967623209591 -0.30711562477148141 0 0.32162793796763589 -0.31942388642397579 0 0.32666292307505129 -0.29752119537578642 0 0.31638967623209591 -0.30711562477148141 0 0.31435930297020243 -0.29389404107913703 0 0.31435930297020243 -0.29389404107913703 0 0.32740284203575348 -0.28542391023041169 0 0.31827268247365492 -0.2778696924224715 0 0.32666292307505129 -0.29752119537578642 0 0.31435930297020243 -0.29389404107913703 0 0.32740284203575348 -0.28542391023041169 0 0.31435930297020243 -0.29389404107913703 0 0.32740284203575348 -0.28542391023041169 0 0.31827268247365492 -0.2778696924224715 0 0.32962004950497359 -0.27793659764073442 0 0.33393828138323017 -0.26784677442940691 0 0.32740284203575348 -0.28542391023041169 0 0.31827268247365492 -0.2778696924224715 0 0.32962004950497359 -0.27793659764073442 0 0.31295185665910491 -0.2487046357402711 0 0.33522960104266208 -0.25337521291708431 0 0.31827268247365492 -0.2778696924224715 0 0.33522960104266208 -0.25337521291708431 0 0.31295185665910491 -0.2487046357402711 0 0.31827268247365492 -0.2778696924224715 0 0.33522960104266208 -0.25337521291708431 0 0.33522960104266208 -0.25337521291708431 0 0.34085981799452653 -0.25455560004888428 0 0.33393828138323017 -0.26784677442940691 0 0.34166105558213938 -0.24408489694570171 0 0.33522960104266208 -0.25337521291708431 0 0.34085981799452653 -0.25455560004888428 0 0.33522960104266208 -0.25337521291708431 0 0.34085981799452653 -0.25455560004888428 0 0.34085981799452653 -0.25455560004888428 0 0.33886639212725589 -0.28060601348064751 0 0.31827268247365492 -0.2778696924224715 0 0.33522960104266208 -0.25337521291708431 0 0.33393828138323017 -0.26784677442940691 0 0.34085981799452653 -0.25455560004888428 0 0.33886639212725589 -0.28060601348064751 0 0.34921849704376318 -0.26606338520110601 0 0.34085981799452653 -0.25455560004888428 0 0.33393828138323017 -0.26784677442940691 0 0.33886639212725589 -0.28060601348064751 0 0.32962004950497359 -0.27793659764073442 0 0.33393828138323017 -0.26784677442940691 0 0.33886639212725589 -0.28060601348064751 0 0.33886639212725589 -0.28060601348064751 0 0.34921849704376318 -0.26606338520110601 0 0.35616244459581953 -0.29074639033794641 0 0.34921849704376318 -0.26606338520110601 0 0.35728010563060292 -0.25799814878045108 0 0.36540545610919711 -0.27330697177037949 0 0.34921849704376318 -0.26606338520110601 0 0.35616244459581953 -0.29074639033794641 0 0.34921849704376318 -0.26606338520110601 0 0.36540545610919711 -0.27330697177037949 0 0.35616244459581953 -0.29074639033794641 0 0.34085981799452653 -0.25455560004888428 0 0.34921849704376318 -0.26606338520110601 0 0.35728010563060292 -0.25799814878045108 0 0.34085981799452653 -0.25455560004888428 0 0.35728010563060292 -0.25799814878045108 0 0.34827194410883477 -0.24962947829423141 0 0.34085981799452653 -0.25455560004888428 0 0.35728010563060292 -0.25799814878045108 0 0.34827194410883477 -0.24962947829423141 0 0.35416600398950149 -0.2473491277707037 0 0.35728010563060292 -0.25799814878045108 0 0.35416600398950149 -0.2473491277707037 0 0.36623137691718621 -0.24612340234968069 0 0.35728010563060292 -0.25799814878045108 0 0.36623137691718621 -0.24612340234968069 0 0.38321218571859827 -0.25330458634709963 0 0.37055245103467022 -0.25965825080247862 0 0.36623137691718621 -0.24612340234968069 0 0.35728010563060292 -0.25799814878045108 0 0.37055245103467022 -0.25965825080247862 0 0.35728010563060292 -0.25799814878045108 0 0.37055245103467022 -0.25965825080247862 0 0.36540545610919711 -0.27330697177037949 0 0.38063313079776628 -0.26755814476478218 0 0.37055245103467022 -0.25965825080247862 0 0.36540545610919711 -0.27330697177037949 0 0.37530930730634948 -0.29018265971069779 0 0.36540545610919711 -0.27330697177037949 0 0.35616244459581953 -0.29074639033794641 0 0.33687296625998531 -0.30665642691241052 0 0.33886639212725589 -0.28060601348064751 0 0.35616244459581953 -0.29074639033794641 0 0.33687296625998531 -0.30665642691241052 0 0.35616244459581953 -0.29074639033794641 0 0.34745375614733581 -0.31862597148722188 0 0.35616244459581953 -0.29074639033794641 0 0.36310639214787582 -0.31542939547478688 0 0.34745375614733581 -0.31862597148722188 0 0.38581660823989672 -0.3047253364055178 0 0.37530930730634948 -0.29018265971069779 0 0.36310639214787582 -0.31542939547478688 0 0.35616244459581953 -0.29074639033794641 0 0.36310639214787582 -0.31542939547478688 0 0.37530930730634948 -0.29018265971069779 0 0.35616244459581953 -0.29074639033794641 0 0.36310639214787582 -0.31542939547478688 0 0.36310639214787582 -0.31542939547478688 0 0.37005033969993217 -0.34011240061162762 0 0.38328451301518091 -0.3230710404466291 0 0.36310639214787582 -0.31542939547478688 0 0.37005033969993217 -0.34011240061162762 0 0.37005033969993217 -0.34011240061162762 0 0.35837040196881209 -0.33192343371158822 0 0.36695170191006588 -0.35049163851487769 0 0.36310639214787582 -0.31542939547478688 0 0.37005033969993217 -0.34011240061162762 0 0.35837040196881209 -0.33192343371158822 0 0.34428981993885083 -0.33495776246942682 0 0.35837040196881209 -0.33192343371158822 0 0.36695170191006588 -0.35049163851487769 0 0.34428981993885083 -0.33495776246942682 0 0.35837040196881209 -0.33192343371158822 0 0.34745375614733581 -0.31862597148722188 0 0.34428981993885083 -0.33495776246942682 0 0.36695170191006588 -0.35049163851487769 0 0.36310639214787582 -0.31542939547478688 0 0.35837040196881209 -0.33192343371158822 0 0.34745375614733581 -0.31862597148722188 0 0.37699428725198858 -0.36479540574846819 0 0.36760885981555541 -0.38222571953646228 0 0.36119575370287221 -0.36629832868809531 0 0.37699428725198858 -0.36479540574846819 0 0.36119575370287221 -0.36629832868809531 0 0.36695170191006588 -0.35049163851487769 0 0.37699428725198858 -0.36479540574846819 0 0.37005033969993217 -0.34011240061162762 0 0.36695170191006588 -0.35049163851487769 0 0.37699428725198858 -0.36479540574846819 0 0.37005033969993217 -0.34011240061162762 0 0.36119575370287221 -0.36629832868809531 0 0.36695170191006588 -0.35049163851487769 0 0.35252621068891782 -0.35413167440289239 0 0.34428981993885083 -0.33495776246942682 0 0.35252621068891782 -0.35413167440289239 0 0.34181872776188071 -0.35128144557633689 0 0.35252621068891782 -0.35413167440289239 0 0.34837505013091891 -0.36762919676572547 0 0.34181872776188071 -0.35128144557633689 0 0.34428981993885083 -0.33495776246942682 0 0.36695170191006588 -0.35049163851487769 0 0.35252621068891782 -0.35413167440289239 0 0.36119575370287221 -0.36629832868809531 0 0.35252621068891782 -0.35413167440289239 0 0.34837505013091891 -0.36762919676572547 0 0.35434771413026589 -0.38001681696233941 0 0.36119575370287221 -0.36629832868809531 0 0.34837505013091891 -0.36762919676572547 0 0.34227209971440781 -0.38386378725714898 0 0.34837505013091891 -0.36762919676572547 0 0.32970446080465438 -0.364934445317247 0 0.34227209971440781 -0.38386378725714898 0 0.32970446080465438 -0.364934445317247 0 0.34837505013091891 -0.36762919676572547 0 0.32970446080465438 -0.364934445317247 0 0.33456137250678442 -0.35735429627793958 0 0.34837505013091891 -0.36762919676572547 0 0.32970446080465438 -0.364934445317247 0 0.32970446080465438 -0.364934445317247 0 0.33456137250678442 -0.35735429627793958 0 0.32538353942006892 -0.35842628583147418 0 0.34837505013091891 -0.36762919676572547 0 0.33456137250678442 -0.35735429627793958 0 0.34181872776188071 -0.35128144557633689 0 0.33456137250678442 -0.35735429627793958 0 0.32752508441639899 -0.34450010789891461 0 0.32538353942006892 -0.35842628583147418 0 0.33456137250678442 -0.35735429627793958 0 0.34181872776188071 -0.35128144557633689 0 0.32752508441639899 -0.34450010789891461 0 0.32752508441639899 -0.34450010789891461 0 0.31447849833716812 -0.35038899963376152 0 0.3117587303592923 -0.33722758909271577 0 0.31447849833716812 -0.35038899963376152 0 0.32538353942006892 -0.35842628583147418 0 0.30440833329482292 -0.36128342096783878 0 0.32752508441639899 -0.34450010789891461 0 0.31447849833716812 -0.35038899963376152 0 0.32538353942006892 -0.35842628583147418 0 0.32970446080465438 -0.364934445317247 0 0.32538353942006892 -0.35842628583147418 0 0.30440833329482292 -0.36128342096783878 0 0.32970446080465438 -0.364934445317247 0 0.31596760369855648 -0.37065263945823018 0 0.30440833329482292 -0.36128342096783878 0 0.32970446080465438 -0.364934445317247 0 0.30440833329482292 -0.36128342096783878 0 0.32970446080465438 -0.364934445317247 0 0.32538353942006892 -0.35842628583147418 0 0.32916117830117042 -0.38003920481521691 0 0.32235835866870732 -0.37527386148074909 0 0.32970446080465438 -0.364934445317247 0 0.32235835866870732 -0.37527386148074909 0 0.32970446080465438 -0.364934445317247 0 0.31596760369855648 -0.37065263945823018 0 0.34428981993885083 -0.33495776246942682 0 0.34745375614733581 -0.31862597148722188 0 0.32162793796763589 -0.31942388642397579 0 0.34428981993885083 -0.33495776246942682 0 0.32162793796763589 -0.31942388642397579 0 0.33687296625998531 -0.30665642691241052 0 0.34745375614733581 -0.31862597148722188 0 0.32162793796763589 -0.31942388642397579 0 0.34428981993885083 -0.33495776246942682 0 0.34181872776188071 -0.35128144557633689 0 0.32752508441639899 -0.34450010789891461 0 0.34428981993885083 -0.33495776246942682 0 0.32752508441639899 -0.34450010789891461 0 0.32162793796763589 -0.31942388642397579 0 0.32752508441639899 -0.34450010789891461 0 0.32162793796763589 -0.31942388642397579 0 0.3117587303592923 -0.33722758909271577 0 0.32162793796763589 -0.31942388642397579 0 0.302455964221579 -0.32309598386348271 0 0.3117587303592923 -0.33722758909271577 0 0.32162793796763589 -0.31942388642397579 0 0.302455964221579 -0.32309598386348271 0 0.29896605599641801 -0.30389001037852892 0 0.302455964221579 -0.32309598386348271 0 0.3117587303592923 -0.33722758909271577 0 0.30043130815959102 -0.33645333466643101 0 0.3117587303592923 -0.33722758909271577 0 0.30043130815959102 -0.33645333466643101 0 0.30505942883426979 -0.34590399454368748 0 0.30043130815959102 -0.33645333466643101 0 0.30505942883426979 -0.34590399454368748 0 0.29379786573800282 -0.34534042057399222 0 0.302455964221579 -0.32309598386348271 0 0.30043130815959102 -0.33645333466643101 0 0.28908455164481112 -0.33069868525827661 0 0.28908455164481112 -0.33069868525827661 0 0.29379786573800282 -0.34534042057399222 0 0.27784386999102317 -0.34119834328864779 0 0.28908455164481112 -0.33069868525827661 0 0.27841251752527929 -0.31723693711213818 0 0.27784386999102317 -0.34119834328864779 0 0.30043130815959102 -0.33645333466643101 0 0.28908455164481112 -0.33069868525827661 0 0.29379786573800282 -0.34534042057399222 0 0.302455964221579 -0.32309598386348271 0 0.28908455164481112 -0.33069868525827661 0 0.27841251752527929 -0.31723693711213818 0 0.302455964221579 -0.32309598386348271 0 0.27841251752527929 -0.31723693711213818 0 0.29896605599641801 -0.30389001037852892 0 0.31596760369855648 -0.37065263945823018 0 0.30113149545930068 -0.36918084242875432 0 0.30440833329482292 -0.36128342096783878 0 0.30113149545930068 -0.36918084242875432 0 0.30440833329482292 -0.36128342096783878 0 0.29274265150653411 -0.36752729198568213 0 0.30440833329482292 -0.36128342096783878 0 0.30505942883426979 -0.34590399454368748 0 0.29379786573800282 -0.34534042057399222 0 0.31447849833716812 -0.35038899963376152 0 0.30440833329482292 -0.36128342096783878 0 0.30505942883426979 -0.34590399454368748 0 0.31447849833716812 -0.35038899963376152 0 0.3117587303592923 -0.33722758909271577 0 0.30505942883426979 -0.34590399454368748 0 0.30440833329482292 -0.36128342096783878 0 0.28879056870221009 -0.35136364536222731 0 0.27911220578499152 -0.35763239661843021 0 0.28879056870221009 -0.35136364536222731 0 0.29379786573800282 -0.34534042057399222 0 0.27784386999102317 -0.34119834328864779 0 0.30440833329482292 -0.36128342096783878 0 0.28879056870221009 -0.35136364536222731 0 0.29379786573800282 -0.34534042057399222 0 0.28879056870221009 -0.35136364536222731 0 0.27911220578499152 -0.35763239661843021 0 0.27784386999102317 -0.34119834328864779 0 0.29274265150653411 -0.36752729198568213 0 0.28096274193657372 -0.37045374016907939 0 0.27170589613477802 -0.3670954456801907 0 0.30440833329482292 -0.36128342096783878 0 0.29274265150653411 -0.36752729198568213 0 0.27911220578499152 -0.35763239661843021 0 0.30440833329482292 -0.36128342096783878 0 0.27911220578499152 -0.35763239661843021 0 0.29418417212580589 -0.37525034768425602 0 0.28096274193657372 -0.37045374016907939 0 0.29447537986537131 -0.3768105151646638 0 0.28096274193657372 -0.37045374016907939 0 0.29418417212580589 -0.37525034768425602 0 0.29447537986537131 -0.3768105151646638 0 0.28096274193657372 -0.37045374016907939 0 0.29418417212580589 -0.37525034768425602 0 0.29274265150653411 -0.36752729198568213 0 0.28096274193657372 -0.37045374016907939 0 0.29418417212580589 -0.37525034768425602 0 0.30113149545930068 -0.36918084242875432 0 0.29274265150653411 -0.36752729198568213 0 0.29418417212580589 -0.37525034768425602 0 0.29447537986537131 -0.3768105151646638 0 0.30113149545930068 -0.36918084242875432 0 0.29418417212580589 -0.37525034768425602 0 0.29274265150653411 -0.36752729198568213 0 0.27170589613477802 -0.3670954456801907 0 0.27911220578499152 -0.35763239661843021 0 0.25381607827516012 -0.35398137226902138 0 0.29274265150653411 -0.36752729198568213 0 0.27170589613477802 -0.3670954456801907 0 0.27911220578499152 -0.35763239661843021 0 0.27464971511150321 -0.37630027735682092 0 0.27170589613477802 -0.3670954456801907 0 0.262690742381811 -0.37333920002399568 0 0.27464971511150321 -0.37630027735682092 0 0.28096274193657372 -0.37045374016907939 0 0.27170589613477802 -0.3670954456801907 0 0.28096274193657372 -0.37045374016907939 0 0.27170589613477802 -0.3670954456801907 0 0.27911220578499152 -0.35763239661843021 0 0.26802377539514638 -0.35443664101382449 0 0.27784386999102317 -0.34119834328864779 0 0.27911220578499152 -0.35763239661843021 0 0.26802377539514638 -0.35443664101382449 0 0.25381607827516012 -0.35398137226902138 0 0.27911220578499152 -0.35763239661843021 0 0.25381607827516012 -0.35398137226902138 0 0.26802377539514638 -0.35443664101382449 0 0.25359841797159399 -0.34484128490065369 0 0.25381607827516012 -0.35398137226902138 0 0.25359841797159399 -0.34484128490065369 0 0.25381607827516012 -0.35398137226902138 0 0.2451391244293312 -0.34984671905535208 0 0.27170589613477802 -0.3670954456801907 0 0.262690742381811 -0.37333920002399568 0 0.24922762014374999 -0.35894054367612571 0 0.27170589613477802 -0.3670954456801907 0 0.24922762014374999 -0.35894054367612571 0 0.25190404077164091 -0.37878861243398149 0 0.262690742381811 -0.37333920002399568 0 0.24922762014374999 -0.35894054367612571 0 0.27170589613477802 -0.3670954456801907 0 0.25381607827516012 -0.35398137226902138 0 0.24922762014374999 -0.35894054367612571 0 0.27841251752527929 -0.31723693711213818 0 0.25785897905413929 -0.33058386384574562 0 0.26717016621293183 -0.30494475301237528 0 0.27841251752527929 -0.31723693711213818 0 0.25785897905413929 -0.33058386384574562 0 0.26802377539514638 -0.35443664101382449 0 0.27784386999102317 -0.34119834328864779 0 0.25785897905413929 -0.33058386384574562 0 0.27841251752527929 -0.31723693711213818 0 0.27784386999102317 -0.34119834328864779 0 0.25785897905413929 -0.33058386384574562 0 0.26802377539514638 -0.35443664101382449 0 0.25359841797159399 -0.34484128490065369 0 0.25785897905413929 -0.33058386384574562 0 0.26802377539514638 -0.35443664101382449 0 0.25785897905413929 -0.33058386384574562 0 0.25359841797159399 -0.34484128490065369 0 0.25785897905413929 -0.33058386384574562 0 0.24230416160343049 -0.34068475275890181 0 0.25785897905413929 -0.33058386384574562 0 0.24230416160343049 -0.34068475275890181 0 0.25785897905413929 -0.33058386384574562 0 0.24764504661855291 -0.30661578359872738 0 0.25785897905413929 -0.33058386384574562 0 0.26717016621293183 -0.30494475301237528 0 0.24764504661855291 -0.30661578359872738 0 0.26074699086935871 -0.2911215678672705 0 0.26717016621293183 -0.30494475301237528 0 0.24764504661855291 -0.30661578359872738 0 0.26074699086935871 -0.2911215678672705 0 0.24985800220588339 -0.28508611202049522 0 0.24764504661855291 -0.30661578359872738 0 0.26074699086935871 -0.2911215678672705 0 0.25990333924416748 -0.27590230766890822 0 0.24985800220588339 -0.28508611202049522 0 0.26074699086935871 -0.2911215678672705 0 0.27560143369997092 -0.29143784747115098 0 0.2749641108410239 -0.27647352846798462 0 0.26074699086935871 -0.2911215678672705 0 0.27560143369997092 -0.29143784747115098 0 0.26717016621293183 -0.30494475301237528 0 0.27560143369997092 -0.29143784747115098 0 0.28831351008925921 -0.28943470230415602 0 0.2749641108410239 -0.27647352846798462 0 0.27841251752527929 -0.31723693711213818 0 0.26717016621293183 -0.30494475301237528 0 0.28094550449722933 -0.30087665020819448 0 0.27560143369997092 -0.29143784747115098 0 0.26717016621293183 -0.30494475301237528 0 0.28094550449722933 -0.30087665020819448 0 0.27841251752527929 -0.31723693711213818 0 0.29522989495870527 -0.30132901114115201 0 0.29896605599641801 -0.30389001037852892 0 0.27841251752527929 -0.31723693711213818 0 0.28094550449722933 -0.30087665020819448 0 0.29522989495870527 -0.30132901114115201 0 0.27841251752527929 -0.31723693711213818 0 0.29896605599641801 -0.30389001037852892 0 0.28094550449722933 -0.30087665020819448 0 0.29522989495870527 -0.30132901114115201 0 0.28831351008925921 -0.28943470230415602 0 0.27560143369997092 -0.29143784747115098 0 0.28094550449722933 -0.30087665020819448 0 0.28831351008925921 -0.28943470230415602 0 0.28831351008925921 -0.28943470230415602 0 0.29935262508711957 -0.28613562696679762 0 0.29040588927153521 -0.2733884181434264 0 0.29522989495870527 -0.30132901114115201 0 0.28831351008925921 -0.28943470230415602 0 0.29935262508711957 -0.28613562696679762 0 0.29522989495870527 -0.30132901114115201 0 0.29935262508711957 -0.28613562696679762 0 0.3013157639046502 -0.30236417192786053 0 0.31827268247365492 -0.2778696924224715 0 0.3013157639046502 -0.30236417192786053 0 0.31435930297020243 -0.29389404107913703 0 0.31827268247365492 -0.2778696924224715 0 0.3013157639046502 -0.30236417192786053 0 0.31827268247365492 -0.2778696924224715 0 0.29935262508711957 -0.28613562696679762 0 0.3013157639046502 -0.30236417192786053 0 0.32162793796763589 -0.31942388642397579 0 0.29896605599641801 -0.30389001037852892 0 0.31638967623209591 -0.30711562477148141 0 0.32162793796763589 -0.31942388642397579 0 0.29896605599641801 -0.30389001037852892 0 0.31435930297020243 -0.29389404107913703 0 0.3013157639046502 -0.30236417192786053 0 0.31638967623209591 -0.30711562477148141 0 0.29896605599641801 -0.30389001037852892 0 0.3013157639046502 -0.30236417192786053 0 0.31638967623209591 -0.30711562477148141 0 0.31435930297020243 -0.29389404107913703 0 0.3013157639046502 -0.30236417192786053 0 0.29522989495870527 -0.30132901114115201 0 0.29896605599641801 -0.30389001037852892 0 0.3013157639046502 -0.30236417192786053 0 0.29896605599641801 -0.30389001037852892 0 0.3013157639046502 -0.30236417192786053 0 0.29522989495870527 -0.30132901114115201 0 0.29896605599641801 -0.30389001037852892 0 0.29067411227554779 -0.24403405856345761 0 0.31295185665910491 -0.2487046357402711 0 0.29639028396785971 -0.25965185649195099 0 0.31295185665910491 -0.2487046357402711 0 0.30347466749185492 -0.26915004595298347 0 0.29639028396785971 -0.25965185649195099 0 0.31295185665910491 -0.2487046357402711 0 0.31827268247365492 -0.2778696924224715 0 0.30347466749185492 -0.26915004595298347 0 0.29935262508711957 -0.28613562696679762 0 0.30347466749185492 -0.26915004595298347 0 0.29040588927153521 -0.2733884181434264 0 0.31827268247365492 -0.2778696924224715 0 0.29935262508711957 -0.28613562696679762 0 0.30347466749185492 -0.26915004595298347 0 0.30347466749185492 -0.26915004595298347 0 0.29040588927153521 -0.2733884181434264 0 0.29639028396785971 -0.25965185649195099 0 0.28831351008925921 -0.28943470230415602 0 0.29040588927153521 -0.2733884181434264 0 0.2749641108410239 -0.27647352846798462 0 0.29040588927153521 -0.2733884181434264 0 0.28601895724978621 -0.26015073871410183 0 0.2749641108410239 -0.27647352846798462 0 0.29067411227554779 -0.24403405856345761 0 0.28601895724978621 -0.26015073871410183 0 0.29639028396785971 -0.25965185649195099 0 0.29067411227554779 -0.24403405856345761 0 0.28601895724978621 -0.26015073871410183 0 0.27239139279938401 -0.25827070867164342 0 0.29040588927153521 -0.2733884181434264 0 0.28601895724978621 -0.26015073871410183 0 0.29639028396785971 -0.25965185649195099 0 0.28601895724978621 -0.26015073871410183 0 0.27239139279938401 -0.25827070867164342 0 0.2749641108410239 -0.27647352846798462 0 0.27239139279938401 -0.25827070867164342 0 0.2749641108410239 -0.27647352846798462 0 0.25990333924416748 -0.27590230766890822 0 0.25990333924416748 -0.27590230766890822 0 0.25459827700782978 -0.25420491646283988 0 0.24356352011437149 -0.26914319761586047 0 0.25990333924416748 -0.27590230766890822 0 0.24356352011437149 -0.26914319761586047 0 0.24985800220588339 -0.28508611202049522 0 0.25990333924416748 -0.27590230766890822 0 0.24356352011437149 -0.26914319761586047 0 0.26074699086935871 -0.2911215678672705 0 0.2749641108410239 -0.27647352846798462 0 0.25990333924416748 -0.27590230766890822 0 0.26839636789199067 -0.23936348138664409 0 0.27239139279938401 -0.25827070867164342 0 0.25459827700782978 -0.25420491646283988 0 0.27239139279938401 -0.25827070867164342 0 0.25990333924416748 -0.27590230766890822 0 0.25459827700782978 -0.25420491646283988 0 0.24356352011437149 -0.26914319761586047 0 0.22722370098457539 -0.26238408756281312 0 0.23667116224650531 -0.24853849588632479 0 0.25459827700782978 -0.25420491646283988 0 0.24356352011437149 -0.26914319761586047 0 0.23667116224650531 -0.24853849588632479 0 0.24356352011437149 -0.26914319761586047 0 0.22722370098457539 -0.26238408756281312 0 0.24356352011437149 -0.26914319761586047 0 0.23743111418296661 -0.2826477033517093 0 0.24985800220588339 -0.28508611202049522 0 0.24356352011437149 -0.26914319761586047 0 0.2294150537815193 -0.27473355426961488 0 0.23743111418296661 -0.2826477033517093 0 0.24356352011437149 -0.26914319761586047 0 0.2294150537815193 -0.27473355426961488 0 0.22722370098457539 -0.26238408756281312 0 0.22722370098457539 -0.26238408756281312 0 0.2174572565499131 -0.27669716046403658 0 0.2294150537815193 -0.27473355426961488 0 0.22722370098457539 -0.26238408756281312 0 0.2174572565499131 -0.27669716046403658 0 0.22722370098457539 -0.26238408756281312 0 0.21404758932110149 -0.26620262480047502 0 0.2174572565499131 -0.27669716046403658 0 0.2294150537815193 -0.27473355426961488 0 0.2174572565499131 -0.27669716046403658 0 0.2242300539343422 -0.2879152421612175 0 0.22722370098457539 -0.26238408756281312 0 0.20796349804076891 -0.25441693503149559 0 0.22207874927574189 -0.24063676229557179 0 0.22722370098457539 -0.26238408756281312 0 0.23667116224650531 -0.24853849588632479 0 0.22207874927574189 -0.24063676229557179 0 0.22722370098457539 -0.26238408756281312 0 0.23667116224650531 -0.24853849588632479 0 0.22722370098457539 -0.26238408756281312 0 0.20796349804076891 -0.25441693503149559 0 0.20796349804076891 -0.25441693503149559 0 0.21404758932110149 -0.26620262480047502 0 0.20354590170914841 -0.27131231614355472 0 0.22722370098457539 -0.26238408756281312 0 0.20796349804076891 -0.25441693503149559 0 0.21404758932110149 -0.26620262480047502 0 0.2174572565499131 -0.27669716046403658 0 0.20354590170914841 -0.27131231614355472 0 0.20769081211525081 -0.29101023336525988 0 0.21404758932110149 -0.26620262480047502 0 0.2174572565499131 -0.27669716046403658 0 0.20354590170914841 -0.27131231614355472 0 0.1922111148233874 -0.2706546841744738 0 0.18932760552196359 -0.28468165578127419 0 0.18233089377288331 -0.26834753251688742 0 0.20354590170914841 -0.27131231614355472 0 0.1922111148233874 -0.2706546841744738 0 0.19364005828955419 -0.25827723225617888 0 0.20354590170914841 -0.27131231614355472 0 0.1922111148233874 -0.2706546841744738 0 0.18932760552196359 -0.28468165578127419 0 0.1922111148233874 -0.2706546841744738 0 0.19364005828955419 -0.25827723225617888 0 0.18233089377288331 -0.26834753251688742 0 0.20796349804076891 -0.25441693503149559 0 0.20354590170914841 -0.27131231614355472 0 0.19364005828955419 -0.25827723225617888 0 0.20796349804076891 -0.25441693503149559 0 0.1878224433694867 -0.24701966137190001 0 0.20796349804076891 -0.25441693503149559 0 0.19364005828955419 -0.25827723225617888 0 0.1878224433694867 -0.24701966137190001 0 0.19364005828955419 -0.25827723225617888 0 0.1851970887925623 -0.25550835540064609 0 0.1878224433694867 -0.24701966137190001 0 0.19364005828955419 -0.25827723225617888 0 0.1878224433694867 -0.24701966137190001 0 0.20051951102305399 -0.30152003107269443 0 0.1888496296129166 -0.29882356407039529 0 0.20769081211525081 -0.29101023336525988 0 0.20051951102305399 -0.30152003107269443 0 0.19011236292837511 -0.31033573026842581 0 0.2014820858764462 -0.31900455402692401 0 0.20051951102305399 -0.30152003107269443 0 0.19011236292837511 -0.31033573026842581 0 0.1888496296129166 -0.29882356407039529 0 0.20354590170914841 -0.27131231614355472 0 0.18932760552196359 -0.28468165578127419 0 0.20769081211525081 -0.29101023336525988 0 0.18932760552196359 -0.28468165578127419 0 0.20769081211525081 -0.29101023336525988 0 0.1888496296129166 -0.29882356407039529 0 0.18932760552196359 -0.28468165578127419 0 0.20769081211525081 -0.29101023336525988 0 0.2174572565499131 -0.27669716046403658 0 0.20769081211525081 -0.29101023336525988 0 0.21194548026722029 -0.29247653487186631 0 0.20051951102305399 -0.30152003107269443 0 0.20769081211525081 -0.29101023336525988 0 0.2174572565499131 -0.27669716046403658 0 0.21194548026722029 -0.29247653487186631 0 0.2242300539343422 -0.2879152421612175 0 0.20769081211525081 -0.29101023336525988 0 0.21194548026722029 -0.29247653487186631 0 0.20769081211525081 -0.29101023336525988 0 0.21194548026722029 -0.29247653487186631 0 0.2103198660078105 -0.29835929871172312 0 0.2174572565499131 -0.27669716046403658 0 0.20769081211525081 -0.29101023336525988 0 0.21194548026722029 -0.29247653487186631 0 0.2103198660078105 -0.29835929871172312 0 0.21920370558466501 -0.29904144925576398 0 0.21194548026722029 -0.29247653487186631 0 0.21920370558466501 -0.29904144925576398 0 0.2242300539343422 -0.2879152421612175 0 0.2103198660078105 -0.29835929871172312 0 0.21223982104886241 -0.30774824499303088 0 0.21920370558466501 -0.29904144925576398 0 0.20051951102305399 -0.30152003107269443 0 0.21223982104886241 -0.30774824499303088 0 0.2014820858764462 -0.31900455402692401 0 0.20051951102305399 -0.30152003107269443 0 0.2103198660078105 -0.29835929871172312 0 0.21223982104886241 -0.30774824499303088 0 0.20051951102305399 -0.30152003107269443 0 0.20769081211525081 -0.29101023336525988 0 0.2103198660078105 -0.29835929871172312 0 0.21223982104886241 -0.30774824499303088 0 0.22373203912049619 -0.30950421349670743 0 0.21920370558466501 -0.29904144925576398 0 0.21223982104886241 -0.30774824499303088 0 0.22373203912049619 -0.30950421349670743 0 0.21964511135552359 -0.31970746817562479 0 0.22373203912049619 -0.30950421349670743 0 0.23198509106127799 -0.30089160119562219 0 0.23558646655215201 -0.32013230386349523 0 0.22373203912049619 -0.30950421349670743 0 0.21920370558466501 -0.29904144925576398 0 0.23198509106127799 -0.30089160119562219 0 0.23198509106127799 -0.30089160119562219 0 0.2242300539343422 -0.2879152421612175 0 0.23743111418296661 -0.2826477033517093 0 0.21920370558466501 -0.29904144925576398 0 0.23198509106127799 -0.30089160119562219 0 0.2242300539343422 -0.2879152421612175 0 0.2294150537815193 -0.27473355426961488 0 0.2242300539343422 -0.2879152421612175 0 0.23743111418296661 -0.2826477033517093 0 0.23198509106127799 -0.30089160119562219 0 0.23743111418296661 -0.2826477033517093 0 0.24764504661855291 -0.30661578359872738 0 0.23743111418296661 -0.2826477033517093 0 0.24764504661855291 -0.30661578359872738 0 0.23743111418296661 -0.2826477033517093 0 0.24985800220588339 -0.28508611202049522 0 0.24764504661855291 -0.30661578359872738 0 0.23198509106127799 -0.30089160119562219 0 0.24764504661855291 -0.30661578359872738 0 0.23558646655215201 -0.32013230386349523 0 0.25785897905413929 -0.33058386384574562 0 0.24764504661855291 -0.30661578359872738 0 0.23558646655215201 -0.32013230386349523 0 0.23558646655215201 -0.32013230386349523 0 0.24230416160343049 -0.34068475275890181 0 0.226210614054354 -0.3348759428301803 0 0.25785897905413929 -0.33058386384574562 0 0.23558646655215201 -0.32013230386349523 0 0.24230416160343049 -0.34068475275890181 0 0.24230416160343049 -0.34068475275890181 0 0.226210614054354 -0.3348759428301803 0 0.2267493441527226 -0.35078564167205939 0 0.226210614054354 -0.3348759428301803 0 0.21964511135552359 -0.31970746817562479 0 0.21244202790528829 -0.33137389922960508 0 0.23558646655215201 -0.32013230386349523 0 0.226210614054354 -0.3348759428301803 0 0.21964511135552359 -0.31970746817562479 0 0.22373203912049619 -0.30950421349670743 0 0.23558646655215201 -0.32013230386349523 0 0.21964511135552359 -0.31970746817562479 0 0.25190404077164091 -0.37878861243398149 0 0.2367453795638107 -0.36198764981042442 0 0.24922762014374999 -0.35894054367612571 0 0.25190404077164091 -0.37878861243398149 0 0.2367453795638107 -0.36198764981042442 0 0.2284837745051248 -0.37182823249355101 0 0.24922762014374999 -0.35894054367612571 0 0.2451391244293312 -0.34984671905535208 0 0.2267493441527226 -0.35078564167205939 0 0.24922762014374999 -0.35894054367612571 0 0.2267493441527226 -0.35078564167205939 0 0.24230416160343049 -0.34068475275890181 0 0.2451391244293312 -0.34984671905535208 0 0.2267493441527226 -0.35078564167205939 0 0.2367453795638107 -0.36198764981042442 0 0.24922762014374999 -0.35894054367612571 0 0.2267493441527226 -0.35078564167205939 0 0.25381607827516012 -0.35398137226902138 0 0.24922762014374999 -0.35894054367612571 0 0.2451391244293312 -0.34984671905535208 0 0.25359841797159399 -0.34484128490065369 0 0.24230416160343049 -0.34068475275890181 0 0.2451391244293312 -0.34984671905535208 0 0.24230416160343049 -0.34068475275890181 0 0.2267493441527226 -0.35078564167205939 0 0.226210614054354 -0.3348759428301803 0 0.2267493441527226 -0.35078564167205939 0 0.21637658056877981 -0.34702250296106052 0 0.2267493441527226 -0.35078564167205939 0 0.22476680613999761 -0.35207304965971598 0 0.21637658056877981 -0.34702250296106052 0 0.22476680613999761 -0.35207304965971598 0 0.21637658056877981 -0.34702250296106052 0 0.2267493441527226 -0.35078564167205939 0 0.21637658056877981 -0.34702250296106052 0 0.2267493441527226 -0.35078564167205939 0 0.22476680613999761 -0.35207304965971598 0 0.22476680613999761 -0.35207304965971598 0 0.22711234121814641 -0.35348495859410228 0 0.22476680613999761 -0.35207304965971598 0 0.22711234121814641 -0.35348495859410228 0 0.2244343619331377 -0.36084834862218329 0 0.2267493441527226 -0.35078564167205939 0 0.22476680613999761 -0.35207304965971598 0 0.22711234121814641 -0.35348495859410228 0 0.2367453795638107 -0.36198764981042442 0 0.2267493441527226 -0.35078564167205939 0 0.22711234121814641 -0.35348495859410228 0 0.2367453795638107 -0.36198764981042442 0 0.22711234121814641 -0.35348495859410228 0 0.2244343619331377 -0.36084834862218329 0 0.2244343619331377 -0.36084834862218329 0 0.2284837745051248 -0.37182823249355101 0 0.20506350823860831 -0.36486785255312187 0 0.2367453795638107 -0.36198764981042442 0 0.2244343619331377 -0.36084834862218329 0 0.2284837745051248 -0.37182823249355101 0 0.2284837745051248 -0.37182823249355101 0 0.20506350823860831 -0.36486785255312187 0 0.2284837745051248 -0.37182823249355101 0 0.20506350823860831 -0.36486785255312187 0 0.21229838175373561 -0.38308939553574872 0 0.22476680613999761 -0.35207304965971598 0 0.2244343619331377 -0.36084834862218329 0 0.20506350823860831 -0.36486785255312187 0 0.22476680613999761 -0.35207304965971598 0 0.20506350823860831 -0.36486785255312187 0 0.21018550944808309 -0.35261206003506063 0 0.22476680613999761 -0.35207304965971598 0 0.20506350823860831 -0.36486785255312187 0 0.20506350823860831 -0.36486785255312187 0 0.21018550944808309 -0.35261206003506063 0 0.19721649869384411 -0.34975094994117828 0 0.22476680613999761 -0.35207304965971598 0 0.21018550944808309 -0.35261206003506063 0 0.21637658056877981 -0.34702250296106052 0 0.21018550944808309 -0.35261206003506063 0 0.21637658056877981 -0.34702250296106052 0 0.20914976529965409 -0.34440068399484058 0 0.21637658056877981 -0.34702250296106052 0 0.20914976529965409 -0.34440068399484058 0 0.21018550944808309 -0.35261206003506063 0 0.20914976529965409 -0.34440068399484058 0 0.19721649869384411 -0.34975094994117828 0 0.20506350823860831 -0.36486785255312187 0 0.19721649869384411 -0.34975094994117828 0 0.1778360593637334 -0.35677599796781528 0 0.20506350823860831 -0.36486785255312187 0 0.1778360593637334 -0.35677599796781528 0 0.18747889050399891 -0.3762868403284842 0 0.20506350823860831 -0.36486785255312187 0 0.20120744264676291 -0.37914225101236099 0 0.18747889050399891 -0.3762868403284842 0 0.20506350823860831 -0.36486785255312187 0 0.18747889050399891 -0.3762868403284842 0 0.20506350823860831 -0.36486785255312187 0 0.1778360593637334 -0.35677599796781528 0 0.21964511135552359 -0.31970746817562479 0 0.21244202790528829 -0.33137389922960508 0 0.2014820858764462 -0.31900455402692401 0 0.21223982104886241 -0.30774824499303088 0 0.21964511135552359 -0.31970746817562479 0 0.2014820858764462 -0.31900455402692401 0 0.21244202790528829 -0.33137389922960508 0 0.19849574767133779 -0.33625902815423608 0 0.2014820858764462 -0.31900455402692401 0 0.21637658056877981 -0.34702250296106052 0 0.20914976529965409 -0.34440068399484058 0 0.19849574767133779 -0.33625902815423608 0 0.21637658056877981 -0.34702250296106052 0 0.19849574767133779 -0.33625902815423608 0 0.226210614054354 -0.3348759428301803 0 0.21637658056877981 -0.34702250296106052 0 0.21244202790528829 -0.33137389922960508 0 0.21637658056877981 -0.34702250296106052 0 0.21244202790528829 -0.33137389922960508 0 0.19849574767133779 -0.33625902815423608 0 0.19721649869384411 -0.34975094994117828 0 0.19849574767133779 -0.33625902815423608 0 0.1813984356181465 -0.34033719804019991 0 0.19849574767133779 -0.33625902815423608 0 0.18061491477389571 -0.32549555334741159 0 0.20914976529965409 -0.34440068399484058 0 0.19721649869384411 -0.34975094994117828 0 0.19849574767133779 -0.33625902815423608 0 0.19849574767133779 -0.33625902815423608 0 0.2014820858764462 -0.31900455402692401 0 0.18061491477389571 -0.32549555334741159 0 0.19011236292837511 -0.31033573026842581 0 0.2014820858764462 -0.31900455402692401 0 0.18061491477389571 -0.32549555334741159 0 0.19011236292837511 -0.31033573026842581 0 0.18061491477389571 -0.32549555334741159 0 0.17859824568628929 -0.30885115556577941 0 0.18061491477389571 -0.32549555334741159 0 0.16273408187645361 -0.31473207854058732 0 0.17859824568628929 -0.30885115556577941 0 0.1813984356181465 -0.34033719804019991 0 0.16837499510471099 -0.32804519321088688 0 0.16637537165000121 -0.34727774966950348 0 0.19849574767133779 -0.33625902815423608 0 0.18061491477389571 -0.32549555334741159 0 0.1813984356181465 -0.34033719804019991 0 0.18061491477389571 -0.32549555334741159 0 0.1813984356181465 -0.34033719804019991 0 0.16837499510471099 -0.32804519321088688 0 0.15818257978419309 -0.33485027023674541 0 0.16837499510471099 -0.32804519321088688 0 0.16637537165000121 -0.34727774966950348 0 0.15818257978419309 -0.33485027023674541 0 0.16273408187645361 -0.31473207854058732 0 0.16837499510471099 -0.32804519321088688 0 0.15818257978419309 -0.33485027023674541 0 0.16273408187645361 -0.31473207854058732 0 0.15201124870476071 -0.32597551999936031 0 0.15818257978419309 -0.33485027023674541 0 0.16273408187645361 -0.31473207854058732 0 0.18061491477389571 -0.32549555334741159 0 0.16273408187645361 -0.31473207854058732 0 0.18061491477389571 -0.32549555334741159 0 0.16273408187645361 -0.31473207854058732 0 0.16837499510471099 -0.32804519321088688 0 0.1590299676949686 -0.31250236475137572 0 0.16273408187645361 -0.31473207854058732 0 0.14740212064030281 -0.3177004479576343 0 0.1590299676949686 -0.31250236475137572 0 0.16273408187645361 -0.31473207854058732 0 0.1778360593637334 -0.35677599796781528 0 0.16597099175685209 -0.36946279358780681 0 0.18747889050399891 -0.3762868403284842 0 0.1813984356181465 -0.34033719804019991 0 0.1778360593637334 -0.35677599796781528 0 0.16637537165000121 -0.34727774966950348 0 0.19721649869384411 -0.34975094994117828 0 0.1813984356181465 -0.34033719804019991 0 0.1778360593637334 -0.35677599796781528 0 0.15818257978419309 -0.33485027023674541 0 0.16637537165000121 -0.34727774966950348 0 0.15363107769193271 -0.35496846193290349 0 0.1778360593637334 -0.35677599796781528 0 0.16637537165000121 -0.34727774966950348 0 0.16597099175685209 -0.36946279358780681 0 0.16637537165000121 -0.34727774966950348 0 0.16597099175685209 -0.36946279358780681 0 0.15363107769193271 -0.35496846193290349 0 0.15363107769193271 -0.35496846193290349 0 0.1490795755996723 -0.37508665362906157 0 0.16597099175685209 -0.36946279358780681 0 0.15363107769193271 -0.35496846193290349 0 0.1490795755996723 -0.37508665362906157 0 0.1430422656483534 -0.36288970766019812 0 0.15363107769193271 -0.35496846193290349 0 0.1490795755996723 -0.37508665362906157 0 0.1430422656483534 -0.36288970766019812 0 0.13883482749770429 -0.37269687829702569 0 0.1490795755996723 -0.37508665362906157 0 0.15363107769193271 -0.35496846193290349 0 0.13205030439588331 -0.35553811856731388 0 0.13972621251809331 -0.33661928326247409 0 0.1430422656483534 -0.36288970766019812 0 0.15363107769193271 -0.35496846193290349 0 0.13205030439588331 -0.35553811856731388 0 0.15818257978419309 -0.33485027023674541 0 0.15363107769193271 -0.35496846193290349 0 0.13205030439588331 -0.35553811856731388 0 0.13440249913606589 -0.34191455716014107 0 0.13972621251809331 -0.33661928326247409 0 0.13205030439588331 -0.35553811856731388 0 0.13972621251809331 -0.33661928326247409 0 0.13205030439588331 -0.35553811856731388 0 0.13440249913606589 -0.34191455716014107 0 0.13205030439588331 -0.35553811856731388 0 0.13440249913606589 -0.34191455716014107 0 0.1210432314486411 -0.3472037214702115 0 0.13205030439588331 -0.35553811856731388 0 0.1271444035004578 -0.38395236546812189 0 0.12352918579170739 -0.37654014685097792 0 0.13205030439588331 -0.35553811856731388 0 0.12352918579170739 -0.37654014685097792 0 0.1430422656483534 -0.36288970766019812 0 0.13205030439588331 -0.35553811856731388 0 0.13883482749770429 -0.37269687829702569 0 0.13205030439588331 -0.35553811856731388 0 0.13883482749770429 -0.37269687829702569 0 0.1271444035004578 -0.38395236546812189 0 0.13205030439588331 -0.35553811856731388 0 0.1271444035004578 -0.38395236546812189 0 0.14740212064030281 -0.3177004479576343 0 0.13972621251809331 -0.33661928326247409 0 0.13690860666359159 -0.32739955582501651 0 0.14740212064030281 -0.3177004479576343 0 0.15201124870476071 -0.32597551999936031 0 0.13972621251809331 -0.33661928326247409 0 0.14740212064030281 -0.3177004479576343 0 0.13972621251809331 -0.33661928326247409 0 0.16273408187645361 -0.31473207854058732 0 0.14740212064030281 -0.3177004479576343 0 0.15201124870476071 -0.32597551999936031 0 0.15818257978419309 -0.33485027023674541 0 0.15363107769193271 -0.35496846193290349 0 0.13972621251809331 -0.33661928326247409 0 0.15818257978419309 -0.33485027023674541 0 0.15201124870476071 -0.32597551999936031 0 0.13972621251809331 -0.33661928326247409 0 0.13440249913606589 -0.34191455716014107 0 0.13972621251809331 -0.33661928326247409 0 0.13690860666359159 -0.32739955582501651 0 0.13440249913606589 -0.34191455716014107 0 0.11912426552977171 -0.31818299380945358 0 0.13440249913606589 -0.34191455716014107 0 0.13690860666359159 -0.32739955582501651 0 0.13440249913606589 -0.34191455716014107 0 0.13690860666359159 -0.32739955582501651 0 0.11912426552977171 -0.31818299380945358 0 0.13690860666359159 -0.32739955582501651 0 0.13551284670089281 -0.31390222625320358 0 0.11912426552977171 -0.31818299380945358 0 0.14740212064030281 -0.3177004479576343 0 0.13690860666359159 -0.32739955582501651 0 0.13551284670089281 -0.31390222625320358 0 0.13551284670089281 -0.31390222625320358 0 0.1295746317722703 -0.30069958648038148 0 0.11912426552977171 -0.31818299380945358 0 0.1295746317722703 -0.30069958648038148 0 0.14211587950341439 -0.30414885777764372 0 0.14301176964109369 -0.28966041554420469 0 0.13551284670089281 -0.31390222625320358 0 0.1295746317722703 -0.30069958648038148 0 0.14211587950341439 -0.30414885777764372 0 0.14740212064030281 -0.3177004479576343 0 0.13551284670089281 -0.31390222625320358 0 0.14211587950341439 -0.30414885777764372 0 0.14740212064030281 -0.3177004479576343 0 0.14211587950341439 -0.30414885777764372 0 0.15507802876251239 -0.2987816126527944 0 0.1590299676949686 -0.31250236475137572 0 0.14740212064030281 -0.3177004479576343 0 0.15507802876251239 -0.2987816126527944 0 0.14740212064030281 -0.3177004479576343 0 0.15507802876251239 -0.2987816126527944 0 0.14211587950341439 -0.30414885777764372 0 0.15507802876251239 -0.2987816126527944 0 0.14301176964109369 -0.28966041554420469 0 0.14301176964109369 -0.28966041554420469 0 0.14869040169438991 -0.27067671084354922 0 0.15691009672489031 -0.28655078252097121 0 0.15507802876251239 -0.2987816126527944 0 0.14301176964109369 -0.28966041554420469 0 0.15691009672489031 -0.28655078252097121 0 0.1295746317722703 -0.30069958648038148 0 0.14301176964109369 -0.28966041554420469 0 0.1235125794295524 -0.28298563566505192 0 0.12641640446010319 -0.26300034348981022 0 0.14869040169438991 -0.27067671084354922 0 0.1235125794295524 -0.28298563566505192 0 0.12641640446010319 -0.26300034348981022 0 0.14869040169438991 -0.27067671084354922 0 0.14301176964109369 -0.28966041554420469 0 0.14869040169438991 -0.27067671084354922 0 0.1235125794295524 -0.28298563566505192 0 0.12641640446010319 -0.26300034348981022 0 0.14231650480877081 -0.25764562840835109 0 0.13043699485735311 -0.2493725521551744 0 0.14231650480877081 -0.25764562840835109 0 0.14693879311105679 -0.24687395784091601 0 0.13043699485735311 -0.2493725521551744 0 0.12641640446010319 -0.26300034348981022 0 0.14231650480877081 -0.25764562840835109 0 0.14869040169438991 -0.27067671084354922 0 0.14231650480877081 -0.25764562840835109 0 0.1590999299209509 -0.25830457771230608 0 0.14693879311105679 -0.24687395784091601 0 0.14231650480877081 -0.25764562840835109 0 0.14869040169438991 -0.27067671084354922 0 0.1590999299209509 -0.25830457771230608 0 0.1590999299209509 -0.25830457771230608 0 0.15819044241336611 -0.2462526119861424 0 0.14693879311105679 -0.24687395784091601 0 0.14869040169438991 -0.27067671084354922 0 0.17096439892867671 -0.27835307819728772 0 0.1590999299209509 -0.25830457771230608 0 0.14869040169438991 -0.27067671084354922 0 0.17096439892867671 -0.27835307819728772 0 0.14869040169438991 -0.27067671084354922 0 0.17096439892867671 -0.27835307819728772 0 0.15691009672489031 -0.28655078252097121 0 0.1590999299209509 -0.25830457771230608 0 0.1763781342238305 -0.25442371108894851 0 0.17046393135693019 -0.24680295054569021 0 0.17096439892867671 -0.27835307819728772 0 0.1590999299209509 -0.25830457771230608 0 0.1763781342238305 -0.25442371108894851 0 0.1590999299209509 -0.25830457771230608 0 0.15819044241336611 -0.2462526119861424 0 0.17046393135693019 -0.24680295054569021 0 0.19364005828955419 -0.25827723225617888 0 0.1851970887925623 -0.25550835540064609 0 0.18233089377288331 -0.26834753251688742 0 0.1763781342238305 -0.25442371108894851 0 0.1851970887925623 -0.25550835540064609 0 0.18233089377288331 -0.26834753251688742 0 0.1763781342238305 -0.25442371108894851 0 0.1851970887925623 -0.25550835540064609 0 0.1878224433694867 -0.24701966137190001 0 0.1763781342238305 -0.25442371108894851 0 0.1878224433694867 -0.24701966137190001 0 0.18932760552196359 -0.28468165578127419 0 0.17096439892867671 -0.27835307819728772 0 0.18233089377288331 -0.26834753251688742 0 0.17096439892867671 -0.27835307819728772 0 0.1763781342238305 -0.25442371108894851 0 0.17096439892867671 -0.27835307819728772 0 0.1763781342238305 -0.25442371108894851 0 0.18233089377288331 -0.26834753251688742 0 0.1888496296129166 -0.29882356407039529 0 0.18932760552196359 -0.28468165578127419 0 0.16684924040256699 -0.29654257836893788 0 0.18932760552196359 -0.28468165578127419 0 0.17096439892867671 -0.27835307819728772 0 0.18932760552196359 -0.28468165578127419 0 0.17096439892867671 -0.27835307819728772 0 0.16684924040256699 -0.29654257836893788 0 0.1888496296129166 -0.29882356407039529 0 0.17859824568628929 -0.30885115556577941 0 0.16684924040256699 -0.29654257836893788 0 0.19011236292837511 -0.31033573026842581 0 0.1888496296129166 -0.29882356407039529 0 0.17859824568628929 -0.30885115556577941 0 0.1590299676949686 -0.31250236475137572 0 0.16273408187645361 -0.31473207854058732 0 0.16684924040256699 -0.29654257836893788 0 0.16273408187645361 -0.31473207854058732 0 0.16684924040256699 -0.29654257836893788 0 0.16273408187645361 -0.31473207854058732 0 0.17859824568628929 -0.30885115556577941 0 0.16684924040256699 -0.29654257836893788 0 0.1590299676949686 -0.31250236475137572 0 0.15507802876251239 -0.2987816126527944 0 0.16684924040256699 -0.29654257836893788 0 0.17096439892867671 -0.27835307819728772 0 0.16684924040256699 -0.29654257836893788 0 0.17096439892867671 -0.27835307819728772 0 0.15691009672489031 -0.28655078252097121 0 0.16684924040256699 -0.29654257836893788 0 0.15507802876251239 -0.2987816126527944 0 0.15691009672489031 -0.28655078252097121 0 0.16684924040256699 -0.29654257836893788 0 0.1978730919222553 -0.5 0 0.19172663952436611 -0.47474959354441582 0 0.21148904400155111 -0.47870741256431298 0 0.1978730919222553 -0.5 0 0.19172663952436611 -0.47474959354441582 0 0.17412722730242139 -0.48142968666584351 0 0.19172663952436611 -0.47474959354441582 0 0.21148904400155111 -0.47870741256431298 0 0.20517982705500121 -0.46342547692654068 0 0.21148904400155111 -0.47870741256431298 0 0.21675417125731289 -0.4662471666080833 0 0.20517982705500121 -0.46342547692654068 0 0.1978730919222553 -0.5 0 0.21148904400155111 -0.47870741256431298 0 0.22466190152755999 -0.5 0 0.25145071113286471 -0.5 0 0.22466190152755999 -0.5 0 0.24600828960534091 -0.48187624016330638 0 0.25298271180224102 -0.46354055015615803 0 0.24600828960534091 -0.48187624016330638 0 0.23105873621883941 -0.46887136891748382 0 0.22466190152755999 -0.5 0 0.24600828960534091 -0.48187624016330638 0 0.23105873621883941 -0.46887136891748382 0 0.21148904400155111 -0.47870741256431298 0 0.23105873621883941 -0.46887136891748382 0 0.21675417125731289 -0.4662471666080833 0 0.21148904400155111 -0.47870741256431298 0 0.22466190152755999 -0.5 0 0.23105873621883941 -0.46887136891748382 0 0.23105873621883941 -0.46887136891748382 0 0.21725730287697231 -0.45377031013143843 0 0.21675417125731289 -0.4662471666080833 0 0.23105873621883941 -0.46887136891748382 0 0.2283615150809101 -0.44552447661706901 0 0.21725730287697231 -0.45377031013143843 0 0.25298271180224102 -0.46354055015615803 0 0.23105873621883941 -0.46887136891748382 0 0.24434451285023129 -0.44825182353877879 0 0.23105873621883941 -0.46887136891748382 0 0.24434451285023129 -0.44825182353877879 0 0.2283615150809101 -0.44552447661706901 0 0.24434451285023129 -0.44825182353877879 0 0.2283615150809101 -0.44552447661706901 0 0.23891198571311409 -0.43615010508783181 0 0.25998377289408248 -0.42882310347003921 0 0.24434451285023129 -0.44825182353877879 0 0.23891198571311409 -0.43615010508783181 0 0.2283615150809101 -0.44552447661706901 0 0.21106343242112069 -0.44135855976084271 0 0.21725730287697231 -0.45377031013143843 0 0.2283615150809101 -0.44552447661706901 0 0.22498580888541481 -0.43468309957451923 0 0.23891198571311409 -0.43615010508783181 0 0.2283615150809101 -0.44552447661706901 0 0.21106343242112069 -0.44135855976084271 0 0.22498580888541481 -0.43468309957451923 0 0.21106343242112069 -0.44135855976084271 0 0.21725730287697231 -0.45377031013143843 0 0.19947820813751341 -0.44796283348482602 0 0.21106343242112069 -0.44135855976084271 0 0.19947820813751341 -0.44796283348482602 0 0.2009048066089264 -0.43640047450965141 0 0.21725730287697231 -0.45377031013143843 0 0.20517982705500121 -0.46342547692654068 0 0.19947820813751341 -0.44796283348482602 0 0.21725730287697231 -0.45377031013143843 0 0.21675417125731289 -0.4662471666080833 0 0.20517982705500121 -0.46342547692654068 0 0.20517982705500121 -0.46342547692654068 0 0.19163005242916811 -0.45972732398332122 0 0.19947820813751341 -0.44796283348482602 0 0.19172663952436611 -0.47474959354441582 0 0.20517982705500121 -0.46342547692654068 0 0.19163005242916811 -0.45972732398332122 0 0.19447764118987371 -0.44057882684150129 0 0.19947820813751341 -0.44796283348482602 0 0.18574732039377731 -0.44859264457002562 0 0.19163005242916811 -0.45972732398332122 0 0.19947820813751341 -0.44796283348482602 0 0.18574732039377731 -0.44859264457002562 0 0.19447764118987371 -0.44057882684150129 0 0.18737142125806819 -0.44065420059314769 0 0.18574732039377731 -0.44859264457002562 0 0.19447764118987371 -0.44057882684150129 0 0.19446213641073279 -0.43429098015276718 0 0.18737142125806819 -0.44065420059314769 0 0.19447764118987371 -0.44057882684150129 0 0.19947820813751341 -0.44796283348482602 0 0.2009048066089264 -0.43640047450965141 0 0.19014266909831451 -0.4281657263599612 0 0.2137848648157811 -0.41811294100746682 0 0.19735345754495659 -0.42968548453825522 0 0.19014266909831451 -0.4281657263599612 0 0.2060269616745618 -0.4261589656485068 0 0.19735345754495659 -0.42968548453825522 0 0.2009048066089264 -0.43640047450965141 0 0.2065333744901775 -0.43152946364281619 0 0.19447764118987371 -0.44057882684150129 0 0.2009048066089264 -0.43640047450965141 0 0.19446213641073279 -0.43429098015276718 0 0.19735345754495659 -0.42968548453825522 0 0.2009048066089264 -0.43640047450965141 0 0.19446213641073279 -0.43429098015276718 0 0.19329178921988319 -0.43085079787998148 0 0.19446213641073279 -0.43429098015276718 0 0.19016762429678419 -0.43131917222939692 0 0.19446213641073279 -0.43429098015276718 0 0.19016762429678419 -0.43131917222939692 0 0.18737142125806819 -0.44065420059314769 0 0.19735345754495659 -0.42968548453825522 0 0.19329178921988319 -0.43085079787998148 0 0.19446213641073279 -0.43429098015276718 0 0.19329178921988319 -0.43085079787998148 0 0.19016762429678419 -0.43131917222939692 0 0.19014266909831451 -0.4281657263599612 0 0.19016762429678419 -0.43131917222939692 0 0.19014266909831451 -0.4281657263599612 0 0.18744366512711899 -0.42883628983937061 0 0.19014266909831451 -0.4281657263599612 0 0.18907496782388111 -0.42283122691545039 0 0.19559605579800801 -0.41839266768855748 0 0.19014266909831451 -0.4281657263599612 0 0.18609228082089169 -0.42578920297524497 0 0.18744366512711899 -0.42883628983937061 0 0.19735345754495659 -0.42968548453825522 0 0.19329178921988319 -0.43085079787998148 0 0.19014266909831451 -0.4281657263599612 0 0.19014266909831451 -0.4281657263599612 0 0.18907496782388111 -0.42283122691545039 0 0.18609228082089169 -0.42578920297524497 0 0.19014266909831451 -0.4281657263599612 0 0.19559605579800801 -0.41839266768855748 0 0.2065861588159684 -0.41644408531400229 0 0.19559605579800801 -0.41839266768855748 0 0.20654630515491701 -0.40560838502186192 0 0.1843715310171441 -0.41986801640144322 0 0.20654630515491701 -0.40560838502186192 0 0.1938285006166531 -0.40369876695115708 0 0.1843715310171441 -0.41986801640144322 0 0.20654630515491701 -0.40560838502186192 0 0.1843715310171441 -0.41986801640144322 0 0.18907496782388111 -0.42283122691545039 0 0.19559605579800801 -0.41839266768855748 0 0.1843715310171441 -0.41986801640144322 0 0.1938285006166531 -0.40369876695115708 0 0.185137352220512 -0.40842624743944139 0 0.1843715310171441 -0.41986801640144322 0 0.19559605579800801 -0.41839266768855748 0 0.2065861588159684 -0.41644408531400229 0 0.20654630515491701 -0.40560838502186192 0 0.19014266909831451 -0.4281657263599612 0 0.2065861588159684 -0.41644408531400229 0 0.2137848648157811 -0.41811294100746682 0 0.2065861588159684 -0.41644408531400229 0 0.2137848648157811 -0.41811294100746682 0 0.2065861588159684 -0.41644408531400229 0 0.21251327630959579 -0.4085308877821871 0 0.20654630515491701 -0.40560838502186192 0 0.21251327630959579 -0.4085308877821871 0 0.2137848648157811 -0.41811294100746682 0 0.22139171975988109 -0.40515715199719682 0 0.2065861588159684 -0.41644408531400229 0 0.21251327630959579 -0.4085308877821871 0 0.2137848648157811 -0.41811294100746682 0 0.19014266909831451 -0.4281657263599612 0 0.2137848648157811 -0.41811294100746682 0 0.2060269616745618 -0.4261589656485068 0 0.2137848648157811 -0.41811294100746682 0 0.2169906126698119 -0.42876333203383399 0 0.2060269616745618 -0.4261589656485068 0 0.2169906126698119 -0.42876333203383399 0 0.2060269616745618 -0.4261589656485068 0 0.2065333744901775 -0.43152946364281619 0 0.19735345754495659 -0.42968548453825522 0 0.2060269616745618 -0.4261589656485068 0 0.2065333744901775 -0.43152946364281619 0 0.21106343242112069 -0.44135855976084271 0 0.2009048066089264 -0.43640047450965141 0 0.2065333744901775 -0.43152946364281619 0 0.21106343242112069 -0.44135855976084271 0 0.2169906126698119 -0.42876333203383399 0 0.2065333744901775 -0.43152946364281619 0 0.21106343242112069 -0.44135855976084271 0 0.2169906126698119 -0.42876333203383399 0 0.22498580888541481 -0.43468309957451923 0 0.2169906126698119 -0.42876333203383399 0 0.22498580888541481 -0.43468309957451923 0 0.23688431885493191 -0.42346802223875268 0 0.2137848648157811 -0.41811294100746682 0 0.2169906126698119 -0.42876333203383399 0 0.23688431885493191 -0.42346802223875268 0 0.22498580888541481 -0.43468309957451923 0 0.23891198571311409 -0.43615010508783181 0 0.23688431885493191 -0.42346802223875268 0 0.25998377289408248 -0.42882310347003921 0 0.23688431885493191 -0.42346802223875268 0 0.25998377289408248 -0.42882310347003921 0 0.23891198571311409 -0.43615010508783181 0 0.23688431885493191 -0.42346802223875268 0 0.25590541344332102 -0.41189188973833563 0 0.23688431885493191 -0.42346802223875268 0 0.2394990313801024 -0.40717914280705608 0 0.2137848648157811 -0.41811294100746682 0 0.23688431885493191 -0.42346802223875268 0 0.2137848648157811 -0.41811294100746682 0 0.23688431885493191 -0.42346802223875268 0 0.2394990313801024 -0.40717914280705608 0 0.2137848648157811 -0.41811294100746682 0 0.2394990313801024 -0.40717914280705608 0 0.22139171975988109 -0.40515715199719682 0 0.2137848648157811 -0.41811294100746682 0 0.2394990313801024 -0.40717914280705608 0 0.2394990313801024 -0.40717914280705608 0 0.22139171975988109 -0.40515715199719682 0 0.225189946005415 -0.39280209540315841 0 0.22139171975988109 -0.40515715199719682 0 0.225189946005415 -0.39280209540315841 0 0.2128435268860859 -0.39807588703995378 0 0.2394990313801024 -0.40717914280705608 0 0.24883035261557479 -0.39285847107779309 0 0.23870514036613269 -0.38922078446348968 0 0.2394990313801024 -0.40717914280705608 0 0.225189946005415 -0.39280209540315841 0 0.23870514036613269 -0.38922078446348968 0 0.25190404077164091 -0.37878861243398149 0 0.2284837745051248 -0.37182823249355101 0 0.23870514036613269 -0.38922078446348968 0 0.25190404077164091 -0.37878861243398149 0 0.2284837745051248 -0.37182823249355101 0 0.25190404077164091 -0.37878861243398149 0 0.24883035261557479 -0.39285847107779309 0 0.23870514036613269 -0.38922078446348968 0 0.2284837745051248 -0.37182823249355101 0 0.225189946005415 -0.39280209540315841 0 0.21229838175373561 -0.38308939553574872 0 0.2284837745051248 -0.37182823249355101 0 0.225189946005415 -0.39280209540315841 0 0.23870514036613269 -0.38922078446348968 0 0.20506350823860831 -0.36486785255312187 0 0.21229838175373561 -0.38308939553574872 0 0.20120744264676291 -0.37914225101236099 0 0.21229838175373561 -0.38308939553574872 0 0.19998899009070911 -0.39232491563208949 0 0.20120744264676291 -0.37914225101236099 0 0.225189946005415 -0.39280209540315841 0 0.21229838175373561 -0.38308939553574872 0 0.2128435268860859 -0.39807588703995378 0 0.21251327630959579 -0.4085308877821871 0 0.22139171975988109 -0.40515715199719682 0 0.2128435268860859 -0.39807588703995378 0 0.2128435268860859 -0.39807588703995378 0 0.20654630515491701 -0.40560838502186192 0 0.19998899009070911 -0.39232491563208949 0 0.21251327630959579 -0.4085308877821871 0 0.2128435268860859 -0.39807588703995378 0 0.20654630515491701 -0.40560838502186192 0 0.21229838175373561 -0.38308939553574872 0 0.2128435268860859 -0.39807588703995378 0 0.19998899009070911 -0.39232491563208949 0 0.20654630515491701 -0.40560838502186192 0 0.19998899009070911 -0.39232491563208949 0 0.1938285006166531 -0.40369876695115708 0 0.1938285006166531 -0.40369876695115708 0 0.18578522747253509 -0.39653229811611418 0 0.185137352220512 -0.40842624743944139 0 0.19998899009070911 -0.39232491563208949 0 0.1938285006166531 -0.40369876695115708 0 0.18578522747253509 -0.39653229811611418 0 0.19998899009070911 -0.39232491563208949 0 0.18747889050399891 -0.3762868403284842 0 0.18578522747253509 -0.39653229811611418 0 0.19998899009070911 -0.39232491563208949 0 0.20120744264676291 -0.37914225101236099 0 0.18747889050399891 -0.3762868403284842 0 0.16597099175685209 -0.36946279358780681 0 0.18747889050399891 -0.3762868403284842 0 0.1698942727693882 -0.38770582810384469 0 0.18747889050399891 -0.3762868403284842 0 0.1698942727693882 -0.38770582810384469 0 0.18747889050399891 -0.3762868403284842 0 0.18578522747253509 -0.39653229811611418 0 0.1698942727693882 -0.38770582810384469 0 0.18578522747253509 -0.39653229811611418 0 0.1778670491005481 -0.41260832669206221 0 0.185137352220512 -0.40842624743944139 0 0.18578522747253509 -0.39653229811611418 0 0.1683407182112166 -0.39962604257418699 0 0.16367982499841621 -0.41557479211510118 0 0.18578522747253509 -0.39653229811611418 0 0.16367982499841621 -0.41557479211510118 0 0.18578522747253509 -0.39653229811611418 0 0.1683407182112166 -0.39962604257418699 0 0.1698942727693882 -0.38770582810384469 0 0.1683407182112166 -0.39962604257418699 0 0.15400354760452739 -0.39869125196168848 0 0.16367982499841621 -0.41557479211510118 0 0.15678612680028031 -0.38585107107600952 0 0.1698942727693882 -0.38770582810384469 0 0.15400354760452739 -0.39869125196168848 0 0.1683407182112166 -0.39962604257418699 0 0.1698942727693882 -0.38770582810384469 0 0.15400354760452739 -0.39869125196168848 0 0.16597099175685209 -0.36946279358780681 0 0.15678612680028031 -0.38585107107600952 0 0.1490795755996723 -0.37508665362906157 0 0.16597099175685209 -0.36946279358780681 0 0.15678612680028031 -0.38585107107600952 0 0.1698942727693882 -0.38770582810384469 0 0.15678612680028031 -0.38585107107600952 0 0.1490795755996723 -0.37508665362906157 0 0.1428575883441556 -0.38601754616043332 0 0.15678612680028031 -0.38585107107600952 0 0.1428575883441556 -0.38601754616043332 0 0.15400354760452739 -0.39869125196168848 0 0.13883482749770429 -0.37269687829702569 0 0.1490795755996723 -0.37508665362906157 0 0.1428575883441556 -0.38601754616043332 0 0.1428575883441556 -0.38601754616043332 0 0.1271444035004578 -0.38395236546812189 0 0.13424709911593891 -0.39851489998590528 0 0.13883482749770429 -0.37269687829702569 0 0.1428575883441556 -0.38601754616043332 0 0.1271444035004578 -0.38395236546812189 0 0.1271444035004578 -0.38395236546812189 0 0.12352918579170739 -0.37654014685097792 0 0.1271444035004578 -0.38395236546812189 0 0.13424709911593891 -0.39851489998590528 0 0.12277917015181079 -0.40923514650915882 0 0.1271444035004578 -0.38395236546812189 0 0.13424709911593891 -0.39851489998590528 0 0.13424709911593891 -0.39851489998590528 0 0.14134979473142001 -0.41307743450368872 0 0.13424709911593891 -0.39851489998590528 0 0.15400354760452739 -0.39869125196168848 0 0.14134979473142001 -0.41307743450368872 0 0.1428575883441556 -0.38601754616043332 0 0.13424709911593891 -0.39851489998590528 0 0.15400354760452739 -0.39869125196168848 0 0.15400354760452739 -0.39869125196168848 0 0.14134979473142001 -0.41307743450368872 0 0.16367982499841621 -0.41557479211510118 0 0.14134979473142001 -0.41307743450368872 0 0.16367982499841621 -0.41557479211510118 0 0.14134979473142001 -0.41307743450368872 0 0.1488138808901423 -0.42838092182942999 0 0.16367982499841621 -0.41557479211510118 0 0.14134979473142001 -0.41307743450368872 0 0.1488138808901423 -0.42838092182942999 0 0.14134979473142001 -0.41307743450368872 0 0.1317239232568467 -0.42416872503366021 0 0.1241129540286951 -0.41970483347821569 0 0.13424709911593891 -0.39851489998590528 0 0.14134979473142001 -0.41307743450368872 0 0.12277917015181079 -0.40923514650915882 0 0.14134979473142001 -0.41307743450368872 0 0.11379536615639931 -0.40999578790011387 0 0.14134979473142001 -0.41307743450368872 0 0.1241129540286951 -0.41970483347821569 0 0.11379536615639931 -0.40999578790011387 0 0.14134979473142001 -0.41307743450368872 0 0.12277917015181079 -0.40923514650915882 0 0.11379536615639931 -0.40999578790011387 0 0.14134979473142001 -0.41307743450368872 0 0.1317239232568467 -0.42416872503366021 0 0.13779931029853451 -0.42968797666200292 0 0.12852796962376861 -0.43249585362696491 0 0.13487592170619039 -0.44038764753502557 0 0.12476962068998131 -0.43881448150552449 0 0.12852796962376861 -0.43249585362696491 0 0.1317239232568467 -0.42416872503366021 0 0.13779931029853451 -0.42968797666200292 0 0.1317239232568467 -0.42416872503366021 0 0.1235613926638526 -0.42723865213732187 0 0.1241129540286951 -0.41970483347821569 0 0.12852796962376861 -0.43249585362696491 0 0.1317239232568467 -0.42416872503366021 0 0.1235613926638526 -0.42723865213732187 0 0.12852796962376861 -0.43249585362696491 0 0.13779931029853451 -0.42968797666200292 0 0.13487592170619039 -0.44038764753502557 0 0.13779931029853451 -0.42968797666200292 0 0.1488138808901423 -0.42838092182942999 0 0.13487592170619039 -0.44038764753502557 0 0.1488138808901423 -0.42838092182942999 0 0.13487592170619039 -0.44038764753502557 0 0.15176417894121291 -0.43442986712180992 0 0.16219675687937121 -0.43412764778102447 0 0.14509810112153609 -0.43926984705965277 0 0.14134979473142001 -0.41307743450368872 0 0.13779931029853451 -0.42968797666200292 0 0.1488138808901423 -0.42838092182942999 0 0.1488138808901423 -0.42838092182942999 0 0.14509810112153609 -0.43926984705965277 0 0.13487592170619039 -0.44038764753502557 0 0.1488138808901423 -0.42838092182942999 0 0.16367982499841621 -0.41557479211510118 0 0.1488138808901423 -0.42838092182942999 0 0.15176417894121291 -0.43442986712180992 0 0.15873344640446049 -0.42696027201967612 0 0.1488138808901423 -0.42838092182942999 0 0.15176417894121291 -0.43442986712180992 0 0.14509810112153609 -0.43926984705965277 0 0.1488138808901423 -0.42838092182942999 0 0.15176417894121291 -0.43442986712180992 0 0.15176417894121291 -0.43442986712180992 0 0.16219675687937121 -0.43412764778102447 0 0.15873344640446049 -0.42696027201967612 0 0.16219675687937121 -0.43412764778102447 0 0.1672125903131608 -0.42228813125101539 0 0.1843715310171441 -0.41986801640144322 0 0.16219675687937121 -0.43412764778102447 0 0.1743725234578431 -0.43652947536299652 0 0.17516101544466511 -0.43200023401796639 0 0.1488138808901423 -0.42838092182942999 0 0.15873344640446049 -0.42696027201967612 0 0.16367982499841621 -0.41557479211510118 0 0.16219675687937121 -0.43412764778102447 0 0.1672125903131608 -0.42228813125101539 0 0.15873344640446049 -0.42696027201967612 0 0.1672125903131608 -0.42228813125101539 0 0.15873344640446049 -0.42696027201967612 0 0.16367982499841621 -0.41557479211510118 0 0.1672125903131608 -0.42228813125101539 0 0.1668285444793885 -0.41592694025229671 0 0.1778670491005481 -0.41260832669206221 0 0.1672125903131608 -0.42228813125101539 0 0.16367982499841621 -0.41557479211510118 0 0.1668285444793885 -0.41592694025229671 0 0.16367982499841621 -0.41557479211510118 0 0.1668285444793885 -0.41592694025229671 0 0.18578522747253509 -0.39653229811611418 0 0.16367982499841621 -0.41557479211510118 0 0.1668285444793885 -0.41592694025229671 0 0.1672125903131608 -0.42228813125101539 0 0.1778670491005481 -0.41260832669206221 0 0.1843715310171441 -0.41986801640144322 0 0.18578522747253509 -0.39653229811611418 0 0.1668285444793885 -0.41592694025229671 0 0.1778670491005481 -0.41260832669206221 0 0.1778670491005481 -0.41260832669206221 0 0.185137352220512 -0.40842624743944139 0 0.1843715310171441 -0.41986801640144322 0 0.18907496782388111 -0.42283122691545039 0 0.1843715310171441 -0.41986801640144322 0 0.18609228082089169 -0.42578920297524497 0 0.16219675687937121 -0.43412764778102447 0 0.1843715310171441 -0.41986801640144322 0 0.1799525756564381 -0.42729522305941181 0 0.16219675687937121 -0.43412764778102447 0 0.1843715310171441 -0.41986801640144322 0 0.16219675687937121 -0.43412764778102447 0 0.1799525756564381 -0.42729522305941181 0 0.17516101544466511 -0.43200023401796639 0 0.19016762429678419 -0.43131917222939692 0 0.18337208629248589 -0.43007105779287919 0 0.1743725234578431 -0.43652947536299652 0 0.1843715310171441 -0.41986801640144322 0 0.1799525756564381 -0.42729522305941181 0 0.18609228082089169 -0.42578920297524497 0 0.1799525756564381 -0.42729522305941181 0 0.18609228082089169 -0.42578920297524497 0 0.18337208629248589 -0.43007105779287919 0 0.18609228082089169 -0.42578920297524497 0 0.18744366512711899 -0.42883628983937061 0 0.18337208629248589 -0.43007105779287919 0 0.19016762429678419 -0.43131917222939692 0 0.18744366512711899 -0.42883628983937061 0 0.18337208629248589 -0.43007105779287919 0 0.1799525756564381 -0.42729522305941181 0 0.18337208629248589 -0.43007105779287919 0 0.17516101544466511 -0.43200023401796639 0 0.18337208629248589 -0.43007105779287919 0 0.1743725234578431 -0.43652947536299652 0 0.17516101544466511 -0.43200023401796639 0 0.19016762429678419 -0.43131917222939692 0 0.1720023839991732 -0.44848937917204712 0 0.18737142125806819 -0.44065420059314769 0 0.19016762429678419 -0.43131917222939692 0 0.1720023839991732 -0.44848937917204712 0 0.19016762429678419 -0.43131917222939692 0 0.1743725234578431 -0.43652947536299652 0 0.1720023839991732 -0.44848937917204712 0 0.1720023839991732 -0.44848937917204712 0 0.18737142125806819 -0.44065420059314769 0 0.18574732039377731 -0.44859264457002562 0 0.19172663952436611 -0.47474959354441582 0 0.19163005242916811 -0.45972732398332122 0 0.17601826703518239 -0.46390607139079759 0 0.19163005242916811 -0.45972732398332122 0 0.18574732039377731 -0.44859264457002562 0 0.17601826703518239 -0.46390607139079759 0 0.1720023839991732 -0.44848937917204712 0 0.18574732039377731 -0.44859264457002562 0 0.17601826703518239 -0.46390607139079759 0 0.1720023839991732 -0.44848937917204712 0 0.17601826703518239 -0.46390607139079759 0 0.15383714370156221 -0.46565958611469738 0 0.1720023839991732 -0.44848937917204712 0 0.15383714370156221 -0.46565958611469738 0 0.1720023839991732 -0.44848937917204712 0 0.1560107748702837 -0.44887950833758522 0 0.15383714370156221 -0.46565958611469738 0 0.16219675687937121 -0.43412764778102447 0 0.1720023839991732 -0.44848937917204712 0 0.1560107748702837 -0.44887950833758522 0 0.16219675687937121 -0.43412764778102447 0 0.1743725234578431 -0.43652947536299652 0 0.1720023839991732 -0.44848937917204712 0 0.1560107748702837 -0.44887950833758522 0 0.1400219827415983 -0.44838727916060589 0 0.14461199995836399 -0.45841269616985381 0 0.16219675687937121 -0.43412764778102447 0 0.1560107748702837 -0.44887950833758522 0 0.1400219827415983 -0.44838727916060589 0 0.16219675687937121 -0.43412764778102447 0 0.14509810112153609 -0.43926984705965277 0 0.1400219827415983 -0.44838727916060589 0 0.16219675687937121 -0.43412764778102447 0 0.1400219827415983 -0.44838727916060589 0 0.14509810112153609 -0.43926984705965277 0 0.13487592170619039 -0.44038764753502557 0 0.1400219827415983 -0.44838727916060589 0 0.13487592170619039 -0.44038764753502557 0 0.1400219827415983 -0.44838727916060589 0 0.12842076889346291 -0.45095405261910981 0 0.13487592170619039 -0.44038764753502557 0 0.12711583865620571 -0.44380229773349378 0 0.12093796252223769 -0.45239437324062021 0 0.13487592170619039 -0.44038764753502557 0 0.12093796252223769 -0.45239437324062021 0 0.13487592170619039 -0.44038764753502557 0 0.12842076889346291 -0.45095405261910981 0 0.12093796252223769 -0.45239437324062021 0 0.13487592170619039 -0.44038764753502557 0 0.12711583865620571 -0.44380229773349378 0 0.12476962068998131 -0.43881448150552449 0 0.1400219827415983 -0.44838727916060589 0 0.1332089319723814 -0.46039530543058221 0 0.1178472086038253 -0.46264691054018742 0 0.1400219827415983 -0.44838727916060589 0 0.1178472086038253 -0.46264691054018742 0 0.1400219827415983 -0.44838727916060589 0 0.12842076889346291 -0.45095405261910981 0 0.1178472086038253 -0.46264691054018742 0 0.1271345878869323 -0.46583669988280729 0 0.1332089319723814 -0.46039530543058221 0 0.1178472086038253 -0.46264691054018742 0 0.1271345878869323 -0.46583669988280729 0 0.1332089319723814 -0.46039530543058221 0 0.1364288806711873 -0.46669294139945638 0 0.1400219827415983 -0.44838727916060589 0 0.1332089319723814 -0.46039530543058221 0 0.14461199995836399 -0.45841269616985381 0 0.1332089319723814 -0.46039530543058221 0 0.1364288806711873 -0.46669294139945638 0 0.14461199995836399 -0.45841269616985381 0 0.1364288806711873 -0.46669294139945638 0 0.15383714370156221 -0.46565958611469738 0 0.14461199995836399 -0.45841269616985381 0 0.1560107748702837 -0.44887950833758522 0 0.15383714370156221 -0.46565958611469738 0 0.14461199995836399 -0.45841269616985381 0 0.15383714370156221 -0.46565958611469738 0 0.15422393931421169 -0.48426286894515008 0 0.1356719034039513 -0.48282979305734752 0 0.1364288806711873 -0.46669294139945638 0 0.15383714370156221 -0.46565958611469738 0 0.1356719034039513 -0.48282979305734752 0 0.15383714370156221 -0.46565958611469738 0 0.1356719034039513 -0.48282979305734752 0 0.1364288806711873 -0.46669294139945638 0 0.1356719034039513 -0.48282979305734752 0 0.1249589551439832 -0.47432856869456358 0 0.1271345878869323 -0.46583669988280729 0 0.1364288806711873 -0.46669294139945638 0 0.1249589551439832 -0.47432856869456358 0 0.1356719034039513 -0.48282979305734752 0 0.14429547271164581 -0.5 0 0.1175066631063411 -0.4999999999999985 0 0.1356719034039513 -0.48282979305734752 0 0.1175066631063411 -0.4999999999999985 0 0.15422393931421169 -0.48426286894515008 0 0.1356719034039513 -0.48282979305734752 0 0.14429547271164581 -0.5 0 0.15422393931421169 -0.48426286894515008 0 0.14429547271164581 -0.5 0 0.17108428231695061 -0.5 0 0.15422393931421169 -0.48426286894515008 0 0.17108428231695061 -0.5 0 0.17412722730242139 -0.48142968666584351 0 0.17601826703518239 -0.46390607139079759 0 0.15383714370156221 -0.46565958611469738 0 0.17412722730242139 -0.48142968666584351 0 0.15383714370156221 -0.46565958611469738 0 0.15422393931421169 -0.48426286894515008 0 0.17412722730242139 -0.48142968666584351 0 0.19172663952436611 -0.47474959354441582 0 0.17601826703518239 -0.46390607139079759 0 0.17412722730242139 -0.48142968666584351 0 0.1978730919222553 -0.5 0 0.17108428231695061 -0.5 0 0.17412722730242139 -0.48142968666584351 0 0.074195380625028978 -0.48565422602633351 0 0.081275565167261754 -0.5 0 0.05596447160624618 -0.5 0 0.074195380625028978 -0.48565422602633351 0 0.069698878183408849 -0.47264294106418392 0 0.056493063419561507 -0.47853124759925519 0 0.074195380625028978 -0.48565422602633351 0 0.069698878183408849 -0.47264294106418392 0 0.085315430897555292 -0.47692306046311878 0 0.074195380625028978 -0.48565422602633351 0 0.085315430897555292 -0.47692306046311878 0 0.096424874476140288 -0.48582810703144319 0 0.069698878183408849 -0.47264294106418392 0 0.085315430897555292 -0.47692306046311878 0 0.082162186915127861 -0.46630453475678768 0 0.085315430897555292 -0.47692306046311878 0 0.094493001685942574 -0.47077725571421269 0 0.082162186915127861 -0.46630453475678768 0 0.085315430897555292 -0.47692306046311878 0 0.096424874476140288 -0.48582810703144319 0 0.094493001685942574 -0.47077725571421269 0 0.074195380625028978 -0.48565422602633351 0 0.081275565167261754 -0.5 0 0.096424874476140288 -0.48582810703144319 0 0.1065866587282773 -0.49999999999999828 0 0.096424874476140288 -0.48582810703144319 0 0.11221693366605109 -0.48132345527009279 0 0.081275565167261754 -0.5 0 0.1065866587282773 -0.49999999999999828 0 0.096424874476140288 -0.48582810703144319 0 0.1356719034039513 -0.48282979305734752 0 0.1175066631063411 -0.4999999999999985 0 0.11221693366605109 -0.48132345527009279 0 0.1065866587282773 -0.49999999999999828 0 0.1175066631063411 -0.4999999999999985 0 0.11221693366605109 -0.48132345527009279 0 0.1065866587282773 -0.49999999999999828 0 0.11221693366605109 -0.48132345527009279 0 0.1356719034039513 -0.48282979305734752 0 0.1249589551439832 -0.47432856869456358 0 0.11221693366605109 -0.48132345527009279 0 0.120539421325198 -0.47103390859691269 0 0.11221693366605109 -0.48132345527009279 0 0.1178472086038253 -0.46264691054018742 0 0.11221693366605109 -0.48132345527009279 0 0.1178472086038253 -0.46264691054018742 0 0.11221693366605109 -0.48132345527009279 0 0.10728584748297949 -0.47075549880527989 0 0.1178472086038253 -0.46264691054018742 0 0.1271345878869323 -0.46583669988280729 0 0.120539421325198 -0.47103390859691269 0 0.1249589551439832 -0.47432856869456358 0 0.120539421325198 -0.47103390859691269 0 0.1249589551439832 -0.47432856869456358 0 0.11221693366605109 -0.48132345527009279 0 0.096424874476140288 -0.48582810703144319 0 0.11221693366605109 -0.48132345527009279 0 0.10728584748297949 -0.47075549880527989 0 0.096424874476140288 -0.48582810703144319 0 0.10728584748297949 -0.47075549880527989 0 0.094493001685942574 -0.47077725571421269 0 0.094493001685942574 -0.47077725571421269 0 0.1034801267337163 -0.46384166635096008 0 0.092871152413101898 -0.46200640936986898 0 0.098360231709723689 -0.45728214045337162 0 0.1034801267337163 -0.46384166635096008 0 0.092871152413101898 -0.46200640936986898 0 0.098360231709723689 -0.45728214045337162 0 0.1045344880695834 -0.45583141469255017 0 0.09724570685977213 -0.44875808589659022 0 0.098360231709723689 -0.45728214045337162 0 0.09724570685977213 -0.44875808589659022 0 0.09176143688348537 -0.4543715970715172 0 0.098360231709723689 -0.45728214045337162 0 0.09176143688348537 -0.4543715970715172 0 0.092871152413101898 -0.46200640936986898 0 0.1045344880695834 -0.45583141469255017 0 0.1087661873621054 -0.45918804841077548 0 0.1034801267337163 -0.46384166635096008 0 0.098360231709723689 -0.45728214045337162 0 0.1045344880695834 -0.45583141469255017 0 0.1034801267337163 -0.46384166635096008 0 0.1045344880695834 -0.45583141469255017 0 0.1117195009700826 -0.45463769050877922 0 0.1075335532332521 -0.44976148265836541 0 0.1045344880695834 -0.45583141469255017 0 0.1087661873621054 -0.45918804841077548 0 0.1117195009700826 -0.45463769050877922 0 0.10728584748297949 -0.47075549880527989 0 0.1034801267337163 -0.46384166635096008 0 0.11158562370122591 -0.46317091530639981 0 0.1087661873621054 -0.45918804841077548 0 0.1034801267337163 -0.46384166635096008 0 0.11158562370122591 -0.46317091530639981 0 0.10728584748297949 -0.47075549880527989 0 0.094493001685942574 -0.47077725571421269 0 0.1034801267337163 -0.46384166635096008 0 0.10728584748297949 -0.47075549880527989 0 0.11158562370122591 -0.46317091530639981 0 0.1178472086038253 -0.46264691054018742 0 0.1145063831508514 -0.46192065534941118 0 0.11158562370122591 -0.46317091530639981 0 0.1178472086038253 -0.46264691054018742 0 0.1160621240330174 -0.46140540061702667 0 0.1145063831508514 -0.46192065534941118 0 0.1178472086038253 -0.46264691054018742 0 0.1160621240330174 -0.46140540061702667 0 0.1145063831508514 -0.46192065534941118 0 0.11392669730599859 -0.45956161030373788 0 0.1145063831508514 -0.46192065534941118 0 0.11158562370122591 -0.46317091530639981 0 0.11392669730599859 -0.45956161030373788 0 0.1087661873621054 -0.45918804841077548 0 0.11158562370122591 -0.46317091530639981 0 0.11392669730599859 -0.45956161030373788 0 0.1087661873621054 -0.45918804841077548 0 0.1117195009700826 -0.45463769050877922 0 0.11392669730599859 -0.45956161030373788 0 0.1117195009700826 -0.45463769050877922 0 0.1169402973519329 -0.45583812483503799 0 0.11392669730599859 -0.45956161030373788 0 0.1117195009700826 -0.45463769050877922 0 0.1169402973519329 -0.45583812483503799 0 0.1163016992568594 -0.45261138642215648 0 0.1160621240330174 -0.46140540061702667 0 0.1171428579634024 -0.45836928390732201 0 0.1178472086038253 -0.46264691054018742 0 0.1169402973519329 -0.45583812483503799 0 0.11392669730599859 -0.45956161030373788 0 0.1171428579634024 -0.45836928390732201 0 0.1160621240330174 -0.46140540061702667 0 0.11392669730599859 -0.45956161030373788 0 0.1171428579634024 -0.45836928390732201 0 0.12842076889346291 -0.45095405261910981 0 0.1178472086038253 -0.46264691054018742 0 0.12093796252223769 -0.45239437324062021 0 0.1178472086038253 -0.46264691054018742 0 0.12093796252223769 -0.45239437324062021 0 0.1171428579634024 -0.45836928390732201 0 0.1178472086038253 -0.46264691054018742 0 0.12093796252223769 -0.45239437324062021 0 0.1169402973519329 -0.45583812483503799 0 0.12093796252223769 -0.45239437324062021 0 0.1163016992568594 -0.45261138642215648 0 0.1169402973519329 -0.45583812483503799 0 0.12093796252223769 -0.45239437324062021 0 0.1169402973519329 -0.45583812483503799 0 0.1171428579634024 -0.45836928390732201 0 0.12093796252223769 -0.45239437324062021 0 0.1271345878869323 -0.46583669988280729 0 0.120539421325198 -0.47103390859691269 0 0.1178472086038253 -0.46264691054018742 0 0.1183650022873604 -0.44516374225147459 0 0.1194826738650666 -0.44011890081346189 0 0.1222710876687832 -0.44280101817723683 0 0.1183650022873604 -0.44516374225147459 0 0.1194826738650666 -0.44011890081346189 0 0.1139458912172804 -0.44225352992159378 0 0.1183650022873604 -0.44516374225147459 0 0.1222710876687832 -0.44280101817723683 0 0.12162230284530209 -0.44610566858222889 0 0.1194826738650666 -0.44011890081346189 0 0.12476962068998131 -0.43881448150552449 0 0.1216674614658331 -0.43410120778425249 0 0.1194826738650666 -0.44011890081346189 0 0.12476962068998131 -0.43881448150552449 0 0.1222710876687832 -0.44280101817723683 0 0.12711583865620571 -0.44380229773349378 0 0.12476962068998131 -0.43881448150552449 0 0.1222710876687832 -0.44280101817723683 0 0.12711583865620571 -0.44380229773349378 0 0.1222710876687832 -0.44280101817723683 0 0.12162230284530209 -0.44610566858222889 0 0.12711583865620571 -0.44380229773349378 0 0.12162230284530209 -0.44610566858222889 0 0.1215898188406275 -0.45023205899798763 0 0.12711583865620571 -0.44380229773349378 0 0.1215898188406275 -0.45023205899798763 0 0.12093796252223769 -0.45239437324062021 0 0.1215898188406275 -0.45023205899798763 0 0.12093796252223769 -0.45239437324062021 0 0.12093796252223769 -0.45239437324062021 0 0.1185270893695702 -0.45058370169616552 0 0.1163016992568594 -0.45261138642215648 0 0.1185270893695702 -0.45058370169616552 0 0.1189536625230342 -0.44830705239391883 0 0.1146640992723109 -0.44945009044173723 0 0.1215898188406275 -0.45023205899798763 0 0.1185270893695702 -0.45058370169616552 0 0.1189536625230342 -0.44830705239391883 0 0.1215898188406275 -0.45023205899798763 0 0.12093796252223769 -0.45239437324062021 0 0.1185270893695702 -0.45058370169616552 0 0.1183650022873604 -0.44516374225147459 0 0.1189536625230342 -0.44830705239391883 0 0.1146640992723109 -0.44945009044173723 0 0.12162230284530209 -0.44610566858222889 0 0.1215898188406275 -0.45023205899798763 0 0.1189536625230342 -0.44830705239391883 0 0.1183650022873604 -0.44516374225147459 0 0.12162230284530209 -0.44610566858222889 0 0.1189536625230342 -0.44830705239391883 0 0.1183650022873604 -0.44516374225147459 0 0.1144797111433279 -0.44578258208352939 0 0.1146640992723109 -0.44945009044173723 0 0.1144797111433279 -0.44578258208352939 0 0.1146640992723109 -0.44945009044173723 0 0.11094385179636 -0.44626296571931229 0 0.1117195009700826 -0.45463769050877922 0 0.1163016992568594 -0.45261138642215648 0 0.1146640992723109 -0.44945009044173723 0 0.1185270893695702 -0.45058370169616552 0 0.1163016992568594 -0.45261138642215648 0 0.1146640992723109 -0.44945009044173723 0 0.1117195009700826 -0.45463769050877922 0 0.1146640992723109 -0.44945009044173723 0 0.1075335532332521 -0.44976148265836541 0 0.1146640992723109 -0.44945009044173723 0 0.11094385179636 -0.44626296571931229 0 0.1075335532332521 -0.44976148265836541 0 0.11094385179636 -0.44626296571931229 0 0.1139458912172804 -0.44225352992159378 0 0.106366261593712 -0.44267198614126108 0 0.1144797111433279 -0.44578258208352939 0 0.11094385179636 -0.44626296571931229 0 0.1139458912172804 -0.44225352992159378 0 0.1183650022873604 -0.44516374225147459 0 0.1144797111433279 -0.44578258208352939 0 0.1139458912172804 -0.44225352992159378 0 0.1194826738650666 -0.44011890081346189 0 0.1139458912172804 -0.44225352992159378 0 0.1169127269556431 -0.436173387734621 0 0.1139458912172804 -0.44225352992159378 0 0.111528744533874 -0.43628953148467142 0 0.1169127269556431 -0.436173387734621 0 0.1139458912172804 -0.44225352992159378 0 0.106366261593712 -0.44267198614126108 0 0.111528744533874 -0.43628953148467142 0 0.106366261593712 -0.44267198614126108 0 0.10425616760776291 -0.43433989799382222 0 0.111528744533874 -0.43628953148467142 0 0.106366261593712 -0.44267198614126108 0 0.096386429432341492 -0.43726605305502192 0 0.10425616760776291 -0.43433989799382222 0 0.1045344880695834 -0.45583141469255017 0 0.1075335532332521 -0.44976148265836541 0 0.09724570685977213 -0.44875808589659022 0 0.106366261593712 -0.44267198614126108 0 0.1075335532332521 -0.44976148265836541 0 0.09724570685977213 -0.44875808589659022 0 0.11094385179636 -0.44626296571931229 0 0.106366261593712 -0.44267198614126108 0 0.1075335532332521 -0.44976148265836541 0 0.106366261593712 -0.44267198614126108 0 0.09724570685977213 -0.44875808589659022 0 0.096386429432341492 -0.43726605305502192 0 0.085536697350427057 -0.4463786788062129 0 0.070149831246843472 -0.44213798611150662 0 0.07963406600082043 -0.42769333632948542 0 0.09724570685977213 -0.44875808589659022 0 0.085536697350427057 -0.4463786788062129 0 0.096386429432341492 -0.43726605305502192 0 0.085536697350427057 -0.4463786788062129 0 0.09176143688348537 -0.4543715970715172 0 0.084793396084402117 -0.45743267083154238 0 0.09724570685977213 -0.44875808589659022 0 0.085536697350427057 -0.4463786788062129 0 0.09176143688348537 -0.4543715970715172 0 0.09176143688348537 -0.4543715970715172 0 0.092871152413101898 -0.46200640936986898 0 0.084793396084402117 -0.45743267083154238 0 0.094493001685942574 -0.47077725571421269 0 0.092871152413101898 -0.46200640936986898 0 0.082162186915127861 -0.46630453475678768 0 0.092871152413101898 -0.46200640936986898 0 0.082162186915127861 -0.46630453475678768 0 0.084793396084402117 -0.45743267083154238 0 0.085536697350427057 -0.4463786788062129 0 0.084793396084402117 -0.45743267083154238 0 0.072396573435776532 -0.45661066279730378 0 0.082162186915127861 -0.46630453475678768 0 0.084793396084402117 -0.45743267083154238 0 0.072396573435776532 -0.45661066279730378 0 0.069698878183408849 -0.47264294106418392 0 0.082162186915127861 -0.46630453475678768 0 0.072396573435776532 -0.45661066279730378 0 0.069698878183408849 -0.47264294106418392 0 0.072396573435776532 -0.45661066279730378 0 0.059081108779877503 -0.46478376408543259 0 0.072396573435776532 -0.45661066279730378 0 0.070149831246843472 -0.44213798611150662 0 0.052980065413618063 -0.44904373597333019 0 0.085536697350427057 -0.4463786788062129 0 0.072396573435776532 -0.45661066279730378 0 0.070149831246843472 -0.44213798611150662 0 0.070149831246843472 -0.44213798611150662 0 0.07963406600082043 -0.42769333632948542 0 0.060201754033575382 -0.43096351665120047 0 0.086240937581378657 -0.40691414129653969 0 0.07963406600082043 -0.42769333632948542 0 0.058686509006358113 -0.4038324946929655 0 0.07963406600082043 -0.42769333632948542 0 0.058686509006358113 -0.4038324946929655 0 0.060201754033575382 -0.43096351665120047 0 0.086240937581378657 -0.40691414129653969 0 0.07963406600082043 -0.42769333632948542 0 0.096660866592707451 -0.42531857723383892 0 0.085536697350427057 -0.4463786788062129 0 0.07963406600082043 -0.42769333632948542 0 0.096386429432341492 -0.43726605305502192 0 0.07963406600082043 -0.42769333632948542 0 0.096386429432341492 -0.43726605305502192 0 0.096660866592707451 -0.42531857723383892 0 0.096386429432341492 -0.43726605305502192 0 0.096660866592707451 -0.42531857723383892 0 0.10425616760776291 -0.43433989799382222 0 0.096660866592707451 -0.42531857723383892 0 0.10954014316644251 -0.42714186204367199 0 0.10398838280231409 -0.4178373183806301 0 0.096660866592707451 -0.42531857723383892 0 0.10425616760776291 -0.43433989799382222 0 0.10954014316644251 -0.42714186204367199 0 0.10425616760776291 -0.43433989799382222 0 0.111528744533874 -0.43628953148467142 0 0.10954014316644251 -0.42714186204367199 0 0.111528744533874 -0.43628953148467142 0 0.1165833355645291 -0.43097989496057681 0 0.10954014316644251 -0.42714186204367199 0 0.111528744533874 -0.43628953148467142 0 0.1169127269556431 -0.436173387734621 0 0.1165833355645291 -0.43097989496057681 0 0.1165833355645291 -0.43097989496057681 0 0.10954014316644251 -0.42714186204367199 0 0.1183517934062653 -0.42489481571535459 0 0.10954014316644251 -0.42714186204367199 0 0.1183517934062653 -0.42489481571535459 0 0.11370460051464271 -0.41981622342898572 0 0.1165833355645291 -0.43097989496057681 0 0.1183517934062653 -0.42489481571535459 0 0.1235613926638526 -0.42723865213732187 0 0.1183517934062653 -0.42489481571535459 0 0.1235613926638526 -0.42723865213732187 0 0.1241129540286951 -0.41970483347821569 0 0.12852796962376861 -0.43249585362696491 0 0.1235613926638526 -0.42723865213732187 0 0.1216674614658331 -0.43410120778425249 0 0.12852796962376861 -0.43249585362696491 0 0.12476962068998131 -0.43881448150552449 0 0.1216674614658331 -0.43410120778425249 0 0.1169127269556431 -0.436173387734621 0 0.1165833355645291 -0.43097989496057681 0 0.1216674614658331 -0.43410120778425249 0 0.1194826738650666 -0.44011890081346189 0 0.1169127269556431 -0.436173387734621 0 0.1216674614658331 -0.43410120778425249 0 0.1165833355645291 -0.43097989496057681 0 0.1235613926638526 -0.42723865213732187 0 0.1216674614658331 -0.43410120778425249 0 0.1241129540286951 -0.41970483347821569 0 0.11370460051464271 -0.41981622342898572 0 0.11379536615639931 -0.40999578790011387 0 0.1183517934062653 -0.42489481571535459 0 0.1241129540286951 -0.41970483347821569 0 0.11370460051464271 -0.41981622342898572 0 0.11370460051464271 -0.41981622342898572 0 0.11379536615639931 -0.40999578790011387 0 0.10398838280231409 -0.4178373183806301 0 0.086240937581378657 -0.40691414129653969 0 0.096660866592707451 -0.42531857723383892 0 0.10398838280231409 -0.4178373183806301 0 0.086240937581378657 -0.40691414129653969 0 0.11379536615639931 -0.40999578790011387 0 0.10398838280231409 -0.4178373183806301 0 0.086240937581378657 -0.40691414129653969 0 0.11379536615639931 -0.40999578790011387 0 0.10954014316644251 -0.42714186204367199 0 0.11370460051464271 -0.41981622342898572 0 0.10398838280231409 -0.4178373183806301 0 0.086240937581378657 -0.40691414129653969 0 0.096231458405238238 -0.39270532700469102 0 0.10463471866375131 -0.40057678010042819 0 0.086240937581378657 -0.40691414129653969 0 0.11379536615639931 -0.40999578790011387 0 0.10463471866375131 -0.40057678010042819 0 0.096231458405238238 -0.39270532700469102 0 0.10890853752925959 -0.39229726369896989 0 0.10463471866375131 -0.40057678010042819 0 0.11379536615639931 -0.40999578790011387 0 0.10463471866375131 -0.40057678010042819 0 0.1162652547528945 -0.39751329874638841 0 0.1271444035004578 -0.38395236546812189 0 0.12277917015181079 -0.40923514650915882 0 0.1271444035004578 -0.38395236546812189 0 0.12277917015181079 -0.40923514650915882 0 0.1162652547528945 -0.39751329874638841 0 0.10890853752925959 -0.39229726369896989 0 0.1162652547528945 -0.39751329874638841 0 0.1170179216670266 -0.38751230435086259 0 0.10890853752925959 -0.39229726369896989 0 0.10463471866375131 -0.40057678010042819 0 0.1162652547528945 -0.39751329874638841 0 0.12277917015181079 -0.40923514650915882 0 0.11379536615639931 -0.40999578790011387 0 0.1162652547528945 -0.39751329874638841 0 0.12225287909482969 -0.37968586404980648 0 0.1170179216670266 -0.38751230435086259 0 0.1162389701239447 -0.38098366496829961 0 0.12225287909482969 -0.37968586404980648 0 0.1162389701239447 -0.38098366496829961 0 0.11585001356457469 -0.37522786988863699 0 0.12352918579170739 -0.37654014685097792 0 0.12225287909482969 -0.37968586404980648 0 0.11585001356457469 -0.37522786988863699 0 0.12352918579170739 -0.37654014685097792 0 0.12225287909482969 -0.37968586404980648 0 0.1271444035004578 -0.38395236546812189 0 0.12352918579170739 -0.37654014685097792 0 0.12225287909482969 -0.37968586404980648 0 0.1271444035004578 -0.38395236546812189 0 0.1162652547528945 -0.39751329874638841 0 0.1170179216670266 -0.38751230435086259 0 0.1271444035004578 -0.38395236546812189 0 0.12225287909482969 -0.37968586404980648 0 0.1170179216670266 -0.38751230435086259 0 0.1170179216670266 -0.38751230435086259 0 0.10983506616934779 -0.38150862158389259 0 0.1162389701239447 -0.38098366496829961 0 0.10890853752925959 -0.39229726369896989 0 0.1170179216670266 -0.38751230435086259 0 0.10983506616934779 -0.38150862158389259 0 0.10983506616934779 -0.38150862158389259 0 0.11585001356457469 -0.37522786988863699 0 0.10777690562815791 -0.37209473113413472 0 0.10983506616934779 -0.38150862158389259 0 0.1162389701239447 -0.38098366496829961 0 0.11585001356457469 -0.37522786988863699 0 0.10983506616934779 -0.38150862158389259 0 0.1004531374984214 -0.37632815320654528 0 0.10777690562815791 -0.37209473113413472 0 0.10983506616934779 -0.38150862158389259 0 0.10244112440611169 -0.38545398125912872 0 0.1004531374984214 -0.37632815320654528 0 0.096231458405238238 -0.39270532700469102 0 0.10890853752925959 -0.39229726369896989 0 0.10244112440611169 -0.38545398125912872 0 0.10890853752925959 -0.39229726369896989 0 0.10983506616934779 -0.38150862158389259 0 0.10244112440611169 -0.38545398125912872 0 0.096231458405238238 -0.39270532700469102 0 0.10244112440611169 -0.38545398125912872 0 0.094638065863131032 -0.38300207472276032 0 0.10244112440611169 -0.38545398125912872 0 0.094638065863131032 -0.38300207472276032 0 0.1004531374984214 -0.37632815320654528 0 0.094638065863131032 -0.38300207472276032 0 0.1004531374984214 -0.37632815320654528 0 0.091274325928565492 -0.37325886182616103 0 0.094638065863131032 -0.38300207472276032 0 0.082790283077318366 -0.38726405031727529 0 0.091274325928565492 -0.37325886182616103 0 0.082790283077318366 -0.38726405031727529 0 0.078386208356044276 -0.36780544764778289 0 0.091274325928565492 -0.37325886182616103 0 0.096231458405238238 -0.39270532700469102 0 0.094638065863131032 -0.38300207472276032 0 0.082790283077318366 -0.38726405031727529 0 0.086240937581378657 -0.40691414129653969 0 0.096231458405238238 -0.39270532700469102 0 0.082790283077318366 -0.38726405031727529 0 0.086240937581378657 -0.40691414129653969 0 0.058686509006358113 -0.4038324946929655 0 0.086240937581378657 -0.40691414129653969 0 0.082790283077318366 -0.38726405031727529 0 0.058686509006358113 -0.4038324946929655 0 0.082790283077318366 -0.38726405031727529 0 0.071100334589848574 -0.3781436452328219 0 0.058686509006358113 -0.4038324946929655 0 0.082790283077318366 -0.38726405031727529 0 0.071100334589848574 -0.3781436452328219 0 0.078386208356044276 -0.36780544764778289 0 0.071100334589848574 -0.3781436452328219 0 0.056942506636152627 -0.380493420462649 0 0.065968355916565663 -0.36677005142233038 0 0.071100334589848574 -0.3781436452328219 0 0.056942506636152627 -0.380493420462649 0 0.058686509006358113 -0.4038324946929655 0 0.04698492278292727 -0.37810022734036169 0 0.056942506636152627 -0.380493420462649 0 0.048291146414053951 -0.3909509512624067 0 0.04698492278292727 -0.37810022734036169 0 0.056942506636152627 -0.380493420462649 0 0.053220759733031843 -0.36653376070240989 0 0.056942506636152627 -0.380493420462649 0 0.058686509006358113 -0.4038324946929655 0 0.048291146414053951 -0.3909509512624067 0 0.058686509006358113 -0.4038324946929655 0 0.048291146414053951 -0.3909509512624067 0 0.043380151963400733 -0.40273664747231458 0 0.048291146414053951 -0.3909509512624067 0 0.043380151963400733 -0.40273664747231458 0 0.035461641681431011 -0.38959196634374288 0 0.043380151963400733 -0.40273664747231458 0 0.035461641681431011 -0.38959196634374288 0 0.028519038115345789 -0.39891137071727711 0 0.04698492278292727 -0.37810022734036169 0 0.035461641681431011 -0.38959196634374288 0 0.040667560489146347 -0.36428523015150349 0 0.035461641681431011 -0.38959196634374288 0 0.040667560489146347 -0.36428523015150349 0 0.035461641681431011 -0.38959196634374288 0 0.032968345038938703 -0.37044346011093049 0 0.029360027349431508 -0.37311330104847068 0 0.04698492278292727 -0.37810022734036169 0 0.048291146414053951 -0.3909509512624067 0 0.035461641681431011 -0.38959196634374288 0 0.035461641681431011 -0.38959196634374288 0 0.028519038115345789 -0.39891137071727711 0 0.029360027349431508 -0.37311330104847068 0 0.0106539000054991 -0.38695420666242719 0 0.029360027349431508 -0.37311330104847068 0 0.0106539000054991 -0.38695420666242719 0 0.028519038115345789 -0.39891137071727711 0 0.029360027349431508 -0.37311330104847068 0 0.0106539000054991 -0.38695420666242719 0 0.019808948469812682 -0.36520841114164843 0 0.029360027349431508 -0.37311330104847068 0 0.028519038115345789 -0.39891137071727711 0 0.029360027349431508 -0.37311330104847068 0 -0.0080522273384330753 -0.40079511227638409 0 0.0106539000054991 -0.38695420666242719 0 -0.0080522273384330753 -0.40079511227638409 0 0.0106539000054991 -0.38695420666242719 0 0.0097006394704717315 -0.41288359487434978 0 0.0106539000054991 -0.38695420666242719 0 0.028519038115345789 -0.39891137071727711 0 0.0097006394704717315 -0.41288359487434978 0 0.028519038115345789 -0.39891137071727711 0 0.02767804888125814 -0.42470944038608338 0 0.028519038115345789 -0.39891137071727711 0 0.0097006394704717315 -0.41288359487434978 0 0.02767804888125814 -0.42470944038608338 0 -0.0088049990603604467 -0.42632648894402592 0 0.0097006394704717315 -0.41288359487434978 0 0.0092111710068301239 -0.43818953017462381 0 0.0097006394704717315 -0.41288359487434978 0 0.02767804888125814 -0.42470944038608338 0 0.0092111710068301239 -0.43818953017462381 0 0.02767804888125814 -0.42470944038608338 0 0.046024204142324943 -0.42040801934668409 0 0.039574750422531058 -0.43773938522132699 0 0.043380151963400733 -0.40273664747231458 0 0.028519038115345789 -0.39891137071727711 0 0.02767804888125814 -0.42470944038608338 0 0.043380151963400733 -0.40273664747231458 0 0.02767804888125814 -0.42470944038608338 0 0.046024204142324943 -0.42040801934668409 0 0.058686509006358113 -0.4038324946929655 0 0.046024204142324943 -0.42040801934668409 0 0.060201754033575382 -0.43096351665120047 0 0.058686509006358113 -0.4038324946929655 0 0.043380151963400733 -0.40273664747231458 0 0.046024204142324943 -0.42040801934668409 0 0.046024204142324943 -0.42040801934668409 0 0.060201754033575382 -0.43096351665120047 0 0.039574750422531058 -0.43773938522132699 0 0.060201754033575382 -0.43096351665120047 0 0.052980065413618063 -0.44904373597333019 0 0.039574750422531058 -0.43773938522132699 0 0.070149831246843472 -0.44213798611150662 0 0.060201754033575382 -0.43096351665120047 0 0.052980065413618063 -0.44904373597333019 0 0.052980065413618063 -0.44904373597333019 0 0.059081108779877503 -0.46478376408543259 0 0.043836963447022592 -0.46709023299308999 0 0.072396573435776532 -0.45661066279730378 0 0.052980065413618063 -0.44904373597333019 0 0.059081108779877503 -0.46478376408543259 0 0.052980065413618063 -0.44904373597333019 0 0.043836963447022592 -0.46709023299308999 0 0.026837059647170491 -0.45050751005488993 0 0.043836963447022592 -0.46709023299308999 0 0.026837059647170491 -0.45050751005488993 0 0.025996070413082849 -0.4763055797236963 0 0.052980065413618063 -0.44904373597333019 0 0.039574750422531058 -0.43773938522132699 0 0.026837059647170491 -0.45050751005488993 0 0.02767804888125814 -0.42470944038608338 0 0.039574750422531058 -0.43773938522132699 0 0.026837059647170491 -0.45050751005488993 0 0.02767804888125814 -0.42470944038608338 0 0.026837059647170491 -0.45050751005488993 0 0.02767804888125814 -0.42470944038608338 0 0.026837059647170491 -0.45050751005488993 0 0.0092111710068301239 -0.43818953017462381 0 -0.0095577707822874121 -0.45185786561166769 0 0.0092111710068301239 -0.43818953017462381 0 0.0092792908204219898 -0.45997284759039192 0 0.026837059647170491 -0.45050751005488993 0 0.0092111710068301239 -0.43818953017462381 0 0.0092792908204219898 -0.45997284759039192 0 0.026837059647170491 -0.45050751005488993 0 0.0092792908204219898 -0.45997284759039192 0 0.025996070413082849 -0.4763055797236963 0 0.026837059647170491 -0.45050751005488993 0 0.025996070413082849 -0.4763055797236963 0 -0.0063595903112986024 -0.47724488521441211 0 0.0092792908204219898 -0.45997284759039192 0 0.025996070413082849 -0.4763055797236963 0 -0.0063595903112986024 -0.47724488521441211 0 0.025996070413082849 -0.4763055797236963 0 0.0053422844842149209 -0.5 0 0.025996070413082849 -0.4763055797236963 0 0.0053422844842149209 -0.5 0 0.030653378045230491 -0.5 0 0.030653378045230491 -0.5 0 0.041471789201111477 -0.4850769699538221 0 0.05596447160624618 -0.5 0 0.025996070413082849 -0.4763055797236963 0 0.030653378045230491 -0.5 0 0.041471789201111477 -0.4850769699538221 0 0.043836963447022592 -0.46709023299308999 0 0.025996070413082849 -0.4763055797236963 0 0.041471789201111477 -0.4850769699538221 0 0.043836963447022592 -0.46709023299308999 0 0.041471789201111477 -0.4850769699538221 0 0.056493063419561507 -0.47853124759925519 0 0.059081108779877503 -0.46478376408543259 0 0.043836963447022592 -0.46709023299308999 0 0.056493063419561507 -0.47853124759925519 0 0.069698878183408849 -0.47264294106418392 0 0.059081108779877503 -0.46478376408543259 0 0.056493063419561507 -0.47853124759925519 0 0.074195380625028978 -0.48565422602633351 0 0.056493063419561507 -0.47853124759925519 0 0.05596447160624618 -0.5 0 0.041471789201111477 -0.4850769699538221 0 0.056493063419561507 -0.47853124759925519 0 0.05596447160624618 -0.5 0 0.076083360670184189 -0.3056265620873545 0 0.078043015051189338 -0.28519231183177962 0 0.1047079736496563 -0.29460025019349378 0 0.078043015051189338 -0.28519231183177962 0 0.090291681769540805 -0.27101750657753398 0 0.1047079736496563 -0.29460025019349378 0 0.076083360670184189 -0.3056265620873545 0 0.1047079736496563 -0.29460025019349378 0 0.098639137530624865 -0.32279694805890918 0 0.076083360670184189 -0.3056265620873545 0 0.078043015051189338 -0.28519231183177962 0 0.056285316912292382 -0.28836502157478539 0 0.078043015051189338 -0.28519231183177962 0 0.062846742254273072 -0.26635221872573023 0 0.090291681769540805 -0.27101750657753398 0 0.078043015051189338 -0.28519231183177962 0 0.062846742254273072 -0.26635221872573023 0 0.056285316912292382 -0.28836502157478539 0 0.062846742254273072 -0.26635221872573023 0 0.05119295834794569 -0.24655815111812651 0 0.075875389889423342 -0.24743476296157549 0 0.062846742254273072 -0.26635221872573023 0 0.090291681769540805 -0.27101750657753398 0 0.075875389889423342 -0.24743476296157549 0 0.090291681769540805 -0.27101750657753398 0 0.075875389889423342 -0.24743476296157549 0 0.081868409991530153 -0.2476476087823313 0 0.090291681769540805 -0.27101750657753398 0 0.075875389889423342 -0.24743476296157549 0 0.090291681769540805 -0.27101750657753398 0 0.1041424072258165 -0.25532397613607122 0 0.081868409991530153 -0.2476476087823313 0 0.1041424072258165 -0.25532397613607122 0 0.081868409991530153 -0.2476476087823313 0 0.090291681769540805 -0.27101750657753398 0 0.10981420930693379 -0.27338554241239221 0 0.1047079736496563 -0.29460025019349378 0 0.090291681769540805 -0.27101750657753398 0 0.1041424072258165 -0.25532397613607122 0 0.10981420930693379 -0.27338554241239221 0 0.1041424072258165 -0.25532397613607122 0 0.081868409991530153 -0.2476476087823313 0 0.10615270242444159 -0.24851008046875231 0 0.1041424072258165 -0.25532397613607122 0 0.11678712724192861 -0.25405173806245201 0 0.10615270242444159 -0.24851008046875231 0 0.12641640446010319 -0.26300034348981022 0 0.1041424072258165 -0.25532397613607122 0 0.11678712724192861 -0.25405173806245201 0 0.11678712724192861 -0.25405173806245201 0 0.10615270242444159 -0.24851008046875231 0 0.13043699485735311 -0.2493725521551744 0 0.12641640446010319 -0.26300034348981022 0 0.1041424072258165 -0.25532397613607122 0 0.12641640446010319 -0.26300034348981022 0 0.1041424072258165 -0.25532397613607122 0 0.10981420930693379 -0.27338554241239221 0 0.12641640446010319 -0.26300034348981022 0 0.11678712724192861 -0.25405173806245201 0 0.13043699485735311 -0.2493725521551744 0 0.12641640446010319 -0.26300034348981022 0 0.10981420930693379 -0.27338554241239221 0 0.1235125794295524 -0.28298563566505192 0 0.1295746317722703 -0.30069958648038148 0 0.1235125794295524 -0.28298563566505192 0 0.1047079736496563 -0.29460025019349378 0 0.10981420930693379 -0.27338554241239221 0 0.1235125794295524 -0.28298563566505192 0 0.1047079736496563 -0.29460025019349378 0 0.090291681769540805 -0.27101750657753398 0 0.1047079736496563 -0.29460025019349378 0 0.1047079736496563 -0.29460025019349378 0 0.11912426552977171 -0.31818299380945358 0 0.098639137530624865 -0.32279694805890918 0 0.1295746317722703 -0.30069958648038148 0 0.1047079736496563 -0.29460025019349378 0 0.11912426552977171 -0.31818299380945358 0 0.1047079736496563 -0.29460025019349378 0 0.11912426552977171 -0.31818299380945358 0 0.11912426552977171 -0.31818299380945358 0 0.11647499261213611 -0.33417227593807702 0 0.098639137530624865 -0.32279694805890918 0 0.13440249913606589 -0.34191455716014107 0 0.11912426552977171 -0.31818299380945358 0 0.11647499261213611 -0.33417227593807702 0 0.13440249913606589 -0.34191455716014107 0 0.11647499261213611 -0.33417227593807702 0 0.1210432314486411 -0.3472037214702115 0 0.11647499261213611 -0.33417227593807702 0 0.1073734833073022 -0.34341638823524467 0 0.1210432314486411 -0.3472037214702115 0 0.1073734833073022 -0.34341638823524467 0 0.098639137530624865 -0.32279694805890918 0 0.090936684802570514 -0.34160505669775149 0 0.11647499261213611 -0.33417227593807702 0 0.1073734833073022 -0.34341638823524467 0 0.098639137530624865 -0.32279694805890918 0 0.13205030439588331 -0.35553811856731388 0 0.12352918579170739 -0.37654014685097792 0 0.11545133454950519 -0.35997826754311107 0 0.12352918579170739 -0.37654014685097792 0 0.11545133454950519 -0.35997826754311107 0 0.12352918579170739 -0.37654014685097792 0 0.11585001356457469 -0.37522786988863699 0 0.11545133454950519 -0.35997826754311107 0 0.11585001356457469 -0.37522786988863699 0 0.11545133454950519 -0.35997826754311107 0 0.10777690562815791 -0.37209473113413472 0 0.13205030439588331 -0.35553811856731388 0 0.11545133454950519 -0.35997826754311107 0 0.1210432314486411 -0.3472037214702115 0 0.1073734833073022 -0.34341638823524467 0 0.11545133454950519 -0.35997826754311107 0 0.1210432314486411 -0.3472037214702115 0 0.1073734833073022 -0.34341638823524467 0 0.11545133454950519 -0.35997826754311107 0 0.1073734833073022 -0.34341638823524467 0 0.094089496496210401 -0.35742217862594822 0 0.090936684802570514 -0.34160505669775149 0 0.1073734833073022 -0.34341638823524467 0 0.11545133454950519 -0.35997826754311107 0 0.094089496496210401 -0.35742217862594822 0 0.11545133454950519 -0.35997826754311107 0 0.094089496496210401 -0.35742217862594822 0 0.1001407694356318 -0.36721814418542242 0 0.094089496496210401 -0.35742217862594822 0 0.1001407694356318 -0.36721814418542242 0 0.091274325928565492 -0.37325886182616103 0 0.11545133454950519 -0.35997826754311107 0 0.1001407694356318 -0.36721814418542242 0 0.10777690562815791 -0.37209473113413472 0 0.1004531374984214 -0.37632815320654528 0 0.1001407694356318 -0.36721814418542242 0 0.091274325928565492 -0.37325886182616103 0 0.1004531374984214 -0.37632815320654528 0 0.1001407694356318 -0.36721814418542242 0 0.10777690562815791 -0.37209473113413472 0 0.094089496496210401 -0.35742217862594822 0 0.078386208356044276 -0.36780544764778289 0 0.091274325928565492 -0.37325886182616103 0 0.094089496496210401 -0.35742217862594822 0 0.078386208356044276 -0.36780544764778289 0 0.07561677841715396 -0.35231019847037998 0 0.094089496496210401 -0.35742217862594822 0 0.07561677841715396 -0.35231019847037998 0 0.090936684802570514 -0.34160505669775149 0 0.07561677841715396 -0.35231019847037998 0 0.076949657515091308 -0.33667731574934889 0 0.062284332076746357 -0.34336377925481482 0 0.07561677841715396 -0.35231019847037998 0 0.062284332076746357 -0.34336377925481482 0 0.060910711070319423 -0.35561439600502898 0 0.07561677841715396 -0.35231019847037998 0 0.065968355916565663 -0.36677005142233038 0 0.060910711070319423 -0.35561439600502898 0 0.078386208356044276 -0.36780544764778289 0 0.07561677841715396 -0.35231019847037998 0 0.065968355916565663 -0.36677005142233038 0 0.071100334589848574 -0.3781436452328219 0 0.078386208356044276 -0.36780544764778289 0 0.065968355916565663 -0.36677005142233038 0 0.076083360670184189 -0.3056265620873545 0 0.098639137530624865 -0.32279694805890918 0 0.081680984591886899 -0.32645783303629949 0 0.098639137530624865 -0.32279694805890918 0 0.081680984591886899 -0.32645783303629949 0 0.090936684802570514 -0.34160505669775149 0 0.07561677841715396 -0.35231019847037998 0 0.090936684802570514 -0.34160505669775149 0 0.076949657515091308 -0.33667731574934889 0 0.081680984591886899 -0.32645783303629949 0 0.090936684802570514 -0.34160505669775149 0 0.076949657515091308 -0.33667731574934889 0 0.081680984591886899 -0.32645783303629949 0 0.076949657515091308 -0.33667731574934889 0 0.06579608244096366 -0.3255832825881339 0 0.076949657515091308 -0.33667731574934889 0 0.06579608244096366 -0.3255832825881339 0 0.062284332076746357 -0.34336377925481482 0 0.076083360670184189 -0.3056265620873545 0 0.081680984591886899 -0.32645783303629949 0 0.06579608244096366 -0.3255832825881339 0 0.076083360670184189 -0.3056265620873545 0 0.06579608244096366 -0.3255832825881339 0 0.051079398104577033 -0.31367175776702488 0 0.06579608244096366 -0.3255832825881339 0 0.051079398104577033 -0.31367175776702488 0 0.045873479296861669 -0.33897849395926433 0 0.051079398104577033 -0.31367175776702488 0 0.045873479296861669 -0.33897849395926433 0 0.06579608244096366 -0.3255832825881339 0 0.062284332076746357 -0.34336377925481482 0 0.045873479296861669 -0.33897849395926433 0 0.045873479296861669 -0.33897849395926433 0 0.036734366518834917 -0.34951654566921581 0 0.030477608409743319 -0.33883053869457319 0 0.045873479296861669 -0.33897849395926433 0 0.032758651857424589 -0.32352160222801518 0 0.030477608409743319 -0.33883053869457319 0 0.051079398104577033 -0.31367175776702488 0 0.045873479296861669 -0.33897849395926433 0 0.032758651857424589 -0.32352160222801518 0 0.051079398104577033 -0.31367175776702488 0 0.032758651857424589 -0.32352160222801518 0 0.036425724676970542 -0.30076515254953778 0 0.04698492278292727 -0.37810022734036169 0 0.053220759733031843 -0.36653376070240989 0 0.040667560489146347 -0.36428523015150349 0 0.056942506636152627 -0.380493420462649 0 0.065968355916565663 -0.36677005142233038 0 0.053220759733031843 -0.36653376070240989 0 0.065968355916565663 -0.36677005142233038 0 0.053220759733031843 -0.36653376070240989 0 0.060910711070319423 -0.35561439600502898 0 0.053220759733031843 -0.36653376070240989 0 0.052591368533221133 -0.35375513201460429 0 0.040667560489146347 -0.36428523015150349 0 0.062284332076746357 -0.34336377925481482 0 0.045873479296861669 -0.33897849395926433 0 0.052591368533221133 -0.35375513201460429 0 0.053220759733031843 -0.36653376070240989 0 0.052591368533221133 -0.35375513201460429 0 0.060910711070319423 -0.35561439600502898 0 0.062284332076746357 -0.34336377925481482 0 0.052591368533221133 -0.35375513201460429 0 0.060910711070319423 -0.35561439600502898 0 0.045873479296861669 -0.33897849395926433 0 0.052591368533221133 -0.35375513201460429 0 0.040667560489146347 -0.36428523015150349 0 0.036734366518834917 -0.34951654566921581 0 0.029918817879588371 -0.35597191987152199 0 0.030477608409743319 -0.33883053869457319 0 0.045873479296861669 -0.33897849395926433 0 0.040667560489146347 -0.36428523015150349 0 0.045873479296861669 -0.33897849395926433 0 0.036734366518834917 -0.34951654566921581 0 0.040667560489146347 -0.36428523015150349 0 0.036734366518834917 -0.34951654566921581 0 0.040667560489146347 -0.36428523015150349 0 0.029918817879588371 -0.35597191987152199 0 0.035461641681431011 -0.38959196634374288 0 0.040667560489146347 -0.36428523015150349 0 0.032968345038938703 -0.37044346011093049 0 0.040667560489146347 -0.36428523015150349 0 0.032968345038938703 -0.37044346011093049 0 0.029918817879588371 -0.35597191987152199 0 0.029360027349431508 -0.37311330104847068 0 0.029918817879588371 -0.35597191987152199 0 0.032968345038938703 -0.37044346011093049 0 0.029360027349431508 -0.37311330104847068 0 0.029918817879588371 -0.35597191987152199 0 0.019808948469812682 -0.36520841114164843 0 0.029360027349431508 -0.37311330104847068 0 0.029918817879588371 -0.35597191987152199 0 0.032968345038938703 -0.37044346011093049 0 0.029360027349431508 -0.37311330104847068 0 0.019808948469812682 -0.36520841114164843 0 0.01671904075420793 -0.34928694163672641 0 0.029918817879588371 -0.35597191987152199 0 0.01671904075420793 -0.34928694163672641 0 0.029918817879588371 -0.35597191987152199 0 0.030477608409743319 -0.33883053869457319 0 0.029918817879588371 -0.35597191987152199 0 0.030477608409743319 -0.33883053869457319 0 -0.0063380091034914258 -0.34265484189692352 0 0.01671904075420793 -0.34928694163672641 0 0.0069389752520108098 -0.36251041965263731 0 0.019808948469812682 -0.36520841114164843 0 0.01671904075420793 -0.34928694163672641 0 0.0069389752520108098 -0.36251041965263731 0 0.0106539000054991 -0.38695420666242719 0 0.019808948469812682 -0.36520841114164843 0 0.0069389752520108098 -0.36251041965263731 0 -0.0071951182209624527 -0.3717249770866537 0 0.0106539000054991 -0.38695420666242719 0 0.0069389752520108098 -0.36251041965263731 0 0.032758651857424589 -0.32352160222801518 0 0.014854395803430939 -0.33024824159240951 0 0.017944412233204969 -0.31169945699436807 0 0.01671904075420793 -0.34928694163672641 0 0.030477608409743319 -0.33883053869457319 0 0.014854395803430939 -0.33024824159240951 0 0.032758651857424589 -0.32352160222801518 0 0.030477608409743319 -0.33883053869457319 0 0.014854395803430939 -0.33024824159240951 0 -0.0024353293305037051 -0.31549606810385089 0 -0.0063380091034914258 -0.34265484189692352 0 0.014854395803430939 -0.33024824159240951 0 -0.0063380091034914258 -0.34265484189692352 0 0.01671904075420793 -0.34928694163672641 0 0.014854395803430939 -0.33024824159240951 0 -0.0024353293305037051 -0.31549606810385089 0 0.014854395803430939 -0.33024824159240951 0 0.017944412233204969 -0.31169945699436807 0 -0.00071234882769611544 -0.29164278824115147 0 -0.0024353293305037051 -0.31549606810385089 0 0.017944412233204969 -0.31169945699436807 0 -0.00071234882769611544 -0.29164278824115147 0 0.018936252946613389 -0.29047756791338131 0 0.017944412233204969 -0.31169945699436807 0 -0.00071234882769611544 -0.29164278824115147 0 -0.0027406730040364299 -0.27120934306675709 0 0.018936252946613389 -0.29047756791338131 0 0.032758651857424589 -0.32352160222801518 0 0.017944412233204969 -0.31169945699436807 0 0.036425724676970542 -0.30076515254953778 0 0.018936252946613389 -0.29047756791338131 0 0.017944412233204969 -0.31169945699436807 0 0.036425724676970542 -0.30076515254953778 0 0.018936252946613389 -0.29047756791338131 0 0.036425724676970542 -0.30076515254953778 0 0.041550316007710912 -0.27685550881965199 0 0.036425724676970542 -0.30076515254953778 0 0.056285316912292382 -0.28836502157478539 0 0.041550316007710912 -0.27685550881965199 0 0.051079398104577033 -0.31367175776702488 0 0.056285316912292382 -0.28836502157478539 0 0.076083360670184189 -0.3056265620873545 0 0.051079398104577033 -0.31367175776702488 0 0.056285316912292382 -0.28836502157478539 0 0.051079398104577033 -0.31367175776702488 0 0.036425724676970542 -0.30076515254953778 0 0.056285316912292382 -0.28836502157478539 0 0.062846742254273072 -0.26635221872573023 0 0.041550316007710912 -0.27685550881965199 0 0.05119295834794569 -0.24655815111812651 0 0.062846742254273072 -0.26635221872573023 0 0.056285316912292382 -0.28836502157478539 0 0.041550316007710912 -0.27685550881965199 0 0.041550316007710912 -0.27685550881965199 0 0.025644525548401399 -0.26287361277785309 0 0.05119295834794569 -0.24655815111812651 0 0.025644525548401399 -0.26287361277785309 0 0.0095164399390140052 -0.2538128424220743 0 0.019987569892361931 -0.23783436864525809 0 0.025644525548401399 -0.26287361277785309 0 0.019987569892361931 -0.23783436864525809 0 0.018936252946613389 -0.29047756791338131 0 0.041550316007710912 -0.27685550881965199 0 0.025644525548401399 -0.26287361277785309 0 -0.0027406730040364299 -0.27120934306675709 0 0.018936252946613389 -0.29047756791338131 0 -0.0027406730040364299 -0.27120934306675709 0 0.018936252946613389 -0.29047756791338131 0 0.025644525548401399 -0.26287361277785309 0 -0.0027406730040364299 -0.27120934306675709 0 0.025644525548401399 -0.26287361277785309 0 0.0095164399390140052 -0.2538128424220743 0 -0.0027406730040364299 -0.27120934306675709 0 -0.0042033227111639123 -0.24392009467379419 0 0.0095164399390140052 -0.2538128424220743 0 -0.0042033227111639123 -0.24392009467379419 0 0.0095164399390140052 -0.2538128424220743 0 0.019987569892361931 -0.23783436864525809 0 -0.0061251883926587468 -0.21847658989635399 0 0.019987569892361931 -0.23783436864525809 0 0.01433061423632246 -0.21279512451266319 0 -0.0042033227111639123 -0.24392009467379419 0 -0.0061251883926587468 -0.21847658989635399 0 0.019987569892361931 -0.23783436864525809 0 0.019987569892361931 -0.23783436864525809 0 0.036766252315409143 -0.23891746980818029 0 0.035562512675439112 -0.22263677975190349 0 0.019987569892361931 -0.23783436864525809 0 0.01433061423632246 -0.21279512451266319 0 0.035562512675439112 -0.22263677975190349 0 0.019987569892361931 -0.23783436864525809 0 0.01433061423632246 -0.21279512451266319 0 0.025644525548401399 -0.26287361277785309 0 0.019987569892361931 -0.23783436864525809 0 0.036766252315409143 -0.23891746980818029 0 0.0086736585802836969 -0.18775588038006791 0 7.1336573020161454e-05 -0.1995351678497031 0 0.01433061423632246 -0.21279512451266319 0 0.0086736585802836969 -0.18775588038006791 0 0.01433061423632246 -0.21279512451266319 0 0.0086736585802836969 -0.18775588038006791 0 7.1336573020161454e-05 -0.1995351678497031 0 0.0057909207371472484 -0.18611734708035199 0 -0.0061251883926587468 -0.21847658989635399 0 7.1336573020161454e-05 -0.1995351678497031 0 0.01433061423632246 -0.21279512451266319 0 0.01433061423632246 -0.21279512451266319 0 0.032212288290602319 -0.20113511592235789 0 0.035562512675439112 -0.22263677975190349 0 0.0086736585802836969 -0.18775588038006791 0 0.01433061423632246 -0.21279512451266319 0 0.032212288290602319 -0.20113511592235789 0 0.0086736585802836969 -0.18775588038006791 0 0.025110697479151109 -0.18881859352762859 0 0.032212288290602319 -0.20113511592235789 0 0.0086736585802836969 -0.18775588038006791 0 0.032212288290602319 -0.20113511592235789 0 0.036771098631507099 -0.19262306154734249 0 0.045223024695894523 -0.19729240488550959 0 0.048297297002495222 -0.18605733706720989 0 0.025110697479151109 -0.18881859352762859 0 0.036771098631507099 -0.19262306154734249 0 0.032212288290602319 -0.20113511592235789 0 0.025110697479151109 -0.18881859352762859 0 0.036771098631507099 -0.19262306154734249 0 0.034993716536888327 -0.1835325315771886 0 0.036771098631507099 -0.19262306154734249 0 0.032212288290602319 -0.20113511592235789 0 0.045223024695894523 -0.19729240488550959 0 0.032212288290602319 -0.20113511592235789 0 0.045223024695894523 -0.19729240488550959 0 0.055750918000920753 -0.21451435146464831 0 0.032212288290602319 -0.20113511592235789 0 0.055750918000920753 -0.21451435146464831 0 0.035562512675439112 -0.22263677975190349 0 0.032212288290602319 -0.20113511592235789 0 0.055750918000920753 -0.21451435146464831 0 0.045223024695894523 -0.19729240488550959 0 0.055750918000920753 -0.21451435146464831 0 0.045223024695894523 -0.19729240488550959 0 0.055750918000920753 -0.21451435146464831 0 0.059532768854984992 -0.19662212535504661 0 0.059532768854984992 -0.19662212535504661 0 0.070005074541987594 -0.1854112084215333 0 0.048297297002495222 -0.18605733706720989 0 0.045223024695894523 -0.19729240488550959 0 0.059532768854984992 -0.19662212535504661 0 0.048297297002495222 -0.18605733706720989 0 0.025644525548401399 -0.26287361277785309 0 0.036766252315409143 -0.23891746980818029 0 0.05119295834794569 -0.24655815111812651 0 0.036766252315409143 -0.23891746980818029 0 0.04998861026825923 -0.22934254902542239 0 0.05119295834794569 -0.24655815111812651 0 0.036766252315409143 -0.23891746980818029 0 0.035562512675439112 -0.22263677975190349 0 0.04998861026825923 -0.22934254902542239 0 0.055750918000920753 -0.21451435146464831 0 0.04998861026825923 -0.22934254902542239 0 0.065813153945173133 -0.23097455721311119 0 0.055750918000920753 -0.21451435146464831 0 0.035562512675439112 -0.22263677975190349 0 0.04998861026825923 -0.22934254902542239 0 0.055750918000920753 -0.21451435146464831 0 0.065813153945173133 -0.23097455721311119 0 0.04998861026825923 -0.22934254902542239 0 0.05119295834794569 -0.24655815111812651 0 0.065813153945173133 -0.23097455721311119 0 0.05119295834794569 -0.24655815111812651 0 0.07450849403501987 -0.24519874035935649 0 0.065813153945173133 -0.23097455721311119 0 0.05119295834794569 -0.24655815111812651 0 0.07450849403501987 -0.24519874035935649 0 0.075875389889423342 -0.24743476296157549 0 0.05119295834794569 -0.24655815111812651 0 0.075875389889423342 -0.24743476296157549 0 0.07450849403501987 -0.24519874035935649 0 0.065813153945173133 -0.23097455721311119 0 0.074358289706140959 -0.23761429642155751 0 0.07450849403501987 -0.24519874035935649 0 0.065813153945173133 -0.23097455721311119 0 0.074358289706140959 -0.23761429642155751 0 0.07450849403501987 -0.24519874035935649 0 0.079921054201206043 -0.24026500494784839 0 0.074358289706140959 -0.23761429642155751 0 0.079921054201206043 -0.24026500494784839 0 0.077098813121791343 -0.2340749054750462 0 0.07450849403501987 -0.24519874035935649 0 0.075875389889423342 -0.24743476296157549 0 0.081868409991530153 -0.2476476087823313 0 0.07450849403501987 -0.24519874035935649 0 0.075875389889423342 -0.24743476296157549 0 0.075875389889423342 -0.24743476296157549 0 0.081868409991530153 -0.2476476087823313 0 0.081868409991530153 -0.2476476087823313 0 0.090949719681927665 -0.2345211685263113 0 0.10615270242444159 -0.24851008046875231 0 0.07450849403501987 -0.24519874035935649 0 0.081868409991530153 -0.2476476087823313 0 0.07450849403501987 -0.24519874035935649 0 0.081868409991530153 -0.2476476087823313 0 0.079921054201206043 -0.24026500494784839 0 0.081868409991530153 -0.2476476087823313 0 0.079921054201206043 -0.24026500494784839 0 0.090949719681927665 -0.2345211685263113 0 0.079921054201206043 -0.24026500494784839 0 0.090949719681927665 -0.2345211685263113 0 0.077098813121791343 -0.2340749054750462 0 0.090949719681927665 -0.2345211685263113 0 0.073350318841424192 -0.22451775999547979 0 0.090949719681927665 -0.2345211685263113 0 0.073350318841424192 -0.22451775999547979 0 0.077098813121791343 -0.2340749054750462 0 0.090949719681927665 -0.2345211685263113 0 0.073350318841424192 -0.22451775999547979 0 0.093267106086639323 -0.21709574980957161 0 0.055750918000920753 -0.21451435146464831 0 0.073350318841424192 -0.22451775999547979 0 0.055750918000920753 -0.21451435146464831 0 0.073350318841424192 -0.22451775999547979 0 0.065813153945173133 -0.23097455721311119 0 0.073350318841424192 -0.22451775999547979 0 0.077098813121791343 -0.2340749054750462 0 0.065813153945173133 -0.23097455721311119 0 0.074358289706140959 -0.23761429642155751 0 0.077098813121791343 -0.2340749054750462 0 0.065813153945173133 -0.23097455721311119 0 0.055750918000920753 -0.21451435146464831 0 0.059532768854984992 -0.19662212535504661 0 0.072488717358709626 -0.20555023751093421 0 0.055750918000920753 -0.21451435146464831 0 0.073350318841424192 -0.22451775999547979 0 0.072488717358709626 -0.20555023751093421 0 0.059532768854984992 -0.19662212535504661 0 0.072488717358709626 -0.20555023751093421 0 0.070005074541987594 -0.1854112084215333 0 0.072488717358709626 -0.20555023751093421 0 0.089956044365811977 -0.19810700208917609 0 0.070005074541987594 -0.1854112084215333 0 0.089956044365811977 -0.19810700208917609 0 0.070005074541987594 -0.1854112084215333 0 0.073350318841424192 -0.22451775999547979 0 0.072488717358709626 -0.20555023751093421 0 0.093267106086639323 -0.21709574980957161 0 0.072488717358709626 -0.20555023751093421 0 0.089956044365811977 -0.19810700208917609 0 0.093267106086639323 -0.21709574980957161 0 0.089956044365811977 -0.19810700208917609 0 0.093267106086639323 -0.21709574980957161 0 0.10929052705580369 -0.20140393724404701 0 0.093267106086639323 -0.21709574980957161 0 0.10929052705580369 -0.20140393724404701 0 0.11424555108638861 -0.22191190026872051 0 0.089956044365811977 -0.19810700208917609 0 0.10929052705580369 -0.20140393724404701 0 0.10531644366254039 -0.175773456348919 0 0.10929052705580369 -0.20140393724404701 0 0.12285731706154519 -0.1884086525674436 0 0.10531644366254039 -0.175773456348919 0 0.10929052705580369 -0.20140393724404701 0 0.12285731706154519 -0.1884086525674436 0 0.1301007000718965 -0.20712686238045161 0 0.10929052705580369 -0.20140393724404701 0 0.11424555108638861 -0.22191190026872051 0 0.1301007000718965 -0.20712686238045161 0 0.11424555108638861 -0.22191190026872051 0 0.1239959396911831 -0.23522533149570449 0 0.13343572427895289 -0.22358786520745039 0 0.11424555108638861 -0.22191190026872051 0 0.112995072636165 -0.23573712662772961 0 0.1038415874970728 -0.23161657513736791 0 0.11424555108638861 -0.22191190026872051 0 0.1239959396911831 -0.23522533149570449 0 0.112995072636165 -0.23573712662772961 0 0.1239959396911831 -0.23522533149570449 0 0.11784271128536471 -0.2436562888341556 0 0.112995072636165 -0.23573712662772961 0 0.11784271128536471 -0.2436562888341556 0 0.10615270242444159 -0.24851008046875231 0 0.13043699485735311 -0.2493725521551744 0 0.10615270242444159 -0.24851008046875231 0 0.13043699485735311 -0.2493725521551744 0 0.1239959396911831 -0.23522533149570449 0 0.11784271128536471 -0.2436562888341556 0 0.13043699485735311 -0.2493725521551744 0 0.11784271128536471 -0.2436562888341556 0 0.10615270242444159 -0.24851008046875231 0 0.1085491205224311 -0.2445245770571427 0 0.11784271128536471 -0.2436562888341556 0 0.112995072636165 -0.23573712662772961 0 0.1085491205224311 -0.2445245770571427 0 0.081868409991530153 -0.2476476087823313 0 0.10615270242444159 -0.24851008046875231 0 0.090949719681927665 -0.2345211685263113 0 0.1085491205224311 -0.2445245770571427 0 0.090949719681927665 -0.2345211685263113 0 0.10615270242444159 -0.24851008046875231 0 0.1085491205224311 -0.2445245770571427 0 0.090949719681927665 -0.2345211685263113 0 0.1085491205224311 -0.2445245770571427 0 0.1038415874970728 -0.23161657513736791 0 0.112995072636165 -0.23573712662772961 0 0.1085491205224311 -0.2445245770571427 0 0.1038415874970728 -0.23161657513736791 0 0.093267106086639323 -0.21709574980957161 0 0.11424555108638861 -0.22191190026872051 0 0.1038415874970728 -0.23161657513736791 0 0.090949719681927665 -0.2345211685263113 0 0.093267106086639323 -0.21709574980957161 0 0.1038415874970728 -0.23161657513736791 0 0.10547868849490211 -0.1485103118522193 0 0.088857707377506659 -0.15817272877575361 0 0.091293667190272945 -0.13345070389201191 0 0.10547868849490211 -0.1485103118522193 0 0.11229852723194871 -0.13000726719654179 0 0.091293667190272945 -0.13345070389201191 0 0.11229852723194871 -0.13000726719654179 0 0.12588008789340979 -0.14545787960578291 0 0.12670978929538751 -0.1267612745108494 0 0.11229852723194871 -0.13000726719654179 0 0.1180031001847489 -0.1203660054486673 0 0.12670978929538751 -0.1267612745108494 0 0.10547868849490211 -0.1485103118522193 0 0.11229852723194871 -0.13000726719654179 0 0.12588008789340979 -0.14545787960578291 0 0.10547868849490211 -0.1485103118522193 0 0.1189365725174196 -0.1610537675192879 0 0.12588008789340979 -0.14545787960578291 0 0.1189365725174196 -0.1610537675192879 0 0.10531644366254039 -0.175773456348919 0 0.12504422415627009 -0.17296663077896179 0 0.10547868849490211 -0.1485103118522193 0 0.1189365725174196 -0.1610537675192879 0 0.10531644366254039 -0.175773456348919 0 0.12285731706154519 -0.1884086525674436 0 0.10531644366254039 -0.175773456348919 0 0.12504422415627009 -0.17296663077896179 0 0.10547868849490211 -0.1485103118522193 0 0.10531644366254039 -0.175773456348919 0 0.088857707377506659 -0.15817272877575361 0 0.088857707377506659 -0.15817272877575361 0 0.085593441329568171 -0.1765266203333431 0 0.068923352954618114 -0.16402586373593689 0 0.10531644366254039 -0.175773456348919 0 0.088857707377506659 -0.15817272877575361 0 0.085593441329568171 -0.1765266203333431 0 0.089956044365811977 -0.19810700208917609 0 0.085593441329568171 -0.1765266203333431 0 0.070005074541987594 -0.1854112084215333 0 0.089956044365811977 -0.19810700208917609 0 0.10531644366254039 -0.175773456348919 0 0.085593441329568171 -0.1765266203333431 0 0.070005074541987594 -0.1854112084215333 0 0.068923352954618114 -0.16402586373593689 0 0.050054104718163198 -0.17271541475389049 0 0.085593441329568171 -0.1765266203333431 0 0.070005074541987594 -0.1854112084215333 0 0.068923352954618114 -0.16402586373593689 0 0.088857707377506659 -0.15817272877575361 0 0.068923352954618114 -0.16402586373593689 0 0.075150397839798669 -0.1466530597119462 0 0.075150397839798669 -0.1466530597119462 0 0.069695779804595057 -0.13115093997606589 0 0.0547247991682632 -0.14619557057018909 0 0.068923352954618114 -0.16402586373593689 0 0.075150397839798669 -0.1466530597119462 0 0.0547247991682632 -0.14619557057018909 0 0.088857707377506659 -0.15817272877575361 0 0.075150397839798669 -0.1466530597119462 0 0.091293667190272945 -0.13345070389201191 0 0.075150397839798669 -0.1466530597119462 0 0.091293667190272945 -0.13345070389201191 0 0.069695779804595057 -0.13115093997606589 0 0.069695779804595057 -0.13115093997606589 0 0.051147972304549573 -0.12672543621684679 0 0.0547247991682632 -0.14619557057018909 0 0.051147972304549573 -0.12672543621684679 0 0.0547247991682632 -0.14619557057018909 0 0.034794702242850431 -0.13389499376877381 0 0.0547247991682632 -0.14619557057018909 0 0.055140894520486393 -0.16080666589018039 0 0.045603580087198142 -0.15816671090876769 0 0.0547247991682632 -0.14619557057018909 0 0.037569130910366268 -0.14935021461579889 0 0.034794702242850431 -0.13389499376877381 0 0.0547247991682632 -0.14619557057018909 0 0.037569130910366268 -0.14935021461579889 0 0.045603580087198142 -0.15816671090876769 0 0.037569130910366268 -0.14935021461579889 0 0.045603580087198142 -0.15816671090876769 0 0.030103134894338739 -0.16001962108624759 0 0.037569130910366268 -0.14935021461579889 0 0.034794702242850431 -0.13389499376877381 0 0.025760835570330411 -0.14481938160899541 0 0.051147972304549573 -0.12672543621684679 0 0.034794702242850431 -0.13389499376877381 0 0.03876563954510754 -0.11745233535052201 0 0.070005074541987594 -0.1854112084215333 0 0.048297297002495222 -0.18605733706720989 0 0.050054104718163198 -0.17271541475389049 0 0.070005074541987594 -0.1854112084215333 0 0.050054104718163198 -0.17271541475389049 0 0.068923352954618114 -0.16402586373593689 0 0.0547247991682632 -0.14619557057018909 0 0.055140894520486393 -0.16080666589018039 0 0.068923352954618114 -0.16402586373593689 0 0.050054104718163198 -0.17271541475389049 0 0.055140894520486393 -0.16080666589018039 0 0.050054104718163198 -0.17271541475389049 0 0.055140894520486393 -0.16080666589018039 0 0.045603580087198142 -0.15816671090876769 0 0.050054104718163198 -0.17271541475389049 0 0.045603580087198142 -0.15816671090876769 0 0.030103134894338739 -0.16001962108624759 0 0.050054104718163198 -0.17271541475389049 0 0.036465192066716133 -0.16669170737829031 0 0.030103134894338739 -0.16001962108624759 0 0.050054104718163198 -0.17271541475389049 0 0.030103134894338739 -0.16001962108624759 0 0.050054104718163198 -0.17271541475389049 0 0.036465192066716133 -0.16669170737829031 0 0.040109936456822037 -0.17545752198130779 0 0.040109936456822037 -0.17545752198130779 0 0.034993716536888327 -0.1835325315771886 0 0.022227089862778351 -0.17570852282218979 0 0.036465192066716133 -0.16669170737829031 0 0.040109936456822037 -0.17545752198130779 0 0.022227089862778351 -0.17570852282218979 0 0.048297297002495222 -0.18605733706720989 0 0.050054104718163198 -0.17271541475389049 0 0.040109936456822037 -0.17545752198130779 0 0.048297297002495222 -0.18605733706720989 0 0.040109936456822037 -0.17545752198130779 0 0.034993716536888327 -0.1835325315771886 0 0.036771098631507099 -0.19262306154734249 0 0.048297297002495222 -0.18605733706720989 0 0.034993716536888327 -0.1835325315771886 0 0.0086736585802836969 -0.18775588038006791 0 0.025110697479151109 -0.18881859352762859 0 0.0160001083952627 -0.18425208374899391 0 0.025110697479151109 -0.18881859352762859 0 0.0160001083952627 -0.18425208374899391 0 0.022227089862778351 -0.17570852282218979 0 0.025110697479151109 -0.18881859352762859 0 0.034993716536888327 -0.1835325315771886 0 0.022227089862778351 -0.17570852282218979 0 0.022227089862778351 -0.17570852282218979 0 0.023058516401108689 -0.16630451793156811 0 0.01358561041169765 -0.1716183640254523 0 0.023058516401108689 -0.16630451793156811 0 0.015927937794377751 -0.1612200587874599 0 0.01358561041169765 -0.1716183640254523 0 0.036465192066716133 -0.16669170737829031 0 0.022227089862778351 -0.17570852282218979 0 0.036465192066716133 -0.16669170737829031 0 0.023058516401108689 -0.16630451793156811 0 0.030103134894338739 -0.16001962108624759 0 0.036465192066716133 -0.16669170737829031 0 0.022227089862778351 -0.17570852282218979 0 0.023058516401108689 -0.16630451793156811 0 0.023058516401108689 -0.16630451793156811 0 0.030103134894338739 -0.16001962108624759 0 0.015927937794377751 -0.1612200587874599 0 0.015927937794377751 -0.1612200587874599 0 0.0036501877186468209 -0.16552061446222491 0 0.01015216507051417 -0.1473238274186047 0 0.015927937794377751 -0.1612200587874599 0 0.0036501877186468209 -0.16552061446222491 0 0.01358561041169765 -0.1716183640254523 0 -0.00089538367398732908 -0.1755778227299257 0 0.0036501877186468209 -0.16552061446222491 0 0.0079889876588402492 -0.1847253382660887 0 0.0036501877186468209 -0.16552061446222491 0 0.01358561041169765 -0.1716183640254523 0 0.0079889876588402492 -0.1847253382660887 0 0.0036501877186468209 -0.16552061446222491 0 0.0079889876588402492 -0.1847253382660887 0 0.022227089862778351 -0.17570852282218979 0 0.01358561041169765 -0.1716183640254523 0 0.0079889876588402492 -0.1847253382660887 0 -0.00089538367398732908 -0.1755778227299257 0 0.00057544433944834209 -0.18225048457122281 0 0.0079889876588402492 -0.1847253382660887 0 0.00057544433944834209 -0.18225048457122281 0 0.0043410467839961964 -0.18529324621447579 0 0.0079889876588402492 -0.1847253382660887 0 0.0057909207371472484 -0.18611734708035199 0 0.0043410467839961964 -0.18529324621447579 0 0.0057909207371472484 -0.18611734708035199 0 0.0043410467839961964 -0.18529324621447579 0 0.0079889876588402492 -0.1847253382660887 0 0.0057909207371472484 -0.18611734708035199 0 0.0079889876588402492 -0.1847253382660887 0 0.0086736585802836969 -0.18775588038006791 0 0.0057909207371472484 -0.18611734708035199 0 0.0079889876588402492 -0.1847253382660887 0 0.0086736585802836969 -0.18775588038006791 0 0.0057909207371472484 -0.18611734708035199 0 0.0086736585802836969 -0.18775588038006791 0 0.0079889876588402492 -0.1847253382660887 0 0.0086736585802836969 -0.18775588038006791 0 0.0160001083952627 -0.18425208374899391 0 0.0079889876588402492 -0.1847253382660887 0 0.022227089862778351 -0.17570852282218979 0 0.0079889876588402492 -0.1847253382660887 0 0.0160001083952627 -0.18425208374899391 0 0.022227089862778351 -0.17570852282218979 0 0.0079889876588402492 -0.1847253382660887 0 0.034794702242850431 -0.13389499376877381 0 0.016800913440897521 -0.13455662587258299 0 0.025760835570330411 -0.14481938160899541 0 0.034794702242850431 -0.13389499376877381 0 0.016800913440897521 -0.13455662587258299 0 0.018689548578193649 -0.1179136688465889 0 0.030103134894338739 -0.16001962108624759 0 0.01015216507051417 -0.1473238274186047 0 0.030103134894338739 -0.16001962108624759 0 0.025760835570330411 -0.14481938160899541 0 0.01015216507051417 -0.1473238274186047 0 0.030103134894338739 -0.16001962108624759 0 0.015927937794377751 -0.1612200587874599 0 0.01015216507051417 -0.1473238274186047 0 0.037569130910366268 -0.14935021461579889 0 0.030103134894338739 -0.16001962108624759 0 0.025760835570330411 -0.14481938160899541 0 0.016800913440897521 -0.13455662587258299 0 0.025760835570330411 -0.14481938160899541 0 0.01015216507051417 -0.1473238274186047 0 -0.00068861222154474773 -0.14631589065836079 0 0.0036501877186468209 -0.16552061446222491 0 0.01015216507051417 -0.1473238274186047 0 -0.00068861222154474773 -0.14631589065836079 0 0.0036501877186468209 -0.16552061446222491 0 -0.00068861222154474773 -0.14631589065836079 0 0.01015216507051417 -0.1473238274186047 0 0.0057258470961974294 -0.13703675768408449 0 -0.0026142423501795578 -0.13285176072546001 0 -0.00068861222154474773 -0.14631589065836079 0 0.0057258470961974294 -0.13703675768408449 0 0.016800913440897521 -0.13455662587258299 0 0.0056543785389034287 -0.1255264008036151 0 0.018689548578193649 -0.1179136688465889 0 0.016800913440897521 -0.13455662587258299 0 0.01015216507051417 -0.1473238274186047 0 0.0057258470961974294 -0.13703675768408449 0 0.016800913440897521 -0.13455662587258299 0 0.0057258470961974294 -0.13703675768408449 0 0.0056543785389034287 -0.1255264008036151 0 -0.0026142423501795578 -0.13285176072546001 0 0.0057258470961974294 -0.13703675768408449 0 0.0056543785389034287 -0.1255264008036151 0 0.0010144825763757381 -0.1137099119252646 0 0.018689548578193649 -0.1179136688465889 0 0.0034777828087813839 -0.099797958812162926 0 0.0056543785389034287 -0.1255264008036151 0 0.0010144825763757381 -0.1137099119252646 0 0.018689548578193649 -0.1179136688465889 0 0.018689548578193649 -0.1179136688465889 0 0.030891252469575171 -0.10284184557752089 0 0.03876563954510754 -0.11745233535052201 0 0.034794702242850431 -0.13389499376877381 0 0.018689548578193649 -0.1179136688465889 0 0.03876563954510754 -0.11745233535052201 0 0.018689548578193649 -0.1179136688465889 0 0.030891252469575171 -0.10284184557752089 0 0.0034777828087813839 -0.099797958812162926 0 0.030891252469575171 -0.10284184557752089 0 0.0034777828087813839 -0.099797958812162926 0 0.017200409715459591 -0.088331682186917879 0 0.030891252469575171 -0.10284184557752089 0 0.0034777828087813839 -0.099797958812162926 0 -0.0076732090237115764 -0.08650303633418148 0 0.010756409614314949 -0.071872236607715828 0 0.017200409715459591 -0.088331682186917879 0 -0.0076732090237115764 -0.08650303633418148 0 0.0034777828087813839 -0.099797958812162926 0 0.017200409715459591 -0.088331682186917879 0 0.010756409614314949 -0.071872236607715828 0 0.028850039635724911 -0.076362550024902193 0 0.036503767314907253 -0.057531517504639848 0 0.030891252469575171 -0.10284184557752089 0 0.028850039635724911 -0.076362550024902193 0 0.017200409715459591 -0.088331682186917879 0 0.010756409614314949 -0.071872236607715828 0 0.028850039635724911 -0.076362550024902193 0 0.017200409715459591 -0.088331682186917879 0 0.030891252469575171 -0.10284184557752089 0 0.028850039635724911 -0.076362550024902193 0 0.047404244722637878 -0.081708624923759923 0 0.047404244722637878 -0.081708624923759923 0 0.036503767314907253 -0.057531517504639848 0 0.047404244722637878 -0.081708624923759923 0 0.036503767314907253 -0.057531517504639848 0 0.055114573897841752 -0.060885385154017063 0 0.028850039635724911 -0.076362550024902193 0 0.047404244722637878 -0.081708624923759923 0 0.036503767314907253 -0.057531517504639848 0 0.047404244722637878 -0.081708624923759923 0 0.055114573897841752 -0.060885385154017063 0 0.067407284717794225 -0.072084504694068297 0 0.047404244722637878 -0.081708624923759923 0 0.058304722130368913 -0.10588573234287969 0 0.068184217220427168 -0.087515890993146619 0 0.047404244722637878 -0.081708624923759923 0 0.068184217220427168 -0.087515890993146619 0 0.067407284717794225 -0.072084504694068297 0 0.047404244722637878 -0.081708624923759923 0 0.058304722130368913 -0.10588573234287969 0 0.069695779804595057 -0.13115093997606589 0 0.051147972304549573 -0.12672543621684679 0 0.058304722130368913 -0.10588573234287969 0 0.051147972304549573 -0.12672543621684679 0 0.058304722130368913 -0.10588573234287969 0 0.03876563954510754 -0.11745233535052201 0 0.030891252469575171 -0.10284184557752089 0 0.058304722130368913 -0.10588573234287969 0 0.03876563954510754 -0.11745233535052201 0 0.030891252469575171 -0.10284184557752089 0 0.047404244722637878 -0.081708624923759923 0 0.058304722130368913 -0.10588573234287969 0 0.030891252469575171 -0.10284184557752089 0 0.058304722130368913 -0.10588573234287969 0 0.0233511623095096 0.001879667706604353 0 0.02246311570858751 -0.01027575605362901 0 0.038428460927082797 -0.0076620761025902959 0 0.02246311570858751 -0.01027575605362901 0 0.030312070552196532 -0.01803147645860435 0 0.038428460927082797 -0.0076620761025902959 0 0.0233511623095096 0.001879667706604353 0 0.02246311570858751 -0.01027575605362901 0 0.0142438822378888 -0.0044838956883495743 0 0.0087864089086878757 0.0038937882220091619 0 0.0142438822378888 -0.0044838956883495743 0 0.0061385654505198744 -0.0046293945413275923 0 0.0142438822378888 -0.0044838956883495743 0 0.0061385654505198744 -0.0046293945413275923 0 0.0080693081424011489 -0.01395636131633605 0 -0.0020414591632706811 -0.0010561809509511751 0 0.0037157586792688859 0.0020614175455401199 0 0.0061385654505198744 -0.0046293945413275923 0 -0.0061827162999579903 -0.01229654312151841 0 0.0061385654505198744 -0.0046293945413275923 0 0.0080693081424011489 -0.01395636131633605 0 0.02246311570858751 -0.01027575605362901 0 0.0142438822378888 -0.0044838956883495743 0 0.0080693081424011489 -0.01395636131633605 0 -0.00078442120986667719 -0.027961490694004221 0 0.0080693081424011489 -0.01395636131633605 0 0.01876989524609091 -0.022851992102392801 0 -0.00078442120986667719 -0.027961490694004221 0 0.01876989524609091 -0.022851992102392801 0 0.01310787469158659 -0.036991235259322651 0 -0.00078442120986667719 -0.027961490694004221 0 -0.0061827162999579903 -0.01229654312151841 0 0.0080693081424011489 -0.01395636131633605 0 0.01876989524609091 -0.022851992102392801 0 0.01310787469158659 -0.036991235259322651 0 0.038699526853828901 -0.029388432570719429 0 0.01876989524609091 -0.022851992102392801 0 0.030312070552196532 -0.01803147645860435 0 0.038699526853828901 -0.029388432570719429 0 0.02246311570858751 -0.01027575605362901 0 0.0080693081424011489 -0.01395636131633605 0 0.01876989524609091 -0.022851992102392801 0 0.02246311570858751 -0.01027575605362901 0 0.01876989524609091 -0.022851992102392801 0 0.030312070552196532 -0.01803147645860435 0 0.010756409614314949 -0.071872236607715828 0 0.0041996982975693754 -0.053878781620928649 0 0.036503767314907253 -0.057531517504639848 0 0.01310787469158659 -0.036991235259322651 0 0.0041996982975693754 -0.053878781620928649 0 0.036503767314907253 -0.057531517504639848 0 0.01310787469158659 -0.036991235259322651 0 0.038699526853828901 -0.029388432570719429 0 0.01310787469158659 -0.036991235259322651 0 0.036503767314907253 -0.057531517504639848 0 0.038699526853828901 -0.029388432570719429 0 -0.01248377747065567 -0.044594037947925873 0 0.01310787469158659 -0.036991235259322651 0 0.0041996982975693754 -0.053878781620928649 0 -0.01248377747065567 -0.044594037947925873 0 0.01310787469158659 -0.036991235259322651 0 0.036503767314907253 -0.057531517504639848 0 0.055114573897841752 -0.060885385154017063 0 0.056363312669390077 -0.043848091341762679 0 0.055114573897841752 -0.060885385154017063 0 0.056363312669390077 -0.043848091341762679 0 0.073767659943351882 -0.054141452473206841 0 0.056363312669390077 -0.043848091341762679 0 0.038699526853828901 -0.029388432570719429 0 0.056620730673933313 -0.022678891197615111 0 0.036503767314907253 -0.057531517504639848 0 0.056363312669390077 -0.043848091341762679 0 0.038699526853828901 -0.029388432570719429 0 0.030312070552196532 -0.01803147645860435 0 0.038699526853828901 -0.029388432570719429 0 0.038428460927082797 -0.0076620761025902959 0 0.038699526853828901 -0.029388432570719429 0 0.056620730673933313 -0.022678891197615111 0 0.038428460927082797 -0.0076620761025902959 0 0.056620730673933313 -0.022678891197615111 0 0.054495626419947457 -0.002717728050520854 0 0.038428460927082797 -0.0076620761025902959 0 0.077862970334783732 0.003537746237542144 0 0.090077670860866793 -0.0066576076119306176 0 0.076697078324877987 -0.01833614078145468 0 0.090077670860866793 -0.0066576076119306176 0 0.076697078324877987 -0.01833614078145468 0 0.092203687464106704 -0.017657130758323401 0 0.056620730673933313 -0.022678891197615111 0 0.054495626419947457 -0.002717728050520854 0 0.076697078324877987 -0.01833614078145468 0 0.054495626419947457 -0.002717728050520854 0 0.076697078324877987 -0.01833614078145468 0 0.077862970334783732 0.003537746237542144 0 0.054495626419947457 -0.002717728050520854 0 0.076697078324877987 -0.01833614078145468 0 0.056620730673933313 -0.022678891197615111 0 0.076697078324877987 -0.01833614078145468 0 0.074987640157577737 -0.035180849379300827 0 0.076697078324877987 -0.01833614078145468 0 0.074987640157577737 -0.035180849379300827 0 0.098898530229807713 -0.033954553512389699 0 0.076697078324877987 -0.01833614078145468 0 0.098898530229807713 -0.033954553512389699 0 0.076697078324877987 -0.01833614078145468 0 0.092203687464106704 -0.017657130758323401 0 0.098898530229807713 -0.033954553512389699 0 0.087274754244549974 -0.04423140016356767 0 0.074987640157577737 -0.035180849379300827 0 0.098898530229807713 -0.033954553512389699 0 0.087274754244549974 -0.04423140016356767 0 0.074987640157577737 -0.035180849379300827 0 0.073767659943351882 -0.054141452473206841 0 0.087274754244549974 -0.04423140016356767 0 0.094713589750325441 -0.057847180404354138 0 0.098898530229807713 -0.033954553512389699 0 0.056363312669390077 -0.043848091341762679 0 0.056620730673933313 -0.022678891197615111 0 0.074987640157577737 -0.035180849379300827 0 0.056363312669390077 -0.043848091341762679 0 0.074987640157577737 -0.035180849379300827 0 0.073767659943351882 -0.054141452473206841 0 0.055114573897841752 -0.060885385154017063 0 0.073767659943351882 -0.054141452473206841 0 0.067407284717794225 -0.072084504694068297 0 0.082775522447290431 -0.058822697205905737 0 0.090666075519741526 -0.059371568103711511 0 0.080357806942339211 -0.067046932034445811 0 0.073767659943351882 -0.054141452473206841 0 0.082775522447290431 -0.058822697205905737 0 0.080357806942339211 -0.067046932034445811 0 0.073767659943351882 -0.054141452473206841 0 0.082775522447290431 -0.058822697205905737 0 0.086411956871741455 -0.052994117825122457 0 0.087274754244549974 -0.04423140016356767 0 0.073767659943351882 -0.054141452473206841 0 0.086411956871741455 -0.052994117825122457 0 0.087274754244549974 -0.04423140016356767 0 0.086411956871741455 -0.052994117825122457 0 0.094713589750325441 -0.057847180404354138 0 0.086411956871741455 -0.052994117825122457 0 0.090666075519741526 -0.059371568103711511 0 0.094713589750325441 -0.057847180404354138 0 0.082775522447290431 -0.058822697205905737 0 0.086411956871741455 -0.052994117825122457 0 0.090666075519741526 -0.059371568103711511 0 0.090666075519741526 -0.059371568103711511 0 0.094713589750325441 -0.057847180404354138 0 0.09835174084920803 -0.047102163997004322 0 0.10657360406856919 -0.053380424042053877 0 0.1208428770179345 -0.048006285021503933 0 0.094713589750325441 -0.057847180404354138 0 0.10657360406856919 -0.053380424042053877 0 0.094713589750325441 -0.057847180404354138 0 0.09835174084920803 -0.047102163997004322 0 0.10657360406856919 -0.053380424042053877 0 0.09835174084920803 -0.047102163997004322 0 0.10657360406856919 -0.053380424042053877 0 0.094713589750325441 -0.057847180404354138 0 0.10657360406856919 -0.053380424042053877 0 0.1037503675519811 -0.068768926075557776 0 0.10657360406856919 -0.053380424042053877 0 0.1263451994850166 -0.068478123215357345 0 0.10657360406856919 -0.053380424042053877 0 0.1240296634326999 -0.05986298303070773 0 0.1263451994850166 -0.068478123215357345 0 0.10657360406856919 -0.053380424042053877 0 0.1240296634326999 -0.05986298303070773 0 0.1213021967422309 -0.049715221408145382 0 0.1240296634326999 -0.05986298303070773 0 0.1213021967422309 -0.049715221408145382 0 0.1233935539800454 -0.056006834381726413 0 0.1240296634326999 -0.05986298303070773 0 0.1213021967422309 -0.049715221408145382 0 0.1233935539800454 -0.056006834381726413 0 0.1240296634326999 -0.05986298303070773 0 0.1213021967422309 -0.049715221408145382 0 0.1208428770179345 -0.048006285021503933 0 0.10657360406856919 -0.053380424042053877 0 0.1213021967422309 -0.049715221408145382 0 0.1208428770179345 -0.048006285021503933 0 0.10657360406856919 -0.053380424042053877 0 0.1208428770179345 -0.048006285021503933 0 0.1208428770179345 -0.048006285021503933 0 0.1168603959521541 -0.033189140356412433 0 0.098898530229807713 -0.033954553512389699 0 0.1208428770179345 -0.048006285021503933 0 0.098898530229807713 -0.033954553512389699 0 0.1208428770179345 -0.048006285021503933 0 0.1168603959521541 -0.033189140356412433 0 0.1208428770179345 -0.048006285021503933 0 0.1168603959521541 -0.033189140356412433 0 0.12983502846212491 -0.034609732627524918 0 0.1168603959521541 -0.033189140356412433 0 0.12641808187725459 -0.026625040650295039 0 0.12983502846212491 -0.034609732627524918 0 0.094713589750325441 -0.057847180404354138 0 0.09835174084920803 -0.047102163997004322 0 0.098898530229807713 -0.033954553512389699 0 0.094713589750325441 -0.057847180404354138 0 0.098898530229807713 -0.033954553512389699 0 0.09835174084920803 -0.047102163997004322 0 0.1208428770179345 -0.048006285021503933 0 0.098898530229807713 -0.033954553512389699 0 0.098898530229807713 -0.033954553512389699 0 0.1033024005872184 -0.0088120140076304726 0 0.092203687464106704 -0.017657130758323401 0 0.098898530229807713 -0.033954553512389699 0 0.1033024005872184 -0.0088120140076304726 0 0.098898530229807713 -0.033954553512389699 0 0.1079848104138887 -0.023581925891938079 0 0.1033024005872184 -0.0088120140076304726 0 0.1168603959521541 -0.033189140356412433 0 0.098898530229807713 -0.033954553512389699 0 0.1079848104138887 -0.023581925891938079 0 0.1079848104138887 -0.023581925891938079 0 0.11287791488637371 -0.018371995691320891 0 0.1033024005872184 -0.0088120140076304726 0 0.1168603959521541 -0.033189140356412433 0 0.1079848104138887 -0.023581925891938079 0 0.11287791488637371 -0.018371995691320891 0 0.1168603959521541 -0.033189140356412433 0 0.11287791488637371 -0.018371995691320891 0 0.1168603959521541 -0.033189140356412433 0 0.1192174877071928 -0.02035107983888625 0 0.11287791488637371 -0.018371995691320891 0 0.1168603959521541 -0.033189140356412433 0 0.1192174877071928 -0.02035107983888625 0 0.12641808187725459 -0.026625040650295039 0 0.1192174877071928 -0.02035107983888625 0 0.11287791488637371 -0.018371995691320891 0 0.1176400806046662 -0.0131384561841109 0 0.1192174877071928 -0.02035107983888625 0 0.1176400806046662 -0.0131384561841109 0 0.13338496314536169 -0.01326427444500909 0 0.1176400806046662 -0.0131384561841109 0 0.1194176366971845 -0.0048929169377078148 0 0.13338496314536169 -0.01326427444500909 0 0.1176400806046662 -0.0131384561841109 0 0.1194176366971845 -0.0048929169377078148 0 0.1033024005872184 -0.0088120140076304726 0 0.11287791488637371 -0.018371995691320891 0 0.1176400806046662 -0.0131384561841109 0 0.1033024005872184 -0.0088120140076304726 0 0.10090151341188219 0.0047978655293898706 0 0.1194176366971845 -0.0048929169377078148 0 0.1033024005872184 -0.0088120140076304726 0 0.090077670860866793 -0.0066576076119306176 0 0.092203687464106704 -0.017657130758323401 0 0.1033024005872184 -0.0088120140076304726 0 0.10090151341188219 0.0047978655293898706 0 0.090077670860866793 -0.0066576076119306176 0 0.1033024005872184 -0.0088120140076304726 0 0.081583650120553242 -0.1084705354231829 0 0.087339208932007389 -0.09994893318089422 0 0.075694844615831036 -0.098034512967884083 0 0.087339208932007389 -0.09994893318089422 0 0.075694844615831036 -0.098034512967884083 0 0.079765487820304931 -0.088547068777075411 0 0.081583650120553242 -0.1084705354231829 0 0.087339208932007389 -0.09994893318089422 0 0.096204074374874618 -0.1024193252740645 0 0.081583650120553242 -0.1084705354231829 0 0.1048625781107375 -0.11105533850348701 0 0.091293667190272945 -0.13345070389201191 0 0.081583650120553242 -0.1084705354231829 0 0.1048625781107375 -0.11105533850348701 0 0.091293667190272945 -0.13345070389201191 0 0.069695779804595057 -0.13115093997606589 0 0.081583650120553242 -0.1084705354231829 0 0.069695779804595057 -0.13115093997606589 0 0.058304722130368913 -0.10588573234287969 0 0.081583650120553242 -0.1084705354231829 0 0.069695779804595057 -0.13115093997606589 0 0.058304722130368913 -0.10588573234287969 0 0.058304722130368913 -0.10588573234287969 0 0.081583650120553242 -0.1084705354231829 0 0.075694844615831036 -0.098034512967884083 0 0.058304722130368913 -0.10588573234287969 0 0.075694844615831036 -0.098034512967884083 0 0.068184217220427168 -0.087515890993146619 0 0.058304722130368913 -0.10588573234287969 0 0.081583650120553242 -0.1084705354231829 0 0.068184217220427168 -0.087515890993146619 0 0.076582768992091002 -0.078337949950827671 0 0.067407284717794225 -0.072084504694068297 0 0.068184217220427168 -0.087515890993146619 0 0.076582768992091002 -0.078337949950827671 0 0.079765487820304931 -0.088547068777075411 0 0.075694844615831036 -0.098034512967884083 0 0.068184217220427168 -0.087515890993146619 0 0.079765487820304931 -0.088547068777075411 0 0.073767659943351882 -0.054141452473206841 0 0.067407284717794225 -0.072084504694068297 0 0.080357806942339211 -0.067046932034445811 0 0.076582768992091002 -0.078337949950827671 0 0.067407284717794225 -0.072084504694068297 0 0.080357806942339211 -0.067046932034445811 0 0.094713589750325441 -0.057847180404354138 0 0.091026399341168032 -0.07889805679262446 0 0.090666075519741526 -0.059371568103711511 0 0.094713589750325441 -0.057847180404354138 0 0.091026399341168032 -0.07889805679262446 0 0.090666075519741526 -0.059371568103711511 0 0.080357806942339211 -0.067046932034445811 0 0.091026399341168032 -0.07889805679262446 0 0.076582768992091002 -0.078337949950827671 0 0.080357806942339211 -0.067046932034445811 0 0.091026399341168032 -0.07889805679262446 0 0.087339208932007389 -0.09994893318089422 0 0.079765487820304931 -0.088547068777075411 0 0.091026399341168032 -0.07889805679262446 0 0.087339208932007389 -0.09994893318089422 0 0.091026399341168032 -0.07889805679262446 0 0.10055133999401859 -0.092660903398129685 0 0.087339208932007389 -0.09994893318089422 0 0.091026399341168032 -0.07889805679262446 0 0.076582768992091002 -0.078337949950827671 0 0.079765487820304931 -0.088547068777075411 0 0.091026399341168032 -0.07889805679262446 0 0.091026399341168032 -0.07889805679262446 0 0.10055133999401859 -0.092660903398129685 0 0.1109173522896675 -0.081696343470769206 0 0.10055133999401859 -0.092660903398129685 0 0.1109173522896675 -0.081696343470769206 0 0.1152950976546164 -0.095869858891711457 0 0.10657360406856919 -0.053380424042053877 0 0.1037503675519811 -0.068768926075557776 0 0.11338246995961621 -0.070295207559210482 0 0.094713589750325441 -0.057847180404354138 0 0.091026399341168032 -0.07889805679262446 0 0.1037503675519811 -0.068768926075557776 0 0.091026399341168032 -0.07889805679262446 0 0.1037503675519811 -0.068768926075557776 0 0.1109173522896675 -0.081696343470769206 0 0.1037503675519811 -0.068768926075557776 0 0.11338246995961621 -0.070295207559210482 0 0.1109173522896675 -0.081696343470769206 0 0.10657360406856919 -0.053380424042053877 0 0.11338246995961621 -0.070295207559210482 0 0.1263451994850166 -0.068478123215357345 0 0.11338246995961621 -0.070295207559210482 0 0.1109173522896675 -0.081696343470769206 0 0.120349107576275 -0.079933604133164721 0 0.11338246995961621 -0.070295207559210482 0 0.120349107576275 -0.079933604133164721 0 0.1263451994850166 -0.068478123215357345 0 0.1109173522896675 -0.081696343470769206 0 0.1203470557336335 -0.088332633662019544 0 0.1152950976546164 -0.095869858891711457 0 0.1109173522896675 -0.081696343470769206 0 0.120349107576275 -0.079933604133164721 0 0.1203470557336335 -0.088332633662019544 0 0.120349107576275 -0.079933604133164721 0 0.1203470557336335 -0.088332633662019544 0 0.12905512800817329 -0.090327769165153976 0 0.1203470557336335 -0.088332633662019544 0 0.123319275244377 -0.095794431247449491 0 0.12905512800817329 -0.090327769165153976 0 0.1203470557336335 -0.088332633662019544 0 0.123319275244377 -0.095794431247449491 0 0.1152950976546164 -0.095869858891711457 0 0.123319275244377 -0.095794431247449491 0 0.1224962121486312 -0.1023466537963144 0 0.1152950976546164 -0.095869858891711457 0 0.123319275244377 -0.095794431247449491 0 0.1224962121486312 -0.1023466537963144 0 0.1288069796190629 -0.101992132950171 0 0.1224962121486312 -0.1023466537963144 0 0.11828882111447871 -0.10723422419875291 0 0.1152950976546164 -0.095869858891711457 0 0.1245352552742912 -0.10747047573188651 0 0.1224962121486312 -0.1023466537963144 0 0.11828882111447871 -0.10723422419875291 0 0.1245352552742912 -0.10747047573188651 0 0.1224962121486312 -0.1023466537963144 0 0.12593582895013489 -0.10512440613581921 0 0.11828882111447871 -0.10723422419875291 0 0.1152950976546164 -0.095869858891711457 0 0.1070403822497451 -0.1018479300532291 0 0.11828882111447871 -0.10723422419875291 0 0.1070403822497451 -0.1018479300532291 0 0.1048625781107375 -0.11105533850348701 0 0.081583650120553242 -0.1084705354231829 0 0.096204074374874618 -0.1024193252740645 0 0.1048625781107375 -0.11105533850348701 0 0.10055133999401859 -0.092660903398129685 0 0.1152950976546164 -0.095869858891711457 0 0.1070403822497451 -0.1018479300532291 0 0.1070403822497451 -0.1018479300532291 0 0.096204074374874618 -0.1024193252740645 0 0.1048625781107375 -0.11105533850348701 0 0.10055133999401859 -0.092660903398129685 0 0.1070403822497451 -0.1018479300532291 0 0.096204074374874618 -0.1024193252740645 0 0.087339208932007389 -0.09994893318089422 0 0.10055133999401859 -0.092660903398129685 0 0.096204074374874618 -0.1024193252740645 0 0.11229852723194871 -0.13000726719654179 0 0.091293667190272945 -0.13345070389201191 0 0.1048625781107375 -0.11105533850348701 0 0.11229852723194871 -0.13000726719654179 0 0.1048625781107375 -0.11105533850348701 0 0.1180031001847489 -0.1203660054486673 0 0.1048625781107375 -0.11105533850348701 0 0.1180031001847489 -0.1203660054486673 0 0.12814150610092179 -0.1136401415837911 0 0.1048625781107375 -0.11105533850348701 0 0.12814150610092179 -0.1136401415837911 0 0.11828882111447871 -0.10723422419875291 0 0.1048625781107375 -0.11105533850348701 0 0.12814150610092179 -0.1136401415837911 0 0.1245352552742912 -0.10747047573188651 0 0.11828882111447871 -0.10723422419875291 0 0.12814150610092179 -0.1136401415837911 0 0.1180031001847489 -0.1203660054486673 0 0.12814150610092179 -0.1136401415837911 0 0.12670978929538751 -0.1267612745108494 0 0.13278833770476001 -0.1129587982558002 0 0.1365215474013467 -0.1355898273464464 0 0.13278833770476001 -0.1129587982558002 0 0.14019097666982519 -0.119992463185667 0 0.1365215474013467 -0.1355898273464464 0 0.12814150610092179 -0.1136401415837911 0 0.13278833770476001 -0.1129587982558002 0 0.12670978929538751 -0.1267612745108494 0 0.1245352552742912 -0.10747047573188651 0 0.12814150610092179 -0.1136401415837911 0 0.1279048687585542 -0.10868836206490511 0 0.12814150610092179 -0.1136401415837911 0 0.13278833770476001 -0.1129587982558002 0 0.1279048687585542 -0.10868836206490511 0 0.14019097666982519 -0.119992463185667 0 0.1500992649747363 -0.1204514021957061 0 0.14658598150194291 -0.1297272655726629 0 0.14019097666982519 -0.119992463185667 0 0.1500992649747363 -0.1204514021957061 0 0.14389300655425419 -0.1087546548154022 0 0.15199746522956989 -0.11071581603252501 0 0.1500992649747363 -0.1204514021957061 0 0.14389300655425419 -0.1087546548154022 0 0.15199746522956989 -0.11071581603252501 0 0.14390923781971829 -0.098378299462600974 0 0.151002077973791 -0.087306251453630773 0 0.15199746522956989 -0.11071581603252501 0 0.151002077973791 -0.087306251453630773 0 0.15199746522956989 -0.11071581603252501 0 0.14389300655425419 -0.1087546548154022 0 0.14390923781971829 -0.098378299462600974 0 0.13278833770476001 -0.1129587982558002 0 0.1288069796190629 -0.101992132950171 0 0.12905512800817329 -0.090327769165153976 0 0.13278833770476001 -0.1129587982558002 0 0.13326808807742091 -0.094235293200512132 0 0.12905512800817329 -0.090327769165153976 0 0.14019097666982519 -0.119992463185667 0 0.13326808807742091 -0.094235293200512132 0 0.13278833770476001 -0.1129587982558002 0 0.12905512800817329 -0.090327769165153976 0 0.14390923781971829 -0.098378299462600974 0 0.13326808807742091 -0.094235293200512132 0 0.14137537733075151 -0.089772447936047037 0 0.13278833770476001 -0.1129587982558002 0 0.14019097666982519 -0.119992463185667 0 0.13326808807742091 -0.094235293200512132 0 0.14389300655425419 -0.1087546548154022 0 0.14390923781971829 -0.098378299462600974 0 0.13326808807742091 -0.094235293200512132 0 0.14019097666982519 -0.119992463185667 0 0.14389300655425419 -0.1087546548154022 0 0.13326808807742091 -0.094235293200512132 0 0.13278833770476001 -0.1129587982558002 0 0.1288069796190629 -0.101992132950171 0 0.1279048687585542 -0.10868836206490511 0 0.1224962121486312 -0.1023466537963144 0 0.1288069796190629 -0.101992132950171 0 0.12593582895013489 -0.10512440613581921 0 0.1288069796190629 -0.101992132950171 0 0.12593582895013489 -0.10512440613581921 0 0.1279048687585542 -0.10868836206490511 0 0.1245352552742912 -0.10747047573188651 0 0.12593582895013489 -0.10512440613581921 0 0.1279048687585542 -0.10868836206490511 0 0.123319275244377 -0.095794431247449491 0 0.1288069796190629 -0.101992132950171 0 0.12905512800817329 -0.090327769165153976 0 0.13326808807742091 -0.094235293200512132 0 0.1263451994850166 -0.068478123215357345 0 0.12905512800817329 -0.090327769165153976 0 0.1263451994850166 -0.068478123215357345 0 0.120349107576275 -0.079933604133164721 0 0.12905512800817329 -0.090327769165153976 0 0.1263451994850166 -0.068478123215357345 0 0.13326808807742091 -0.094235293200512132 0 0.12905512800817329 -0.090327769165153976 0 0.1263451994850166 -0.068478123215357345 0 0.13326808807742091 -0.094235293200512132 0 0.1349155759056479 -0.082594512921603053 0 0.1263451994850166 -0.068478123215357345 0 0.1349155759056479 -0.082594512921603053 0 0.13867363872940261 -0.077892187334495613 0 0.14137537733075151 -0.089772447936047037 0 0.13326808807742091 -0.094235293200512132 0 0.1349155759056479 -0.082594512921603053 0 0.14137537733075151 -0.089772447936047037 0 0.1240296634326999 -0.05986298303070773 0 0.1263451994850166 -0.068478123215357345 0 0.1240296634326999 -0.05986298303070773 0 0.1263451994850166 -0.068478123215357345 0 0.12874434717708991 -0.061953879438669562 0 0.1263451994850166 -0.068478123215357345 0 0.13392348118504169 -0.066607105972167333 0 0.12874434717708991 -0.061953879438669562 0 0.13392348118504169 -0.066607105972167333 0 0.12874434717708991 -0.061953879438669562 0 0.1345577355570792 -0.05904030866224614 0 0.1263451994850166 -0.068478123215357345 0 0.13867363872940261 -0.077892187334495613 0 0.1349155759056479 -0.082594512921603053 0 0.1263451994850166 -0.068478123215357345 0 0.13867363872940261 -0.077892187334495613 0 0.1263451994850166 -0.068478123215357345 0 0.13867363872940261 -0.077892187334495613 0 0.13392348118504169 -0.066607105972167333 0 0.13867363872940261 -0.077892187334495613 0 0.13392348118504169 -0.066607105972167333 0 0.1405604338538369 -0.065784010244496538 0 0.13392348118504169 -0.066607105972167333 0 0.1405604338538369 -0.065784010244496538 0 0.1345577355570792 -0.05904030866224614 0 0.14506759929839341 -0.074878803706344393 0 0.15027019554226331 -0.070093805799182229 0 0.151002077973791 -0.087306251453630773 0 0.14781327437192729 -0.068365395916347271 0 0.15027019554226331 -0.070093805799182229 0 0.1495576622445822 -0.053336413990356948 0 0.15027019554226331 -0.070093805799182229 0 0.16161263398744269 -0.067047773678264935 0 0.1495576622445822 -0.053336413990356948 0 0.1405604338538369 -0.065784010244496538 0 0.14781327437192729 -0.068365395916347271 0 0.1345577355570792 -0.05904030866224614 0 0.14781327437192729 -0.068365395916347271 0 0.1345577355570792 -0.05904030866224614 0 0.1405604338538369 -0.065784010244496538 0 0.14781327437192729 -0.068365395916347271 0 0.14506759929839341 -0.074878803706344393 0 0.1405604338538369 -0.065784010244496538 0 0.14781327437192729 -0.068365395916347271 0 0.13867363872940261 -0.077892187334495613 0 0.1405604338538369 -0.065784010244496538 0 0.14506759929839341 -0.074878803706344393 0 0.14781327437192729 -0.068365395916347271 0 0.14506759929839341 -0.074878803706344393 0 0.15027019554226331 -0.070093805799182229 0 0.14781327437192729 -0.068365395916347271 0 0.15027019554226331 -0.070093805799182229 0 0.15027019554226331 -0.070093805799182229 0 0.151002077973791 -0.087306251453630773 0 0.16062724624549249 -0.091900925553401597 0 0.15027019554226331 -0.070093805799182229 0 0.151002077973791 -0.087306251453630773 0 0.14390923781971829 -0.098378299462600974 0 0.14137537733075151 -0.089772447936047037 0 0.151002077973791 -0.087306251453630773 0 0.13867363872940261 -0.077892187334495613 0 0.14506759929839341 -0.074878803706344393 0 0.151002077973791 -0.087306251453630773 0 0.13867363872940261 -0.077892187334495613 0 0.14137537733075151 -0.089772447936047037 0 0.151002077973791 -0.087306251453630773 0 0.13867363872940261 -0.077892187334495613 0 0.151002077973791 -0.087306251453630773 0 0.15027019554226331 -0.070093805799182229 0 0.16062724624549249 -0.091900925553401597 0 0.17342830911901891 -0.086385216715024166 0 0.151002077973791 -0.087306251453630773 0 0.16726020008797771 -0.099721043059103759 0 0.151002077973791 -0.087306251453630773 0 0.16062724624549249 -0.091900925553401597 0 0.16726020008797771 -0.099721043059103759 0 0.15027019554226331 -0.070093805799182229 0 0.17342830911901891 -0.086385216715024166 0 0.15027019554226331 -0.070093805799182229 0 0.16161263398744269 -0.067047773678264935 0 0.16905648682267799 -0.075926147336107447 0 0.15027019554226331 -0.070093805799182229 0 0.16905648682267799 -0.075926147336107447 0 0.15027019554226331 -0.070093805799182229 0 0.16905648682267799 -0.075926147336107447 0 0.17342830911901891 -0.086385216715024166 0 0.16161263398744269 -0.067047773678264935 0 0.16905648682267799 -0.075926147336107447 0 0.17160016898277719 -0.061175328824723867 0 0.17160016898277719 -0.061175328824723867 0 0.18787964680742161 -0.082625568805856364 0 0.16905648682267799 -0.075926147336107447 0 0.17160016898277719 -0.061175328824723867 0 0.18787964680742161 -0.082625568805856364 0 0.17160016898277719 -0.061175328824723867 0 0.18787964680742161 -0.082625568805856364 0 0.18883766296563551 -0.065184994263136634 0 0.16905648682267799 -0.075926147336107447 0 0.18787964680742161 -0.082625568805856364 0 0.16905648682267799 -0.075926147336107447 0 0.17342830911901891 -0.086385216715024166 0 0.18787964680742161 -0.082625568805856364 0 0.17342830911901891 -0.086385216715024166 0 0.1965864226957727 -0.1026766276308687 0 0.18787964680742161 -0.082625568805856364 0 0.1783849244795489 -0.10305534739202681 0 0.1961426027136059 -0.1142097692306512 0 0.1835183222021666 -0.1121358346645738 0 0.16726020008797771 -0.099721043059103759 0 0.17342830911901891 -0.086385216715024166 0 0.1965864226957727 -0.1026766276308687 0 0.1783849244795489 -0.10305534739202681 0 0.1835183222021666 -0.1121358346645738 0 0.16726020008797771 -0.099721043059103759 0 0.17342830911901891 -0.086385216715024166 0 0.1783849244795489 -0.10305534739202681 0 0.1965864226957727 -0.1026766276308687 0 0.1835183222021666 -0.1121358346645738 0 0.1670387733129273 -0.1185585034819725 0 0.16726020008797771 -0.099721043059103759 0 0.1835183222021666 -0.1121358346645738 0 0.1670387733129273 -0.1185585034819725 0 0.1858574174325664 -0.12592563494407111 0 0.1783849244795489 -0.10305534739202681 0 0.1835183222021666 -0.1121358346645738 0 0.1961426027136059 -0.1142097692306512 0 0.1500992649747363 -0.1204514021957061 0 0.1670387733129273 -0.1185585034819725 0 0.15818868863045979 -0.1307468986471236 0 0.15199746522956989 -0.11071581603252501 0 0.1500992649747363 -0.1204514021957061 0 0.1670387733129273 -0.1185585034819725 0 0.15199746522956989 -0.11071581603252501 0 0.1670387733129273 -0.1185585034819725 0 0.16726020008797771 -0.099721043059103759 0 0.16062724624549249 -0.091900925553401597 0 0.1783849244795489 -0.10305534739202681 0 0.16726020008797771 -0.099721043059103759 0 0.16062724624549249 -0.091900925553401597 0 0.17342830911901891 -0.086385216715024166 0 0.1783849244795489 -0.10305534739202681 0 0.15199746522956989 -0.11071581603252501 0 0.151002077973791 -0.087306251453630773 0 0.16726020008797771 -0.099721043059103759 0 0.16062724624549249 -0.091900925553401597 0 0.1783849244795489 -0.10305534739202681 0 0.14755243858353159 -0.0061774690511338711 0 0.13338496314536169 -0.01326427444500909 0 0.14821721811738481 -0.021811785582744461 0 0.14755243858353159 -0.0061774690511338711 0 0.14821721811738481 -0.021811785582744461 0 0.14755243858353159 -0.0061774690511338711 0 0.14821721811738481 -0.021811785582744461 0 0.1624468285723466 -0.013998377997485529 0 0.14697859956607931 0.007318104113083799 0 0.14755243858353159 -0.0061774690511338711 0 0.13425473889622869 -0.002191714299905828 0 0.14755243858353159 -0.0061774690511338711 0 0.13425473889622869 -0.002191714299905828 0 0.13338496314536169 -0.01326427444500909 0 0.1194176366971845 -0.0048929169377078148 0 0.13425473889622869 -0.002191714299905828 0 0.13338496314536169 -0.01326427444500909 0 0.1239400564889807 0.0060579848212375977 0 0.1194176366971845 -0.0048929169377078148 0 0.13425473889622869 -0.002191714299905828 0 0.14755243858353159 -0.0061774690511338711 0 0.13338496314536169 -0.01326427444500909 0 0.13338496314536169 -0.01326427444500909 0 0.13617178981204819 -0.027782094995057561 0 0.14821721811738481 -0.021811785582744461 0 0.1192174877071928 -0.02035107983888625 0 0.13338496314536169 -0.01326427444500909 0 0.12641808187725459 -0.026625040650295039 0 0.1192174877071928 -0.02035107983888625 0 0.13338496314536169 -0.01326427444500909 0 0.13338496314536169 -0.01326427444500909 0 0.12641808187725459 -0.026625040650295039 0 0.13617178981204819 -0.027782094995057561 0 0.12641808187725459 -0.026625040650295039 0 0.13617178981204819 -0.027782094995057561 0 0.12983502846212491 -0.034609732627524918 0 0.13617178981204819 -0.027782094995057561 0 0.14821721811738481 -0.021811785582744461 0 0.14888199765123539 -0.037446102114355187 0 0.14821721811738481 -0.021811785582744461 0 0.14888199765123539 -0.037446102114355187 0 0.1699865555362971 -0.0294976363134687 0 0.14821721811738481 -0.021811785582744461 0 0.14888199765123539 -0.037446102114355187 0 0.14888199765123539 -0.037446102114355187 0 0.1495576622445822 -0.053336413990356948 0 0.14888199765123539 -0.037446102114355187 0 0.15532069115813149 -0.039725088843592202 0 0.1495576622445822 -0.053336413990356948 0 0.13617178981204819 -0.027782094995057561 0 0.14888199765123539 -0.037446102114355187 0 0.12983502846212491 -0.034609732627524918 0 0.1208428770179345 -0.048006285021503933 0 0.14888199765123539 -0.037446102114355187 0 0.1208428770179345 -0.048006285021503933 0 0.14888199765123539 -0.037446102114355187 0 0.12983502846212491 -0.034609732627524918 0 0.1208428770179345 -0.048006285021503933 0 0.14888199765123539 -0.037446102114355187 0 0.1345577355570792 -0.05904030866224614 0 0.1213021967422309 -0.049715221408145382 0 0.1345577355570792 -0.05904030866224614 0 0.1213021967422309 -0.049715221408145382 0 0.1208428770179345 -0.048006285021503933 0 0.1345577355570792 -0.05904030866224614 0 0.1233935539800454 -0.056006834381726413 0 0.12874434717708991 -0.061953879438669562 0 0.1345577355570792 -0.05904030866224614 0 0.1233935539800454 -0.056006834381726413 0 0.1213021967422309 -0.049715221408145382 0 0.1345577355570792 -0.05904030866224614 0 0.1233935539800454 -0.056006834381726413 0 0.1240296634326999 -0.05986298303070773 0 0.12874434717708991 -0.061953879438669562 0 0.14781327437192729 -0.068365395916347271 0 0.1345577355570792 -0.05904030866224614 0 0.1495576622445822 -0.053336413990356948 0 0.14888199765123539 -0.037446102114355187 0 0.1345577355570792 -0.05904030866224614 0 0.1495576622445822 -0.053336413990356948 0 0.15027019554226331 -0.070093805799182229 0 0.1495576622445822 -0.053336413990356948 0 0.15532069115813149 -0.039725088843592202 0 0.1495576622445822 -0.053336413990356948 0 0.17160016898277719 -0.061175328824723867 0 0.16161263398744269 -0.067047773678264935 0 0.1495576622445822 -0.053336413990356948 0 0.17160016898277719 -0.061175328824723867 0 0.15532069115813149 -0.039725088843592202 0 0.17160016898277719 -0.061175328824723867 0 0.15532069115813149 -0.039725088843592202 0 0.17160016898277719 -0.061175328824723867 0 0.17175469612148209 -0.044594182658195237 0 0.17160016898277719 -0.061175328824723867 0 0.1834356248882798 -0.050670666896409852 0 0.18883766296563551 -0.065184994263136634 0 0.17160016898277719 -0.061175328824723867 0 0.1834356248882798 -0.050670666896409852 0 0.17175469612148209 -0.044594182658195237 0 0.1834356248882798 -0.050670666896409852 0 0.18031905336970031 -0.037438408304487733 0 0.17175469612148209 -0.044594182658195237 0 0.1834356248882798 -0.050670666896409852 0 0.18031905336970031 -0.037438408304487733 0 0.1914516046134925 -0.0418114460560427 0 0.18031905336970031 -0.037438408304487733 0 0.17175469612148209 -0.044594182658195237 0 0.1699865555362971 -0.0294976363134687 0 0.15532069115813149 -0.039725088843592202 0 0.17175469612148209 -0.044594182658195237 0 0.1699865555362971 -0.0294976363134687 0 0.14888199765123539 -0.037446102114355187 0 0.1699865555362971 -0.0294976363134687 0 0.14888199765123539 -0.037446102114355187 0 0.15532069115813149 -0.039725088843592202 0 0.1699865555362971 -0.0294976363134687 0 0.14821721811738481 -0.021811785582744461 0 0.1699865555362971 -0.0294976363134687 0 0.1624468285723466 -0.013998377997485529 0 0.1699865555362971 -0.0294976363134687 0 0.17631703349562289 -0.01305956716479139 0 0.1624468285723466 -0.013998377997485529 0 0.1699865555362971 -0.0294976363134687 0 0.19109111342135859 -0.02154917051258139 0 0.18031905336970031 -0.037438408304487733 0 0.1699865555362971 -0.0294976363134687 0 0.19109111342135859 -0.02154917051258139 0 0.1699865555362971 -0.0294976363134687 0 0.17631703349562289 -0.01305956716479139 0 0.19109111342135859 -0.02154917051258139 0 0.17631703349562289 -0.01305956716479139 0 0.18895284903272999 -0.0048575404889695389 0 0.19109111342135859 -0.02154917051258139 0 0.1691078209153821 0.0046048894885481959 0 0.17631703349562289 -0.01305956716479139 0 0.18895284903272999 -0.0048575404889695389 0 0.1691078209153821 0.0046048894885481959 0 0.14755243858353159 -0.0061774690511338711 0 0.1691078209153821 0.0046048894885481959 0 0.14755243858353159 -0.0061774690511338711 0 0.1624468285723466 -0.013998377997485529 0 0.1691078209153821 0.0046048894885481959 0 0.17631703349562289 -0.01305956716479139 0 0.1624468285723466 -0.013998377997485529 0 0.2122623429881032 -0.00085510126240071784 0 0.2064138271295515 -0.018953785198152859 0 0.22306998706123829 -0.024413433160313702 0 0.18895284903272999 -0.0048575404889695389 0 0.19109111342135859 -0.02154917051258139 0 0.2064138271295515 -0.018953785198152859 0 0.2122623429881032 -0.00085510126240071784 0 0.18895284903272999 -0.0048575404889695389 0 0.2064138271295515 -0.018953785198152859 0 0.19109111342135859 -0.02154917051258139 0 0.2064138271295515 -0.018953785198152859 0 0.20613563472211391 -0.037798247010594477 0 0.2064138271295515 -0.018953785198152859 0 0.20613563472211391 -0.037798247010594477 0 0.22306998706123829 -0.024413433160313702 0 0.20613563472211391 -0.037798247010594477 0 0.22138036897650251 -0.044510467269773417 0 0.22306998706123829 -0.024413433160313702 0 0.20613563472211391 -0.037798247010594477 0 0.21066363526169921 -0.055391612562314188 0 0.22138036897650251 -0.044510467269773417 0 0.19109111342135859 -0.02154917051258139 0 0.20613563472211391 -0.037798247010594477 0 0.1914516046134925 -0.0418114460560427 0 0.18031905336970031 -0.037438408304487733 0 0.19109111342135859 -0.02154917051258139 0 0.1914516046134925 -0.0418114460560427 0 0.20613563472211391 -0.037798247010594477 0 0.1914516046134925 -0.0418114460560427 0 0.19735289443856491 -0.053926414312498949 0 0.19735289443856491 -0.053926414312498949 0 0.18883766296563551 -0.065184994263136634 0 0.20477948634597071 -0.068130961937575993 0 0.1834356248882798 -0.050670666896409852 0 0.1914516046134925 -0.0418114460560427 0 0.19735289443856491 -0.053926414312498949 0 0.1834356248882798 -0.050670666896409852 0 0.19735289443856491 -0.053926414312498949 0 0.18883766296563551 -0.065184994263136634 0 0.20613563472211391 -0.037798247010594477 0 0.19735289443856491 -0.053926414312498949 0 0.21066363526169921 -0.055391612562314188 0 0.21066363526169921 -0.055391612562314188 0 0.22082317195478271 -0.061292415927276453 0 0.22138036897650251 -0.044510467269773417 0 0.21066363526169921 -0.055391612562314188 0 0.22082317195478271 -0.061292415927276453 0 0.20477948634597071 -0.068130961937575993 0 0.19735289443856491 -0.053926414312498949 0 0.21066363526169921 -0.055391612562314188 0 0.20477948634597071 -0.068130961937575993 0 0.22082317195478271 -0.061292415927276453 0 0.2318973765433347 -0.055064605765635939 0 0.22138036897650251 -0.044510467269773417 0 0.2318973765433347 -0.055064605765635939 0 0.2357583742424928 -0.041174252967309671 0 0.22138036897650251 -0.044510467269773417 0 0.22082317195478271 -0.061292415927276453 0 0.2318973765433347 -0.055064605765635939 0 0.232637718831992 -0.06810574212952282 0 0.2318973765433347 -0.055064605765635939 0 0.24594979975042949 -0.059694067994732772 0 0.2357583742424928 -0.041174252967309671 0 0.2318973765433347 -0.055064605765635939 0 0.24594979975042949 -0.059694067994732772 0 0.232637718831992 -0.06810574212952282 0 0.25010584795757029 -0.043399157125139268 0 0.24594979975042949 -0.059694067994732772 0 0.2357583742424928 -0.041174252967309671 0 0.25010584795757029 -0.043399157125139268 0 0.2357583742424928 -0.041174252967309671 0 0.2434765185659564 -0.02412504457924667 0 0.2357583742424928 -0.041174252967309671 0 0.22138036897650251 -0.044510467269773417 0 0.22306998706123829 -0.024413433160313702 0 0.2357583742424928 -0.041174252967309671 0 0.22306998706123829 -0.024413433160313702 0 0.2434765185659564 -0.02412504457924667 0 0.22306998706123829 -0.024413433160313702 0 0.2434765185659564 -0.02412504457924667 0 0.23495813054623571 -0.0058461198177800506 0 0.24702776976177079 0.01293941497543038 0 0.26028157161260368 -0.01107313515672873 0 0.23495813054623571 -0.0058461198177800506 0 0.26028157161260368 -0.01107313515672873 0 0.2434765185659564 -0.02412504457924667 0 0.23495813054623571 -0.0058461198177800506 0 0.2122623429881032 -0.00085510126240071784 0 0.22306998706123829 -0.024413433160313702 0 0.23495813054623571 -0.0058461198177800506 0 0.20418744952158871 -0.1041131303573835 0 0.2186478275980035 -0.1032703907564933 0 0.21974453627252821 -0.1189680385467108 0 0.20418744952158871 -0.1041131303573835 0 0.1965864226957727 -0.1026766276308687 0 0.21974453627252821 -0.1189680385467108 0 0.20418744952158871 -0.1041131303573835 0 0.2186478275980035 -0.1032703907564933 0 0.21111803163662499 -0.090896429510078799 0 0.21143009549370431 -0.1238125529435086 0 0.1961426027136059 -0.1142097692306512 0 0.21974453627252821 -0.1189680385467108 0 0.1961426027136059 -0.1142097692306512 0 0.1965864226957727 -0.1026766276308687 0 0.21974453627252821 -0.1189680385467108 0 0.1965864226957727 -0.1026766276308687 0 0.21974453627252821 -0.1189680385467108 0 0.21143009549370431 -0.1238125529435086 0 0.21974453627252821 -0.1189680385467108 0 0.21143009549370431 -0.1238125529435086 0 0.1961426027136059 -0.1142097692306512 0 0.1835183222021666 -0.1121358346645738 0 0.19977644431635619 -0.1245506262700431 0 0.1835183222021666 -0.1121358346645738 0 0.19977644431635619 -0.1245506262700431 0 0.1858574174325664 -0.12592563494407111 0 0.1835183222021666 -0.1121358346645738 0 0.1961426027136059 -0.1142097692306512 0 0.19977644431635619 -0.1245506262700431 0 0.21143009549370431 -0.1238125529435086 0 0.1961426027136059 -0.1142097692306512 0 0.19977644431635619 -0.1245506262700431 0 0.1961426027136059 -0.1142097692306512 0 0.19977644431635619 -0.1245506262700431 0 0.1961426027136059 -0.1142097692306512 0 0.1935382657595115 -0.1067985831997796 0 0.1783849244795489 -0.10305534739202681 0 0.1961426027136059 -0.1142097692306512 0 0.1935382657595115 -0.1067985831997796 0 0.20418744952158871 -0.1041131303573835 0 0.1965864226957727 -0.1026766276308687 0 0.18787964680742161 -0.082625568805856364 0 0.1783849244795489 -0.10305534739202681 0 0.1935382657595115 -0.1067985831997796 0 0.1965864226957727 -0.1026766276308687 0 0.1961426027136059 -0.1142097692306512 0 0.1935382657595115 -0.1067985831997796 0 0.1965864226957727 -0.1026766276308687 0 0.18787964680742161 -0.082625568805856364 0 0.2098826456850173 -0.079329310242366335 0 0.21111803163662499 -0.090896429510078799 0 0.18787964680742161 -0.082625568805856364 0 0.21111803163662499 -0.090896429510078799 0 0.20418744952158871 -0.1041131303573835 0 0.18787964680742161 -0.082625568805856364 0 0.20418744952158871 -0.1041131303573835 0 0.18787964680742161 -0.082625568805856364 0 0.21111803163662499 -0.090896429510078799 0 0.18787964680742161 -0.082625568805856364 0 0.18883766296563551 -0.065184994263136634 0 0.20477948634597071 -0.068130961937575993 0 0.18787964680742161 -0.082625568805856364 0 0.20477948634597071 -0.068130961937575993 0 0.2098826456850173 -0.079329310242366335 0 0.2098826456850173 -0.079329310242366335 0 0.22652835171900229 -0.082050460161873409 0 0.21910771191606679 -0.072943130796447153 0 0.22082317195478271 -0.061292415927276453 0 0.20477948634597071 -0.068130961937575993 0 0.21910771191606679 -0.072943130796447153 0 0.20477948634597071 -0.068130961937575993 0 0.2098826456850173 -0.079329310242366335 0 0.21910771191606679 -0.072943130796447153 0 0.2098826456850173 -0.079329310242366335 0 0.21111803163662499 -0.090896429510078799 0 0.22652835171900229 -0.082050460161873409 0 0.21111803163662499 -0.090896429510078799 0 0.22652835171900229 -0.082050460161873409 0 0.23435641646582869 -0.099167290214300041 0 0.22652835171900229 -0.082050460161873409 0 0.24120683249080371 -0.086530881826496278 0 0.23435641646582869 -0.099167290214300041 0 0.22082317195478271 -0.061292415927276453 0 0.21910771191606679 -0.072943130796447153 0 0.232637718831992 -0.06810574212952282 0 0.22652835171900229 -0.082050460161873409 0 0.21910771191606679 -0.072943130796447153 0 0.232637718831992 -0.06810574212952282 0 0.22652835171900229 -0.082050460161873409 0 0.232637718831992 -0.06810574212952282 0 0.23878151598735611 -0.077371341020800649 0 0.24594979975042949 -0.059694067994732772 0 0.232637718831992 -0.06810574212952282 0 0.24547647332149511 -0.069836836904294514 0 0.232637718831992 -0.06810574212952282 0 0.23878151598735611 -0.077371341020800649 0 0.24547647332149511 -0.069836836904294514 0 0.23878151598735611 -0.077371341020800649 0 0.24547647332149511 -0.069836836904294514 0 0.24956525484064351 -0.078555741640626744 0 0.25309775576048582 -0.072220830368008013 0 0.24547647332149511 -0.069836836904294514 0 0.24956525484064351 -0.078555741640626744 0 0.25306768124251872 -0.066703691066638787 0 0.24594979975042949 -0.059694067994732772 0 0.24547647332149511 -0.069836836904294514 0 0.24120683249080371 -0.086530881826496278 0 0.24596652986288989 -0.094965661132552989 0 0.23435641646582869 -0.099167290214300041 0 0.22652835171900229 -0.082050460161873409 0 0.23878151598735611 -0.077371341020800649 0 0.24120683249080371 -0.086530881826496278 0 0.25258155346446631 -0.086891950456372949 0 0.24120683249080371 -0.086530881826496278 0 0.24956525484064351 -0.078555741640626744 0 0.23878151598735611 -0.077371341020800649 0 0.24120683249080371 -0.086530881826496278 0 0.24956525484064351 -0.078555741640626744 0 0.25258155346446631 -0.086891950456372949 0 0.24120683249080371 -0.086530881826496278 0 0.24596652986288989 -0.094965661132552989 0 0.25550936174494199 -0.098310443576828985 0 0.24596652986288989 -0.094965661132552989 0 0.24617848514840879 -0.10392773958876669 0 0.25572797017110382 -0.109937385370313 0 0.24617848514840879 -0.10392773958876669 0 0.24605030955152241 -0.11391659394298111 0 0.24617848514840879 -0.10392773958876669 0 0.2370906520646075 -0.10924983711539731 0 0.24605030955152241 -0.11391659394298111 0 0.24617848514840879 -0.10392773958876669 0 0.2370906520646075 -0.10924983711539731 0 0.23435641646582869 -0.099167290214300041 0 0.24596652986288989 -0.094965661132552989 0 0.24617848514840879 -0.10392773958876669 0 0.23435641646582869 -0.099167290214300041 0 0.2186478275980035 -0.1032703907564933 0 0.23435641646582869 -0.099167290214300041 0 0.22966447225586861 -0.10637934275270509 0 0.2186478275980035 -0.1032703907564933 0 0.21111803163662499 -0.090896429510078799 0 0.23435641646582869 -0.099167290214300041 0 0.21111803163662499 -0.090896429510078799 0 0.23435641646582869 -0.099167290214300041 0 0.2370906520646075 -0.10924983711539731 0 0.23435641646582869 -0.099167290214300041 0 0.22966447225586861 -0.10637934275270509 0 0.2186478275980035 -0.1032703907564933 0 0.22966447225586861 -0.10637934275270509 0 0.22856299289503471 -0.11382985292463001 0 0.2186478275980035 -0.1032703907564933 0 0.21974453627252821 -0.1189680385467108 0 0.22856299289503471 -0.11382985292463001 0 0.21974453627252821 -0.1189680385467108 0 0.22856299289503471 -0.11382985292463001 0 0.23779434439278979 -0.12053660944446461 0 0.21974453627252821 -0.1189680385467108 0 0.23779434439278979 -0.12053660944446461 0 0.24273922073128351 -0.13514447935033019 0 0.21974453627252821 -0.1189680385467108 0 0.22856299289503471 -0.11382985292463001 0 0.2370906520646075 -0.10924983711539731 0 0.22966447225586861 -0.10637934275270509 0 0.22856299289503471 -0.11382985292463001 0 0.2370906520646075 -0.10924983711539731 0 0.23779434439278979 -0.12053660944446461 0 0.24605030955152241 -0.11391659394298111 0 0.2370906520646075 -0.10924983711539731 0 0.22856299289503471 -0.11382985292463001 0 0.23779434439278979 -0.12053660944446461 0 0.25258971186482732 -0.12280835053062091 0 0.23779434439278979 -0.12053660944446461 0 0.24605030955152241 -0.11391659394298111 0 0.25258971186482732 -0.12280835053062091 0 0.23779434439278979 -0.12053660944446461 0 0.24273922073128351 -0.13514447935033019 0 0.24273922073128351 -0.13514447935033019 0 0.23781183673172651 -0.147212791706157 0 0.23099470047282719 -0.1361019893307884 0 0.26573390519004081 -0.15132092015394721 0 0.24273922073128351 -0.13514447935033019 0 0.23781183673172651 -0.147212791706157 0 0.26573390519004081 -0.15132092015394721 0 0.23781183673172651 -0.147212791706157 0 0.24023735862829851 -0.16282264027858931 0 0.23781183673172651 -0.147212791706157 0 0.22517371230252509 -0.15040670577965859 0 0.24023735862829851 -0.16282264027858931 0 0.23781183673172651 -0.147212791706157 0 0.22481263339965149 -0.14227624514831019 0 0.23099470047282719 -0.1361019893307884 0 0.23781183673172651 -0.147212791706157 0 0.22481263339965149 -0.14227624514831019 0 0.22517371230252509 -0.15040670577965859 0 0.22481263339965149 -0.14227624514831019 0 0.22517371230252509 -0.15040670577965859 0 0.21753763942686771 -0.14445564100767749 0 0.22481263339965149 -0.14227624514831019 0 0.21799184140948269 -0.13850028990443189 0 0.21753763942686771 -0.14445564100767749 0 0.23099470047282719 -0.1361019893307884 0 0.21457435436794861 -0.13256071439855971 0 0.21799184140948269 -0.13850028990443189 0 0.21143009549370431 -0.1238125529435086 0 0.23099470047282719 -0.1361019893307884 0 0.21974453627252821 -0.1189680385467108 0 0.24273922073128351 -0.13514447935033019 0 0.21143009549370431 -0.1238125529435086 0 0.23099470047282719 -0.1361019893307884 0 0.21457435436794861 -0.13256071439855971 0 0.21143009549370431 -0.1238125529435086 0 0.21974453627252821 -0.1189680385467108 0 0.23099470047282719 -0.1361019893307884 0 0.21974453627252821 -0.1189680385467108 0 0.24273922073128351 -0.13514447935033019 0 0.23099470047282719 -0.1361019893307884 0 0.22481263339965149 -0.14227624514831019 0 0.23099470047282719 -0.1361019893307884 0 0.21799184140948269 -0.13850028990443189 0 0.21022372224144259 -0.15428054278383241 0 0.20300148001643209 -0.1367452912197242 0 0.20154173533490169 -0.12957413143379831 0 0.2101108936694446 -0.1374217828885719 0 0.21022372224144259 -0.15428054278383241 0 0.20154173533490169 -0.12957413143379831 0 0.21143009549370431 -0.1238125529435086 0 0.21457435436794861 -0.13256071439855971 0 0.20931334383313241 -0.12778845223467691 0 0.21143009549370431 -0.1238125529435086 0 0.19977644431635619 -0.1245506262700431 0 0.20427188912785879 -0.12798337269159671 0 0.21143009549370431 -0.1238125529435086 0 0.20427188912785879 -0.12798337269159671 0 0.20794365860925071 -0.1313217129733053 0 0.2101108936694446 -0.1374217828885719 0 0.20154173533490169 -0.12957413143379831 0 0.21143009549370431 -0.1238125529435086 0 0.20931334383313241 -0.12778845223467691 0 0.20427188912785879 -0.12798337269159671 0 0.21457435436794861 -0.13256071439855971 0 0.20931334383313241 -0.12778845223467691 0 0.20794365860925071 -0.1313217129733053 0 0.20931334383313241 -0.12778845223467691 0 0.20794365860925071 -0.1313217129733053 0 0.20427188912785879 -0.12798337269159671 0 0.20794365860925071 -0.1313217129733053 0 0.20427188912785879 -0.12798337269159671 0 0.20154173533490169 -0.12957413143379831 0 0.21457435436794861 -0.13256071439855971 0 0.20794365860925071 -0.1313217129733053 0 0.2101108936694446 -0.1374217828885719 0 0.21457435436794861 -0.13256071439855971 0 0.2101108936694446 -0.1374217828885719 0 0.21799184140948269 -0.13850028990443189 0 0.2101108936694446 -0.1374217828885719 0 0.21799184140948269 -0.13850028990443189 0 0.21753763942686771 -0.14445564100767749 0 0.21022372224144259 -0.15428054278383241 0 0.20154173533490169 -0.12957413143379831 0 0.2101108936694446 -0.1374217828885719 0 0.21753763942686771 -0.14445564100767749 0 0.21022372224144259 -0.15428054278383241 0 0.21022372224144259 -0.15428054278383241 0 0.20300148001643209 -0.1367452912197242 0 0.19750806651013911 -0.16102684569243261 0 0.22517371230252509 -0.15040670577965859 0 0.21753763942686771 -0.14445564100767749 0 0.21022372224144259 -0.15428054278383241 0 0.19148363073063079 -0.1486752004481359 0 0.20300148001643209 -0.1367452912197242 0 0.18400909165398849 -0.13978974869366009 0 0.19148363073063079 -0.1486752004481359 0 0.19750806651013911 -0.16102684569243261 0 0.18188137702490481 -0.1564898392397743 0 0.19148363073063079 -0.1486752004481359 0 0.20300148001643209 -0.1367452912197242 0 0.19750806651013911 -0.16102684569243261 0 0.20300148001643209 -0.1367452912197242 0 0.19750806651013911 -0.16102684569243261 0 0.19977644431635619 -0.1245506262700431 0 0.20154173533490169 -0.12957413143379831 0 0.1858574174325664 -0.12592563494407111 0 0.20154173533490169 -0.12957413143379831 0 0.18400909165398849 -0.13978974869366009 0 0.20300148001643209 -0.1367452912197242 0 0.20154173533490169 -0.12957413143379831 0 0.18400909165398849 -0.13978974869366009 0 0.20154173533490169 -0.12957413143379831 0 0.18400909165398849 -0.13978974869366009 0 0.1858574174325664 -0.12592563494407111 0 0.19977644431635619 -0.1245506262700431 0 0.20427188912785879 -0.12798337269159671 0 0.20154173533490169 -0.12957413143379831 0 0.19977644431635619 -0.1245506262700431 0 0.20154173533490169 -0.12957413143379831 0 0.19977644431635619 -0.1245506262700431 0 0.20427188912785879 -0.12798337269159671 0 0.20427188912785879 -0.12798337269159671 0 0.20154173533490169 -0.12957413143379831 0 0.1920146530038461 -0.18530840016514111 0 0.19750806651013911 -0.16102684569243261 0 0.20383156702772001 -0.17521964967122211 0 0.1920146530038461 -0.18530840016514111 0 0.19750806651013911 -0.16102684569243261 0 0.1920146530038461 -0.18530840016514111 0 0.19750806651013911 -0.16102684569243261 0 0.18259207544869099 -0.17239450970755121 0 0.1920146530038461 -0.18530840016514111 0 0.20383156702772001 -0.17521964967122211 0 0.21341263282825729 -0.1947959132081748 0 0.21022372224144259 -0.15428054278383241 0 0.2189057091479841 -0.17898695413386631 0 0.21022372224144259 -0.15428054278383241 0 0.20383156702772001 -0.17521964967122211 0 0.2189057091479841 -0.17898695413386631 0 0.21022372224144259 -0.15428054278383241 0 0.19750806651013911 -0.16102684569243261 0 0.20383156702772001 -0.17521964967122211 0 0.22517371230252509 -0.15040670577965859 0 0.21022372224144259 -0.15428054278383241 0 0.2189057091479841 -0.17898695413386631 0 0.20383156702772001 -0.17521964967122211 0 0.2189057091479841 -0.17898695413386631 0 0.21341263282825729 -0.1947959132081748 0 0.22517371230252509 -0.15040670577965859 0 0.2189057091479841 -0.17898695413386631 0 0.24023735862829851 -0.16282264027858931 0 0.2189057091479841 -0.17898695413386631 0 0.24023735862829851 -0.16282264027858931 0 0.24671845295456821 -0.18489455311555009 0 0.25836943801988149 -0.1721600829543844 0 0.24023735862829851 -0.16282264027858931 0 0.24671845295456821 -0.18489455311555009 0 0.2189057091479841 -0.17898695413386631 0 0.24671845295456821 -0.18489455311555009 0 0.23755311695997289 -0.19607229958791131 0 0.25248293686829648 -0.20086366113063539 0 0.23755311695997289 -0.19607229958791131 0 0.2420707897744904 -0.21192296407560471 0 0.25248293686829648 -0.20086366113063539 0 0.24671845295456821 -0.18489455311555009 0 0.23755311695997289 -0.19607229958791131 0 0.23755311695997289 -0.19607229958791131 0 0.2420707897744904 -0.21192296407560471 0 0.22758769605452561 -0.2036933654839001 0 0.25998557617454049 -0.2143703901408118 0 0.2420707897744904 -0.21192296407560471 0 0.24182276262265501 -0.2234254916153631 0 0.22758769605452561 -0.2036933654839001 0 0.21341263282825729 -0.1947959132081748 0 0.2172144196969025 -0.21107674560883419 0 0.2420707897744904 -0.21192296407560471 0 0.22428162488198111 -0.22343190355046211 0 0.2420707897744904 -0.21192296407560471 0 0.22758769605452561 -0.2036933654839001 0 0.22428162488198111 -0.22343190355046211 0 0.22758769605452561 -0.2036933654839001 0 0.22428162488198111 -0.22343190355046211 0 0.2172144196969025 -0.21107674560883419 0 0.2189057091479841 -0.17898695413386631 0 0.22758769605452561 -0.2036933654839001 0 0.21341263282825729 -0.1947959132081748 0 0.2189057091479841 -0.17898695413386631 0 0.22758769605452561 -0.2036933654839001 0 0.2189057091479841 -0.17898695413386631 0 0.23755311695997289 -0.19607229958791131 0 0.22758769605452561 -0.2036933654839001 0 0.25459827700782978 -0.25420491646283988 0 0.23667116224650531 -0.24853849588632479 0 0.24611862350843269 -0.23469290420983491 0 0.23667116224650531 -0.24853849588632479 0 0.24611862350843269 -0.23469290420983491 0 0.2366571987738296 -0.23270929610010671 0 0.23667116224650531 -0.24853849588632479 0 0.24611862350843269 -0.23469290420983491 0 0.2420707897744904 -0.21192296407560471 0 0.24182276262265501 -0.2234254916153631 0 0.22428162488198111 -0.22343190355046211 0 0.25998557617454049 -0.2143703901408118 0 0.24611862350843269 -0.23469290420983491 0 0.24182276262265501 -0.2234254916153631 0 0.24611862350843269 -0.23469290420983491 0 0.2366571987738296 -0.23270929610010671 0 0.24182276262265501 -0.2234254916153631 0 0.24611862350843269 -0.23469290420983491 0 0.2366571987738296 -0.23270929610010671 0 0.2366571987738296 -0.23270929610010671 0 0.22428162488198111 -0.22343190355046211 0 0.22207874927574189 -0.24063676229557179 0 0.2366571987738296 -0.23270929610010671 0 0.24182276262265501 -0.2234254916153631 0 0.22428162488198111 -0.22343190355046211 0 0.23667116224650531 -0.24853849588632479 0 0.2366571987738296 -0.23270929610010671 0 0.22207874927574189 -0.24063676229557179 0 0.20796349804076891 -0.25441693503149559 0 0.22207874927574189 -0.24063676229557179 0 0.20649245998947169 -0.23494084302531951 0 0.22428162488198111 -0.22343190355046211 0 0.22207874927574189 -0.24063676229557179 0 0.20649245998947169 -0.23494084302531951 0 0.22428162488198111 -0.22343190355046211 0 0.20649245998947169 -0.23494084302531951 0 0.22428162488198111 -0.22343190355046211 0 0.20649245998947169 -0.23494084302531951 0 0.21052656620535459 -0.22042068477676099 0 0.20649245998947169 -0.23494084302531951 0 0.21052656620535459 -0.22042068477676099 0 0.19659470940640281 -0.221008201952621 0 0.19659470940640281 -0.221008201952621 0 0.1891129856072504 -0.2250221776065148 0 0.19230816753378349 -0.2356190447250302 0 0.20649245998947169 -0.23494084302531951 0 0.19659470940640281 -0.221008201952621 0 0.19230816753378349 -0.2356190447250302 0 0.20796349804076891 -0.25441693503149559 0 0.20649245998947169 -0.23494084302531951 0 0.1878224433694867 -0.24701966137190001 0 0.20649245998947169 -0.23494084302531951 0 0.1878224433694867 -0.24701966137190001 0 0.20649245998947169 -0.23494084302531951 0 0.19230816753378349 -0.2356190447250302 0 0.1878224433694867 -0.24701966137190001 0 0.21341263282825729 -0.1947959132081748 0 0.20583565558963521 -0.21024959846826349 0 0.1994460452298229 -0.19998596661985729 0 0.21341263282825729 -0.1947959132081748 0 0.2172144196969025 -0.21107674560883419 0 0.20583565558963521 -0.21024959846826349 0 0.22428162488198111 -0.22343190355046211 0 0.21052656620535459 -0.22042068477676099 0 0.2172144196969025 -0.21107674560883419 0 0.21052656620535459 -0.22042068477676099 0 0.2172144196969025 -0.21107674560883419 0 0.20583565558963521 -0.21024959846826349 0 0.21052656620535459 -0.22042068477676099 0 0.19659470940640281 -0.221008201952621 0 0.20583565558963521 -0.21024959846826349 0 0.20583565558963521 -0.21024959846826349 0 0.1994460452298229 -0.19998596661985729 0 0.18652123949755309 -0.2095899546378498 0 0.19659470940640281 -0.221008201952621 0 0.20583565558963521 -0.21024959846826349 0 0.18652123949755309 -0.2095899546378498 0 0.19659470940640281 -0.221008201952621 0 0.1891129856072504 -0.2250221776065148 0 0.18652123949755309 -0.2095899546378498 0 0.1920146530038461 -0.18530840016514111 0 0.21341263282825729 -0.1947959132081748 0 0.1994460452298229 -0.19998596661985729 0 0.1920146530038461 -0.18530840016514111 0 0.18652123949755309 -0.2095899546378498 0 0.1920146530038461 -0.18530840016514111 0 0.1994460452298229 -0.19998596661985729 0 0.18652123949755309 -0.2095899546378498 0 0.1920146530038461 -0.18530840016514111 0 0.17625532160046539 -0.19100645447897191 0 0.18652123949755309 -0.2095899546378498 0 0.17625532160046539 -0.19100645447897191 0 0.18652123949755309 -0.2095899546378498 0 0.16972779484100131 -0.2120050048100057 0 0.18652123949755309 -0.2095899546378498 0 0.16972779484100131 -0.2120050048100057 0 0.18102782599126141 -0.23387150911055871 0 0.16972779484100131 -0.2120050048100057 0 0.16814244542727019 -0.22651805584240561 0 0.15104136124201659 -0.21229711638119009 0 0.16972779484100131 -0.2120050048100057 0 0.15842776369074019 -0.1901385005094533 0 0.15104136124201659 -0.21229711638119009 0 0.16972779484100131 -0.2120050048100057 0 0.15842776369074019 -0.1901385005094533 0 0.17625532160046539 -0.19100645447897191 0 0.16972779484100131 -0.2120050048100057 0 0.15842776369074019 -0.1901385005094533 0 0.1763781342238305 -0.25442371108894851 0 0.17908250625009839 -0.2424700584838691 0 0.17046393135693019 -0.24680295054569021 0 0.1763781342238305 -0.25442371108894851 0 0.17908250625009839 -0.2424700584838691 0 0.1878224433694867 -0.24701966137190001 0 0.17908250625009839 -0.2424700584838691 0 0.1763781342238305 -0.25442371108894851 0 0.1878224433694867 -0.24701966137190001 0 0.17908250625009839 -0.2424700584838691 0 0.1878224433694867 -0.24701966137190001 0 0.17908250625009839 -0.2424700584838691 0 0.18102782599126141 -0.23387150911055871 0 0.19230816753378349 -0.2356190447250302 0 0.1878224433694867 -0.24701966137190001 0 0.18102782599126141 -0.23387150911055871 0 0.17908250625009839 -0.2424700584838691 0 0.18102782599126141 -0.23387150911055871 0 0.1878224433694867 -0.24701966137190001 0 0.18102782599126141 -0.23387150911055871 0 0.16972779484100131 -0.2120050048100057 0 0.18102782599126141 -0.23387150911055871 0 0.16814244542727019 -0.22651805584240561 0 0.18652123949755309 -0.2095899546378498 0 0.18102782599126141 -0.23387150911055871 0 0.17908250625009839 -0.2424700584838691 0 0.18102782599126141 -0.23387150911055871 0 0.16814244542727019 -0.22651805584240561 0 0.16972779484100131 -0.2120050048100057 0 0.18102782599126141 -0.23387150911055871 0 0.1891129856072504 -0.2250221776065148 0 0.18652123949755309 -0.2095899546378498 0 0.18102782599126141 -0.23387150911055871 0 0.1891129856072504 -0.2250221776065148 0 0.19230816753378349 -0.2356190447250302 0 0.18102782599126141 -0.23387150911055871 0 0.16814244542727019 -0.22651805584240561 0 0.1562591152645266 -0.23302896184565741 0 0.15104136124201659 -0.21229711638119009 0 0.17908250625009839 -0.2424700584838691 0 0.16814244542727019 -0.22651805584240561 0 0.1562591152645266 -0.23302896184565741 0 0.17908250625009839 -0.2424700584838691 0 0.1562591152645266 -0.23302896184565741 0 0.17908250625009839 -0.2424700584838691 0 0.1562591152645266 -0.23302896184565741 0 0.17046393135693019 -0.24680295054569021 0 0.1562591152645266 -0.23302896184565741 0 0.15819044241336611 -0.2462526119861424 0 0.17046393135693019 -0.24680295054569021 0 0.1562591152645266 -0.23302896184565741 0 0.14693879311105679 -0.24687395784091601 0 0.13821331344061449 -0.23761773370898059 0 0.1562591152645266 -0.23302896184565741 0 0.15819044241336611 -0.2462526119861424 0 0.14693879311105679 -0.24687395784091601 0 0.1562591152645266 -0.23302896184565741 0 0.13343572427895289 -0.22358786520745039 0 0.1562591152645266 -0.23302896184565741 0 0.13343572427895289 -0.22358786520745039 0 0.13821331344061449 -0.23761773370898059 0 0.1562591152645266 -0.23302896184565741 0 0.13343572427895289 -0.22358786520745039 0 0.15104136124201659 -0.21229711638119009 0 0.1239959396911831 -0.23522533149570449 0 0.13343572427895289 -0.22358786520745039 0 0.13821331344061449 -0.23761773370898059 0 0.14693879311105679 -0.24687395784091601 0 0.13821331344061449 -0.23761773370898059 0 0.13043699485735311 -0.2493725521551744 0 0.1239959396911831 -0.23522533149570449 0 0.13821331344061449 -0.23761773370898059 0 0.13043699485735311 -0.2493725521551744 0 0.15842776369074019 -0.1901385005094533 0 0.15104136124201659 -0.21229711638119009 0 0.140402334079191 -0.1935315928501519 0 0.15842776369074019 -0.1901385005094533 0 0.140402334079191 -0.1935315928501519 0 0.14351328940424771 -0.18071378862648321 0 0.11424555108638861 -0.22191190026872051 0 0.13343572427895289 -0.22358786520745039 0 0.1301007000718965 -0.20712686238045161 0 0.13343572427895289 -0.22358786520745039 0 0.15104136124201659 -0.21229711638119009 0 0.1301007000718965 -0.20712686238045161 0 0.15104136124201659 -0.21229711638119009 0 0.1301007000718965 -0.20712686238045161 0 0.140402334079191 -0.1935315928501519 0 0.12285731706154519 -0.1884086525674436 0 0.1301007000718965 -0.20712686238045161 0 0.140402334079191 -0.1935315928501519 0 0.12285731706154519 -0.1884086525674436 0 0.140402334079191 -0.1935315928501519 0 0.1335181270810116 -0.1814344701416504 0 0.12285731706154519 -0.1884086525674436 0 0.12504422415627009 -0.17296663077896179 0 0.1335181270810116 -0.1814344701416504 0 0.12504422415627009 -0.17296663077896179 0 0.1335181270810116 -0.1814344701416504 0 0.13775777903855099 -0.1705644550810364 0 0.1335181270810116 -0.1814344701416504 0 0.14351328940424771 -0.18071378862648321 0 0.13775777903855099 -0.1705644550810364 0 0.140402334079191 -0.1935315928501519 0 0.1335181270810116 -0.1814344701416504 0 0.14351328940424771 -0.18071378862648321 0 0.15842776369074019 -0.1901385005094533 0 0.14712773254047909 -0.1682719962089009 0 0.15842776369074019 -0.1901385005094533 0 0.14351328940424771 -0.18071378862648321 0 0.14712773254047909 -0.1682719962089009 0 0.14351328940424771 -0.18071378862648321 0 0.14712773254047909 -0.1682719962089009 0 0.13775777903855099 -0.1705644550810364 0 0.14894380429215931 -0.1602209832133783 0 0.14712773254047909 -0.1682719962089009 0 0.16530095910409981 -0.16814100896143599 0 0.14712773254047909 -0.1682719962089009 0 0.1413489000165081 -0.16236155568103311 0 0.13775777903855099 -0.1705644550810364 0 0.14894380429215931 -0.1602209832133783 0 0.14712773254047909 -0.1682719962089009 0 0.1413489000165081 -0.16236155568103311 0 0.14894380429215931 -0.1602209832133783 0 0.1413489000165081 -0.16236155568103311 0 0.14136878922606411 -0.15181328922763859 0 0.1413489000165081 -0.16236155568103311 0 0.131546394985287 -0.16093705467421091 0 0.14136878922606411 -0.15181328922763859 0 0.1413489000165081 -0.16236155568103311 0 0.13775777903855099 -0.1705644550810364 0 0.131546394985287 -0.16093705467421091 0 0.12504422415627009 -0.17296663077896179 0 0.13775777903855099 -0.1705644550810364 0 0.131546394985287 -0.16093705467421091 0 0.1189365725174196 -0.1610537675192879 0 0.12504422415627009 -0.17296663077896179 0 0.131546394985287 -0.16093705467421091 0 0.1189365725174196 -0.1610537675192879 0 0.131546394985287 -0.16093705467421091 0 0.12588008789340979 -0.14545787960578291 0 0.12588008789340979 -0.14545787960578291 0 0.1365215474013467 -0.1355898273464464 0 0.14136878922606411 -0.15181328922763859 0 0.131546394985287 -0.16093705467421091 0 0.12588008789340979 -0.14545787960578291 0 0.14136878922606411 -0.15181328922763859 0 0.12588008789340979 -0.14545787960578291 0 0.12670978929538751 -0.1267612745108494 0 0.1365215474013467 -0.1355898273464464 0 0.13278833770476001 -0.1129587982558002 0 0.12670978929538751 -0.1267612745108494 0 0.1365215474013467 -0.1355898273464464 0 0.14019097666982519 -0.119992463185667 0 0.1365215474013467 -0.1355898273464464 0 0.14658598150194291 -0.1297272655726629 0 0.1365215474013467 -0.1355898273464464 0 0.14658598150194291 -0.1297272655726629 0 0.14972836620469701 -0.1433887326244038 0 0.14658598150194291 -0.1297272655726629 0 0.14972836620469701 -0.1433887326244038 0 0.15818868863045979 -0.1307468986471236 0 0.1500992649747363 -0.1204514021957061 0 0.14658598150194291 -0.1297272655726629 0 0.15818868863045979 -0.1307468986471236 0 0.1365215474013467 -0.1355898273464464 0 0.14136878922606411 -0.15181328922763859 0 0.14972836620469701 -0.1433887326244038 0 0.14894380429215931 -0.1602209832133783 0 0.14136878922606411 -0.15181328922763859 0 0.14972836620469701 -0.1433887326244038 0 0.14894380429215931 -0.1602209832133783 0 0.14972836620469701 -0.1433887326244038 0 0.1664764479730739 -0.15000536595351921 0 0.14972836620469701 -0.1433887326244038 0 0.1664764479730739 -0.15000536595351921 0 0.15818868863045979 -0.1307468986471236 0 0.14894380429215931 -0.1602209832133783 0 0.1664764479730739 -0.15000536595351921 0 0.1664764479730739 -0.15000536595351921 0 0.15818868863045979 -0.1307468986471236 0 0.1723243611812921 -0.13220742019739359 0 0.1670387733129273 -0.1185585034819725 0 0.15818868863045979 -0.1307468986471236 0 0.1723243611812921 -0.13220742019739359 0 0.1670387733129273 -0.1185585034819725 0 0.1723243611812921 -0.13220742019739359 0 0.1858574174325664 -0.12592563494407111 0 0.1723243611812921 -0.13220742019739359 0 0.18400909165398849 -0.13978974869366009 0 0.1858574174325664 -0.12592563494407111 0 0.1664764479730739 -0.15000536595351921 0 0.18400909165398849 -0.13978974869366009 0 0.19148363073063079 -0.1486752004481359 0 0.18400909165398849 -0.13978974869366009 0 0.18188137702490481 -0.1564898392397743 0 0.1664764479730739 -0.15000536595351921 0 0.18400909165398849 -0.13978974869366009 0 0.18188137702490481 -0.1564898392397743 0 0.1664764479730739 -0.15000536595351921 0 0.1723243611812921 -0.13220742019739359 0 0.18400909165398849 -0.13978974869366009 0 0.19750806651013911 -0.16102684569243261 0 0.18188137702490481 -0.1564898392397743 0 0.18259207544869099 -0.17239450970755121 0 0.18188137702490481 -0.1564898392397743 0 0.18259207544869099 -0.17239450970755121 0 0.16530095910409981 -0.16814100896143599 0 0.1920146530038461 -0.18530840016514111 0 0.17625532160046539 -0.19100645447897191 0 0.18259207544869099 -0.17239450970755121 0 0.17625532160046539 -0.19100645447897191 0 0.18259207544869099 -0.17239450970755121 0 0.16530095910409981 -0.16814100896143599 0 0.17625532160046539 -0.19100645447897191 0 0.15842776369074019 -0.1901385005094533 0 0.16530095910409981 -0.16814100896143599 0 0.15842776369074019 -0.1901385005094533 0 0.14712773254047909 -0.1682719962089009 0 0.16530095910409981 -0.16814100896143599 0 0.14894380429215931 -0.1602209832133783 0 0.1664764479730739 -0.15000536595351921 0 0.16530095910409981 -0.16814100896143599 0 0.1664764479730739 -0.15000536595351921 0 0.18188137702490481 -0.1564898392397743 0 0.16530095910409981 -0.16814100896143599 0 
</DataArray>
</Points>
<Cells>
<DataArray type="UInt32" Name="connectivity" format="ascii">
0 1 2 3 4 5 6 7 8 9 10 11 12 13 14 15 16 17 18 19 20 21 22 23 24 25 26 27 28 29 30 31 32 33 34 35 36 37 38 39 40 41 42 43 44 45 46 47 48 49 50 51 52 53 54 55 56 57 58 59 60 61 62 63 64 65 66 67 68 69 70 71 72 73 74 75 76 77 78 79 80 81 82 83 84 85 86 87 88 89 90 91 92 93 94 95 96 97 98 99 100 101 102 103 104 105 106 107 108 109 110 111 112 113 114 115 116 117 118 119 120 121 122 123 124 125 126 127 128 129 130 131 132 133 134 135 136 137 138 139 140 141 142 143 144 145 146 147 148 149 150 151 152 153 154 155 156 157 158 159 160 161 162 163 164 165 166 167 168 169 170 171 172 173 174 175 176 177 178 179 180 181 182 183 184 185 186 187 188 189 190 191 192 193 194 195 196 197 198 199 200 201 202 203 204 205 206 207 208 209 210 211 212 213 214 215 216 217 218 219 220 221 222 223 224 225 226 227 228 229 230 231 232 233 234 235 236 237 238 239 240 241 242 243 244 245 246 247 248 249 250 251 252 253 254 255 256 257 258 259 260 261 262 263 264 265 266 267 268 269 270 271 272 273 274 275 276 277 278 279 280 281 282 283 284 285 286 287 288 289 290 291 292 293 294 295 296 297 298 299 300 301 302 303 304 305 306 307 308 309 310 311 312 313 314 315 316 317 318 319 320 321 322 323 324 325 326 327 328 329 330 331 332 333 334 335 336 337 338 339 340 341 342 343 344 345 346 347 348 349 350 351 352 353 354 355 356 357 358 359 360 361 362 363 364 365 366 367 368 369 370 371 372 373 374 375 376 377 378 379 380 381 382 383 384 385 386 387 388 389 390 391 392 393 394 395 396 397 398 399 400 401 402 403 404 405 406 407 408 409 410 411 412 413 414 415 416 417 418 419 420 421 422 423 424 425 426 427 428 429 430 431 432 433 434 435 436 437 438 439 440 441 442 443 444 445 446 447 448 449 450 451 452 453 454 455 456 457 458 459 460 461 462 463 464 465 466 467 468 469 470 471 472 473 474 475 476 477 478 479 480 481 482 483 484 485 486 487 488 489 490 491 492 493 494 495 496 497 498 499 500 501 502 503 504 505 506 507 508 509 510 511 512 513 514 515 516 517 518 519 520 521 522 523 524 525 526 527 528 529 530 531 532 533 534 535 536 537 538 539 540 541 542 543 544 545 546 547 548 549 550 551 552 553 554 555 556 557 558 559 560 561 562 563 564 565 566 567 568 569 570 571 572 573 574 575 576 577 578 579 580 581 582 583 584 585 586 587 588 589 590 591 592 593 594 595 596 597 598 599 600 601 602 603 604 605 606 607 608 609 610 611 612 613 614 615 616 617 618 619 620 621 622 623 624 625 626 627 628 629 630 631 632 633 634 635 636 637 638 639 640 641 642 643 644 645 646 647 648 649 650 651 652 653 654 655 656 657 658 659 660 661 662 663 664 665 666 667 668 669 670 671 672 673 674 675 676 677 678 679 680 681 682 683 684 685 686 687 688 689 690 691 692 693 694 695 696 697 698 699 700 701 702 703 704 705 706 707 708 709 710 711 712 713 714 715 716 717 718 719 720 721 722 723 724 725 726 727 728 729 730 731 732 733 734 735 736 737 738 739 740 741 742 743 744 745 746 747 748 749 750 751 752 753 754 755 756 757 758 759 760 761 762 763 764 765 766 767 768 769 770 771 772 773 774 775 776 777 778 779 780 781 782 783 784 785 786 787 788 789 790 791 792 793 794 795 796 797 798 799 800 801 802 803 804 805 806 807 808 809 810 811 812 813 814 815 816 817 818 819 820 821 822 823 824 825 826 827 828 829 830 831 832 833 834 835 836 837 838 839 840 841 842 843 844 845 846 847 848 849 850 851 852 853 854 855 856 857 858 859 860 861 862 863 864 865 866 867 868 869 870 871 872 873 874 875 876 877 878 879 880 881 882 883 884 885 886 887 888 889 890 891 892 893 894 895 896 897 898 899 900 901 902 903 904 905 906 907 908 909 910 911 912 913 914 915 916 917 918 919 920 921 922 923 924 925 926 927 928 929 930 931 932 933 934 935 936 937 938 939 940 941 942 943 944 945 946 947 948 949 950 951 952 953 954 955 956 957 958 959 960 961 962 963 964 965 966 967 968 969 970 971 972 973 974 975 976 977 978 979 980 981 982 983 984 985 986 987 988 989 990 991 992 993 994 995 996 997 998 999 1000 1001 1002 1003 1004 1005 1006 1007 1008 1009 1010 1011 1012 1013 1014 1015 1016 1017 1018 1019 1020 1021 1022 1023 1024 1025 1026 1027 1028 1029 1030 1031 1032 1033 1034 1035 1036 1037 1038 1039 1040 1041 1042 1043 1044 1045 1046 1047 1048 1049 1050 1051 1052 1053 1054 1055 1056 1057 1058 1059 1060 1061 1062 1063 1064 1065 1066 1067 1068 1069 1070 1071 1072 1073 1074 1075 1076 1077 1078 1079 1080 1081 1082 1083 1084 1085 1086 1087 1088 1089 1090 1091 1092 1093 1094 1095 1096 1097 1098 1099 1100 1101 1102 1103 1104 1105 1106 1107 1108 1109 1110 1111 1112 1113 1114 1115 1116 1117 1118 1119 1120 1121 1122 1123 1124 1125 1126 1127 1128 1129 1130 1131 1132 1133 1134 1135 1136 1137 1138 1139 1140 1141 1142 1143 1144 1145 1146 1147 1148 1149 1150 1151 1152 1153 1154 1155 1156 1157 1158 1159 1160 1161 1162 1163 1164 1165 1166 1167 1168 1169 1170 1171 1172 1173 1174 1175 1176 1177 1178 1179 1180 1181 1182 1183 1184 1185 1186 1187 1188 1189 1190 1191 1192 1193 1194 1195 1196 1197 1198 1199 1200 1201 1202 1203 1204 1205 1206 1207 1208 1209 1210 1211 1212 1213 1214 1215 1216 1217 1218 1219 1220 1221 1222 1223 1224 1225 1226 1227 1228 1229 1230 1231 1232 1233 1234 1235 1236 1237 1238 1239 1240 1241 1242 1243 1244 1245 1246 1247 1248 1249 1250 1251 1252 1253 1254 1255 1256 1257 1258 1259 1260 1261 1262 1263 1264 1265 1266 1267 1268 1269 1270 1271 1272 1273 1274 1275 1276 1277 1278 1279 1280 1281 1282 1283 1284 1285 1286 1287 1288 1289 1290 1291 1292 1293 1294 1295 1296 1297 1298 1299 1300 1301 1302 1303 1304 1305 1306 1307 1308 1309 1310 1311 1312 1313 1314 1315 1316 1317 1318 1319 1320 1321 1322 1323 1324 1325 1326 1327 1328 1329 1330 1331 1332 1333 1334 1335 1336 1337 1338 1339 1340 1341 1342 1343 1344 1345 1346 1347 1348 1349 1350 1351 1352 1353 1354 1355 1356 1357 1358 1359 1360 1361 1362 1363 1364 1365 1366 1367 1368 1369 1370 1371 1372 1373 1374 1375 1376 1377 1378 1379 1380 1381 1382 1383 1384 1385 1386 1387 1388 1389 1390 1391 1392 1393 1394 1395 1396 1397 1398 1399 1400 1401 1402 1403 1404 1405 1406 1407 1408 1409 1410 1411 1412 1413 1414 1415 1416 1417 1418 1419 1420 1421 1422 1423 1424 1425 1426 1427 1428 1429 1430 1431 1432 1433 1434 1435 1436 1437 1438 1439 1440 1441 1442 1443 1444 1445 1446 1447 1448 1449 1450 1451 1452 1453 1454 1455 1456 1457 1458 1459 1460 1461 1462 1463 1464 1465 1466 1467 1468 1469 1470 1471 1472 1473 1474 1475 1476 1477 1478 1479 1480 1481 1482 1483 1484 1485 1486 1487 1488 1489 1490 1491 1492 1493 1494 1495 1496 1497 1498 1499 1500 1501 1502 1503 1504 1505 1506 1507 1508 1509 1510 1511 1512 1513 1514 1515 1516 1517 1518 1519 1520 1521 1522 1523 1524 1525 1526 1527 1528 1529 1530 1531 1532 1533 1534 1535 1536 1537 1538 1539 1540 1541 1542 1543 1544 1545 1546 1547 1548 1549 1550 1551 1552 1553 1554 1555 1556 1557 1558 1559 1560 1561 1562 1563 1564 1565 1566 1567 1568 1569 1570 1571 1572 1573 1574 1575 1576 1577 1578 1579 1580 1581 1582 1583 1584 1585 1586 1587 1588 1589 1590 1591 1592 1593 1594 1595 1596 1597 1598 1599 1600 1601 1602 1603 1604 1605 1606 1607 1608 1609 1610 1611 1612 1613 1614 1615 1616 1617 1618 1619 1620 1621 1622 1623 1624 1625 1626 1627 1628 1629 1630 1631 1632 1633 1634 1635 1636 1637 1638 1639 1640 1641 1642 1643 1644 1645 1646 1647 1648 1649 1650 1651 1652 1653 1654 1655 1656 1657 1658 1659 1660 1661 1662 1663 1664 1665 1666 1667 1668 1669 1670 1671 1672 1673 1674 1675 1676 1677 1678 1679 1680 1681 1682 1683 1684 1685 1686 1687 1688 1689 1690 1691 1692 1693 1694 1695 1696 1697 1698 1699 1700 1701 1702 1703 1704 1705 1706 1707 1708 1709 1710 1711 1712 1713 1714 1715 1716 1717 1718 1719 1720 1721 1722 1723 1724 1725 1726 1727 1728 1729 1730 1731 1732 1733 1734 1735 1736 1737 1738 1739 1740 1741 1742 1743 1744 1745 1746 1747 1748 1749 1750 1751 1752 1753 1754 1755 1756 1757 1758 1759 1760 1761 1762 1763 1764 1765 1766 1767 1768 1769 1770 1771 1772 1773 1774 1775 1776 1777 1778 1779 1780 1781 1782 1783 1784 1785 1786 1787 1788 1789 1790 1791 1792 1793 1794 1795 1796 1797 1798 1799 1800 1801 1802 1803 1804 1805 1806 1807 1808 1809 1810 1811 1812 1813 1814 1815 1816 1817 1818 1819 1820 1821 1822 1823 1824 1825 1826 1827 1828 1829 1830 1831 1832 1833 1834 1835 1836 1837 1838 1839 1840 1841 1842 1843 1844 1845 1846 1847 1848 1849 1850 1851 1852 1853 1854 1855 1856 1857 1858 1859 1860 1861 1862 1863 1864 1865 1866 1867 1868 1869 1870 1871 1872 1873 1874 1875 1876 1877 1878 1879 1880 1881 1882 1883 1884 1885 1886 1887 1888 1889 1890 1891 1892 1893 1894 1895 1896 1897 1898 1899 1900 1901 1902 1903 1904 1905 1906 1907 1908 1909 1910 1911 1912 1913 1914 1915 1916 1917 1918 1919 1920 1921 1922 1923 1924 1925 1926 1927 1928 1929 1930 1931 1932 1933 1934 1935 1936 1937 1938 1939 1940 1941 1942 1943 1944 1945 1946 1947 1948 1949 1950 1951 1952 1953 1954 1955 1956 1957 1958 1959 1960 1961 1962 1963 1964 1965 1966 1967 1968 1969 1970 1971 1972 1973 1974 1975 1976 1977 1978 1979 1980 1981 1982 1983 1984 1985 1986 1987 1988 1989 1990 1991 1992 1993 1994 1995 1996 1997 1998 1999 2000 2001 2002 2003 2004 2005 2006 2007 2008 2009 2010 2011 2012 2013 2014 2015 2016 2017 2018 2019 2020 2021 2022 2023 2024 2025 2026 2027 2028 2029 2030 2031 2032 2033 2034 2035 2036 2037 2038 2039 2040 2041 2042 2043 2044 2045 2046 2047 2048 2049 2050 2051 2052 2053 2054 2055 2056 2057 2058 2059 2060 2061 2062 2063 2064 2065 2066 2067 2068 2069 2070 2071 2072 2073 2074 2075 2076 2077 2078 2079 2080 2081 2082 2083 2084 2085 2086 2087 2088 2089 2090 2091 2092 2093 2094 2095 2096 2097 2098 2099 2100 2101 2102 2103 2104 2105 2106 2107 2108 2109 2110 2111 2112 2113 2114 2115 2116 2117 2118 2119 2120 2121 2122 2123 2124 2125 2126 2127 2128 2129 2130 2131 2132 2133 2134 2135 2136 2137 2138 2139 2140 2141 2142 2143 2144 2145 2146 2147 2148 2149 2150 2151 2152 2153 2154 2155 2156 2157 2158 2159 2160 2161 2162 2163 2164 2165 2166 2167 2168 2169 2170 2171 2172 2173 2174 2175 2176 2177 2178 2179 2180 2181 2182 2183 2184 2185 2186 2187 2188 2189 2190 2191 2192 2193 2194 2195 2196 2197 2198 2199 2200 2201 2202 2203 2204 2205 2206 2207 2208 2209 2210 2211 2212 2213 2214 2215 2216 2217 2218 2219 2220 2221 2222 2223 2224 2225 2226 2227 2228 2229 2230 2231 2232 2233 2234 2235 2236 2237 2238 2239 2240 2241 2242 2243 2244 2245 2246 2247 2248 2249 2250 2251 2252 2253 2254 2255 2256 2257 2258 2259 2260 2261 2262 2263 2264 2265 2266 2267 2268 2269 2270 2271 2272 2273 2274 2275 2276 2277 2278 2279 2280 2281 2282 2283 2284 2285 2286 2287 2288 2289 2290 2291 2292 2293 2294 2295 2296 2297 2298 2299 2300 2301 2302 2303 2304 2305 2306 2307 2308 2309 2310 2311 2312 2313 2314 2315 2316 2317 2318 2319 2320 2321 2322 2323 2324 2325 2326 2327 2328 2329 2330 2331 2332 2333 2334 2335 2336 2337 2338 2339 2340 2341 2342 2343 2344 2345 2346 2347 2348 2349 2350 2351 2352 2353 2354 2355 2356 2357 2358 2359 2360 2361 2362 2363 2364 2365 2366 2367 2368 2369 2370 2371 2372 2373 2374 2375 2376 2377 2378 2379 2380 2381 2382 2383 2384 2385 2386 2387 2388 2389 2390 2391 2392 2393 2394 2395 2396 2397 2398 2399 2400 2401 2402 2403 2404 2405 2406 2407 2408 2409 2410 2411 2412 2413 2414 2415 2416 2417 2418 2419 2420 2421 2422 2423 2424 2425 2426 2427 2428 2429 2430 2431 2432 2433 2434 2435 2436 2437 2438 2439 2440 2441 2442 2443 2444 2445 2446 2447 2448 2449 2450 2451 2452 2453 2454 2455 2456 2457 2458 2459 2460 2461 2462 2463 2464 2465 2466 2467 2468 2469 2470 2471 2472 2473 2474 2475 2476 2477 2478 2479 2480 2481 2482 2483 2484 2485 2486 2487 2488 2489 2490 2491 2492 2493 2494 2495 2496 2497 2498 2499 2500 2501 2502 2503 2504 2505 2506 2507 2508 2509 2510 2511 2512 2513 2514 2515 2516 2517 2518 2519 2520 2521 2522 2523 2524 2525 2526 2527 2528 2529 2530 2531 2532 2533 2534 2535 2536 2537 2538 2539 2540 2541 2542 2543 2544 2545 2546 2547 2548 2549 2550 2551 2552 2553 2554 2555 2556 2557 2558 2559 2560 2561 2562 2563 2564 2565 2566 2567 2568 2569 2570 2571 2572 2573 2574 2575 2576 2577 2578 2579 2580 2581 2582 2583 2584 2585 2586 2587 2588 2589 2590 2591 2592 2593 2594 2595 2596 2597 2598 2599 2600 2601 2602 2603 2604 2605 2606 2607 2608 2609 2610 2611 2612 2613 2614 2615 2616 2617 2618 2619 2620 2621 2622 2623 2624 2625 2626 2627 2628 2629 2630 2631 2632 2633 2634 2635 2636 2637 2638 2639 2640 2641 2642 2643 2644 2645 2646 2647 2648 2649 2650 2651 2652 2653 2654 2655 2656 2657 2658 2659 2660 2661 2662 2663 2664 2665 2666 2667 2668 2669 2670 2671 2672 2673 2674 2675 2676 2677 2678 2679 2680 2681 2682 2683 2684 2685 2686 2687 2688 2689 2690 2691 2692 2693 2694 2695 2696 2697 2698 2699 2700 2701 2702 2703 2704 2705 2706 2707 2708 2709 2710 2711 2712 2713 2714 2715 2716 2717 2718 2719 2720 2721 2722 2723 2724 2725 2726 2727 2728 2729 2730 2731 2732 2733 2734 2735 2736 2737 2738 2739 2740 2741 2742 2743 2744 2745 2746 2747 2748 2749 2750 2751 2752 2753 2754 2755 2756 2757 2758 2759 2760 2761 2762 2763 2764 2765 2766 2767 2768 2769 2770 2771 2772 2773 2774 2775 2776 2777 2778 2779 2780 2781 2782 2783 2784 2785 2786 2787 2788 2789 2790 2791 2792 2793 2794 2795 2796 2797 2798 2799 2800 2801 2802 2803 2804 2805 2806 2807 2808 2809 2810 2811 2812 2813 2814 2815 2816 2817 2818 2819 2820 2821 2822 2823 2824 2825 2826 2827 2828 2829 2830 2831 2832 2833 2834 2835 2836 2837 2838 2839 2840 2841 2842 2843 2844 2845 2846 2847 2848 2849 2850 2851 2852 2853 2854 2855 2856 2857 2858 2859 2860 2861 2862 2863 2864 2865 2866 2867 2868 2869 2870 2871 2872 2873 2874 2875 2876 2877 2878 2879 2880 2881 2882 2883 2884 2885 2886 2887 2888 2889 2890 2891 2892 2893 2894 2895 2896 2897 2898 2899 2900 2901 2902 2903 2904 2905 2906 2907 2908 2909 2910 2911 2912 2913 2914 2915 2916 2917 2918 2919 2920 2921 2922 2923 2924 2925 2926 2927 2928 2929 2930 2931 2932 2933 2934 2935 2936 2937 2938 2939 2940 2941 2942 2943 2944 2945 2946 2947 2948 2949 2950 2951 2952 2953 2954 2955 2956 2957 2958 2959 2960 2961 2962 2963 2964 2965 2966 2967 2968 2969 2970 2971 2972 2973 2974 2975 2976 2977 2978 2979 2980 2981 2982 2983 2984 2985 2986 2987 2988 2989 2990 2991 2992 2993 2994 2995 2996 2997 2998 2999 3000 3001 3002 3003 3004 3005 3006 3007 3008 3009 3010 3011 3012 3013 3014 3015 3016 3017 3018 3019 3020 3021 3022 3023 3024 3025 3026 3027 3028 3029 3030 3031 3032 3033 3034 3035 3036 3037 3038 3039 3040 3041 3042 3043 3044 3045 3046 3047 3048 3049 3050 3051 3052 3053 3054 3055 3056 3057 3058 3059 3060 3061 3062 3063 3064 3065 3066 3067 3068 3069 3070 3071 3072 3073 3074 3075 3076 3077 3078 3079 3080 3081 3082 3083 3084 3085 3086 3087 3088 3089 3090 3091 3092 3093 3094 3095 3096 3097 3098 3099 3100 3101 3102 3103 3104 3105 3106 3107 3108 3109 3110 3111 3112 3113 3114 3115 3116 3117 3118 3119 3120 3121 3122 3123 3124 3125 3126 3127 3128 3129 3130 3131 3132 3133 3134 3135 3136 3137 3138 3139 3140 3141 3142 3143 3144 3145 3146 3147 3148 3149 3150 3151 3152 3153 3154 3155 3156 3157 3158 3159 3160 3161 3162 3163 3164 3165 3166 3167 3168 3169 3170 3171 3172 3173 3174 3175 3176 3177 3178 3179 3180 3181 3182 3183 3184 3185 3186 3187 3188 3189 3190 3191 3192 3193 3194 3195 3196 3197 3198 3199 3200 3201 3202 3203 3204 3205 3206 3207 3208 3209 3210 3211 3212 3213 3214 3215 3216 3217 3218 3219 3220 3221 3222 3223 3224 3225 3226 3227 3228 3229 3230 3231 3232 3233 3234 3235 3236 3237 3238 3239 3240 3241 3242 3243 3244 3245 3246 3247 3248 3249 3250 3251 3252 3253 3254 3255 3256 3257 3258 3259 3260 3261 3262 3263 3264 3265 3266 3267 3268 3269 3270 3271 3272 3273 3274 3275 3276 3277 3278 3279 3280 3281 3282 3283 3284 3285 3286 3287 3288 3289 3290 3291 3292 3293 3294 3295 3296 3297 3298 3299 3300 3301 3302 3303 3304 3305 3306 3307 3308 3309 3310 3311 3312 3313 3314 3315 3316 3317 3318 3319 3320 3321 3322 3323 3324 3325 3326 3327 3328 3329 3330 3331 3332 3333 3334 3335 3336 3337 3338 3339 3340 3341 3342 3343 3344 3345 3346 3347 3348 3349 3350 3351 3352 3353 3354 3355 3356 3357 3358 3359 3360 3361 3362 3363 3364 3365 3366 3367 3368 3369 3370 3371 3372 3373 3374 3375 3376 3377 3378 3379 3380 3381 3382 3383 3384 3385 3386 3387 3388 3389 3390 3391 3392 3393 3394 3395 3396 3397 3398 3399 3400 3401 3402 3403 3404 3405 3406 3407 3408 3409 3410 3411 3412 3413 3414 3415 3416 3417 3418 3419 3420 3421 3422 3423 3424 3425 3426 3427 3428 3429 3430 3431 3432 3433 3434 3435 3436 3437 3438 3439 3440 3441 3442 3443 3444 3445 3446 3447 3448 3449 3450 3451 3452 3453 3454 3455 3456 3457 3458 3459 3460 3461 3462 3463 3464 3465 3466 3467 3468 3469 3470 3471 3472 3473 3474 3475 3476 3477 3478 3479 3480 3481 3482 3483 3484 3485 3486 3487 3488 3489 3490 3491 3492 3493 3494 3495 3496 3497 3498 3499 3500 3501 3502 3503 3504 3505 3506 3507 3508 3509 3510 3511 3512 3513 3514 3515 3516 3517 3518 3519 3520 3521 3522 3523 3524 3525 3526 3527 3528 3529 3530 3531 3532 3533 3534 3535 3536 3537 3538 3539 3540 3541 3542 3543 3544 3545 3546 3547 3548 3549 3550 3551 3552 3553 3554 3555 3556 3557 3558 3559 3560 3561 3562 3563 3564 3565 3566 3567 3568 3569 3570 3571 3572 3573 3574 3575 3576 3577 3578 3579 3580 3581 3582 3583 3584 3585 3586 3587 3588 3589 3590 3591 3592 3593 3594 3595 3596 3597 3598 3599 3600 3601 3602 3603 3604 3605 3606 3607 3608 3609 3610 3611 3612 3613 3614 3615 3616 3617 3618 3619 3620 3621 3622 3623 3624 3625 3626 3627 3628 3629 3630 3631 3632 3633 3634 3635 3636 3637 3638 3639 3640 3641 3642 3643 3644 3645 3646 3647 3648 3649 3650 3651 3652 3653 3654 3655 3656 3657 3658 3659 3660 3661 3662 3663 3664 3665 3666 3667 3668 3669 3670 3671 3672 3673 3674 3675 3676 3677 3678 3679 3680 3681 3682 3683 3684 3685 3686 3687 3688 3689 3690 3691 3692 3693 3694 3695 3696 3697 3698 3699 3700 3701 3702 3703 3704 3705 3706 3707 3708 3709 3710 3711 3712 3713 3714 3715 3716 3717 3718 3719 3720 3721 3722 3723 3724 3725 3726 3727 3728 3729 3730 3731 3732 3733 3734 3735 3736 3737 3738 3739 3740 3741 3742 3743 3744 3745 3746 3747 3748 3749 3750 3751 3752 3753 3754 3755 3756 3757 3758 3759 3760 3761 3762 3763 3764 3765 3766 3767 3768 3769 3770 3771 3772 3773 3774 3775 3776 3777 3778 3779 3780 3781 3782 3783 3784 3785 3786 3787 3788 3789 3790 3791 3792 3793 3794 3795 3796 3797 3798 3799 3800 3801 3802 3803 3804 3805 3806 3807 3808 3809 3810 3811 3812 3813 3814 3815 3816 3817 3818 3819 3820 3821 3822 3823 3824 3825 3826 3827 3828 3829 3830 3831 3832 3833 3834 3835 3836 3837 3838 3839 3840 3841 3842 3843 3844 3845 3846 3847 3848 3849 3850 3851 3852 3853 3854 3855 3856 3857 3858 3859 3860 3861 3862 3863 3864 3865 3866 3867 3868 3869 3870 3871 3872 3873 3874 3875 3876 3877 3878 3879 3880 3881 3882 3883 3884 3885 3886 3887 3888 3889 3890 3891 3892 3893 3894 3895 3896 3897 3898 3899 3900 3901 3902 3903 3904 3905 3906 3907 3908 3909 3910 3911 3912 3913 3914 3915 3916 3917 3918 3919 3920 3921 3922 3923 3924 3925 3926 3927 3928 3929 3930 3931 3932 3933 3934 3935 3936 3937 3938 3939 3940 3941 3942 3943 3944 3945 3946 3947 3948 3949 3950 3951 3952 3953 3954 3955 3956 3957 3958 3959 3960 3961 3962 3963 3964 3965 3966 3967 3968 3969 3970 3971 3972 3973 3974 3975 3976 3977 3978 3979 3980 3981 3982 3983 3984 3985 3986 3987 3988 3989 3990 3991 3992 3993 3994 3995 3996 3997 3998 3999 4000 4001 4002 4003 4004 4005 4006 4007 4008 4009 4010 4011 4012 4013 4014 4015 4016 4017 4018 4019 4020 4021 4022 4023 4024 4025 4026 4027 4028 4029 4030 4031 4032 4033 4034 4035 4036 4037 4038 4039 4040 4041 4042 4043 4044 4045 4046 4047 4048 4049 4050 4051 4052 4053 4054 4055 4056 4057 4058 4059 4060 4061 4062 4063 4064 4065 4066 4067 4068 4069 4070 4071 4072 4073 4074 4075 4076 4077 4078 4079 4080 4081 4082 4083 4084 4085 4086 4087 4088 4089 4090 4091 4092 4093 4094 4095 4096 4097 4098 4099 4100 4101 4102 4103 4104 4105 4106 4107 4108 4109 4110 4111 4112 4113 4114 4115 4116 4117 4118 4119 4120 4121 4122 4123 4124 4125 4126 4127 4128 4129 4130 4131 4132 4133 4134 4135 4136 4137 4138 4139 4140 4141 4142 4143 4144 4145 4146 4147 4148 4149 4150 4151 4152 4153 4154 4155 4156 4157 4158 4159 4160 4161 4162 4163 4164 4165 4166 4167 4168 4169 4170 4171 4172 4173 4174 4175 4176 4177 4178 4179 4180 4181 4182 4183 4184 4185 4186 4187 4188 4189 4190 4191 4192 4193 4194 4195 4196 4197 4198 4199 4200 4201 4202 4203 4204 4205 4206 4207 4208 4209 4210 4211 4212 4213 4214 4215 4216 4217 4218 4219 4220 4221 4222 4223 4224 4225 4226 4227 4228 4229 4230 4231 4232 4233 4234 4235 4236 4237 4238 4239 4240 4241 4242 4243 4244 4245 4246 4247 4248 4249 4250 4251 4252 4253 4254 4255 4256 4257 4258 4259 4260 4261 4262 4263 4264 4265 4266 4267 4268 4269 4270 4271 4272 4273 4274 4275 4276 4277 4278 4279 4280 4281 4282 4283 4284 4285 4286 4287 4288 4289 4290 4291 4292 4293 4294 4295 4296 4297 4298 4299 4300 4301 4302 4303 4304 4305 4306 4307 4308 4309 4310 4311 4312 4313 4314 4315 4316 4317 4318 4319 4320 4321 4322 4323 4324 4325 4326 4327 4328 4329 4330 4331 4332 4333 4334 4335 4336 4337 4338 4339 4340 4341 4342 4343 4344 4345 4346 4347 4348 4349 4350 4351 4352 4353 4354 4355 4356 4357 4358 4359 4360 4361 4362 4363 4364 4365 4366 4367 4368 4369 4370 4371 4372 4373 4374 4375 4376 4377 4378 4379 4380 4381 4382 4383 4384 4385 4386 4387 4388 4389 4390 4391 4392 4393 4394 4395 4396 4397 4398 4399 4400 4401 4402 4403 4404 4405 4406 4407 4408 4409 4410 4411 4412 4413 4414 4415 4416 4417 4418 4419 4420 4421 4422 4423 4424 4425 4426 4427 4428 4429 4430 4431 4432 4433 4434 4435 4436 4437 4438 4439 4440 4441 4442 4443 4444 4445 4446 4447 4448 4449 4450 4451 4452 4453 4454 4455 4456 4457 4458 4459 4460 4461 4462 4463 4464 4465 4466 4467 4468 4469 4470 4471 4472 4473 4474 4475 4476 4477 4478 4479 4480 4481 4482 4483 4484 4485 4486 4487 4488 4489 4490 4491 4492 4493 4494 4495 4496 4497 4498 4499 4500 4501 4502 4503 4504 4505 4506 4507 4508 4509 4510 4511 4512 4513 4514 4515 4516 4517 4518 4519 4520 4521 4522 4523 4524 4525 4526 4527 4528 4529 4530 4531 4532 4533 4534 4535 4536 4537 4538 4539 4540 4541 4542 4543 4544 4545 4546 4547 4548 4549 4550 4551 4552 4553 4554 4555 4556 4557 4558 4559 4560 4561 4562 4563 4564 4565 4566 4567 4568 4569 4570 4571 4572 4573 4574 4575 4576 4577 4578 4579 4580 4581 4582 4583 4584 4585 4586 4587 4588 4589 4590 4591 4592 4593 4594 4595 4596 4597 4598 4599 4600 4601 4602 4603 4604 4605 4606 4607 4608 4609 4610 4611 4612 4613 4614 4615 4616 4617 4618 4619 4620 4621 4622 4623 4624 4625 4626 4627 4628 4629 4630 4631 4632 4633 4634 4635 4636 4637 4638 4639 4640 4641 4642 4643 4644 4645 4646 4647 4648 4649 4650 4651 4652 4653 4654 4655 4656 4657 4658 4659 4660 4661 4662 4663 4664 4665 4666 4667 4668 4669 4670 4671 4672 4673 4674 4675 4676 4677 4678 4679 4680 4681 4682 4683 4684 4685 4686 4687 4688 4689 4690 4691 4692 4693 4694 4695 4696 4697 4698 4699 4700 4701 4702 4703 4704 4705 4706 4707 4708 4709 4710 4711 4712 4713 4714 4715 4716 4717 4718 4719 4720 4721 4722 4723 4724 4725 4726 4727 4728 4729 4730 4731 4732 4733 4734 4735 4736 4737 4738 4739 4740 4741 4742 4743 4744 4745 4746 4747 4748 4749 4750 4751 4752 4753 4754 4755 4756 4757 4758 4759 4760 4761 4762 4763 4764 4765 4766 4767 4768 4769 4770 4771 4772 4773 4774 4775 4776 4777 4778 4779 4780 4781 4782 4783 4784 4785 4786 4787 4788 4789 4790 4791 4792 4793 4794 4795 4796 4797 4798 4799 4800 4801 4802 4803 4804 4805 4806 4807 4808 4809 4810 4811 4812 4813 4814 4815 4816 4817 4818 4819 4820 4821 4822 4823 4824 4825 4826 4827 4828 4829 4830 4831 4832 4833 4834 4835 4836 4837 4838 4839 4840 4841 4842 4843 4844 4845 4846 4847 4848 4849 4850 4851 4852 4853 4854 4855 4856 4857 4858 4859 4860 4861 4862 4863 4864 4865 4866 4867 4868 4869 4870 4871 4872 4873 4874 4875 4876 4877 4878 4879 4880 4881 4882 4883 4884 4885 4886 4887 4888 4889 4890 4891 4892 4893 4894 4895 4896 4897 4898 4899 4900 4901 4902 4903 4904 4905 4906 4907 4908 4909 4910 4911 4912 4913 4914 4915 4916 4917 4918 4919 4920 4921 4922 4923 4924 4925 4926 4927 4928 4929 4930 4931 4932 4933 4934 4935 4936 4937 4938 4939 4940 4941 4942 4943 4944 4945 4946 4947 4948 4949 4950 4951 4952 4953 4954 4955 4956 4957 4958 4959 4960 4961 4962 4963 4964 4965 4966 4967 4968 4969 4970 4971 4972 4973 4974 4975 4976 4977 4978 4979 4980 4981 4982 4983 4984 4985 4986 4987 4988 4989 4990 4991 4992 4993 4994 4995 4996 4997 4998 4999 5000 5001 5002 5003 5004 5005 5006 5007 5008 5009 5010 5011 5012 5013 5014 5015 5016 5017 5018 5019 5020 5021 5022 5023 5024 5025 5026 5027 5028 5029 5030 5031 5032 5033 5034 5035 5036 5037 5038 5039 5040 5041 5042 5043 5044 5045 5046 5047 5048 5049 5050 5051 5052 5053 5054 5055 5056 5057 5058 5059 5060 5061 5062 5063 5064 5065 5066 5067 5068 5069 5070 5071 5072 5073 5074 5075 5076 5077 5078 5079 5080 5081 5082 5083 5084 5085 5086 5087 5088 5089 5090 5091 5092 5093 5094 5095 5096 5097 5098 5099 5100 5101 5102 5103 5104 5105 5106 5107 5108 5109 5110 5111 5112 5113 5114 5115 5116 5117 5118 5119 5120 5121 5122 5123 5124 5125 5126 5127 5128 5129 5130 5131 5132 5133 5134 5135 5136 5137 5138 5139 5140 5141 5142 5143 5144 5145 5146 5147 5148 5149 5150 5151 5152 5153 5154 5155 5156 5157 5158 5159 5160 5161 5162 5163 5164 5165 5166 5167 5168 5169 5170 5171 5172 5173 5174 5175 5176 5177 5178 5179 5180 5181 5182 5183 5184 5185 5186 5187 5188 5189 5190 5191 5192 5193 5194 5195 5196 5197 5198 5199 5200 5201 5202 5203 5204 5205 5206 5207 5208 5209 5210 5211 5212 5213 5214 5215 5216 5217 5218 5219 5220 5221 5222 5223 5224 5225 5226 5227 5228 5229 5230 5231 5232 5233 5234 5235 5236 5237 5238 5239 5240 5241 5242 5243 5244 5245 5246 5247 5248 5249 5250 5251 5252 5253 5254 5255 5256 5257 5258 5259 5260 5261 5262 5263 5264 5265 5266 5267 5268 5269 5270 5271 5272 5273 5274 5275 5276 5277 5278 5279 5280 5281 5282 5283 5284 5285 5286 5287 5288 5289 5290 5291 5292 5293 5294 5295 5296 5297 5298 5299 5300 5301 5302 5303 5304 5305 5306 5307 5308 5309 5310 5311 5312 5313 5314 5315 5316 5317 5318 5319 5320 5321 5322 5323 5324 5325 5326 5327 5328 5329 5330 5331 5332 5333 5334 5335 5336 5337 5338 5339 5340 5341 5342 5343 5344 5345 5346 5347 5348 5349 5350 5351 5352 5353 5354 5355 5356 5357 5358 5359 5360 5361 5362 5363 5364 5365 5366 5367 5368 5369 5370 5371 5372 5373 5374 5375 5376 5377 5378 5379 5380 5381 5382 5383 5384 5385 5386 5387 5388 5389 5390 5391 5392 5393 5394 5395 5396 5397 5398 5399 5400 5401 5402 5403 5404 5405 5406 5407 5408 5409 5410 5411 5412 5413 5414 5415 5416 5417 5418 5419 5420 5421 5422 5423 5424 5425 5426 5427 5428 5429 5430 5431 5432 5433 5434 5435 5436 5437 5438 5439 5440 5441 5442 5443 5444 5445 5446 5447 5448 5449 5450 5451 5452 5453 5454 5455 5456 5457 5458 5459 5460 5461 5462 5463 5464 5465 5466 5467 5468 5469 5470 5471 5472 5473 5474 5475 5476 5477 5478 5479 5480 5481 5482 5483 5484 5485 5486 5487 5488 5489 5490 5491 5492 5493 5494 5495 5496 5497 5498 5499 5500 5501 5502 5503 5504 5505 5506 5507 5508 5509 5510 5511 5512 5513 5514 5515 5516 5517 5518 5519 5520 5521 5522 5523 5524 5525 5526 5527 5528 5529 5530 5531 5532 5533 5534 5535 5536 5537 5538 5539 5540 5541 5542 5543 5544 5545 5546 5547 5548 5549 5550 5551 5552 5553 5554 5555 5556 5557 5558 5559 5560 5561 5562 5563 5564 5565 5566 5567 5568 5569 5570 5571 5572 5573 5574 5575 5576 5577 5578 5579 5580 5581 5582 5583 5584 5585 5586 5587 5588 5589 5590 5591 5592 5593 5594 5595 5596 5597 5598 5599 5600 5601 5602 5603 5604 5605 5606 5607 5608 5609 5610 5611 5612 5613 5614 5615 5616 5617 5618 5619 5620 5621 5622 5623 5624 5625 5626 5627 5628 5629 5630 5631 5632 5633 5634 5635 5636 5637 5638 5639 5640 5641 5642 5643 5644 5645 5646 5647 5648 5649 5650 5651 5652 5653 5654 5655 5656 5657 5658 5659 5660 5661 5662 5663 5664 5665 5666 5667 5668 5669 5670 5671 5672 5673 5674 5675 5676 5677 5678 5679 5680 5681 5682 5683 5684 5685 5686 5687 5688 5689 5690 5691 5692 5693 5694 5695 5696 5697 5698 5699 5700 5701 5702 5703 5704 5705 5706 5707 5708 5709 5710 5711 5712 5713 5714 5715 5716 5717 5718 5719 5720 5721 5722 5723 5724 5725 5726 5727 5728 5729 5730 5731 5732 5733 5734 5735 5736 5737 5738 5739 5740 5741 5742 5743 5744 5745 5746 5747 5748 5749 5750 5751 5752 5753 5754 5755 5756 5757 5758 5759 5760 5761 5762 5763 5764 5765 5766 5767 5768 5769 5770 5771 5772 5773 5774 5775 5776 5777 5778 5779 5780 5781 5782 5783 5784 5785 5786 5787 5788 5789 5790 5791 5792 5793 5794 5795 5796 5797 5798 5799 5800 5801 5802 5803 5804 5805 5806 5807 5808 5809 5810 5811 5812 5813 5814 5815 5816 5817 5818 5819 5820 5821 5822 5823 5824 5825 5826 5827 5828 5829 5830 5831 5832 5833 5834 5835 5836 5837 5838 5839 5840 5841 5842 5843 5844 5845 5846 5847 5848 5849 5850 5851 5852 5853 5854 5855 5856 5857 5858 5859 5860 5861 5862 5863 5864 5865 5866 5867 5868 5869 5870 5871 5872 5873 5874 5875 5876 5877 5878 5879 5880 5881 5882 5883 5884 5885 5886 5887 5888 5889 5890 5891 5892 5893 5894 5895 5896 5897 5898 5899 5900 5901 5902 5903 5904 5905 5906 5907 5908 5909 5910 5911 5912 5913 5914 5915 5916 5917 5918 5919 5920 5921 5922 5923 5924 5925 5926 5927 5928 5929 5930 5931 5932 5933 5934 5935 5936 5937 5938 5939 5940 5941 5942 5943 5944 5945 5946 5947 5948 5949 5950 5951 5952 5953 5954 5955 5956 5957 5958 5959 5960 5961 5962 5963 5964 5965 5966 5967 5968 5969 5970 5971 5972 5973 5974 5975 5976 5977 5978 5979 5980 5981 5982 5983 5984 5985 5986 5987 5988 5989 5990 5991 5992 5993 5994 5995 5996 5997 5998 5999 6000 6001 6002 6003 6004 6005 6006 6007 6008 6009 6010 6011 6012 6013 6014 6015 6016 6017 6018 6019 6020 6021 6022 6023 6024 6025 6026 6027 6028 6029 6030 6031 6032 6033 6034 6035 6036 6037 6038 6039 6040 6041 6042 6043 6044 6045 6046 6047 6048 6049 6050 6051 6052 6053 6054 6055 6056 6057 6058 6059 6060 6061 6062 6063 6064 6065 6066 6067 6068 6069 6070 6071 6072 6073 6074 6075 6076 6077 6078 6079 6080 6081 6082 6083 6084 6085 6086 6087 6088 6089 6090 6091 6092 6093 6094 6095 6096 6097 6098 6099 6100 6101 6102 6103 6104 6105 6106 6107 6108 6109 6110 6111 6112 6113 6114 6115 6116 6117 6118 6119 6120 6121 6122 6123 6124 6125 6126 6127 6128 6129 6130 6131 6132 6133 6134 6135 6136 6137 6138 6139 6140 6141 6142 6143 6144 6145 6146 6147 6148 6149 6150 6151 6152 6153 6154 6155 6156 6157 6158 6159 6160 6161 6162 6163 6164 6165 6166 6167 6168 6169 6170 6171 6172 6173 6174 6175 6176 6177 6178 6179 6180 6181 6182 6183 6184 6185 6186 6187 6188 6189 6190 6191 6192 6193 6194 6195 6196 6197 6198 6199 6200 6201 6202 6203 6204 6205 6206 6207 6208 6209 6210 6211 6212 6213 6214 6215 6216 6217 6218 6219 6220 6221 6222 6223 6224 6225 6226 6227 6228 6229 6230 6231 6232 6233 6234 6235 6236 6237 6238 6239 6240 6241 6242 6243 6244 6245 6246 6247 6248 6249 6250 6251 6252 6253 6254 6255 6256 6257 6258 6259 6260 6261 6262 6263 6264 6265 6266 6267 6268 6269 6270 6271 6272 6273 6274 6275 6276 6277 6278 6279 6280 6281 6282 6283 6284 6285 6286 6287 6288 6289 6290 6291 6292 6293 6294 6295 6296 6297 6298 6299 6300 6301 6302 6303 6304 6305 6306 6307 6308 6309 6310 6311 6312 6313 6314 6315 6316 6317 6318 6319 6320 6321 6322 6323 6324 6325 6326 6327 6328 6329 6330 6331 6332 6333 6334 6335 6336 6337 6338 6339 6340 6341 6342 6343 6344 6345 6346 6347 6348 6349 6350 6351 6352 6353 6354 6355 6356 6357 6358 6359 6360 6361 6362 6363 6364 6365 6366 6367 6368 6369 6370 6371 6372 6373 6374 6375 6376 6377 6378 6379 6380 6381 6382 6383 6384 6385 6386 6387 6388 6389 6390 6391 6392 6393 6394 6395 6396 6397 6398 6399 6400 6401 6402 6403 6404 6405 6406 6407 6408 6409 6410 6411 6412 6413 6414 6415 6416 6417 6418 6419 6420 6421 6422 6423 6424 6425 6426 6427 6428 6429 6430 6431 6432 6433 6434 6435 6436 6437 6438 6439 6440 6441 6442 6443 6444 6445 6446 6447 6448 6449 6450 6451 6452 6453 6454 6455 6456 6457 6458 6459 6460 6461 6462 6463 6464 6465 6466 6467 6468 6469 6470 6471 6472 6473 6474 6475 6476 6477 6478 6479 6480 6481 6482 6483 6484 6485 6486 6487 6488 6489 6490 6491 6492 6493 6494 6495 6496 6497 6498 6499 6500 6501 6502 6503 6504 6505 6506 6507 6508 6509 6510 6511 6512 6513 6514 6515 6516 6517 6518 6519 6520 6521 6522 6523 6524 6525 6526 6527 6528 6529 6530 6531 6532 6533 6534 6535 6536 6537 6538 6539 6540 6541 6542 6543 6544 6545 6546 6547 6548 6549 6550 6551 6552 6553 6554 6555 6556 6557 6558 6559 6560 6561 6562 6563 6564 6565 6566 6567 6568 6569 6570 6571 6572 6573 6574 6575 6576 6577 6578 6579 6580 6581 6582 6583 6584 6585 6586 6587 6588 6589 6590 6591 6592 6593 6594 6595 6596 6597 6598 6599 6600 6601 6602 6603 6604 6605 6606 6607 6608 6609 6610 6611 6612 6613 6614 6615 6616 6617 6618 6619 6620 6621 6622 6623 6624 6625 6626 6627 6628 6629 6630 6631 6632 6633 6634 6635 6636 6637 6638 6639 6640 6641 6642 6643 6644 6645 6646 6647 6648 6649 6650 6651 6652 6653 6654 6655 6656 6657 6658 6659 6660 6661 6662 6663 6664 6665 6666 6667 6668 6669 6670 6671 6672 6673 6674 6675 6676 6677 6678 6679 6680 6681 6682 6683 6684 6685 6686 6687 6688 6689 6690 6691 6692 6693 6694 6695 6696 6697 6698 6699 6700 6701 6702 6703 6704 6705 6706 6707 6708 6709 6710 6711 6712 6713 6714 6715 6716 6717 6718 6719 6720 6721 6722 6723 6724 6725 6726 6727 6728 6729 6730 6731 6732 6733 6734 6735 6736 6737 6738 6739 6740 6741 6742 6743 6744 6745 6746 6747 6748 6749 6750 6751 6752 6753 6754 6755 6756 6757 6758 6759 6760 6761 6762 6763 6764 6765 6766 6767 6768 6769 6770 6771 6772 6773 6774 6775 6776 6777 6778 6779 6780 6781 6782 6783 6784 6785 6786 6787 6788 6789 6790 6791 6792 6793 6794 6795 6796 6797 6798 6799 6800 6801 6802 6803 6804 6805 6806 6807 6808 6809 6810 6811 6812 6813 6814 6815 6816 6817 6818 6819 6820 6821 6822 6823 6824 6825 6826 6827 6828 6829 6830 6831 6832 6833 6834 6835 6836 6837 6838 6839 6840 6841 6842 6843 6844 6845 6846 6847 6848 6849 6850 6851 6852 6853 6854 6855 6856 6857 6858 6859 6860 6861 6862 6863 6864 6865 6866 6867 6868 6869 6870 6871 6872 6873 6874 6875 6876 6877 6878 6879 6880 6881 6882 6883 6884 6885 6886 6887 6888 6889 6890 6891 6892 6893 6894 6895 6896 6897 6898 6899 6900 6901 6902 6903 6904 6905 6906 6907 6908 6909 6910 6911 6912 6913 6914 6915 6916 6917 6918 6919 6920 6921 6922 6923 6924 6925 6926 6927 6928 6929 6930 6931 6932 6933 6934 6935 6936 6937 6938 6939 6940 6941 6942 6943 6944 6945 6946 6947 6948 6949 6950 6951 6952 6953 6954 6955 6956 6957 6958 6959 6960 6961 6962 6963 6964 6965 6966 6967 6968 6969 6970 6971 6972 6973 6974 6975 6976 6977 6978 6979 6980 6981 6982 6983 6984 6985 6986 6987 6988 6989 6990 6991 6992 6993 6994 6995 6996 6997 6998 6999 7000 7001 7002 7003 7004 7005 7006 7007 7008 7009 7010 7011 7012 7013 7014 7015 7016 7017 7018 7019 7020 7021 7022 7023 7024 7025 7026 7027 7028 7029 7030 7031 7032 7033 7034 7035 7036 7037 7038 7039 7040 7041 7042 7043 7044 7045 7046 7047 7048 7049 7050 7051 7052 7053 7054 7055 7056 7057 7058 7059 7060 7061 7062 7063 7064 7065 7066 7067 7068 7069 7070 7071 7072 7073 7074 7075 7076 7077 7078 7079 7080 7081 7082 7083 7084 7085 7086 7087 7088 7089 7090 7091 7092 7093 7094 7095 7096 7097 7098 7099 7100 7101 7102 7103 7104 7105 7106 7107 7108 7109 7110 7111 7112 7113 7114 7115 7116 7117 7118 7119 7120 7121 7122 7123 7124 7125 7126 7127 7128 7129 7130 7131 7132 7133 7134 7135 7136 7137 7138 7139 7140 7141 7142 7143 7144 7145 7146 7147 7148 7149 7150 7151 7152 7153 7154 7155 7156 7157 7158 7159 7160 7161 7162 7163 7164 7165 7166 7167 7168 7169 7170 7171 7172 7173 7174 7175 7176 7177 7178 7179 7180 7181 7182 7183 7184 7185 7186 7187 7188 7189 7190 7191 7192 7193 7194 7195 7196 7197 7198 7199 7200 7201 7202 7203 7204 7205 7206 7207 7208 7209 7210 7211 7212 7213 7214 7215 7216 7217 7218 7219 7220 7221 7222 7223 7224 7225 7226 7227 7228 7229 7230 7231 7232 7233 7234 7235 7236 7237 7238 7239 7240 7241 7242 7243 7244 7245 7246 7247 7248 7249 7250 7251 7252 7253 7254 7255 7256 7257 7258 7259 7260 7261 7262 7263 7264 7265 7266 7267 7268 7269 7270 7271 7272 7273 7274 7275 7276 7277 7278 7279 7280 7281 7282 7283 7284 7285 7286 7287 7288 7289 7290 7291 7292 7293 7294 7295 7296 7297 7298 7299 7300 7301 7302 7303 7304 7305 7306 7307 7308 7309 7310 7311 7312 7313 7314 7315 7316 7317 7318 7319 7320 7321 7322 7323 7324 7325 7326 7327 7328 7329 7330 7331 7332 7333 7334 7335 7336 7337 7338 7339 7340 7341 7342 7343 7344 7345 7346 7347 7348 7349 7350 7351 7352 7353 7354 7355 7356 7357 7358 7359 7360 7361 7362 7363 7364 7365 7366 7367 7368 7369 7370 7371 7372 7373 7374 7375 7376 7377 7378 7379 7380 7381 7382 7383 7384 7385 7386 7387 7388 7389 7390 7391 7392 7393 7394 7395 7396 7397 7398 7399 7400 7401 7402 7403 7404 7405 7406 7407 7408 7409 7410 7411 7412 7413 7414 7415 7416 7417 7418 7419 7420 7421 7422 7423 7424 7425 7426 7427 7428 7429 7430 7431 7432 7433 7434 7435 7436 7437 7438 7439 7440 7441 7442 7443 7444 7445 7446 7447 7448 7449 7450 7451 7452 7453 7454 7455 7456 7457 7458 7459 7460 7461 7462 7463 7464 7465 7466 7467 7468 7469 7470 7471 7472 7473 7474 7475 7476 7477 7478 7479 7480 7481 7482 7483 7484 7485 7486 7487 7488 7489 7490 7491 7492 7493 7494 7495 7496 7497 7498 7499 7500 7501 7502 7503 7504 7505 7506 7507 7508 7509 7510 7511 7512 7513 7514 7515 7516 7517 7518 7519 7520 7521 7522 7523 7524 7525 7526 7527 7528 7529 7530 7531 7532 7533 7534 7535 7536 7537 7538 7539 7540 7541 7542 7543 7544 7545 7546 7547 7548 7549 7550 7551 7552 7553 7554 7555 7556 7557 7558 7559 7560 7561 7562 7563 7564 7565 7566 7567 7568 7569 7570 7571 7572 7573 7574 7575 7576 7577 7578 7579 7580 7581 7582 7583 7584 7585 7586 7587 7588 7589 7590 7591 7592 7593 7594 7595 7596 7597 7598 7599 7600 7601 7602 7603 7604 7605 7606 7607 7608 7609 7610 7611 7612 7613 7614 7615 7616 7617 7618 7619 7620 7621 7622 7623 7624 7625 7626 7627 7628 7629 7630 7631 7632 7633 7634 7635 7636 7637 7638 7639 7640 7641 7642 7643 7644 7645 7646 7647 7648 7649 7650 7651 7652 7653 7654 7655 7656 7657 7658 7659 7660 7661 7662 7663 7664 7665 7666 7667 7668 7669 7670 7671 7672 7673 7674 7675 7676 7677 7678 7679 7680 7681 7682 7683 7684 7685 7686 7687 7688 7689 7690 7691 7692 7693 7694 7695 7696 7697 7698 7699 7700 7701 7702 7703 7704 7705 7706 7707 7708 7709 7710 7711 7712 7713 7714 7715 7716 7717 7718 7719 7720 7721 7722 7723 7724 7725 7726 7727 7728 7729 7730 7731 7732 7733 7734 7735 7736 7737 7738 7739 7740 7741 7742 7743 7744 7745 7746 7747 7748 7749 7750 7751 7752 7753 7754 7755 7756 7757 7758 7759 7760 7761 7762 7763 7764 7765 7766 7767 7768 7769 7770 7771 7772 7773 7774 7775 7776 7777 7778 7779 7780 7781 7782 7783 7784 7785 7786 7787 7788 7789 7790 7791 7792 7793 7794 7795 7796 7797 7798 7799 7800 7801 7802 7803 7804 7805 7806 7807 7808 7809 7810 7811 7812 7813 7814 7815 7816 7817 7818 7819 7820 7821 7822 7823 7824 7825 7826 7827 7828 7829 7830 7831 7832 7833 7834 7835 7836 7837 7838 7839 7840 7841 7842 7843 7844 7845 7846 7847 7848 7849 7850 7851 7852 7853 7854 7855 7856 7857 7858 7859 7860 7861 7862 7863 7864 7865 7866 7867 7868 7869 7870 7871 7872 7873 7874 7875 7876 7877 7878 7879 7880 7881 7882 7883 7884 7885 7886 7887 7888 7889 7890 7891 7892 7893 7894 7895 7896 7897 7898 7899 7900 7901 7902 7903 7904 7905 7906 7907 7908 7909 7910 7911 7912 7913 7914 7915 7916 7917 7918 7919 7920 7921 7922 7923 7924 7925 7926 7927 7928 7929 7930 7931 7932 7933 7934 7935 7936 7937 7938 7939 7940 7941 7942 7943 7944 7945 7946 7947 7948 7949 7950 7951 7952 7953 7954 7955 7956 7957 7958 7959 7960 7961 7962 7963 7964 7965 7966 7967 7968 7969 7970 7971 7972 7973 7974 7975 7976 7977 7978 7979 7980 7981 7982 7983 7984 7985 7986 7987 7988 7989 7990 7991 7992 7993 7994 7995 7996 7997 7998 7999 8000 8001 8002 8003 8004 8005 8006 8007 8008 8009 8010 8011 8012 8013 8014 8015 8016 8017 8018 8019 8020 8021 8022 8023 8024 8025 8026 8027 8028 8029 8030 8031 8032 8033 8034 8035 8036 8037 8038 8039 8040 8041 8042 8043 8044 8045 8046 8047 8048 8049 8050 8051 8052 8053 8054 8055 8056 8057 8058 8059 8060 8061 8062 8063 8064 8065 8066 8067 8068 8069 8070 8071 8072 8073 8074 8075 8076 8077 8078 8079 8080 8081 8082 8083 8084 8085 8086 8087 8088 8089 8090 8091 8092 8093 8094 8095 8096 8097 8098 8099 8100 8101 8102 8103 8104 8105 8106 8107 8108 8109 8110 8111 8112 8113 8114 8115 8116 8117 8118 8119 8120 8121 8122 8123 8124 8125 8126 8127 8128 8129 8130 8131 8132 8133 8134 8135 8136 8137 8138 8139 8140 8141 8142 8143 8144 8145 8146 8147 8148 8149 8150 8151 8152 8153 8154 8155 8156 8157 8158 8159 8160 8161 8162 8163 8164 8165 8166 8167 8168 8169 8170 8171 8172 8173 8174 8175 8176 8177 8178 8179 8180 8181 8182 8183 8184 8185 8186 8187 8188 8189 8190 8191 8192 8193 8194 8195 8196 8197 8198 8199 8200 8201 8202 8203 8204 8205 8206 8207 8208 8209 8210 8211 8212 8213 8214 8215 8216 8217 8218 8219 8220 8221 8222 8223 8224 8225 8226 8227 8228 8229 8230 8231 8232 8233 8234 8235 8236 8237 8238 8239 8240 8241 8242 8243 8244 8245 8246 8247 8248 8249 8250 8251 8252 8253 8254 8255 8256 8257 8258 8259 8260 8261 8262 8263 8264 8265 8266 8267 8268 8269 8270 8271 8272 8273 8274 8275 8276 8277 8278 8279 8280 8281 8282 8283 8284 8285 8286 8287 8288 8289 8290 8291 8292 8293 8294 8295 8296 8297 8298 8299 8300 8301 8302 8303 8304 8305 8306 8307 8308 8309 8310 8311 8312 8313 8314 8315 8316 8317 8318 8319 8320 8321 8322 8323 8324 8325 8326 8327 8328 8329 8330 8331 8332 8333 8334 8335 8336 8337 8338 8339 8340 8341 8342 8343 8344 8345 8346 8347 8348 8349 8350 8351 8352 8353 8354 8355 8356 8357 8358 8359 8360 8361 8362 8363 8364 8365 8366 8367 8368 8369 8370 8371 8372 8373 8374 8375 8376 8377 8378 8379 8380 8381 8382 8383 8384 8385 8386 8387 8388 8389 8390 8391 8392 8393 8394 8395 8396 8397 8398 8399 8400 8401 8402 8403 8404 8405 8406 8407 8408 8409 8410 8411 8412 8413 8414 8415 8416 8417 8418 8419 8420 8421 8422 8423 8424 8425 8426 8427 8428 8429 8430 8431 8432 8433 8434 8435 8436 8437 8438 8439 8440 8441 8442 8443 8444 8445 8446 8447 8448 8449 8450 8451 8452 8453 8454 8455 8456 8457 8458 8459 8460 8461 8462 8463 8464 8465 8466 8467 8468 8469 8470 8471 8472 8473 8474 8475 8476 8477 8478 8479 8480 8481 8482 8483 8484 8485 8486 8487 8488 8489 8490 8491 8492 8493 8494 8495 8496 8497 8498 8499 8500 8501 8502 8503 8504 8505 8506 8507 8508 8509 8510 8511 8512 8513 8514 8515 8516 8517 8518 8519 8520 8521 8522 8523 8524 8525 8526 8527 8528 8529 8530 8531 8532 8533 8534 8535 8536 8537 8538 8539 8540 8541 8542 8543 8544 8545 8546 8547 8548 8549 8550 8551 8552 8553 8554 8555 8556 8557 8558 8559 8560 8561 8562 8563 8564 8565 8566 8567 8568 8569 8570 8571 8572 8573 8574 8575 8576 8577 8578 8579 8580 8581 8582 8583 8584 8585 8586 8587 8588 8589 8590 8591 8592 8593 8594 8595 8596 8597 8598 8599 8600 8601 8602 8603 8604 8605 8606 8607 8608 8609 8610 8611 8612 8613 8614 8615 8616 8617 8618 8619 8620 8621 8622 8623 8624 8625 8626 8627 8628 8629 8630 8631 8632 8633 8634 8635 8636 8637 8638 8639 8640 8641 8642 8643 8644 8645 8646 8647 8648 8649 8650 8651 8652 8653 8654 8655 8656 8657 8658 8659 8660 8661 8662 8663 8664 8665 8666 8667 8668 8669 8670 8671 8672 8673 8674 8675 8676 8677 8678 8679 8680 8681 8682 8683 8684 8685 8686 8687 8688 8689 8690 8691 8692 8693 8694 8695 8696 8697 8698 8699 8700 8701 8702 8703 8704 8705 8706 8707 8708 8709 8710 8711 8712 8713 8714 8715 8716 8717 8718 8719 8720 8721 8722 8723 8724 8725 8726 8727 8728 8729 8730 8731 8732 8733 8734 8735 8736 8737 8738 8739 8740 8741 8742 8743 8744 8745 8746 8747 8748 8749 8750 8751 8752 8753 8754 8755 8756 8757 8758 8759 8760 8761 8762 8763 8764 8765 8766 8767 8768 8769 8770 8771 8772 8773 8774 8775 8776 8777 8778 8779 8780 8781 8782 8783 8784 8785 8786 8787 8788 8789 8790 8791 8792 8793 8794 8795 8796 8797 8798 8799 8800 8801 8802 8803 8804 8805 8806 8807 8808 8809 8810 8811 8812 8813 8814 8815 8816 8817 8818 8819 8820 8821 8822 8823 8824 8825 8826 8827 8828 8829 8830 8831 8832 8833 8834 8835 8836 8837 8838 8839 8840 8841 8842 8843 8844 8845 8846 8847 8848 8849 8850 8851 8852 8853 8854 8855 8856 8857 8858 8859 8860 8861 8862 8863 8864 8865 8866 8867 8868 8869 8870 8871 8872 8873 8874 8875 8876 8877 8878 8879 8880 8881 8882 8883 8884 8885 8886 8887 8888 8889 8890 8891 8892 8893 8894 8895 8896 8897 8898 8899 8900 8901 8902 8903 8904 8905 8906 8907 8908 8909 8910 8911 8912 8913 8914 8915 8916 8917 8918 8919 8920 8921 8922 8923 8924 8925 8926 8927 8928 8929 8930 8931 8932 8933 8934 8935 8936 8937 8938 8939 8940 8941 8942 8943 8944 8945 8946 8947 8948 8949 8950 8951 8952 8953 8954 8955 8956 8957 8958 8959 8960 8961 8962 8963 8964 8965 8966 8967 8968 8969 8970 8971 8972 8973 8974 8975 8976 8977 8978 8979 8980 8981 8982 8983 8984 8985 8986 8987 8988 8989 8990 8991 8992 8993 8994 8995 8996 8997 8998 8999 9000 9001 9002 9003 9004 9005 9006 9007 9008 9009 9010 9011 9012 9013 9014 9015 9016 9017 9018 9019 9020 9021 9022 9023 9024 9025 9026 9027 9028 9029 9030 9031 9032 9033 9034 9035 9036 9037 9038 9039 9040 9041 9042 9043 9044 9045 9046 9047 9048 9049 9050 9051 9052 9053 9054 9055 9056 9057 9058 9059 9060 9061 9062 9063 9064 9065 9066 9067 9068 9069 9070 9071 9072 9073 9074 9075 9076 9077 9078 9079 9080 9081 9082 9083 9084 9085 9086 9087 9088 9089 9090 9091 9092 9093 9094 9095 9096 9097 9098 9099 9100 9101 9102 9103 9104 9105 9106 9107 9108 9109 9110 9111 9112 9113 9114 9115 9116 9117 9118 9119 9120 9121 9122 9123 9124 9125 9126 9127 9128 9129 9130 9131 9132 9133 9134 9135 9136 9137 9138 9139 9140 9141 9142 9143 9144 9145 9146 9147 9148 9149 9150 9151 9152 9153 9154 9155 9156 9157 9158 9159 9160 9161 9162 9163 9164 9165 9166 9167 9168 9169 9170 9171 9172 9173 9174 9175 9176 9177 9178 9179 9180 9181 9182 9183 9184 9185 9186 9187 9188 9189 9190 9191 9192 9193 9194 9195 9196 9197 9198 9199 9200 9201 9202 9203 9204 9205 9206 9207 9208 9209 9210 9211 9212 9213 9214 9215 9216 9217 9218 9219 9220 9221 9222 9223 9224 9225 9226 9227 9228 9229 9230 9231 9232 9233 9234 9235 9236 9237 9238 9239 9240 9241 9242 9243 9244 9245 9246 9247 9248 9249 9250 9251 9252 9253 9254 9255 9256 9257 9258 9259 9260 9261 9262 9263 9264 9265 9266 9267 9268 9269 9270 9271 9272 9273 9274 9275 9276 9277 9278 9279 9280 9281 9282 9283 9284 9285 9286 9287 9288 9289 9290 9291 9292 9293 9294 9295 9296 9297 9298 9299 9300 9301 9302 9303 9304 9305 9306 9307 9308 9309 9310 9311 9312 9313 9314 9315 9316 9317 9318 9319 9320 9321 9322 9323 9324 9325 9326 9327 9328 9329 9330 9331 9332 9333 9334 9335 9336 9337 9338 9339 9340 9341 9342 9343 9344 9345 9346 9347 9348 9349 9350 9351 9352 9353 9354 9355 9356 9357 9358 9359 9360 9361 9362 9363 9364 9365 9366 9367 9368 9369 9370 9371 9372 9373 9374 9375 9376 9377 9378 9379 9380 9381 9382 9383 9384 9385 9386 9387 9388 9389 9390 9391 9392 9393 9394 9395 9396 9397 9398 9399 9400 9401 9402 9403 9404 9405 9406 9407 9408 9409 9410 9411 9412 9413 9414 9415 9416 9417 9418 9419 9420 9421 9422 9423 9424 9425 9426 9427 9428 9429 9430 9431 9432 9433 9434 9435 9436 9437 9438 9439 9440 9441 9442 9443 9444 9445 9446 9447 9448 9449 9450 9451 9452 9453 9454 9455 9456 9457 9458 9459 9460 9461 9462 9463 9464 9465 9466 9467 9468 9469 9470 9471 9472 9473 9474 9475 9476 9477 9478 9479 9480 9481 9482 9483 9484 9485 9486 9487 9488 9489 9490 9491 9492 9493 9494 9495 9496 9497 9498 9499 9500 9501 9502 9503 9504 9505 9506 9507 9508 9509 9510 9511 9512 9513 9514 9515 9516 9517 9518 9519 9520 9521 9522 9523 9524 9525 9526 9527 9528 9529 9530 9531 9532 9533 9534 9535 9536 9537 9538 9539 9540 9541 9542 9543 9544 9545 9546 9547 9548 9549 9550 9551 9552 9553 9554 9555 9556 9557 9558 9559 9560 9561 9562 9563 9564 9565 9566 9567 9568 9569 9570 9571 9572 9573 9574 9575 9576 9577 9578 9579 9580 9581 9582 9583 9584 9585 9586 9587 9588 9589 9590 9591 9592 9593 9594 9595 9596 9597 9598 9599 9600 9601 9602 9603 9604 9605 9606 9607 9608 9609 9610 9611 9612 9613 9614 9615 9616 9617 9618 9619 9620 9621 9622 9623 9624 9625 9626 9627 9628 9629 9630 9631 9632 9633 9634 9635 9636 9637 9638 9639 9640 9641 9642 9643 9644 9645 9646 9647 9648 9649 9650 9651 9652 9653 9654 9655 9656 9657 9658 9659 9660 9661 9662 9663 9664 9665 9666 9667 9668 9669 9670 9671 9672 9673 9674 9675 9676 9677 9678 9679 9680 9681 9682 9683 9684 9685 9686 9687 9688 9689 9690 9691 9692 9693 9694 9695 9696 9697 9698 9699 9700 9701 9702 9703 9704 9705 9706 9707 9708 9709 9710 9711 9712 9713 9714 9715 9716 9717 9718 9719 9720 9721 9722 9723 9724 9725 9726 9727 9728 9729 9730 9731 9732 9733 9734 9735 9736 9737 9738 9739 9740 9741 9742 9743 9744 9745 9746 9747 9748 9749 9750 9751 9752 9753 9754 9755 9756 9757 9758 9759 9760 9761 9762 9763 9764 9765 9766 9767 9768 9769 9770 9771 9772 9773 9774 9775 9776 9777 9778 9779 9780 9781 9782 9783 9784 9785 9786 9787 9788 9789 9790 9791 9792 9793 9794 9795 9796 9797 9798 9799 9800 9801 9802 9803 9804 9805 9806 9807 9808 9809 9810 9811 9812 9813 9814 9815 9816 9817 9818 9819 9820 9821 9822 9823 9824 9825 9826 9827 9828 9829 9830 9831 9832 9833 9834 9835 9836 9837 9838 9839 9840 9841 9842 9843 9844 9845 9846 9847 9848 9849 9850 9851 9852 9853 9854 9855 9856 9857 9858 9859 9860 9861 9862 9863 9864 9865 9866 9867 9868 9869 9870 9871 9872 9873 9874 9875 9876 9877 9878 9879 9880 9881 9882 9883 9884 9885 9886 9887 9888 9889 9890 9891 9892 9893 9894 9895 9896 9897 9898 9899 9900 9901 9902 9903 9904 9905 9906 9907 9908 9909 9910 9911 9912 9913 9914 9915 9916 9917 9918 9919 9920 9921 9922 9923 9924 9925 9926 9927 9928 9929 9930 9931 9932 9933 9934 9935 9936 9937 9938 9939 9940 9941 9942 9943 9944 9945 9946 9947 9948 9949 9950 9951 9952 9953 9954 9955 9956 9957 9958 9959 9960 9961 9962 9963 9964 9965 9966 9967 9968 9969 9970 9971 9972 9973 9974 9975 9976 9977 9978 9979 9980 9981 9982 9983 9984 9985 9986 9987 9988 9989 9990 9991 9992 9993 9994 9995 9996 9997 9998 9999 10000 10001 10002 10003 10004 10005 10006 10007 10008 10009 10010 10011 10012 10013 10014 10015 10016 10017 10018 10019 10020 10021 10022 10023 10024 10025 10026 10027 10028 10029 10030 10031 10032 10033 10034 10035 10036 10037 10038 10039 10040 10041 10042 10043 10044 10045 10046 10047 10048 10049 10050 10051 10052 10053 10054 10055 10056 10057 10058 10059 10060 10061 10062 10063 10064 10065 10066 10067 10068 10069 10070 10071 10072 10073 10074 10075 10076 10077 10078 10079 10080 10081 10082 10083 10084 10085 10086 10087 10088 10089 10090 10091 10092 10093 10094 10095 10096 10097 10098 10099 10100 10101 10102 10103 10104 10105 10106 10107 10108 10109 10110 10111 10112 10113 10114 10115 10116 10117 10118 10119 10120 10121 10122 10123 10124 10125 10126 10127 10128 10129 10130 10131 10132 10133 10134 10135 10136 10137 10138 10139 10140 10141 10142 10143 10144 10145 10146 10147 10148 10149 10150 10151 10152 10153 10154 10155 10156 10157 10158 10159 10160 10161 10162 10163 10164 10165 10166 10167 10168 10169 10170 10171 10172 10173 10174 10175 10176 10177 10178 10179 10180 10181 10182 10183 10184 10185 10186 10187 10188 10189 10190 10191 10192 10193 10194 10195 10196 10197 10198 10199 10200 10201 10202 10203 10204 10205 10206 10207 10208 10209 10210 10211 10212 10213 10214 10215 10216 10217 10218 10219 10220 10221 10222 10223 10224 10225 10226 10227 10228 10229 10230 10231 10232 10233 10234 10235 10236 10237 10238 10239 10240 10241 10242 10243 10244 10245 10246 10247 10248 10249 10250 10251 10252 10253 10254 10255 10256 10257 10258 10259 10260 10261 10262 10263 10264 10265 10266 10267 10268 10269 10270 10271 10272 10273 10274 10275 10276 10277 10278 10279 10280 10281 10282 10283 10284 10285 10286 10287 10288 10289 10290 10291 10292 10293 10294 10295 10296 10297 10298 10299 10300 10301 10302 10303 10304 10305 10306 10307 10308 10309 10310 10311 10312 10313 10314 10315 10316 10317 10318 10319 10320 10321 10322 10323 10324 10325 10326 10327 10328 10329 10330 10331 10332 10333 10334 10335 10336 10337 10338 10339 10340 10341 10342 10343 10344 10345 10346 10347 10348 10349 10350 10351 10352 10353 10354 10355 10356 10357 10358 10359 10360 10361 10362 10363 10364 10365 10366 10367 10368 10369 10370 10371 10372 10373 10374 10375 10376 10377 10378 10379 10380 10381 10382 10383 10384 10385 10386 10387 10388 10389 10390 10391 10392 10393 10394 10395 10396 10397 10398 10399 10400 10401 10402 10403 10404 10405 10406 10407 10408 10409 10410 10411 10412 10413 10414 10415 10416 10417 10418 10419 10420 10421 10422 10423 10424 10425 10426 10427 10428 10429 10430 10431 10432 10433 10434 10435 10436 10437 10438 10439 10440 10441 10442 10443 10444 10445 10446 10447 10448 10449 10450 10451 10452 10453 10454 10455 10456 10457 10458 10459 10460 10461 10462 10463 10464 10465 10466 10467 10468 10469 10470 10471 10472 10473 10474 10475 10476 10477 10478 10479 10480 10481 10482 10483 10484 10485 10486 10487 10488 10489 10490 10491 10492 10493 10494 10495 10496 10497 10498 10499 10500 10501 10502 10503 10504 10505 10506 10507 10508 10509 10510 10511 10512 10513 10514 10515 10516 10517 10518 10519 10520 10521 10522 10523 10524 10525 10526 10527 10528 10529 10530 10531 10532 10533 10534 10535 10536 10537 10538 10539 10540 10541 10542 10543 10544 10545 10546 10547 10548 10549 10550 10551 10552 10553 10554 10555 10556 10557 10558 10559 10560 10561 10562 10563 10564 10565 10566 10567 10568 10569 10570 10571 10572 10573 10574 10575 10576 10577 10578 10579 10580 10581 10582 10583 10584 10585 10586 10587 10588 10589 10590 10591 10592 10593 10594 10595 10596 10597 10598 10599 10600 10601 10602 10603 10604 10605 10606 10607 10608 10609 10610 10611 10612 10613 10614 10615 10616 10617 10618 10619 10620 10621 10622 10623 10624 10625 10626 10627 10628 10629 10630 10631 10632 10633 10634 10635 10636 10637 10638 10639 10640 10641 10642 10643 10644 10645 10646 10647 10648 10649 10650 10651 10652 10653 10654 10655 10656 10657 10658 10659 10660 10661 10662 10663 10664 10665 10666 10667 10668 10669 10670 10671 10672 10673 10674 10675 10676 10677 10678 10679 10680 10681 10682 10683 10684 10685 10686 10687 10688 10689 10690 10691 10692 10693 10694 10695 10696 10697 10698 10699 10700 10701 10702 10703 10704 10705 10706 10707 10708 10709 10710 10711 10712 10713 10714 10715 10716 10717 10718 10719 10720 10721 10722 10723 10724 10725 10726 10727 10728 10729 10730 10731 10732 10733 10734 10735 10736 10737 10738 10739 10740 10741 10742 10743 10744 10745 10746 10747 10748 10749 10750 10751 10752 10753 10754 10755 10756 10757 10758 10759 10760 10761 10762 10763 10764 10765 10766 10767 10768 10769 10770 10771 10772 10773 10774 10775 10776 10777 10778 10779 10780 10781 10782 10783 10784 10785 10786 10787 10788 10789 10790 10791 10792 10793 10794 10795 10796 10797 10798 10799 10800 10801 10802 10803 10804 10805 10806 10807 10808 10809 10810 10811 10812 10813 10814 10815 10816 10817 10818 10819 10820 10821 10822 10823 10824 10825 10826 10827 10828 10829 10830 10831 10832 10833 10834 10835 10836 10837 10838 10839 10840 10841 10842 10843 10844 10845 10846 10847 10848 10849 10850 10851 10852 10853 10854 10855 10856 10857 10858 10859 10860 10861 10862 10863 10864 10865 10866 10867 10868 10869 10870 10871 10872 10873 10874 10875 10876 10877 10878 10879 10880 10881 10882 10883 10884 10885 10886 10887 10888 10889 10890 10891 10892 10893 10894 10895 10896 10897 10898 10899 10900 10901 10902 10903 10904 10905 10906 10907 10908 10909 10910 10911 10912 10913 10914 10915 10916 10917 10918 10919 10920 10921 10922 10923 10924 10925 10926 10927 10928 10929 10930 10931 10932 10933 10934 10935 10936 10937 10938 10939 10940 10941 10942 10943 10944 10945 10946 10947 10948 10949 10950 10951 10952 10953 10954 10955 10956 10957 10958 10959 10960 10961 10962 10963 10964 10965 10966 10967 10968 10969 10970 10971 10972 10973 10974 10975 10976 10977 10978 10979 10980 10981 10982 10983 10984 10985 10986 10987 10988 10989 10990 10991 10992 10993 10994 10995 10996 10997 10998 10999 11000 11001 11002 11003 11004 11005 11006 11007 11008 11009 11010 11011 11012 11013 11014 11015 11016 11017 11018 11019 11020 11021 11022 11023 11024 11025 11026 11027 11028 11029 11030 11031 11032 11033 11034 11035 11036 11037 11038 11039 11040 11041 11042 11043 11044 11045 11046 11047 11048 11049 11050 11051 11052 11053 11054 11055 11056 11057 11058 11059 11060 11061 11062 11063 11064 11065 11066 11067 11068 11069 11070 11071 11072 11073 11074 11075 11076 11077 11078 11079 11080 11081 11082 11083 11084 11085 11086 11087 11088 11089 11090 11091 11092 11093 11094 11095 11096 11097 11098 11099 11100 11101 11102 11103 11104 11105 11106 11107 11108 11109 11110 11111 11112 11113 11114 11115 11116 11117 11118 11119 11120 11121 11122 11123 11124 11125 11126 11127 11128 11129 11130 11131 11132 11133 11134 11135 11136 11137 11138 11139 11140 11141 11142 11143 11144 11145 11146 11147 11148 11149 11150 11151 11152 11153 11154 11155 11156 11157 11158 11159 11160 11161 11162 11163 11164 11165 11166 11167 11168 11169 11170 11171 11172 11173 11174 11175 11176 11177 11178 11179 11180 11181 11182 11183 11184 11185 11186 11187 11188 11189 11190 11191 11192 11193 11194 11195 11196 11197 11198 11199 11200 11201 11202 11203 11204 11205 11206 11207 11208 11209 11210 11211 11212 11213 11214 11215 11216 11217 11218 11219 11220 11221 11222 11223 11224 11225 11226 11227 11228 11229 11230 11231 11232 11233 11234 11235 11236 11237 11238 11239 11240 11241 11242 11243 11244 11245 11246 11247 11248 11249 11250 11251 11252 11253 11254 11255 11256 11257 11258 11259 11260 11261 11262 11263 11264 11265 11266 11267 11268 11269 11270 11271 11272 11273 11274 11275 11276 11277 11278 11279 11280 11281 11282 11283 11284 11285 11286 11287 11288 11289 11290 11291 11292 11293 11294 11295 11296 11297 11298 11299 11300 11301 11302 11303 11304 11305 11306 11307 11308 11309 11310 11311 11312 11313 11314 11315 11316 11317 11318 11319 11320 11321 11322 11323 11324 11325 11326 11327 11328 11329 11330 11331 11332 11333 11334 11335 11336 11337 11338 11339 11340 11341 11342 11343 11344 11345 11346 11347 11348 11349 11350 11351 11352 11353 11354 11355 11356 11357 11358 11359 11360 11361 11362 11363 11364 11365 11366 11367 11368 11369 11370 11371 11372 11373 11374 11375 11376 11377 11378 11379 11380 11381 11382 11383 11384 11385 11386 11387 11388 11389 11390 11391 11392 11393 11394 11395 11396 11397 11398 11399 11400 11401 11402 11403 11404 11405 11406 11407 11408 11409 11410 11411 11412 11413 11414 11415 11416 11417 11418 11419 11420 11421 11422 11423 11424 11425 11426 11427 11428 11429 11430 11431 11432 11433 11434 11435 11436 11437 11438 11439 11440 11441 11442 11443 11444 11445 11446 11447 11448 11449 11450 11451 11452 11453 11454 11455 11456 11457 11458 11459 11460 11461 11462 11463 11464 11465 11466 11467 11468 11469 11470 11471 11472 11473 11474 11475 11476 11477 11478 11479 11480 11481 11482 11483 11484 11485 11486 11487 11488 11489 11490 11491 11492 11493 11494 11495 11496 11497 11498 11499 11500 11501 11502 11503 11504 11505 11506 11507 11508 11509 11510 11511 11512 11513 11514 11515 11516 11517 11518 11519 11520 11521 11522 11523 11524 11525 11526 11527 11528 11529 11530 11531 11532 11533 11534 11535 11536 11537 11538 11539 11540 11541 11542 11543 11544 11545 11546 11547 11548 11549 11550 11551 11552 11553 11554 11555 11556 11557 11558 11559 11560 11561 11562 11563 11564 11565 11566 11567 11568 11569 11570 11571 11572 11573 11574 11575 11576 11577 11578 11579 11580 11581 11582 11583 11584 11585 11586 11587 11588 11589 11590 11591 11592 11593 11594 11595 11596 11597 11598 11599 11600 11601 11602 11603 11604 11605 11606 11607 11608 11609 11610 11611 11612 11613 11614 11615 11616 11617 11618 11619 11620 11621 11622 11623 11624 11625 11626 11627 11628 11629 11630 11631 11632 11633 11634 11635 11636 11637 11638 11639 11640 11641 11642 11643 11644 11645 11646 11647 11648 11649 11650 11651 11652 11653 11654 11655 11656 11657 11658 11659 11660 11661 11662 11663 11664 11665 11666 11667 11668 11669 11670 11671 11672 11673 11674 11675 11676 11677 11678 11679 11680 11681 11682 11683 11684 11685 11686 11687 11688 11689 11690 11691 11692 11693 11694 11695 11696 11697 11698 11699 11700 11701 11702 11703 11704 11705 11706 11707 11708 11709 11710 11711 11712 11713 11714 11715 11716 11717 11718 11719 11720 11721 11722 11723 11724 11725 11726 11727 11728 11729 11730 11731 11732 11733 11734 11735 11736 11737 11738 11739 11740 11741 11742 11743 11744 11745 11746 11747 11748 11749 11750 11751 11752 11753 11754 11755 11756 11757 11758 11759 11760 11761 11762 11763 11764 11765 11766 11767 11768 11769 11770 11771 11772 11773 11774 11775 11776 11777 11778 11779 11780 11781 11782 11783 11784 11785 11786 11787 11788 11789 11790 11791 11792 11793 11794 11795 11796 11797 11798 11799 11800 11801 11802 11803 11804 11805 11806 11807 11808 11809 11810 11811 11812 11813 11814 11815 11816 11817 11818 11819 11820 11821 11822 11823 11824 11825 11826 11827 11828 11829 11830 11831 11832 11833 11834 11835 11836 11837 11838 11839 11840 11841 11842 11843 11844 11845 11846 11847 11848 11849 11850 11851 11852 11853 11854 11855 11856 11857 11858 11859 11860 11861 11862 11863 11864 11865 11866 11867 11868 11869 11870 11871 11872 11873 11874 11875 11876 11877 11878 11879 11880 11881 11882 11883 11884 11885 11886 11887 11888 11889 11890 11891 11892 11893 11894 11895 11896 11897 11898 11899 11900 11901 11902 11903 11904 11905 11906 11907 11908 11909 11910 11911 11912 11913 11914 11915 11916 11917 11918 11919 11920 11921 11922 11923 11924 11925 11926 11927 11928 11929 11930 11931 11932 11933 11934 11935 11936 11937 11938 11939 11940 11941 11942 11943 11944 11945 11946 11947 11948 11949 11950 11951 11952 11953 11954 11955 11956 11957 11958 11959 11960 11961 11962 11963 11964 11965 11966 11967 11968 11969 11970 11971 11972 11973 11974 11975 11976 11977 11978 11979 11980 11981 11982 11983 11984 11985 11986 11987 11988 11989 11990 11991 11992 11993 11994 11995 11996 11997 11998 11999 12000 12001 12002 12003 12004 12005 12006 12007 12008 12009 12010 12011 12012 12013 12014 12015 12016 12017 12018 12019 12020 12021 12022 12023 12024 12025 12026 12027 12028 12029 12030 12031 12032 12033 12034 12035 12036 12037 12038 12039 12040 12041 12042 12043 12044 12045 12046 12047 12048 12049 12050 12051 12052 12053 12054 12055 12056 12057 12058 12059 12060 12061 12062 12063 12064 12065 12066 12067 12068 12069 12070 12071 12072 12073 12074 12075 12076 12077 12078 12079 12080 12081 12082 12083 12084 12085 12086 12087 12088 12089 12090 12091 12092 12093 12094 12095 12096 12097 12098 12099 12100 12101 12102 12103 12104 12105 12106 12107 12108 12109 12110 12111 12112 12113 12114 12115 12116 12117 12118 12119 12120 12121 12122 12123 12124 12125 12126 12127 12128 12129 12130 12131 12132 12133 12134 12135 12136 12137 12138 12139 12140 12141 12142 12143 12144 12145 12146 12147 12148 12149 12150 12151 12152 12153 12154 12155 12156 12157 12158 12159 12160 12161 12162 12163 12164 12165 12166 12167 12168 12169 12170 12171 12172 12173 12174 12175 12176 12177 12178 12179 12180 12181 12182 12183 12184 12185 12186 12187 12188 12189 12190 12191 12192 12193 12194 12195 12196 12197 12198 12199 12200 12201 12202 12203 12204 12205 12206 12207 12208 12209 12210 12211 12212 12213 12214 12215 12216 12217 12218 12219 12220 12221 12222 12223 12224 12225 12226 12227 12228 12229 12230 12231 12232 12233 12234 12235 12236 12237 12238 12239 12240 12241 12242 12243 12244 12245 12246 12247 12248 12249 12250 12251 12252 12253 12254 12255 12256 12257 12258 12259 12260 12261 12262 12263 12264 12265 12266 12267 12268 12269 12270 12271 12272 12273 12274 12275 12276 12277 12278 12279 12280 12281 12282 12283 12284 12285 12286 12287 12288 12289 12290 12291 12292 12293 12294 12295 12296 12297 12298 12299 12300 12301 12302 12303 12304 12305 12306 12307 12308 12309 12310 12311 12312 12313 12314 12315 12316 12317 12318 12319 12320 12321 12322 12323 12324 12325 12326 12327 12328 12329 12330 12331 12332 12333 12334 12335 12336 12337 12338 12339 12340 12341 12342 12343 12344 12345 12346 12347 12348 12349 12350 12351 12352 12353 12354 12355 12356 12357 12358 12359 12360 12361 12362 12363 12364 12365 12366 12367 12368 12369 12370 12371 12372 12373 12374 12375 12376 12377 12378 12379 12380 12381 12382 12383 12384 12385 12386 12387 12388 12389 12390 12391 12392 12393 12394 12395 12396 12397 12398 12399 12400 12401 12402 12403 12404 12405 12406 12407 12408 12409 12410 12411 12412 12413 12414 12415 12416 12417 12418 12419 12420 12421 12422 12423 12424 12425 12426 12427 12428 12429 12430 12431 12432 12433 12434 12435 12436 12437 12438 12439 12440 12441 12442 12443 12444 12445 12446 12447 12448 12449 12450 12451 12452 12453 12454 12455 12456 12457 12458 12459 12460 12461 12462 12463 12464 12465 12466 12467 12468 12469 12470 12471 12472 12473 12474 12475 12476 12477 12478 12479 12480 12481 12482 12483 12484 12485 12486 12487 12488 12489 12490 12491 12492 12493 12494 12495 12496 12497 12498 12499 12500 12501 12502 12503 12504 12505 12506 12507 12508 12509 12510 12511 12512 12513 12514 12515 12516 12517 12518 12519 12520 12521 12522 12523 12524 12525 12526 12527 12528 12529 12530 12531 12532 12533 12534 12535 12536 12537 12538 12539 12540 12541 12542 12543 12544 12545 12546 12547 12548 12549 12550 12551 12552 12553 12554 12555 12556 12557 12558 12559 12560 12561 12562 12563 12564 12565 12566 12567 12568 12569 12570 12571 12572 12573 12574 12575 12576 12577 12578 12579 12580 12581 12582 12583 12584 12585 12586 12587 12588 12589 12590 12591 12592 12593 12594 12595 12596 12597 12598 12599 12600 12601 12602 12603 12604 12605 12606 12607 12608 12609 12610 12611 12612 12613 12614 12615 12616 12617 12618 12619 12620 12621 12622 12623 12624 12625 12626 12627 12628 12629 12630 12631 12632 12633 12634 12635 12636 12637 12638 12639 12640 12641 12642 12643 12644 12645 12646 12647 12648 12649 12650 12651 12652 12653 12654 12655 12656 12657 12658 12659 12660 12661 12662 12663 12664 12665 12666 12667 12668 12669 12670 12671 12672 12673 12674 12675 12676 12677 12678 12679 12680 12681 12682 12683 12684 12685 12686 12687 12688 12689 12690 12691 12692 12693 12694 12695 12696 12697 12698 12699 12700 12701 12702 12703 12704 12705 12706 12707 12708 12709 12710 12711 12712 12713 12714 12715 12716 12717 12718 12719 12720 12721 12722 12723 12724 12725 12726 12727 12728 12729 12730 12731 12732 12733 12734 12735 12736 12737 12738 12739 12740 12741 12742 12743 12744 12745 12746 12747 12748 12749 12750 12751 12752 12753 12754 12755 12756 12757 12758 12759 12760 12761 12762 12763 12764 12765 12766 12767 12768 12769 12770 12771 12772 12773 12774 12775 12776 12777 12778 12779 12780 12781 12782 12783 12784 12785 12786 12787 12788 12789 12790 12791 12792 12793 12794 12795 12796 12797 12798 12799 12800 12801 12802 12803 12804 12805 12806 12807 12808 12809 12810 12811 12812 12813 12814 12815 12816 12817 12818 12819 12820 12821 12822 12823 12824 12825 12826 12827 12828 12829 12830 12831 12832 12833 12834 12835 12836 12837 12838 12839 12840 12841 12842 12843 12844 12845 12846 12847 12848 12849 12850 12851 12852 12853 12854 12855 12856 12857 12858 12859 12860 12861 12862 12863 12864 12865 12866 12867 12868 12869 12870 12871 12872 12873 12874 12875 12876 12877 12878 12879 12880 12881 12882 12883 12884 12885 12886 12887 12888 12889 12890 12891 12892 12893 12894 12895 12896 12897 12898 12899 12900 12901 12902 12903 12904 12905 12906 12907 12908 12909 12910 12911 12912 12913 12914 12915 12916 12917 12918 12919 12920 12921 12922 12923 12924 12925 12926 12927 12928 12929 12930 12931 12932 12933 12934 12935 12936 12937 12938 12939 12940 12941 12942 12943 12944 12945 12946 12947 12948 12949 12950 12951 12952 12953 12954 12955 12956 12957 12958 12959 12960 12961 12962 12963 12964 12965 12966 12967 12968 12969 12970 12971 12972 12973 12974 12975 12976 12977 12978 12979 12980 12981 12982 12983 12984 12985 12986 12987 12988 12989 12990 12991 12992 12993 12994 12995 12996 12997 12998 12999 13000 13001 13002 13003 13004 13005 13006 13007 13008 13009 13010 13011 13012 13013 13014 13015 13016 13017 13018 13019 13020 13021 13022 13023 13024 13025 13026 13027 13028 13029 13030 13031 13032 13033 13034 13035 13036 13037 13038 13039 13040 13041 13042 13043 13044 13045 13046 13047 13048 13049 13050 13051 13052 13053 13054 13055 13056 13057 13058 13059 13060 13061 13062 13063 13064 13065 13066 13067 13068 13069 13070 13071 13072 13073 13074 13075 13076 13077 13078 13079 13080 13081 13082 13083 13084 13085 13086 13087 13088 13089 13090 13091 13092 13093 13094 13095 13096 13097 13098 13099 13100 13101 13102 13103 13104 13105 13106 13107 13108 13109 13110 13111 13112 13113 13114 13115 13116 13117 13118 13119 13120 13121 13122 13123 13124 13125 13126 13127 13128 13129 13130 13131 13132 13133 13134 13135 13136 13137 13138 13139 13140 13141 13142 13143 13144 13145 13146 13147 13148 13149 13150 13151 13152 13153 13154 13155 13156 13157 13158 13159 13160 13161 13162 13163 13164 13165 13166 13167 13168 13169 13170 13171 13172 13173 13174 13175 13176 13177 13178 13179 13180 13181 13182 13183 13184 13185 13186 13187 13188 13189 13190 13191 13192 13193 13194 13195 13196 13197 13198 13199 13200 13201 13202 13203 13204 13205 13206 13207 13208 13209 13210 13211 13212 13213 13214 13215 13216 13217 13218 13219 13220 13221 13222 13223 13224 13225 13226 13227 13228 13229 13230 13231 13232 13233 13234 13235 13236 13237 13238 13239 13240 13241 13242 13243 13244 13245 13246 13247 13248 13249 13250 13251 13252 13253 13254 13255 13256 13257 13258 13259 13260 13261 13262 13263 13264 13265 13266 13267 13268 13269 13270 13271 13272 13273 13274 13275 13276 13277 13278 13279 13280 13281 13282 13283 13284 13285 13286 13287 13288 13289 13290 13291 13292 13293 13294 13295 13296 13297 13298 13299 13300 13301 13302 13303 13304 13305 13306 13307 13308 13309 13310 13311 13312 13313 13314 13315 13316 13317 13318 13319 13320 13321 13322 13323 13324 13325 13326 13327 13328 13329 13330 13331 13332 13333 13334 13335 13336 13337 13338 13339 13340 13341 13342 13343 13344 13345 13346 13347 13348 13349 13350 13351 13352 13353 13354 13355 13356 13357 13358 13359 13360 13361 13362 13363 13364 13365 13366 13367 13368 13369 13370 13371 13372 13373 13374 13375 13376 13377 13378 13379 13380 13381 13382 13383 13384 13385 13386 13387 13388 13389 13390 13391 13392 13393 13394 13395 13396 13397 13398 13399 13400 13401 13402 13403 13404 13405 13406 13407 13408 13409 13410 13411 13412 13413 13414 13415 13416 13417 13418 13419 13420 13421 13422 13423 13424 13425 13426 13427 13428 13429 13430 13431 13432 13433 13434 13435 13436 13437 13438 13439 13440 13441 13442 13443 13444 13445 13446 13447 13448 13449 13450 13451 13452 13453 13454 13455 13456 13457 13458 13459 13460 13461 13462 13463 13464 13465 13466 13467 13468 13469 13470 13471 13472 13473 13474 13475 13476 13477 13478 13479 13480 13481 13482 13483 13484 13485 13486 13487 13488 13489 13490 13491 13492 13493 13494 13495 13496 13497 13498 13499 13500 13501 13502 13503 13504 13505 13506 13507 13508 13509 13510 13511 13512 13513 13514 13515 13516 13517 13518 13519 13520 13521 13522 13523 13524 13525 13526 13527 13528 13529 13530 13531 13532 13533 13534 13535 13536 13537 13538 13539 13540 13541 13542 13543 13544 13545 13546 13547 13548 13549 13550 13551 13552 13553 13554 13555 13556 13557 13558 13559 13560 13561 13562 13563 13564 13565 13566 13567 13568 13569 13570 13571 13572 13573 13574 13575 13576 13577 13578 13579 13580 13581 13582 13583 13584 13585 13586 13587 13588 13589 13590 13591 13592 13593 13594 13595 13596 13597 13598 13599 13600 13601 13602 13603 13604 13605 13606 13607 13608 13609 13610 13611 13612 13613 13614 13615 13616 13617 13618 13619 13620 13621 13622 13623 13624 13625 13626 13627 13628 13629 13630 13631 13632 13633 13634 13635 13636 13637 13638 13639 13640 13641 13642 13643 13644 13645 13646 13647 13648 13649 13650 13651 13652 13653 13654 13655 13656 13657 13658 13659 13660 13661 13662 13663 13664 13665 13666 13667 13668 13669 13670 13671 13672 13673 13674 13675 13676 13677 13678 13679 13680 13681 13682 13683 13684 13685 13686 13687 13688 13689 13690 13691 13692 13693 13694 13695 13696 13697 13698 13699 13700 13701 13702 13703 13704 13705 13706 13707 13708 13709 13710 13711 13712 13713 13714 13715 13716 13717 13718 13719 13720 13721 13722 13723 13724 13725 13726 13727 13728 13729 13730 13731 13732 13733 13734 13735 13736 13737 13738 13739 13740 13741 13742 13743 13744 13745 13746 13747 13748 13749 13750 13751 13752 13753 13754 13755 13756 13757 13758 13759 13760 13761 13762 13763 13764 13765 13766 13767 13768 13769 13770 13771 13772 13773 13774 13775 13776 13777 13778 13779 13780 13781 13782 13783 13784 13785 13786 13787 13788 13789 13790 13791 13792 13793 13794 13795 13796 13797 13798 13799 13800 13801 13802 13803 13804 13805 13806 13807 13808 13809 13810 13811 13812 13813 13814 13815 13816 13817 13818 13819 13820 13821 13822 13823 13824 13825 13826 13827 13828 13829 13830 13831 13832 13833 13834 13835 13836 13837 13838 13839 13840 13841 13842 13843 13844 13845 13846 13847 13848 13849 13850 13851 13852 13853 13854 13855 13856 13857 13858 13859 13860 13861 13862 13863 13864 13865 13866 13867 13868 13869 13870 13871 13872 13873 13874 13875 13876 13877 13878 13879 13880 13881 13882 13883 13884 13885 13886 13887 13888 13889 13890 13891 13892 13893 13894 13895 13896 13897 13898 13899 13900 13901 13902 13903 13904 13905 13906 13907 13908 13909 13910 13911 13912 13913 13914 13915 13916 13917 13918 13919 13920 13921 13922 13923 13924 13925 13926 13927 13928 13929 13930 13931 13932 13933 13934 13935 13936 13937 13938 13939 13940 13941 13942 13943 13944 13945 13946 13947 13948 13949 13950 13951 13952 13953 13954 13955 13956 13957 13958 13959 13960 13961 13962 13963 13964 13965 13966 13967 13968 13969 13970 13971 13972 13973 13974 13975 13976 13977 13978 13979 13980 13981 13982 13983 13984 13985 13986 13987 13988 13989 13990 13991 13992 13993 13994 13995 13996 13997 13998 13999 14000 14001 14002 14003 14004 14005 14006 14007 14008 14009 14010 14011 14012 14013 14014 14015 14016 14017 14018 14019 14020 14021 14022 14023 14024 14025 14026 14027 14028 14029 14030 14031 14032 14033 14034 14035 14036 14037 14038 14039 14040 14041 14042 14043 14044 14045 14046 14047 14048 14049 14050 14051 14052 14053 14054 14055 14056 14057 14058 14059 14060 14061 14062 14063 14064 14065 14066 14067 14068 14069 14070 14071 14072 14073 14074 14075 14076 14077 14078 14079 14080 14081 14082 14083 14084 14085 14086 14087 14088 14089 14090 14091 14092 14093 14094 14095 14096 14097 14098 14099 14100 14101 14102 14103 14104 14105 14106 14107 14108 14109 14110 14111 14112 14113 14114 14115 14116 14117 14118 14119 14120 14121 14122 14123 14124 14125 14126 14127 14128 14129 14130 14131 14132 14133 14134 14135 14136 14137 14138 14139 14140 14141 14142 14143 14144 14145 14146 14147 14148 14149 14150 14151 14152 14153 14154 14155 14156 14157 14158 14159 14160 14161 14162 14163 14164 14165 14166 14167 14168 14169 14170 14171 14172 14173 14174 14175 14176 14177 14178 14179 14180 14181 14182 14183 14184 14185 14186 14187 14188 14189 14190 14191 14192 14193 14194 14195 14196 14197 14198 14199 14200 14201 14202 14203 14204 14205 14206 14207 14208 14209 14210 14211 14212 14213 14214 14215 14216 14217 14218 14219 14220 14221 14222 14223 14224 14225 14226 14227 14228 14229 14230 14231 14232 14233 14234 14235 14236 14237 14238 14239 14240 14241 14242 14243 14244 14245 14246 14247 14248 14249 14250 14251 14252 14253 14254 14255 14256 14257 14258 14259 14260 14261 14262 14263 14264 14265 14266 14267 14268 14269 14270 14271 14272 14273 14274 14275 14276 14277 14278 14279 14280 14281 14282 14283 14284 14285 14286 14287 14288 14289 14290 14291 14292 14293 14294 14295 14296 14297 14298 14299 14300 14301 14302 14303 14304 14305 14306 14307 14308 14309 14310 14311 14312 14313 14314 14315 14316 14317 14318 14319 14320 14321 14322 14323 14324 14325 14326 14327 14328 14329 14330 14331 14332 14333 14334 14335 14336 14337 14338 14339 14340 14341 14342 14343 14344 14345 14346 14347 14348 14349 14350 14351 14352 14353 14354 14355 14356 14357 14358 14359 14360 14361 14362 14363 14364 14365 14366 14367 14368 14369 14370 14371 14372 14373 14374 14375 14376 14377 14378 14379 14380 14381 14382 14383 14384 14385 14386 14387 14388 14389 14390 14391 14392 14393 14394 14395 14396 14397 14398 14399 14400 14401 14402 14403 14404 14405 14406 14407 14408 14409 14410 14411 14412 14413 14414 14415 14416 14417 14418 14419 14420 14421 14422 14423 14424 14425 14426 14427 14428 14429 14430 14431 14432 14433 14434 14435 14436 14437 14438 14439 14440 14441 14442 14443 14444 14445 14446 14447 14448 14449 14450 14451 14452 14453 14454 14455 14456 14457 14458 14459 14460 14461 14462 14463 14464 14465 14466 14467 14468 14469 14470 14471 14472 14473 14474 14475 14476 14477 14478 14479 14480 14481 14482 14483 14484 14485 14486 14487 14488 14489 14490 14491 14492 14493 14494 14495 14496 14497 14498 14499 14500 14501 14502 14503 14504 14505 14506 14507 14508 14509 14510 14511 14512 14513 14514 14515 14516 14517 14518 14519 14520 14521 14522 14523 14524 14525 14526 14527 14528 14529 14530 14531 14532 14533 14534 14535 14536 14537 14538 14539 14540 14541 14542 14543 14544 14545 14546 14547 14548 14549 14550 14551 14552 14553 14554 14555 14556 14557 14558 14559 14560 14561 14562 14563 14564 14565 14566 14567 14568 14569 14570 14571 14572 14573 14574 14575 14576 14577 14578 14579 14580 14581 14582 14583 14584 14585 14586 14587 14588 14589 14590 14591 14592 14593 14594 14595 14596 14597 14598 14599 14600 14601 14602 14603 14604 14605 14606 14607 14608 14609 14610 14611 14612 14613 14614 14615 14616 14617 14618 14619 14620 14621 14622 14623 14624 14625 14626 14627 14628 14629 14630 14631 14632 14633 14634 14635 14636 14637 14638 14639 14640 14641 14642 14643 14644 14645 14646 14647 14648 14649 14650 14651 14652 14653 14654 14655 14656 14657 14658 14659 14660 14661 14662 14663 14664 14665 14666 14667 14668 14669 14670 14671 14672 14673 14674 14675 14676 14677 14678 14679 14680 14681 14682 14683 14684 14685 14686 14687 14688 14689 14690 14691 14692 14693 14694 14695 14696 14697 14698 14699 14700 14701 14702 14703 14704 14705 14706 14707 14708 14709 14710 14711 14712 14713 14714 14715 14716 14717 14718 14719 14720 14721 14722 14723 14724 14725 14726 14727 14728 14729 14730 14731 14732 14733 14734 14735 14736 14737 14738 14739 14740 14741 14742 14743 14744 14745 14746 14747 14748 14749 14750 14751 14752 14753 14754 14755 14756 14757 14758 14759 14760 14761 14762 14763 14764 14765 14766 14767 14768 14769 14770 14771 14772 14773 14774 14775 14776 14777 14778 14779 14780 14781 14782 14783 14784 14785 14786 14787 14788 14789 14790 14791 14792 14793 14794 14795 14796 14797 14798 14799 14800 14801 14802 14803 14804 14805 14806 14807 14808 14809 14810 14811 14812 14813 14814 14815 14816 14817 14818 14819 14820 14821 14822 14823 14824 14825 14826 14827 14828 14829 14830 14831 14832 14833 14834 14835 14836 14837 14838 14839 14840 14841 14842 14843 14844 14845 14846 14847 14848 14849 14850 14851 14852 14853 14854 14855 14856 14857 14858 14859 14860 14861 14862 14863 14864 14865 14866 14867 14868 14869 14870 14871 14872 14873 14874 14875 14876 14877 14878 14879 14880 14881 14882 14883 14884 14885 14886 14887 14888 14889 14890 14891 14892 14893 14894 14895 14896 14897 14898 14899 14900 14901 14902 14903 14904 14905 14906 14907 14908 14909 14910 14911 14912 14913 14914 14915 14916 14917 14918 14919 14920 14921 14922 14923 14924 14925 14926 14927 14928 14929 14930 14931 14932 14933 14934 14935 14936 14937 14938 14939 14940 14941 14942 14943 14944 14945 14946 14947 14948 14949 14950 14951 14952 14953 14954 14955 14956 14957 14958 14959 14960 14961 14962 14963 14964 14965 14966 14967 14968 14969 14970 14971 14972 14973 14974 14975 14976 14977 14978 14979 14980 14981 14982 14983 14984 14985 14986 14987 14988 14989 14990 14991 14992 14993 14994 14995 14996 14997 14998 14999 15000 15001 15002 15003 15004 15005 15006 15007 15008 15009 15010 15011 15012 15013 15014 15015 15016 15017 15018 15019 15020 15021 15022 15023 15024 15025 15026 15027 15028 15029 15030 15031 15032 15033 15034 15035 15036 15037 15038 15039 15040 15041 15042 15043 15044 15045 15046 15047 15048 15049 15050 15051 15052 15053 15054 15055 15056 15057 15058 15059 15060 15061 15062 15063 15064 15065 15066 15067 15068 15069 15070 15071 15072 15073 15074 15075 15076 15077 15078 15079 15080 15081 15082 15083 15084 15085 15086 15087 15088 15089 15090 15091 15092 15093 15094 15095 15096 15097 15098 15099 15100 15101 15102 15103 15104 15105 15106 15107 15108 15109 15110 15111 15112 15113 15114 15115 15116 15117 15118 15119 15120 15121 15122 15123 15124 15125 15126 15127 15128 15129 15130 15131 15132 15133 15134 15135 15136 15137 15138 15139 15140 15141 15142 15143 15144 15145 15146 15147 15148 15149 15150 15151 15152 15153 15154 15155 15156 15157 15158 15159 15160 15161 15162 15163 15164 15165 15166 15167 15168 15169 15170 15171 15172 15173 15174 15175 15176 15177 15178 15179 15180 15181 15182 15183 15184 15185 15186 15187 15188 15189 15190 15191 15192 15193 15194 15195 15196 15197 15198 15199 15200 15201 15202 15203 15204 15205 15206 15207 15208 15209 15210 15211 15212 15213 15214 15215 15216 15217 15218 15219 15220 15221 15222 15223 15224 15225 15226 15227 15228 15229 15230 15231 15232 15233 15234 15235 15236 15237 15238 15239 15240 15241 15242 15243 15244 15245 15246 15247 15248 15249 15250 15251 15252 15253 15254 15255 15256 15257 15258 15259 15260 15261 15262 15263 15264 15265 15266 15267 15268 15269 15270 15271 15272 15273 15274 15275 15276 15277 15278 15279 15280 15281 15282 15283 15284 15285 15286 15287 15288 15289 15290 15291 15292 15293 15294 15295 15296 15297 15298 15299 15300 15301 15302 15303 15304 15305 15306 15307 15308 15309 15310 15311 15312 15313 15314 15315 15316 15317 15318 15319 15320 15321 15322 15323 15324 15325 15326 15327 15328 15329 15330 15331 15332 15333 15334 15335 15336 15337 15338 15339 15340 15341 15342 15343 15344 15345 15346 15347 15348 15349 15350 15351 15352 15353 15354 15355 15356 15357 15358 15359 15360 15361 15362 15363 15364 15365 15366 15367 15368 15369 15370 15371 15372 15373 15374 15375 15376 15377 15378 15379 15380 15381 15382 15383 15384 15385 15386 15387 15388 15389 15390 15391 15392 15393 15394 15395 15396 15397 15398 15399 15400 15401 15402 15403 15404 15405 15406 15407 15408 15409 15410 15411 15412 15413 15414 15415 15416 15417 15418 15419 15420 15421 15422 15423 15424 15425 15426 15427 15428 15429 15430 15431 15432 15433 15434 15435 15436 15437 15438 15439 15440 15441 15442 15443 15444 15445 15446 15447 15448 15449 15450 15451 15452 15453 15454 15455 15456 15457 15458 15459 15460 15461 15462 15463 15464 15465 15466 15467 15468 15469 15470 15471 15472 15473 15474 15475 15476 15477 15478 15479 15480 15481 15482 15483 15484 15485 15486 15487 15488 15489 15490 15491 15492 15493 15494 15495 15496 15497 15498 15499 15500 15501 15502 15503 15504 15505 15506 15507 15508 15509 15510 15511 15512 15513 15514 15515 15516 15517 15518 15519 15520 15521 15522 15523 15524 15525 15526 15527 15528 15529 15530 15531 15532 15533 15534 15535 15536 15537 15538 15539 15540 15541 15542 15543 15544 15545 15546 15547 15548 15549 15550 15551 15552 15553 15554 15555 15556 15557 15558 15559 15560 15561 15562 15563 15564 15565 15566 15567 15568 15569 15570 15571 15572 15573 15574 15575 15576 15577 15578 15579 15580 15581 15582 15583 15584 15585 15586 15587 15588 15589 15590 15591 15592 15593 15594 15595 15596 15597 15598 15599 15600 15601 15602 15603 15604 15605 15606 15607 15608 15609 15610 15611 15612 15613 15614 15615 15616 15617 15618 15619 15620 15621 15622 15623 15624 15625 15626 15627 15628 15629 15630 15631 15632 15633 15634 15635 15636 15637 15638 15639 15640 15641 15642 15643 15644 15645 15646 15647 15648 15649 15650 15651 15652 15653 15654 15655 15656 15657 15658 15659 15660 15661 15662 15663 15664 15665 15666 15667 15668 15669 15670 15671 15672 15673 15674 15675 15676 15677 15678 15679 15680 15681 15682 15683 15684 15685 15686 15687 15688 15689 15690 15691 15692 15693 15694 15695 15696 15697 15698 15699 15700 15701 15702 15703 15704 15705 15706 15707 15708 15709 15710 15711 15712 15713 15714 15715 15716 15717 15718 15719 15720 15721 15722 15723 15724 15725 15726 15727 15728 15729 15730 15731 15732 15733 15734 15735 15736 15737 15738 15739 15740 15741 15742 15743 15744 15745 15746 15747 15748 15749 15750 15751 15752 15753 15754 15755 15756 15757 15758 15759 15760 15761 15762 15763 15764 15765 15766 15767 15768 15769 15770 15771 15772 15773 15774 15775 15776 15777 15778 15779 15780 15781 15782 15783 15784 15785 15786 15787 15788 15789 15790 15791 15792 15793 15794 15795 15796 15797 15798 15799 15800 15801 15802 15803 15804 15805 15806 15807 15808 15809 15810 15811 15812 15813 15814 15815 15816 15817 15818 15819 15820 15821 15822 15823 15824 15825 15826 15827 15828 15829 15830 15831 15832 15833 15834 15835 15836 15837 15838 15839 15840 15841 15842 15843 15844 15845 15846 15847 15848 15849 15850 15851 15852 15853 15854 15855 15856 15857 15858 15859 15860 15861 15862 15863 15864 15865 15866 15867 15868 15869 15870 15871 15872 15873 15874 15875 15876 15877 15878 15879 15880 15881 15882 15883 15884 15885 15886 15887 15888 15889 15890 15891 15892 15893 15894 15895 15896 15897 15898 15899 15900 15901 15902 15903 15904 15905 15906 15907 15908 15909 15910 15911 15912 15913 15914 15915 15916 15917 15918 15919 15920 15921 15922 15923 15924 15925 15926 15927 15928 15929 15930 15931 15932 15933 15934 15935 15936 15937 15938 15939 15940 15941 15942 15943 15944 15945 15946 15947 15948 15949 15950 15951 15952 15953 15954 15955 15956 15957 15958 15959 15960 15961 15962 15963 15964 15965 15966 15967 15968 15969 15970 15971 15972 15973 15974 15975 15976 15977 15978 15979 15980 15981 15982 15983 15984 15985 15986 15987 15988 15989 15990 15991 15992 15993 15994 15995 15996 15997 15998 15999 16000 16001 16002 16003 16004 16005 16006 16007 16008 16009 16010 16011 16012 16013 16014 16015 16016 16017 16018 16019 16020 16021 16022 16023 16024 16025 16026 16027 16028 16029 16030 16031 16032 16033 16034 16035 16036 16037 16038 16039 16040 16041 16042 16043 16044 16045 16046 16047 16048 16049 16050 16051 16052 16053 16054 16055 16056 16057 16058 16059 16060 16061 16062 16063 16064 16065 16066 16067 16068 16069 16070 16071 16072 16073 16074 16075 16076 16077 16078 16079 16080 16081 16082 16083 16084 16085 16086 16087 16088 16089 16090 16091 16092 16093 16094 16095 16096 16097 16098 16099 16100 16101 16102 16103 16104 16105 16106 16107 16108 16109 16110 16111 16112 16113 16114 16115 16116 16117 16118 16119 16120 16121 16122 16123 16124 16125 16126 16127 16128 16129 16130 16131 16132 16133 16134 16135 16136 16137 16138 16139 16140 16141 16142 16143 16144 16145 16146 16147 16148 16149 16150 16151 16152 16153 16154 16155 16156 16157 16158 16159 16160 16161 16162 16163 16164 16165 16166 16167 16168 16169 16170 16171 16172 16173 16174 16175 16176 16177 16178 16179 16180 16181 16182 16183 16184 16185 16186 16187 16188 16189 16190 16191 16192 16193 16194 16195 16196 16197 16198 16199 16200 16201 16202 16203 16204 16205 16206 16207 16208 16209 16210 16211 16212 16213 16214 16215 16216 16217 16218 16219 16220 16221 16222 16223 16224 16225 16226 16227 16228 16229 16230 16231 16232 16233 16234 16235 16236 16237 16238 16239 16240 16241 16242 16243 16244 16245 16246 16247 16248 16249 16250 16251 16252 16253 16254 16255 16256 16257 16258 16259 16260 16261 16262 16263 16264 16265 16266 16267 16268 16269 16270 16271 16272 16273 16274 16275 16276 16277 16278 16279 16280 16281 16282 16283 16284 16285 16286 16287 16288 16289 16290 16291 16292 16293 16294 16295 16296 16297 16298 16299 16300 16301 16302 16303 16304 16305 16306 16307 16308 16309 16310 16311 16312 16313 16314 16315 16316 16317 16318 16319 16320 16321 16322 16323 16324 16325 16326 16327 16328 16329 16330 16331 16332 16333 16334 16335 16336 16337 16338 16339 16340 16341 16342 16343 16344 16345 16346 16347 16348 16349 16350 16351 16352 16353 16354 16355 16356 16357 16358 16359 16360 16361 16362 16363 16364 16365 16366 16367 16368 16369 16370 16371 16372 16373 16374 16375 16376 16377 16378 16379 16380 16381 16382 16383 16384 16385 16386 16387 16388 16389 16390 16391 16392 16393 16394 16395 16396 16397 16398 16399 16400 16401 16402 16403 16404 16405 16406 16407 16408 16409 16410 16411 16412 16413 16414 16415 16416 16417 16418 16419 16420 16421 16422 16423 16424 16425 16426 16427 16428 16429 16430 16431 16432 16433 16434 16435 16436 16437 16438 16439 16440 16441 16442 16443 16444 16445 16446 16447 16448 16449 16450 16451 16452 16453 16454 16455 16456 16457 16458 16459 16460 16461 16462 16463 16464 16465 16466 16467 16468 16469 16470 16471 16472 16473 16474 16475 16476 16477 16478 16479 16480 16481 16482 16483 16484 16485 16486 16487 16488 16489 16490 16491 16492 16493 16494 16495 16496 16497 16498 16499 16500 16501 16502 16503 16504 16505 16506 16507 16508 16509 16510 16511 16512 16513 16514 16515 16516 16517 16518 16519 16520 16521 16522 16523 16524 16525 16526 16527 16528 16529 16530 16531 16532 16533 16534 16535 16536 16537 16538 16539 16540 16541 16542 16543 16544 16545 16546 16547 16548 16549 16550 16551 16552 16553 16554 16555 16556 16557 16558 16559 16560 16561 16562 16563 16564 16565 16566 16567 16568 16569 16570 16571 16572 16573 16574 16575 16576 16577 16578 16579 16580 16581 16582 16583 16584 16585 16586 16587 16588 16589 16590 16591 16592 16593 16594 16595 16596 16597 16598 16599 16600 16601 16602 16603 16604 16605 16606 16607 16608 16609 16610 16611 16612 16613 16614 16615 16616 16617 16618 16619 16620 16621 16622 16623 16624 16625 16626 16627 16628 16629 16630 16631 16632 16633 16634 16635 16636 16637 16638 16639 16640 16641 16642 16643 16644 16645 16646 16647 16648 16649 16650 16651 16652 16653 16654 16655 16656 16657 16658 16659 16660 16661 16662 16663 16664 16665 16666 16667 16668 16669 16670 16671 16672 16673 16674 16675 16676 16677 16678 16679 16680 16681 16682 16683 16684 16685 16686 16687 16688 16689 16690 16691 16692 16693 16694 16695 16696 16697 16698 16699 16700 16701 16702 16703 16704 16705 16706 16707 16708 16709 16710 16711 16712 16713 16714 16715 16716 16717 16718 16719 16720 16721 16722 16723 16724 16725 16726 16727 16728 16729 16730 16731 16732 16733 16734 16735 16736 16737 16738 16739 16740 16741 16742 16743 16744 16745 16746 16747 16748 16749 16750 16751 16752 16753 16754 16755 16756 16757 16758 16759 16760 16761 16762 16763 16764 16765 16766 16767 16768 16769 16770 16771 16772 16773 16774 16775 16776 16777 16778 16779 16780 16781 16782 16783 16784 16785 16786 16787 16788 16789 16790 16791 16792 16793 16794 16795 16796 16797 16798 16799 16800 16801 16802 16803 16804 16805 16806 16807 16808 16809 16810 16811 16812 16813 16814 16815 16816 16817 16818 16819 16820 16821 16822 16823 16824 16825 16826 16827 16828 16829 16830 16831 16832 16833 16834 16835 16836 16837 16838 16839 16840 16841 16842 16843 16844 16845 16846 16847 16848 16849 16850 16851 16852 16853 16854 16855 16856 16857 16858 16859 16860 16861 16862 16863 16864 16865 16866 16867 16868 16869 16870 16871 16872 16873 16874 16875 16876 16877 16878 16879 16880 16881 16882 16883 16884 16885 16886 16887 16888 16889 16890 16891 16892 16893 16894 16895 16896 16897 16898 16899 16900 16901 16902 16903 16904 16905 16906 16907 16908 16909 16910 16911 16912 16913 16914 16915 16916 16917 16918 16919 16920 16921 16922 16923 16924 16925 16926 16927 16928 16929 16930 16931 16932 16933 16934 16935 16936 16937 16938 16939 16940 16941 16942 16943 16944 16945 16946 16947 16948 16949 16950 16951 16952 16953 16954 16955 16956 16957 16958 16959 16960 16961 16962 16963 16964 16965 16966 16967 16968 16969 16970 16971 16972 16973 16974 16975 16976 16977 16978 16979 16980 16981 16982 16983 16984 16985 16986 16987 16988 16989 16990 16991 16992 16993 16994 16995 16996 16997 16998 16999 17000 17001 17002 17003 17004 17005 17006 17007 17008 17009 17010 17011 17012 17013 17014 17015 17016 17017 17018 17019 17020 17021 17022 17023 17024 17025 17026 17027 17028 17029 17030 17031 17032 17033 17034 17035 17036 17037 17038 17039 17040 17041 17042 17043 17044 17045 17046 17047 17048 17049 17050 17051 17052 17053 17054 17055 17056 17057 17058 17059 17060 17061 17062 17063 17064 17065 17066 17067 17068 17069 17070 17071 17072 17073 17074 17075 17076 17077 17078 17079 17080 17081 17082 17083 17084 17085 17086 17087 17088 17089 17090 17091 17092 17093 17094 17095 17096 17097 17098 17099 17100 17101 17102 17103 17104 17105 17106 17107 17108 17109 17110 17111 17112 17113 17114 17115 17116 17117 17118 17119 17120 17121 17122 17123 17124 17125 17126 17127 17128 17129 17130 17131 17132 17133 17134 17135 17136 17137 17138 17139 17140 17141 17142 17143 17144 17145 17146 17147 17148 17149 17150 17151 17152 17153 17154 17155 17156 17157 17158 17159 17160 17161 17162 17163 17164 17165 17166 17167 17168 17169 17170 17171 17172 17173 17174 17175 17176 17177 17178 17179 17180 17181 17182 17183 17184 17185 17186 17187 17188 17189 17190 17191 17192 17193 17194 17195 17196 17197 17198 17199 17200 17201 17202 17203 17204 17205 17206 17207 17208 17209 17210 17211 17212 17213 17214 17215 17216 17217 17218 17219 17220 17221 17222 17223 17224 17225 17226 17227 17228 17229 17230 17231 17232 17233 17234 17235 17236 17237 17238 17239 17240 17241 17242 17243 17244 17245 17246 17247 17248 17249 17250 17251 17252 17253 17254 17255 17256 17257 17258 17259 17260 17261 17262 17263 17264 17265 17266 17267 17268 17269 17270 17271 17272 17273 17274 17275 17276 17277 17278 17279 17280 17281 17282 17283 17284 17285 17286 17287 17288 17289 17290 17291 17292 17293 17294 17295 17296 17297 17298 17299 17300 17301 17302 17303 17304 17305 17306 17307 17308 17309 17310 17311 17312 17313 17314 17315 17316 17317 17318 17319 17320 17321 17322 17323 17324 17325 17326 17327 17328 17329 17330 17331 17332 17333 17334 17335 17336 17337 17338 17339 17340 17341 17342 17343 17344 17345 17346 17347 17348 17349 17350 17351 17352 17353 17354 17355 17356 17357 17358 17359 17360 17361 17362 17363 17364 17365 17366 17367 17368 17369 17370 17371 17372 17373 17374 17375 17376 17377 17378 17379 17380 17381 17382 17383 17384 17385 17386 17387 17388 17389 17390 17391 17392 17393 17394 17395 17396 17397 17398 17399 17400 17401 17402 17403 17404 17405 17406 17407 17408 17409 17410 17411 17412 17413 17414 17415 17416 17417 17418 17419 17420 17421 17422 17423 17424 17425 17426 17427 17428 17429 17430 17431 17432 17433 17434 17435 17436 17437 17438 17439 17440 17441 17442 17443 17444 17445 17446 17447 17448 17449 17450 17451 17452 17453 17454 17455 17456 17457 17458 17459 17460 17461 17462 17463 17464 17465 17466 17467 17468 17469 17470 17471 17472 17473 17474 17475 17476 17477 17478 17479 17480 17481 17482 17483 17484 17485 17486 17487 17488 17489 17490 17491 17492 17493 17494 17495 17496 17497 17498 17499 17500 17501 17502 17503 17504 17505 17506 17507 17508 17509 17510 17511 17512 17513 17514 17515 17516 17517 17518 17519 17520 17521 17522 17523 17524 17525 17526 17527 17528 17529 17530 17531 17532 17533 17534 17535 17536 17537 17538 17539 17540 17541 17542 17543 17544 17545 17546 17547 17548 17549 17550 17551 17552 17553 17554 17555 17556 17557 17558 17559 17560 17561 17562 17563 17564 17565 17566 17567 17568 17569 17570 17571 17572 17573 17574 17575 17576 17577 17578 17579 17580 17581 17582 17583 17584 17585 17586 17587 17588 17589 17590 17591 17592 17593 17594 17595 17596 17597 17598 17599 17600 17601 17602 17603 17604 17605 17606 17607 17608 17609 17610 17611 17612 17613 17614 17615 17616 17617 17618 17619 17620 17621 17622 17623 17624 17625 17626 17627 17628 17629 17630 17631 17632 17633 17634 17635 17636 17637 17638 17639 17640 17641 17642 17643 17644 17645 17646 17647 17648 17649 17650 17651 17652 17653 17654 17655 17656 17657 17658 17659 17660 17661 17662 17663 17664 17665 17666 17667 17668 17669 17670 17671 17672 17673 17674 17675 17676 17677 17678 17679 17680 17681 17682 17683 17684 17685 17686 17687 17688 17689 17690 17691 17692 17693 17694 17695 17696 17697 17698 17699 17700 17701 17702 17703 17704 17705 17706 17707 17708 17709 17710 17711 17712 17713 17714 17715 17716 17717 17718 17719 17720 17721 17722 17723 17724 17725 17726 17727 17728 17729 17730 17731 17732 17733 17734 17735 17736 17737 17738 17739 17740 17741 17742 17743 17744 17745 17746 17747 17748 17749 17750 17751 17752 17753 17754 17755 17756 17757 17758 17759 17760 17761 17762 17763 17764 17765 17766 17767 17768 17769 17770 17771 17772 17773 17774 17775 17776 17777 17778 17779 17780 17781 17782 17783 17784 17785 17786 17787 17788 17789 17790 17791 17792 17793 17794 17795 17796 17797 17798 17799 17800 17801 17802 17803 17804 17805 17806 17807 17808 17809 17810 17811 17812 17813 17814 17815 17816 17817 17818 17819 17820 17821 17822 17823 17824 17825 17826 17827 17828 17829 17830 17831 17832 17833 17834 17835 17836 17837 17838 17839 17840 17841 17842 17843 17844 17845 17846 17847 17848 17849 17850 17851 17852 17853 17854 17855 17856 17857 17858 17859 17860 17861 17862 17863 17864 17865 17866 17867 17868 17869 17870 17871 17872 17873 17874 17875 17876 17877 17878 17879 17880 17881 17882 17883 17884 17885 17886 17887 17888 17889 17890 17891 17892 17893 17894 17895 17896 17897 17898 17899 17900 17901 17902 17903 17904 17905 17906 17907 17908 17909 17910 17911 17912 17913 17914 17915 17916 17917 17918 17919 17920 17921 17922 17923 17924 17925 17926 17927 17928 17929 17930 17931 17932 17933 17934 17935 17936 17937 17938 17939 17940 17941 17942 17943 17944 17945 17946 17947 17948 17949 17950 17951 17952 17953 17954 17955 17956 17957 17958 17959 17960 17961 17962 17963 17964 17965 17966 17967 17968 17969 17970 17971 17972 17973 17974 17975 17976 17977 17978 17979 17980 17981 17982 17983 17984 17985 17986 17987 17988 17989 17990 17991 17992 17993 17994 17995 17996 17997 17998 17999 18000 18001 18002 18003 18004 18005 18006 18007 18008 18009 18010 18011 18012 18013 18014 18015 18016 18017 18018 18019 18020 18021 18022 18023 18024 18025 18026 18027 18028 18029 18030 18031 18032 18033 18034 18035 18036 18037 18038 18039 18040 18041 18042 18043 18044 18045 18046 18047 18048 18049 18050 18051 18052 18053 18054 18055 18056 18057 18058 18059 18060 18061 18062 18063 18064 18065 18066 18067 18068 18069 18070 18071 18072 18073 18074 18075 18076 18077 18078 18079 18080 18081 18082 18083 18084 18085 18086 18087 18088 18089 18090 18091 18092 18093 18094 18095 18096 18097 18098 18099 18100 18101 18102 18103 18104 18105 18106 18107 18108 18109 18110 18111 18112 18113 18114 18115 18116 18117 18118 18119 18120 18121 18122 18123 18124 18125 18126 18127 18128 18129 18130 18131 18132 18133 18134 18135 18136 18137 18138 18139 18140 18141 18142 18143 18144 18145 18146 18147 18148 18149 18150 18151 18152 18153 18154 18155 18156 18157 18158 18159 18160 18161 18162 18163 18164 18165 18166 18167 18168 18169 18170 18171 18172 18173 18174 18175 18176 18177 18178 18179 18180 18181 18182 18183 18184 18185 18186 18187 18188 18189 18190 18191 18192 18193 18194 18195 18196 18197 18198 18199 18200 18201 18202 18203 18204 18205 18206 18207 18208 18209 18210 18211 18212 18213 18214 18215 18216 18217 18218 18219 18220 18221 18222 18223 18224 18225 18226 18227 18228 18229 18230 18231 18232 18233 18234 18235 18236 18237 18238 18239 18240 18241 18242 18243 18244 18245 18246 18247 18248 18249 18250 18251 18252 18253 18254 18255 18256 18257 18258 18259 18260 18261 18262 18263 18264 18265 18266 18267 18268 18269 18270 18271 18272 18273 18274 18275 18276 18277 18278 18279 18280 18281 18282 18283 18284 18285 18286 18287 18288 18289 18290 18291 18292 18293 18294 18295 18296 18297 18298 18299 18300 18301 18302 18303 18304 18305 18306 18307 18308 18309 18310 18311 18312 18313 18314 18315 18316 18317 18318 18319 18320 18321 18322 18323 18324 18325 18326 18327 18328 18329 18330 18331 18332 18333 18334 18335 18336 18337 18338 18339 18340 18341 18342 18343 18344 18345 18346 18347 18348 18349 18350 18351 18352 18353 18354 18355 18356 18357 18358 18359 18360 18361 18362 18363 18364 18365 18366 18367 18368 18369 18370 18371 18372 18373 18374 18375 18376 18377 18378 18379 18380 18381 18382 18383 18384 18385 18386 18387 18388 18389 18390 18391 18392 18393 18394 18395 18396 18397 18398 18399 18400 18401 18402 18403 18404 18405 18406 18407 18408 18409 18410 18411 18412 18413 18414 18415 18416 18417 18418 18419 18420 18421 18422 18423 18424 18425 18426 18427 18428 18429 18430 18431 18432 18433 18434 18435 18436 18437 18438 18439 18440 18441 18442 18443 18444 18445 18446 18447 18448 18449 18450 18451 18452 18453 18454 18455 18456 18457 18458 18459 18460 18461 18462 18463 18464 18465 18466 18467 18468 18469 18470 18471 18472 18473 18474 18475 18476 18477 18478 18479 18480 18481 18482 18483 18484 18485 18486 18487 18488 18489 18490 18491 18492 18493 18494 18495 18496 18497 18498 18499 18500 18501 18502 18503 18504 18505 18506 18507 18508 18509 18510 18511 18512 18513 18514 18515 18516 18517 18518 18519 18520 18521 18522 18523 18524 18525 18526 18527 18528 18529 18530 18531 18532 18533 18534 18535 18536 18537 18538 18539 18540 18541 18542 18543 18544 18545 18546 18547 18548 18549 18550 18551 18552 18553 18554 18555 18556 18557 18558 18559 18560 18561 18562 18563 18564 18565 18566 18567 18568 18569 18570 18571 18572 18573 18574 18575 18576 18577 18578 18579 18580 18581 18582 18583 18584 18585 18586 18587 18588 18589 18590 18591 18592 18593 18594 18595 18596 18597 18598 18599 18600 18601 18602 18603 18604 18605 18606 18607 18608 18609 18610 18611 18612 18613 18614 18615 18616 18617 18618 18619 18620 18621 18622 18623 18624 18625 18626 18627 18628 18629 18630 18631 18632 18633 18634 18635 18636 18637 18638 18639 18640 18641 18642 18643 18644 18645 18646 18647 18648 18649 18650 18651 18652 18653 18654 18655 18656 18657 18658 18659 18660 18661 18662 18663 18664 18665 18666 18667 18668 18669 18670 18671 18672 18673 18674 18675 18676 18677 18678 18679 18680 18681 18682 18683 18684 18685 18686 18687 18688 18689 18690 18691 18692 18693 18694 18695 18696 18697 18698 18699 18700 18701 18702 18703 18704 18705 18706 18707 18708 18709 18710 18711 18712 18713 18714 18715 18716 18717 18718 18719 18720 18721 18722 18723 18724 18725 18726 18727 18728 18729 18730 18731 18732 18733 18734 18735 18736 18737 18738 18739 18740 18741 18742 18743 18744 18745 18746 18747 18748 18749 18750 18751 18752 18753 18754 18755 18756 18757 18758 18759 18760 18761 18762 18763 18764 18765 18766 18767 18768 18769 18770 18771 18772 18773 18774 18775 18776 18777 18778 18779 18780 18781 18782 18783 18784 18785 18786 18787 18788 18789 18790 18791 18792 18793 18794 18795 18796 18797 18798 18799 18800 18801 18802 18803 18804 18805 18806 18807 18808 18809 18810 18811 18812 18813 18814 18815 18816 18817 18818 18819 18820 18821 18822 18823 18824 18825 18826 18827 18828 18829 18830 18831 18832 18833 18834 18835 18836 18837 18838 18839 18840 18841 18842 18843 18844 18845 18846 18847 18848 18849 18850 18851 18852 18853 18854 18855 18856 18857 18858 18859 18860 18861 18862 18863 18864 18865 18866 18867 18868 18869 18870 18871 18872 18873 18874 18875 18876 18877 18878 18879 18880 18881 18882 18883 18884 18885 18886 18887 18888 18889 18890 18891 18892 18893 18894 18895 18896 18897 18898 18899 18900 18901 18902 18903 18904 18905 18906 18907 18908 18909 18910 18911 18912 18913 18914 18915 18916 18917 18918 18919 18920 18921 18922 18923 18924 18925 18926 18927 18928 18929 18930 18931 18932 18933 18934 18935 18936 18937 18938 18939 18940 18941 18942 18943 18944 18945 18946 18947 18948 18949 18950 18951 18952 18953 18954 18955 18956 18957 18958 18959 18960 18961 18962 18963 18964 18965 18966 18967 18968 18969 18970 18971 18972 18973 18974 18975 18976 18977 18978 18979 18980 18981 18982 18983 18984 18985 18986 18987 18988 18989 18990 18991 18992 18993 18994 18995 18996 18997 18998 18999 19000 19001 19002 19003 19004 19005 19006 19007 19008 19009 19010 19011 19012 19013 19014 19015 19016 19017 19018 19019 19020 19021 19022 19023 19024 19025 19026 19027 19028 19029 19030 19031 19032 19033 19034 19035 19036 19037 19038 19039 19040 19041 19042 19043 19044 19045 19046 19047 19048 19049 19050 19051 19052 19053 19054 19055 19056 19057 19058 19059 19060 19061 19062 19063 19064 19065 19066 19067 19068 19069 19070 19071 19072 19073 19074 19075 19076 19077 19078 19079 19080 19081 19082 19083 19084 19085 19086 19087 19088 19089 19090 19091 19092 19093 19094 19095 19096 19097 19098 19099 19100 19101 19102 19103 19104 19105 19106 19107 19108 19109 19110 19111 19112 19113 19114 19115 19116 19117 19118 19119 19120 19121 19122 19123 19124 19125 19126 19127 19128 19129 19130 19131 19132 19133 19134 19135 19136 19137 19138 19139 19140 19141 19142 19143 19144 19145 19146 19147 19148 19149 19150 19151 19152 19153 19154 19155 19156 19157 19158 19159 19160 19161 19162 19163 19164 19165 19166 19167 19168 19169 19170 19171 19172 19173 19174 19175 19176 19177 19178 19179 19180 19181 19182 19183 19184 19185 19186 19187 19188 19189 19190 19191 19192 19193 19194 19195 19196 19197 19198 19199 19200 19201 19202 19203 19204 19205 19206 19207 19208 19209 19210 19211 19212 19213 19214 19215 19216 19217 19218 19219 19220 19221 19222 19223 19224 19225 19226 19227 19228 19229 19230 19231 19232 19233 19234 19235 19236 19237 19238 19239 19240 19241 19242 19243 19244 19245 19246 19247 19248 19249 19250 19251 19252 19253 19254 19255 19256 19257 19258 19259 19260 19261 19262 19263 19264 19265 19266 19267 19268 19269 19270 19271 19272 19273 19274 19275 19276 19277 19278 19279 19280 19281 19282 19283 19284 19285 19286 19287 19288 19289 19290 19291 19292 19293 19294 19295 19296 19297 19298 19299 19300 19301 19302 19303 19304 19305 19306 19307 19308 19309 19310 19311 19312 19313 19314 19315 19316 19317 19318 19319 19320 19321 19322 19323 19324 19325 19326 19327 19328 19329 19330 19331 19332 19333 19334 19335 19336 19337 19338 19339 19340 19341 19342 19343 19344 19345 19346 19347 19348 19349 19350 19351 19352 19353 19354 19355 19356 19357 19358 19359 19360 19361 19362 19363 19364 19365 19366 19367 19368 19369 19370 19371 19372 19373 19374 19375 19376 19377 19378 19379 19380 19381 19382 19383 19384 19385 19386 19387 19388 19389 19390 19391 19392 19393 19394 19395 19396 19397 19398 19399 19400 19401 19402 19403 19404 19405 19406 19407 19408 19409 19410 19411 19412 19413 19414 19415 19416 19417 19418 19419 19420 19421 19422 19423 19424 19425 19426 19427 19428 19429 19430 19431 19432 19433 19434 19435 19436 19437 19438 19439 19440 19441 19442 19443 19444 19445 19446 19447 19448 19449 19450 19451 19452 19453 19454 19455 19456 19457 19458 19459 19460 19461 19462 19463 19464 19465 19466 19467 19468 19469 19470 19471 19472 19473 19474 19475 19476 19477 19478 19479 19480 19481 19482 19483 19484 19485 19486 19487 19488 19489 19490 19491 19492 19493 19494 19495 19496 19497 19498 19499 19500 19501 19502 19503 19504 19505 19506 19507 19508 19509 19510 19511 19512 19513 19514 19515 19516 19517 19518 19519 19520 19521 19522 19523 19524 19525 19526 19527 19528 19529 19530 19531 19532 19533 19534 19535 19536 19537 19538 19539 19540 19541 19542 19543 19544 19545 19546 19547 19548 19549 19550 19551 19552 19553 19554 19555 19556 19557 19558 19559 19560 19561 19562 19563 19564 19565 19566 19567 19568 19569 19570 19571 19572 19573 19574 19575 19576 19577 19578 19579 19580 19581 19582 19583 19584 19585 19586 19587 19588 19589 19590 19591 19592 19593 19594 19595 19596 19597 19598 19599 19600 19601 19602 19603 19604 19605 19606 19607 19608 19609 19610 19611 19612 19613 19614 19615 19616 19617 19618 19619 19620 19621 19622 19623 19624 19625 19626 19627 19628 19629 19630 19631 19632 19633 19634 19635 19636 19637 19638 19639 19640 19641 19642 19643 19644 19645 19646 19647 19648 19649 19650 19651 19652 19653 19654 19655 19656 19657 19658 19659 19660 19661 19662 19663 19664 19665 19666 19667 19668 19669 19670 19671 19672 19673 19674 19675 19676 19677 19678 19679 19680 19681 19682 19683 19684 19685 19686 19687 19688 19689 19690 19691 19692 19693 19694 19695 19696 19697 19698 19699 19700 19701 19702 19703 19704 19705 19706 19707 19708 19709 19710 19711 19712 19713 19714 19715 19716 19717 19718 19719 19720 19721 19722 19723 19724 19725 19726 19727 19728 19729 19730 19731 19732 19733 19734 19735 19736 19737 19738 19739 19740 19741 19742 19743 19744 19745 19746 19747 19748 19749 19750 19751 19752 19753 19754 19755 19756 19757 19758 19759 19760 19761 19762 19763 19764 19765 19766 19767 19768 19769 19770 19771 19772 19773 19774 19775 19776 19777 19778 19779 19780 19781 19782 19783 19784 19785 19786 19787 19788 19789 19790 19791 19792 19793 19794 19795 19796 19797 19798 19799 19800 19801 19802 19803 19804 19805 19806 19807 19808 19809 19810 19811 19812 19813 19814 19815 19816 19817 19818 19819 19820 19821 19822 19823 19824 19825 19826 19827 19828 19829 19830 19831 19832 19833 19834 19835 19836 19837 19838 19839 19840 19841 19842 19843 19844 19845 19846 19847 19848 19849 19850 19851 19852 19853 19854 19855 19856 19857 19858 19859 19860 19861 19862 19863 19864 19865 19866 19867 19868 19869 19870 19871 19872 19873 19874 19875 19876 19877 19878 19879 19880 19881 19882 19883 19884 19885 19886 19887 19888 19889 19890 19891 19892 19893 19894 19895 19896 19897 19898 19899 19900 19901 19902 19903 19904 19905 19906 19907 19908 19909 19910 19911 19912 19913 19914 19915 19916 19917 19918 19919 19920 19921 19922 19923 19924 19925 19926 19927 19928 19929 19930 19931 19932 19933 19934 19935 19936 19937 19938 19939 19940 19941 19942 19943 19944 19945 19946 19947 19948 19949 19950 19951 19952 19953 19954 19955 19956 19957 19958 19959 19960 19961 19962 19963 19964 19965 19966 19967 19968 19969 19970 19971 19972 19973 19974 19975 19976 19977 19978 19979 19980 19981 19982 19983 19984 19985 19986 19987 19988 19989 19990 19991 19992 19993 19994 19995 19996 19997 19998 19999 20000 20001 20002 20003 20004 20005 20006 20007 20008 20009 20010 20011 20012 20013 20014 20015 20016 20017 20018 20019 20020 20021 20022 20023 20024 20025 20026 20027 20028 20029 20030 20031 20032 20033 20034 20035 20036 20037 20038 20039 20040 20041 20042 20043 20044 20045 20046 20047 20048 20049 20050 20051 20052 20053 20054 20055 20056 20057 20058 20059 20060 20061 20062 20063 20064 20065 20066 20067 20068 20069 20070 20071 20072 20073 20074 20075 20076 20077 20078 20079 20080 20081 20082 20083 20084 20085 20086 20087 20088 20089 20090 20091 20092 20093 20094 20095 20096 20097 20098 20099 20100 20101 20102 20103 20104 20105 20106 20107 20108 20109 20110 20111 20112 20113 20114 20115 20116 20117 20118 20119 20120 20121 20122 20123 20124 20125 20126 20127 20128 20129 20130 20131 20132 20133 20134 20135 20136 20137 20138 20139 20140 20141 20142 20143 20144 20145 20146 20147 20148 20149 20150 20151 20152 20153 20154 20155 20156 20157 20158 20159 20160 20161 20162 20163 20164 20165 20166 20167 20168 20169 20170 20171 20172 20173 20174 20175 20176 20177 20178 20179 20180 20181 20182 20183 20184 20185 20186 20187 20188 20189 20190 20191 20192 20193 20194 20195 20196 20197 20198 20199 20200 20201 20202 20203 20204 20205 20206 20207 20208 20209 20210 20211 20212 20213 20214 20215 20216 20217 20218 20219 20220 20221 20222 20223 20224 20225 20226 20227 20228 20229 20230 20231 20232 20233 20234 20235 20236 20237 20238 20239 20240 20241 20242 20243 20244 20245 20246 20247 20248 20249 20250 20251 20252 20253 20254 20255 20256 20257 20258 20259 20260 20261 20262 20263 20264 20265 20266 20267 20268 20269 20270 20271 20272 20273 20274 20275 20276 20277 20278 20279 20280 20281 20282 20283 20284 20285 20286 20287 20288 20289 20290 20291 20292 20293 20294 20295 20296 20297 20298 20299 20300 20301 20302 20303 20304 20305 20306 20307 20308 20309 20310 20311 20312 20313 20314 20315 20316 20317 20318 20319 20320 20321 20322 20323 20324 20325 20326 20327 20328 20329 20330 20331 20332 20333 20334 20335 20336 20337 20338 20339 20340 20341 20342 20343 20344 20345 20346 20347 20348 20349 20350 20351 20352 20353 20354 20355 20356 20357 20358 20359 20360 20361 20362 20363 20364 20365 20366 20367 20368 20369 20370 20371 20372 20373 20374 20375 20376 20377 20378 20379 20380 20381 20382 20383 20384 20385 20386 20387 20388 20389 20390 20391 20392 20393 20394 20395 20396 20397 20398 20399 20400 20401 20402 20403 20404 20405 20406 20407 20408 20409 20410 20411 20412 20413 20414 20415 20416 20417 20418 20419 20420 20421 20422 20423 20424 20425 20426 20427 20428 20429 20430 20431 20432 20433 20434 20435 20436 20437 20438 20439 20440 20441 20442 20443 20444 20445 20446 20447 20448 20449 20450 20451 20452 20453 20454 20455 20456 20457 20458 20459 20460 20461 20462 20463 20464 20465 20466 20467 20468 20469 20470 20471 20472 20473 20474 20475 20476 20477 20478 20479 20480 20481 20482 20483 20484 20485 20486 20487 20488 20489 20490 20491 20492 20493 20494 20495 20496 20497 20498 20499 20500 20501 20502 20503 20504 20505 20506 20507 20508 20509 20510 20511 20512 20513 20514 20515 20516 20517 20518 20519 20520 20521 20522 20523 20524 20525 20526 20527 20528 20529 20530 20531 20532 20533 20534 20535 20536 20537 20538 20539 20540 20541 20542 20543 20544 20545 20546 20547 20548 20549 20550 20551 20552 20553 20554 20555 20556 20557 20558 20559 20560 20561 20562 20563 20564 20565 20566 20567 20568 20569 20570 20571 20572 20573 20574 20575 20576 20577 20578 20579 20580 20581 20582 20583 20584 20585 20586 20587 20588 20589 20590 20591 20592 20593 20594 20595 20596 20597 20598 20599 20600 20601 20602 20603 20604 20605 20606 20607 20608 20609 20610 20611 20612 20613 20614 20615 20616 20617 20618 20619 20620 20621 20622 20623 20624 20625 20626 20627 20628 20629 20630 20631 20632 20633 20634 20635 20636 20637 20638 20639 20640 20641 20642 20643 20644 20645 20646 20647 20648 20649 20650 20651 20652 20653 20654 20655 20656 20657 20658 20659 20660 20661 20662 20663 20664 20665 20666 20667 20668 20669 20670 20671 20672 20673 20674 20675 20676 20677 20678 20679 20680 20681 20682 20683 20684 20685 20686 20687 20688 20689 20690 20691 20692 20693 20694 20695 20696 20697 20698 20699 20700 20701 20702 20703 20704 20705 20706 20707 20708 20709 20710 20711 20712 20713 20714 20715 20716 20717 20718 20719 20720 20721 20722 20723 20724 20725 20726 20727 20728 20729 20730 20731 20732 20733 20734 20735 20736 20737 20738 20739 20740 20741 20742 20743 20744 20745 20746 20747 20748 20749 20750 20751 20752 20753 20754 20755 20756 20757 20758 20759 20760 20761 20762 20763 20764 20765 20766 20767 20768 20769 20770 20771 20772 20773 20774 20775 20776 20777 20778 20779 20780 20781 20782 20783 20784 20785 20786 20787 20788 20789 20790 20791 20792 20793 20794 20795 20796 20797 20798 20799 20800 20801 20802 20803 20804 20805 20806 20807 20808 20809 20810 20811 20812 20813 20814 20815 20816 20817 20818 20819 20820 20821 20822 20823 20824 20825 20826 20827 20828 20829 20830 20831 20832 20833 20834 20835 20836 20837 20838 20839 20840 20841 20842 20843 20844 20845 20846 20847 20848 20849 20850 20851 20852 20853 20854 20855 20856 20857 20858 20859 20860 20861 20862 20863 20864 20865 20866 20867 20868 20869 20870 20871 20872 20873 20874 20875 20876 20877 20878 20879 20880 20881 20882 20883 20884 20885 20886 20887 20888 20889 20890 20891 20892 20893 20894 20895 20896 20897 20898 20899 20900 20901 20902 20903 20904 20905 20906 20907 20908 20909 20910 20911 20912 20913 20914 20915 20916 20917 20918 20919 20920 20921 20922 20923 20924 20925 20926 20927 20928 20929 20930 20931 20932 20933 20934 20935 20936 20937 20938 20939 20940 20941 20942 20943 20944 20945 20946 20947 20948 20949 20950 20951 20952 20953 20954 20955 20956 20957 20958 20959 20960 20961 20962 20963 20964 20965 20966 20967 20968 20969 20970 20971 20972 20973 20974 20975 20976 20977 20978 20979 20980 20981 20982 20983 20984 20985 20986 20987 20988 20989 20990 20991 20992 20993 20994 20995 20996 20997 20998 20999 21000 21001 21002 21003 21004 21005 21006 21007 21008 21009 21010 21011 21012 21013 21014 21015 21016 21017 21018 21019 21020 21021 21022 21023 21024 21025 21026 21027 21028 21029 21030 21031 21032 21033 21034 21035 21036 21037 21038 21039 21040 21041 21042 21043 21044 21045 21046 21047 21048 21049 21050 21051 21052 21053 21054 21055 21056 21057 21058 21059 21060 21061 21062 21063 21064 21065 21066 21067 21068 21069 21070 21071 21072 21073 21074 21075 21076 21077 21078 21079 21080 21081 21082 21083 21084 21085 21086 21087 21088 21089 21090 21091 21092 21093 21094 21095 21096 21097 21098 21099 21100 21101 21102 21103 21104 21105 21106 21107 21108 21109 21110 21111 21112 21113 21114 21115 21116 21117 21118 21119 21120 21121 21122 21123 21124 21125 21126 21127 21128 21129 21130 21131 21132 21133 21134 21135 21136 21137 21138 21139 21140 21141 21142 21143 21144 21145 21146 21147 21148 21149 21150 21151 21152 21153 21154 21155 21156 21157 21158 21159 21160 21161 21162 21163 21164 21165 21166 21167 21168 21169 21170 21171 21172 21173 21174 21175 21176 21177 21178 21179 21180 21181 21182 21183 21184 21185 21186 21187 21188 21189 21190 21191 21192 21193 21194 21195 21196 21197 21198 21199 21200 21201 21202 21203 21204 21205 21206 21207 21208 21209 21210 21211 21212 21213 21214 21215 21216 21217 21218 21219 21220 21221 21222 21223 21224 21225 21226 21227 21228 21229 21230 21231 21232 21233 21234 21235 21236 21237 21238 21239 21240 21241 21242 21243 21244 21245 21246 21247 21248 21249 21250 21251 21252 21253 21254 21255 21256 21257 21258 21259 21260 21261 21262 21263 21264 21265 21266 21267 21268 21269 21270 21271 21272 21273 21274 21275 21276 21277 21278 21279 21280 21281 21282 21283 21284 21285 21286 21287 21288 21289 21290 21291 21292 21293 21294 21295 21296 21297 21298 21299 21300 21301 21302 21303 21304 21305 21306 21307 21308 21309 21310 21311 21312 21313 21314 21315 21316 21317 21318 21319 21320 21321 21322 21323 21324 21325 21326 21327 21328 21329 21330 21331 21332 21333 21334 21335 21336 21337 21338 21339 21340 21341 21342 21343 21344 21345 21346 21347 21348 21349 21350 21351 21352 21353 21354 21355 21356 21357 21358 21359 21360 21361 21362 21363 21364 21365 21366 21367 21368 21369 21370 21371 21372 21373 21374 21375 21376 21377 21378 21379 21380 21381 21382 21383 21384 21385 21386 21387 21388 21389 21390 21391 21392 21393 21394 21395 21396 21397 21398 21399 21400 21401 21402 21403 21404 21405 21406 21407 21408 21409 21410 21411 21412 21413 21414 21415 21416 21417 21418 21419 21420 21421 21422 21423 21424 21425 21426 21427 21428 21429 21430 21431 21432 21433 21434 21435 21436 21437 21438 21439 21440 21441 21442 21443 21444 21445 21446 21447 21448 21449 21450 21451 21452 21453 21454 21455 21456 21457 21458 21459 21460 21461 21462 21463 21464 21465 21466 21467 21468 21469 21470 21471 21472 21473 21474 21475 21476 21477 21478 21479 21480 21481 21482 21483 21484 21485 21486 21487 21488 21489 21490 21491 21492 21493 21494 21495 21496 21497 21498 21499 21500 21501 21502 21503 21504 21505 21506 21507 21508 21509 21510 21511 21512 21513 21514 21515 21516 21517 21518 21519 21520 21521 21522 21523 21524 21525 21526 21527 21528 21529 21530 21531 21532 21533 21534 21535 21536 21537 21538 21539 21540 21541 21542 21543 21544 21545 21546 21547 21548 21549 21550 21551 21552 21553 21554 21555 21556 21557 21558 21559 21560 21561 21562 21563 21564 21565 21566 21567 21568 21569 21570 21571 21572 21573 21574 21575 21576 21577 21578 21579 21580 21581 21582 21583 21584 21585 21586 21587 21588 21589 21590 21591 21592 21593 21594 21595 21596 21597 21598 21599 21600 21601 21602 21603 21604 21605 21606 21607 21608 21609 21610 21611 21612 21613 21614 21615 21616 21617 21618 21619 21620 21621 21622 21623 21624 21625 21626 21627 21628 21629 21630 21631 21632 21633 21634 21635 21636 21637 21638 21639 21640 21641 21642 21643 21644 21645 21646 21647 21648 21649 21650 21651 21652 21653 21654 21655 21656 21657 21658 21659 21660 21661 21662 21663 21664 21665 21666 21667 21668 21669 21670 21671 21672 21673 21674 21675 21676 21677 21678 21679 21680 21681 21682 21683 21684 21685 21686 21687 21688 21689 21690 21691 21692 21693 21694 21695 21696 21697 21698 21699 21700 21701 21702 21703 21704 21705 21706 21707 21708 21709 21710 21711 21712 21713 21714 21715 21716 21717 21718 21719 21720 21721 21722 21723 21724 21725 21726 21727 21728 21729 21730 21731 21732 21733 21734 21735 21736 21737 21738 21739 21740 21741 21742 21743 21744 21745 21746 21747 21748 21749 21750 21751 21752 21753 21754 21755 21756 21757 21758 21759 21760 21761 21762 21763 21764 21765 21766 21767 21768 21769 21770 21771 21772 21773 21774 21775 21776 21777 21778 21779 21780 21781 21782 21783 21784 21785 21786 21787 21788 21789 21790 21791 21792 21793 21794 21795 21796 21797 21798 21799 21800 21801 21802 21803 21804 21805 21806 21807 21808 21809 21810 21811 21812 21813 21814 21815 21816 21817 21818 21819 21820 21821 21822 21823 21824 21825 21826 21827 21828 21829 21830 21831 21832 21833 21834 21835 21836 21837 21838 21839 21840 21841 21842 21843 21844 21845 21846 21847 21848 21849 21850 21851 21852 21853 21854 21855 21856 21857 21858 21859 21860 21861 21862 21863 21864 21865 21866 21867 21868 21869 21870 21871 21872 21873 21874 21875 21876 21877 21878 21879 21880 21881 21882 21883 21884 21885 21886 21887 21888 21889 21890 21891 21892 21893 21894 21895 21896 21897 21898 21899 21900 21901 21902 21903 21904 21905 21906 21907 21908 21909 21910 21911 21912 21913 21914 21915 21916 21917 21918 21919 21920 21921 21922 21923 21924 21925 21926 21927 21928 21929 21930 21931 21932 21933 21934 21935 21936 21937 21938 21939 21940 21941 21942 21943 21944 21945 21946 21947 21948 21949 21950 21951 21952 21953 21954 21955 21956 21957 21958 21959 21960 21961 21962 21963 21964 21965 21966 21967 21968 21969 21970 21971 21972 21973 21974 21975 21976 21977 21978 21979 21980 21981 21982 21983 21984 21985 21986 21987 21988 21989 21990 21991 21992 21993 21994 21995 21996 21997 21998 21999 22000 22001 22002 22003 22004 22005 22006 22007 22008 22009 22010 22011 22012 22013 22014 22015 22016 22017 22018 22019 22020 22021 22022 22023 22024 22025 22026 22027 22028 22029 22030 22031 22032 22033 22034 22035 22036 22037 22038 22039 22040 22041 22042 22043 22044 22045 22046 22047 22048 22049 22050 22051 22052 22053 22054 22055 22056 22057 22058 22059 22060 22061 22062 22063 22064 22065 22066 22067 22068 22069 22070 22071 22072 22073 22074 22075 22076 22077 22078 22079 22080 22081 22082 22083 22084 22085 22086 22087 22088 22089 22090 22091 22092 22093 22094 22095 22096 22097 22098 22099 22100 22101 22102 22103 22104 22105 22106 22107 22108 22109 22110 22111 22112 22113 22114 22115 22116 22117 22118 22119 22120 22121 22122 22123 22124 22125 22126 22127 22128 22129 22130 22131 22132 22133 22134 22135 22136 22137 22138 22139 22140 22141 22142 22143 22144 22145 22146 22147 22148 22149 22150 22151 22152 22153 22154 22155 22156 22157 22158 22159 22160 22161 22162 22163 22164 22165 22166 22167 22168 22169 22170 22171 22172 22173 22174 22175 22176 22177 22178 22179 22180 22181 22182 22183 22184 22185 22186 22187 22188 22189 22190 22191 22192 22193 22194 22195 22196 22197 22198 22199 22200 22201 22202 22203 22204 22205 22206 22207 22208 22209 22210 22211 22212 22213 22214 22215 22216 22217 22218 22219 22220 22221 22222 22223 22224 22225 22226 22227 22228 22229 22230 22231 22232 22233 22234 22235 22236 22237 22238 22239 22240 22241 22242 22243 22244 22245 22246 22247 22248 22249 22250 22251 22252 22253 22254 22255 22256 22257 22258 22259 22260 22261 22262 22263 22264 22265 22266 22267 22268 22269 22270 22271 22272 22273 22274 22275 22276 22277 22278 22279 22280 22281 22282 22283 22284 22285 22286 22287 22288 22289 22290 22291 22292 22293 22294 22295 22296 22297 22298 22299 22300 22301 22302 22303 22304 22305 22306 22307 22308 22309 22310 22311 22312 22313 22314 22315 22316 22317 22318 22319 22320 22321 22322 22323 22324 22325 22326 22327 22328 22329 22330 22331 22332 22333 22334 22335 22336 22337 22338 22339 22340 22341 22342 22343 22344 22345 22346 22347 22348 22349 22350 22351 22352 22353 22354 22355 22356 22357 22358 22359 22360 22361 22362 22363 22364 22365 22366 22367 22368 22369 22370 22371 22372 22373 22374 22375 22376 22377 22378 22379 22380 22381 22382 22383 22384 22385 22386 22387 22388 22389 22390 22391 22392 22393 22394 22395 22396 22397 22398 22399 22400 22401 22402 22403 22404 22405 22406 22407 22408 22409 22410 22411 22412 22413 22414 22415 22416 22417 22418 22419 22420 22421 22422 22423 22424 22425 22426 22427 22428 22429 22430 22431 22432 22433 22434 22435 22436 22437 22438 22439 22440 22441 22442 22443 22444 22445 22446 22447 22448 22449 22450 22451 22452 22453 22454 22455 22456 22457 22458 22459 22460 22461 22462 22463 22464 22465 22466 22467 22468 22469 22470 22471 22472 22473 22474 22475 22476 22477 22478 22479 22480 22481 22482 22483 22484 22485 22486 22487 22488 22489 22490 22491 22492 22493 22494 22495 22496 22497 22498 22499 22500 22501 22502 22503 22504 22505 22506 22507 22508 22509 22510 22511 22512 22513 22514 22515 22516 22517 22518 22519 22520 22521 22522 22523 22524 22525 22526 22527 22528 22529 22530 22531 22532 22533 22534 22535 22536 22537 22538 22539 22540 22541 22542 22543 22544 22545 22546 22547 22548 22549 22550 22551 22552 22553 22554 22555 22556 22557 22558 22559 22560 22561 22562 22563 22564 22565 22566 22567 22568 22569 22570 22571 22572 22573 22574 22575 22576 22577 22578 22579 22580 22581 22582 22583 22584 22585 22586 22587 22588 22589 22590 22591 22592 22593 22594 22595 22596 22597 22598 22599 22600 22601 22602 22603 22604 22605 22606 22607 22608 22609 22610 22611 22612 22613 22614 22615 22616 22617 22618 22619 22620 22621 22622 22623 22624 22625 22626 22627 22628 22629 22630 22631 22632 22633 22634 22635 22636 22637 22638 22639 22640 22641 22642 22643 22644 22645 22646 22647 22648 22649 22650 22651 22652 22653 22654 22655 22656 22657 22658 22659 22660 22661 22662 22663 22664 22665 22666 22667 22668 22669 22670 22671 22672 22673 22674 22675 22676 22677 22678 22679 22680 22681 22682 22683 22684 22685 22686 22687 22688 22689 22690 22691 22692 22693 22694 22695 22696 22697 22698 22699 22700 22701 22702 22703 22704 22705 22706 22707 22708 22709 22710 22711 22712 22713 22714 22715 22716 22717 22718 22719 22720 22721 22722 22723 22724 22725 22726 22727 22728 22729 22730 22731 22732 22733 22734 22735 22736 22737 22738 22739 22740 22741 22742 22743 22744 22745 22746 22747 22748 22749 22750 22751 22752 22753 22754 22755 22756 22757 22758 22759 22760 22761 22762 22763 22764 22765 22766 22767 22768 22769 22770 22771 22772 22773 22774 22775 22776 22777 22778 22779 22780 22781 22782 22783 22784 22785 22786 22787 22788 22789 22790 22791 22792 22793 22794 22795 22796 22797 22798 22799 22800 22801 22802 22803 22804 22805 22806 22807 22808 22809 22810 22811 22812 22813 22814 22815 22816 22817 22818 22819 22820 22821 22822 22823 22824 22825 22826 22827 22828 22829 22830 22831 22832 22833 22834 22835 22836 22837 22838 22839 22840 22841 22842 22843 22844 22845 22846 22847 22848 22849 22850 22851 22852 22853 22854 22855 22856 22857 22858 22859 22860 22861 22862 22863 22864 22865 22866 22867 22868 22869 22870 22871 22872 22873 22874 22875 22876 22877 22878 22879 22880 22881 22882 22883 22884 22885 22886 22887 22888 22889 22890 22891 22892 22893 22894 22895 22896 22897 22898 22899 22900 22901 22902 22903 22904 22905 22906 22907 22908 22909 22910 22911 22912 22913 22914 22915 22916 22917 22918 22919 22920 22921 22922 22923 22924 22925 22926 22927 22928 22929 22930 22931 22932 22933 22934 22935 22936 22937 22938 22939 22940 22941 22942 22943 22944 22945 22946 22947 22948 22949 22950 22951 22952 22953 22954 22955 22956 22957 22958 22959 22960 22961 22962 22963 22964 22965 22966 22967 22968 22969 22970 22971 22972 22973 22974 22975 22976 22977 22978 22979 22980 22981 22982 22983 22984 22985 22986 22987 22988 22989 22990 22991 22992 22993 22994 22995 22996 22997 22998 22999 23000 23001 23002 23003 23004 23005 23006 23007 23008 23009 23010 23011 23012 23013 23014 23015 23016 23017 23018 23019 23020 23021 23022 23023 23024 23025 23026 23027 23028 23029 23030 23031 23032 23033 23034 23035 23036 23037 23038 23039 23040 23041 23042 23043 23044 23045 23046 23047 23048 23049 23050 23051 23052 23053 23054 23055 23056 23057 23058 23059 23060 23061 23062 23063 23064 23065 23066 23067 23068 23069 23070 23071 23072 23073 23074 23075 23076 23077 23078 23079 23080 23081 23082 23083 23084 23085 23086 23087 23088 23089 23090 23091 23092 23093 23094 23095 23096 23097 23098 23099 23100 23101 23102 23103 23104 23105 23106 23107 23108 23109 23110 23111 23112 23113 23114 23115 23116 23117 23118 23119 23120 23121 23122 23123 23124 23125 23126 23127 23128 23129 23130 23131 23132 23133 23134 23135 23136 23137 23138 23139 23140 23141 23142 23143 23144 23145 23146 23147 23148 23149 23150 23151 23152 23153 23154 23155 23156 23157 23158 23159 23160 23161 23162 23163 23164 23165 23166 23167 23168 23169 23170 23171 23172 23173 23174 23175 23176 23177 23178 23179 23180 23181 23182 23183 23184 23185 23186 23187 23188 23189 23190 23191 23192 23193 23194 23195 23196 23197 23198 23199 23200 23201 23202 23203 23204 23205 23206 23207 23208 23209 23210 23211 23212 23213 23214 23215 23216 23217 23218 23219 23220 23221 23222 23223 23224 23225 23226 23227 23228 23229 23230 23231 23232 23233 23234 23235 23236 23237 23238 23239 23240 23241 23242 23243 23244 23245 23246 23247 23248 23249 23250 23251 23252 23253 23254 23255 23256 23257 23258 23259 23260 23261 23262 23263 23264 23265 23266 23267 23268 23269 23270 23271 23272 23273 23274 23275 23276 23277 23278 23279 23280 23281 23282 23283 23284 23285 23286 23287 23288 23289 23290 23291 23292 23293 23294 23295 23296 23297 23298 23299 23300 23301 23302 23303 23304 23305 23306 23307 23308 23309 23310 23311 23312 23313 23314 23315 23316 23317 23318 23319 23320 23321 23322 23323 23324 23325 23326 23327 23328 23329 23330 23331 23332 23333 23334 23335 23336 23337 23338 23339 23340 23341 23342 23343 23344 23345 23346 23347 23348 23349 23350 23351 23352 23353 23354 23355 23356 23357 23358 23359 23360 23361 23362 23363 23364 23365 23366 23367 23368 23369 23370 23371 23372 23373 23374 23375 23376 23377 23378 23379 23380 23381 23382 23383 23384 23385 23386 23387 23388 23389 23390 23391 23392 23393 23394 23395 23396 23397 23398 23399 23400 23401 23402 23403 23404 23405 23406 23407 23408 23409 23410 23411 23412 23413 23414 23415 23416 23417 23418 23419 23420 23421 23422 23423 23424 23425 23426 23427 23428 23429 23430 23431 23432 23433 23434 23435 23436 23437 23438 23439 23440 23441 23442 23443 23444 23445 23446 23447 23448 23449 23450 23451 23452 23453 23454 23455 23456 23457 23458 23459 23460 23461 23462 23463 23464 23465 23466 23467 23468 23469 23470 23471 23472 23473 23474 23475 23476 23477 23478 23479 23480 23481 23482 23483 23484 23485 23486 23487 23488 23489 23490 23491 23492 23493 23494 23495 23496 23497 23498 23499 23500 23501 23502 23503 23504 23505 23506 23507 23508 23509 23510 23511 23512 23513 23514 23515 23516 23517 23518 23519 23520 23521 23522 23523 23524 23525 23526 23527 23528 23529 23530 23531 23532 23533 23534 23535 23536 23537 23538 23539 23540 23541 23542 23543 23544 23545 23546 23547 23548 23549 23550 23551 23552 23553 23554 23555 23556 23557 23558 23559 23560 23561 23562 23563 23564 23565 23566 23567 23568 23569 23570 23571 23572 23573 23574 23575 23576 23577 23578 23579 23580 23581 23582 23583 23584 23585 23586 23587 23588 23589 23590 23591 23592 23593 23594 23595 23596 23597 23598 23599 23600 23601 23602 23603 23604 23605 23606 23607 23608 23609 23610 23611 23612 23613 23614 23615 23616 23617 23618 23619 23620 23621 23622 23623 23624 23625 23626 23627 23628 23629 23630 23631 23632 23633 23634 23635 23636 23637 23638 23639 23640 23641 23642 23643 23644 23645 23646 23647 23648 23649 23650 23651 23652 23653 23654 23655 23656 23657 23658 23659 23660 23661 23662 23663 23664 23665 23666 23667 23668 23669 23670 23671 23672 23673 23674 23675 23676 23677 23678 23679 23680 23681 23682 23683 23684 23685 23686 23687 23688 23689 23690 23691 23692 23693 23694 23695 23696 23697 23698 23699 23700 23701 23702 23703 23704 23705 23706 23707 23708 23709 23710 23711 23712 23713 23714 23715 23716 23717 23718 23719 23720 23721 23722 23723 23724 23725 23726 23727 23728 23729 23730 23731 23732 23733 23734 23735 23736 23737 23738 23739 23740 23741 23742 23743 23744 23745 23746 23747 23748 23749 23750 23751 23752 23753 23754 23755 23756 23757 23758 23759 23760 23761 23762 23763 23764 23765 23766 23767 23768 23769 23770 23771 23772 23773 23774 23775 23776 23777 23778 23779 23780 23781 23782 23783 23784 23785 23786 23787 23788 23789 23790 23791 23792 23793 23794 23795 23796 23797 23798 23799 23800 23801 23802 23803 23804 23805 23806 23807 23808 23809 23810 23811 23812 23813 23814 23815 23816 23817 23818 23819 23820 23821 23822 23823 23824 23825 23826 23827 23828 23829 23830 23831 23832 23833 23834 23835 23836 23837 23838 23839 23840 23841 23842 23843 23844 23845 23846 23847 23848 23849 23850 23851 23852 23853 23854 23855 23856 23857 23858 23859 23860 23861 23862 23863 23864 23865 23866 23867 23868 23869 23870 23871 23872 23873 23874 23875 23876 23877 23878 23879 23880 23881 23882 23883 23884 23885 23886 23887 23888 23889 23890 23891 23892 23893 23894 23895 23896 23897 23898 23899 23900 23901 23902 23903 23904 23905 23906 23907 23908 23909 23910 23911 23912 23913 23914 23915 23916 23917 23918 23919 23920 23921 23922 23923 23924 23925 23926 23927 23928 23929 23930 23931 23932 23933 23934 23935 23936 23937 23938 23939 23940 23941 23942 23943 23944 23945 23946 23947 23948 23949 23950 23951 23952 23953 23954 23955 23956 23957 23958 23959 23960 23961 23962 23963 23964 23965 23966 23967 23968 23969 23970 23971 23972 23973 23974 23975 23976 23977 23978 23979 23980 23981 23982 23983 23984 23985 23986 23987 23988 23989 23990 23991 23992 23993 23994 23995 23996 23997 23998 23999 24000 24001 24002 24003 24004 24005 24006 24007 24008 24009 24010 24011 24012 24013 24014 24015 24016 24017 24018 24019 24020 24021 24022 24023 24024 24025 24026 24027 24028 24029 24030 24031 24032 24033 24034 24035 24036 24037 24038 24039 24040 24041 24042 24043 24044 24045 24046 24047 24048 24049 24050 24051 24052 24053 24054 24055 24056 24057 24058 24059 24060 24061 24062 24063 24064 24065 24066 24067 24068 24069 24070 24071 24072 24073 24074 24075 24076 24077 24078 24079 24080 24081 24082 24083 24084 24085 24086 24087 24088 24089 24090 24091 24092 24093 24094 24095 24096 24097 24098 24099 24100 24101 24102 24103 24104 24105 24106 24107 24108 24109 24110 24111 24112 24113 24114 24115 24116 24117 24118 24119 24120 24121 24122 24123 24124 24125 24126 24127 24128 24129 24130 24131 24132 24133 24134 24135 24136 24137 24138 24139 24140 24141 24142 24143 24144 24145 24146 24147 24148 24149 24150 24151 24152 24153 24154 24155 24156 24157 24158 24159 24160 24161 24162 24163 24164 24165 24166 24167 24168 24169 24170 24171 24172 24173 24174 24175 24176 24177 24178 24179 24180 24181 24182 24183 24184 24185 24186 24187 24188 24189 24190 24191 24192 24193 24194 24195 24196 24197 24198 24199 24200 24201 24202 24203 24204 24205 24206 24207 24208 24209 24210 24211 24212 24213 24214 24215 24216 24217 24218 24219 24220 24221 24222 24223 24224 24225 24226 24227 24228 24229 24230 24231 24232 24233 24234 24235 24236 24237 24238 24239 24240 24241 24242 24243 24244 24245 24246 24247 24248 24249 24250 24251 24252 24253 24254 24255 24256 24257 24258 24259 24260 24261 24262 24263 24264 24265 24266 24267 24268 24269 24270 24271 24272 24273 24274 24275 24276 24277 24278 24279 24280 24281 24282 24283 24284 24285 24286 24287 24288 24289 24290 24291 24292 24293 24294 24295 24296 24297 24298 24299 24300 24301 24302 24303 24304 24305 24306 24307 24308 24309 24310 24311 24312 24313 24314 24315 24316 24317 24318 24319 24320 24321 24322 24323 24324 24325 24326 24327 24328 24329 24330 24331 24332 24333 24334 24335 24336 24337 24338 24339 24340 24341 24342 24343 24344 24345 24346 24347 24348 24349 24350 24351 24352 24353 24354 24355 24356 24357 24358 24359 24360 24361 24362 24363 24364 24365 24366 24367 24368 24369 24370 24371 24372 24373 24374 24375 24376 24377 24378 24379 24380 24381 24382 24383 24384 24385 24386 24387 24388 24389 24390 24391 24392 24393 24394 24395 24396 24397 24398 24399 24400 24401 24402 24403 24404 24405 24406 24407 24408 24409 24410 24411 24412 24413 24414 24415 24416 24417 24418 24419 24420 24421 24422 24423 24424 24425 24426 24427 24428 24429 24430 24431 24432 24433 24434 24435 24436 24437 24438 24439 24440 24441 24442 24443 24444 24445 24446 24447 24448 24449 24450 24451 24452 24453 24454 24455 24456 24457 24458 24459 24460 24461 24462 24463 24464 24465 24466 24467 24468 24469 24470 24471 24472 24473 24474 24475 24476 24477 24478 24479 24480 24481 24482 24483 24484 24485 24486 24487 24488 24489 24490 24491 24492 24493 24494 24495 24496 24497 24498 24499 24500 24501 24502 24503 24504 24505 24506 24507 24508 24509 24510 24511 24512 24513 24514 24515 24516 24517 24518 24519 24520 24521 24522 24523 24524 24525 24526 24527 24528 24529 24530 24531 24532 24533 24534 24535 24536 24537 24538 24539 24540 24541 24542 24543 24544 24545 24546 24547 24548 24549 24550 24551 24552 24553 24554 24555 24556 24557 24558 24559 24560 24561 24562 24563 24564 24565 24566 24567 24568 24569 24570 24571 24572 24573 24574 24575 24576 24577 24578 24579 24580 24581 24582 24583 24584 24585 24586 24587 24588 24589 24590 24591 24592 24593 24594 24595 24596 24597 24598 24599 24600 24601 24602 24603 24604 24605 24606 24607 24608 24609 24610 24611 24612 24613 24614 24615 24616 24617 24618 24619 24620 24621 24622 24623 24624 24625 24626 24627 24628 24629 24630 24631 24632 24633 24634 24635 24636 24637 24638 24639 24640 24641 24642 24643 24644 24645 24646 24647 24648 24649 24650 24651 24652 24653 24654 24655 24656 24657 24658 24659 24660 24661 24662 24663 24664 24665 24666 24667 24668 24669 24670 24671 24672 24673 24674 24675 24676 24677 24678 24679 24680 24681 24682 24683 24684 24685 24686 24687 24688 24689 24690 24691 24692 24693 24694 24695 24696 24697 24698 24699 24700 24701 24702 24703 24704 24705 24706 24707 24708 24709 24710 24711 24712 24713 24714 24715 24716 24717 24718 24719 24720 24721 24722 24723 24724 24725 24726 24727 24728 24729 24730 24731 24732 24733 24734 24735 24736 24737 24738 24739 24740 24741 24742 24743 24744 24745 24746 24747 24748 24749 24750 24751 24752 24753 24754 24755 24756 24757 24758 24759 24760 24761 24762 24763 24764 24765 24766 24767 24768 24769 24770 24771 24772 24773 24774 24775 24776 24777 24778 24779 24780 24781 24782 24783 24784 24785 24786 24787 24788 24789 24790 24791 24792 24793 24794 24795 24796 24797 24798 24799 24800 24801 24802 24803 24804 24805 24806 24807 24808 24809 24810 24811 24812 24813 24814 24815 24816 24817 24818 24819 24820 24821 24822 24823 24824 24825 24826 24827 24828 24829 24830 24831 24832 24833 24834 24835 24836 24837 24838 24839 24840 24841 24842 24843 24844 24845 24846 24847 24848 24849 24850 24851 24852 24853 24854 24855 24856 24857 24858 24859 24860 24861 24862 24863 24864 24865 24866 24867 24868 24869 24870 24871 24872 24873 24874 24875 24876 24877 24878 24879 24880 24881 24882 24883 24884 24885 24886 24887 24888 24889 24890 24891 24892 24893 24894 24895 24896 24897 24898 24899 24900 24901 24902 24903 24904 24905 24906 24907 24908 24909 24910 24911 24912 24913 24914 24915 24916 24917 24918 24919 24920 24921 24922 24923 24924 24925 24926 24927 24928 24929 24930 24931 24932 24933 24934 24935 24936 24937 24938 24939 24940 24941 24942 24943 24944 24945 24946 24947 24948 24949 24950 24951 24952 24953 24954 24955 24956 24957 24958 24959 24960 24961 24962 24963 24964 24965 24966 24967 24968 24969 24970 24971 24972 24973 24974 24975 24976 24977 24978 24979 24980 24981 24982 24983 24984 24985 24986 24987 24988 24989 24990 24991 24992 24993 24994 24995 24996 24997 24998 24999 25000 25001 25002 25003 25004 25005 25006 25007 25008 25009 25010 25011 25012 25013 25014 25015 25016 25017 25018 25019 25020 25021 25022 25023 25024 25025 25026 25027 25028 25029 25030 25031 25032 25033 25034 25035 25036 25037 25038 25039 25040 25041 25042 25043 25044 25045 25046 25047 25048 25049 25050 25051 25052 25053 25054 25055 25056 25057 25058 25059 25060 25061 25062 25063 25064 25065 25066 25067 25068 25069 25070 25071 25072 25073 25074 25075 25076 25077 25078 25079 25080 25081 25082 25083 25084 25085 25086 25087 25088 25089 25090 25091 25092 25093 25094 25095 25096 25097 25098 25099 25100 25101 25102 25103 25104 25105 25106 25107 25108 25109 25110 25111 25112 25113 25114 25115 25116 25117 25118 25119 25120 25121 25122 25123 25124 25125 25126 25127 25128 25129 25130 25131 25132 25133 25134 25135 25136 25137 25138 25139 25140 25141 25142 25143 25144 25145 25146 25147 25148 25149 25150 25151 25152 25153 25154 25155 25156 25157 25158 25159 25160 25161 25162 25163 25164 25165 25166 25167 25168 25169 25170 25171 25172 25173 25174 25175 25176 25177 25178 25179 25180 25181 25182 25183 25184 25185 25186 25187 25188 25189 25190 25191 25192 25193 25194 25195 25196 25197 25198 25199 25200 25201 25202 25203 25204 25205 25206 25207 25208 25209 25210 25211 25212 25213 25214 25215 25216 25217 25218 25219 25220 25221 25222 25223 25224 25225 25226 25227 25228 25229 25230 25231 25232 25233 25234 25235 25236 25237 25238 25239 25240 25241 25242 25243 25244 25245 25246 25247 25248 25249 25250 25251 25252 25253 25254 25255 25256 25257 25258 25259 25260 25261 25262 25263 25264 25265 25266 25267 25268 25269 25270 25271 25272 25273 25274 25275 25276 25277 25278 25279 25280 25281 25282 25283 25284 25285 25286 25287 25288 25289 25290 25291 25292 25293 25294 25295 25296 25297 25298 25299 25300 25301 25302 25303 25304 25305 25306 25307 25308 25309 25310 25311 25312 25313 25314 25315 25316 25317 25318 25319 25320 25321 25322 25323 25324 25325 25326 25327 25328 25329 25330 25331 25332 25333 25334 25335 25336 25337 25338 25339 25340 25341 25342 25343 25344 25345 25346 25347 25348 25349 25350 25351 25352 25353 25354 25355 25356 25357 25358 25359 25360 25361 25362 25363 25364 25365 25366 25367 25368 25369 25370 25371 25372 25373 25374 25375 25376 25377 25378 25379 25380 25381 25382 25383 25384 25385 25386 25387 25388 25389 25390 25391 25392 25393 25394 25395 25396 25397 25398 25399 25400 25401 25402 25403 25404 25405 25406 25407 25408 25409 25410 25411 25412 25413 25414 25415 25416 25417 25418 25419 25420 25421 25422 25423 25424 25425 25426 25427 25428 25429 25430 25431 25432 25433 25434 25435 25436 25437 25438 25439 25440 25441 25442 25443 25444 25445 25446 25447 25448 25449 25450 25451 25452 25453 25454 25455 25456 25457 25458 25459 25460 25461 25462 25463 25464 25465 25466 25467 25468 25469 25470 25471 25472 25473 25474 25475 25476 25477 25478 25479 25480 25481 25482 25483 25484 25485 25486 25487 25488 25489 25490 25491 25492 25493 25494 25495 25496 25497 25498 25499 25500 25501 25502 25503 25504 25505 25506 25507 25508 25509 25510 25511 25512 25513 25514 25515 25516 25517 25518 25519 25520 25521 25522 25523 25524 25525 25526 25527 25528 25529 25530 25531 25532 25533 25534 25535 25536 25537 25538 25539 25540 25541 25542 25543 25544 25545 25546 25547 25548 25549 25550 25551 25552 25553 25554 25555 25556 25557 25558 25559 25560 25561 25562 25563 25564 25565 25566 25567 25568 25569 25570 25571 25572 25573 25574 25575 25576 25577 25578 25579 25580 25581 25582 25583 25584 25585 25586 25587 25588 25589 25590 25591 25592 25593 25594 25595 25596 25597 25598 25599 25600 25601 25602 25603 25604 25605 25606 25607 25608 25609 25610 25611 25612 25613 25614 25615 25616 25617 25618 25619 25620 25621 25622 25623 25624 25625 25626 25627 25628 25629 25630 25631 25632 25633 25634 25635 25636 25637 25638 25639 25640 25641 25642 25643 25644 25645 25646 25647 25648 25649 25650 25651 25652 25653 25654 25655 25656 25657 25658 25659 25660 25661 25662 25663 25664 25665 25666 25667 25668 25669 25670 25671 25672 25673 25674 25675 25676 25677 25678 25679 25680 25681 25682 25683 25684 25685 25686 25687 25688 25689 25690 25691 25692 25693 25694 25695 25696 25697 25698 25699 25700 25701 25702 25703 25704 25705 25706 25707 25708 25709 25710 25711 25712 25713 25714 25715 25716 25717 25718 25719 25720 25721 25722 25723 25724 25725 25726 25727 25728 25729 25730 25731 25732 25733 25734 25735 25736 25737 25738 25739 25740 25741 25742 25743 25744 25745 25746 25747 25748 25749 25750 25751 25752 25753 25754 25755 25756 25757 25758 25759 25760 25761 25762 25763 25764 25765 25766 25767 25768 25769 25770 25771 25772 25773 25774 25775 25776 25777 25778 25779 25780 25781 25782 25783 25784 25785 25786 25787 25788 25789 25790 25791 25792 25793 25794 25795 25796 25797 25798 25799 25800 25801 25802 25803 25804 25805 25806 25807 25808 25809 25810 25811 25812 25813 25814 25815 25816 25817 25818 25819 25820 25821 25822 25823 25824 25825 25826 25827 25828 25829 25830 25831 25832 25833 25834 25835 25836 25837 25838 25839 25840 25841 25842 25843 25844 25845 25846 25847 25848 25849 25850 25851 25852 25853 25854 25855 25856 25857 25858 25859 25860 25861 25862 25863 25864 25865 25866 25867 25868 25869 25870 25871 25872 25873 25874 25875 25876 25877 25878 25879 25880 25881 25882 25883 25884 25885 25886 25887 25888 25889 25890 25891 25892 25893 25894 25895 25896 25897 25898 25899 25900 25901 25902 25903 25904 25905 25906 25907 25908 25909 25910 25911 25912 25913 25914 25915 25916 25917 25918 25919 25920 25921 25922 25923 25924 25925 25926 25927 25928 25929 25930 25931 25932 25933 25934 25935 25936 25937 25938 25939 25940 25941 25942 25943 25944 25945 25946 25947 25948 25949 25950 25951 25952 25953 25954 25955 25956 25957 25958 25959 25960 25961 25962 25963 25964 25965 25966 25967 25968 25969 25970 25971 25972 25973 25974 25975 25976 25977 25978 25979 25980 25981 25982 25983 25984 25985 25986 25987 25988 25989 25990 25991 25992 25993 25994 25995 25996 25997 25998 25999 26000 26001 26002 26003 26004 26005 26006 26007 26008 26009 26010 26011 26012 26013 26014 26015 26016 26017 26018 26019 26020 26021 26022 26023 26024 26025 26026 26027 26028 26029 26030 26031 26032 26033 26034 26035 26036 26037 26038 26039 26040 26041 26042 26043 26044 26045 26046 26047 26048 26049 26050 26051 26052 26053 26054 26055 26056 26057 26058 26059 26060 26061 26062 26063 26064 26065 26066 26067 26068 26069 26070 26071 26072 26073 26074 26075 26076 26077 26078 26079 26080 26081 26082 26083 26084 26085 26086 26087 26088 26089 26090 26091 26092 26093 26094 26095 26096 26097 26098 26099 26100 26101 26102 26103 26104 26105 26106 26107 26108 26109 26110 26111 26112 26113 26114 26115 26116 26117 26118 26119 26120 26121 26122 26123 26124 26125 26126 26127 26128 26129 26130 26131 26132 26133 26134 26135 26136 26137 26138 26139 26140 26141 26142 26143 26144 26145 26146 26147 26148 26149 26150 26151 26152 26153 26154 26155 26156 26157 26158 26159 26160 26161 26162 26163 26164 26165 26166 26167 26168 26169 26170 26171 26172 26173 26174 26175 26176 26177 26178 26179 26180 26181 26182 26183 26184 26185 26186 26187 26188 26189 26190 26191 26192 26193 26194 26195 26196 26197 26198 26199 26200 26201 26202 26203 26204 26205 26206 26207 26208 26209 26210 26211 26212 26213 26214 26215 26216 26217 26218 26219 26220 26221 26222 26223 26224 26225 26226 26227 26228 26229 26230 26231 26232 26233 26234 26235 26236 26237 26238 26239 26240 26241 26242 26243 26244 26245 26246 26247 26248 26249 26250 26251 26252 26253 26254 26255 26256 26257 26258 26259 26260 26261 26262 26263 26264 26265 26266 26267 26268 26269 26270 26271 26272 26273 26274 26275 26276 26277 26278 26279 26280 26281 26282 26283 26284 26285 26286 26287 26288 26289 26290 26291 26292 26293 26294 26295 26296 26297 26298 26299 26300 26301 26302 26303 26304 26305 26306 26307 26308 26309 26310 26311 26312 26313 26314 26315 26316 26317 26318 26319 26320 26321 26322 26323 26324 26325 26326 26327 26328 26329 26330 26331 26332 26333 26334 26335 26336 26337 26338 26339 26340 26341 26342 26343 26344 26345 26346 26347 26348 26349 26350 26351 26352 26353 26354 26355 26356 26357 26358 26359 26360 26361 26362 26363 26364 26365 26366 26367 26368 26369 26370 26371 26372 26373 26374 26375 26376 26377 26378 26379 26380 26381 26382 26383 26384 26385 26386 26387 26388 26389 26390 26391 26392 26393 26394 26395 26396 26397 26398 26399 26400 26401 26402 26403 26404 26405 26406 26407 26408 26409 26410 26411 26412 26413 26414 26415 26416 26417 26418 26419 26420 26421 26422 26423 26424 26425 26426 26427 26428 26429 26430 26431 26432 26433 26434 26435 26436 26437 26438 26439 26440 26441 26442 26443 26444 26445 26446 26447 26448 26449 26450 26451 26452 26453 26454 26455 26456 26457 26458 26459 26460 26461 26462 26463 26464 26465 26466 26467 26468 26469 26470 26471 26472 26473 26474 26475 26476 26477 26478 26479 26480 26481 26482 26483 26484 26485 26486 26487 26488 26489 26490 26491 26492 26493 26494 26495 26496 26497 26498 26499 26500 26501 26502 26503 26504 26505 26506 26507 26508 26509 26510 26511 26512 26513 26514 26515 26516 26517 26518 26519 26520 26521 26522 26523 26524 26525 26526 26527 26528 26529 26530 26531 26532 26533 26534 26535 26536 26537 26538 26539 26540 26541 26542 26543 26544 26545 26546 26547 26548 26549 26550 26551 26552 26553 26554 26555 26556 26557 26558 26559 26560 26561 26562 26563 26564 26565 26566 26567 26568 26569 26570 26571 26572 26573 26574 26575 26576 26577 26578 26579 26580 26581 26582 26583 26584 26585 26586 26587 26588 26589 26590 26591 26592 26593 26594 26595 26596 26597 26598 26599 26600 26601 26602 26603 26604 26605 26606 26607 26608 26609 26610 26611 26612 26613 26614 26615 26616 26617 26618 26619 26620 26621 26622 26623 26624 26625 26626 26627 26628 26629 26630 26631 26632 26633 26634 26635 26636 26637 26638 26639 26640 26641 26642 26643 26644 26645 26646 26647 26648 26649 26650 26651 26652 26653 26654 26655 26656 26657 26658 26659 26660 26661 26662 26663 26664 26665 26666 26667 26668 26669 26670 26671 26672 26673 26674 26675 26676 26677 26678 26679 26680 26681 26682 26683 26684 26685 26686 26687 26688 26689 26690 26691 26692 26693 26694 26695 26696 26697 26698 26699 26700 26701 26702 26703 26704 26705 26706 26707 26708 26709 26710 26711 26712 26713 26714 26715 26716 26717 26718 26719 26720 26721 26722 26723 26724 26725 26726 26727 26728 26729 26730 26731 26732 26733 26734 26735 26736 26737 26738 26739 26740 26741 26742 26743 26744 26745 26746 26747 26748 26749 26750 26751 26752 26753 26754 26755 26756 26757 26758 26759 26760 26761 26762 26763 26764 26765 26766 26767 26768 26769 26770 26771 26772 26773 26774 26775 26776 26777 26778 26779 26780 26781 26782 26783 26784 26785 26786 26787 26788 26789 26790 26791 26792 26793 26794 26795 26796 26797 26798 26799 26800 26801 26802 26803 26804 26805 26806 26807 26808 26809 26810 26811 26812 26813 26814 26815 26816 26817 26818 26819 26820 26821 26822 26823 26824 26825 26826 26827 26828 26829 26830 26831 26832 26833 26834 26835 26836 26837 26838 26839 26840 26841 26842 26843 26844 26845 26846 26847 26848 26849 26850 26851 26852 26853 26854 26855 26856 26857 26858 26859 26860 26861 26862 26863 26864 26865 26866 26867 26868 26869 26870 26871 26872 26873 26874 26875 26876 26877 26878 26879 26880 26881 26882 26883 26884 26885 26886 26887 26888 26889 26890 26891 26892 26893 26894 26895 26896 26897 26898 26899 26900 26901 26902 26903 26904 26905 26906 26907 26908 26909 26910 26911 26912 26913 26914 26915 26916 26917 26918 26919 26920 26921 26922 26923 26924 26925 26926 26927 26928 26929 26930 26931 26932 26933 26934 26935 26936 26937 26938 26939 26940 26941 26942 26943 26944 26945 26946 26947 26948 26949 26950 26951 26952 26953 26954 26955 26956 26957 26958 26959 26960 26961 26962 26963 26964 26965 26966 26967 26968 26969 26970 26971 26972 26973 26974 26975 26976 26977 26978 26979 26980 26981 26982 26983 26984 26985 26986 26987 26988 26989 26990 26991 26992 26993 26994 26995 26996 26997 26998 26999 27000 27001 27002 27003 27004 27005 27006 27007 27008 27009 27010 27011 27012 27013 27014 27015 27016 27017 27018 27019 27020 27021 27022 27023 27024 27025 27026 27027 27028 27029 27030 27031 27032 27033 27034 27035 27036 27037 27038 27039 27040 27041 27042 27043 27044 27045 27046 27047 27048 27049 27050 27051 27052 27053 27054 27055 27056 27057 27058 27059 27060 27061 27062 27063 27064 27065 27066 27067 27068 27069 27070 27071 27072 27073 27074 27075 27076 27077 27078 27079 27080 27081 27082 27083 27084 27085 27086 27087 27088 27089 27090 27091 27092 27093 27094 27095 27096 27097 27098 27099 27100 27101 27102 27103 27104 27105 27106 27107 27108 27109 27110 27111 27112 27113 27114 27115 27116 27117 27118 27119 27120 27121 27122 27123 27124 27125 27126 27127 27128 27129 27130 27131 27132 27133 27134 27135 27136 27137 27138 27139 27140 27141 27142 27143 27144 27145 27146 27147 27148 27149 27150 27151 27152 27153 27154 27155 27156 27157 27158 27159 27160 27161 27162 27163 27164 27165 27166 27167 27168 27169 27170 27171 27172 27173 27174 27175 27176 27177 27178 27179 27180 27181 27182 27183 27184 27185 27186 27187 27188 27189 27190 27191 27192 27193 27194 27195 27196 27197 27198 27199 27200 27201 27202 27203 27204 27205 27206 27207 27208 27209 27210 27211 27212 27213 27214 27215 27216 27217 27218 27219 27220 27221 27222 27223 27224 27225 27226 27227 27228 27229 27230 27231 27232 27233 27234 27235 27236 27237 27238 27239 27240 27241 27242 27243 27244 27245 27246 27247 27248 27249 27250 27251 27252 27253 27254 27255 27256 27257 27258 27259 27260 27261 27262 27263 27264 27265 27266 27267 27268 27269 27270 27271 27272 27273 27274 27275 27276 27277 27278 27279 27280 27281 27282 27283 27284 27285 27286 27287 27288 27289 27290 27291 27292 27293 27294 27295 27296 27297 27298 27299 27300 27301 27302 27303 27304 27305 27306 27307 27308 27309 27310 27311 27312 27313 27314 27315 27316 27317 27318 27319 27320 27321 27322 27323 27324 27325 27326 27327 27328 27329 27330 27331 27332 27333 27334 27335 27336 27337 27338 27339 27340 27341 27342 27343 27344 27345 27346 27347 27348 27349 27350 27351 27352 27353 27354 27355 27356 27357 27358 27359 27360 27361 27362 27363 27364 27365 27366 27367 27368 27369 27370 27371 27372 27373 27374 27375 27376 27377 27378 27379 27380 27381 27382 27383 27384 27385 27386 27387 27388 27389 27390 27391 27392 27393 27394 27395 27396 27397 27398 27399 27400 27401 27402 27403 27404 27405 27406 27407 27408 27409 27410 27411 27412 27413 27414 27415 27416 27417 27418 27419 27420 27421 27422 27423 27424 27425 27426 27427 27428 27429 27430 27431 27432 27433 27434 27435 27436 27437 27438 27439 27440 27441 27442 27443 27444 27445 27446 27447 27448 27449 27450 27451 27452 27453 27454 27455 27456 27457 27458 27459 27460 27461 27462 27463 27464 27465 27466 27467 27468 27469 27470 27471 27472 27473 27474 27475 27476 27477 27478 27479 27480 27481 27482 27483 27484 27485 27486 27487 27488 27489 27490 27491 27492 27493 27494 27495 27496 27497 27498 27499 27500 27501 27502 27503 27504 27505 27506 27507 27508 27509 27510 27511 27512 27513 27514 27515 27516 27517 27518 27519 27520 27521 27522 27523 27524 27525 27526 27527 27528 27529 27530 27531 27532 27533 27534 27535 27536 27537 27538 27539 27540 27541 27542 27543 27544 27545 27546 27547 27548 27549 27550 27551 27552 27553 27554 27555 27556 27557 27558 27559 27560 27561 27562 27563 27564 27565 27566 27567 27568 27569 27570 27571 27572 27573 27574 27575 27576 27577 27578 27579 27580 27581 27582 27583 27584 27585 27586 27587 27588 27589 27590 27591 27592 27593 27594 27595 27596 27597 27598 27599 27600 27601 27602 27603 27604 27605 27606 27607 27608 27609 27610 27611 27612 27613 27614 27615 27616 27617 27618 27619 27620 27621 27622 27623 27624 27625 27626 27627 27628 27629 27630 27631 27632 27633 27634 27635 27636 27637 27638 27639 27640 27641 27642 27643 27644 27645 27646 27647 27648 27649 27650 27651 27652 27653 27654 27655 27656 27657 27658 27659 27660 27661 27662 27663 27664 27665 27666 27667 27668 27669 27670 27671 27672 27673 27674 27675 27676 27677 27678 27679 27680 27681 27682 27683 27684 27685 27686 27687 27688 27689 27690 27691 27692 27693 27694 27695 27696 27697 27698 27699 27700 27701 27702 27703 27704 27705 27706 27707 27708 27709 27710 27711 27712 27713 27714 27715 27716 27717 27718 27719 27720 27721 27722 27723 27724 27725 27726 27727 27728 27729 27730 27731 27732 27733 27734 27735 27736 27737 27738 27739 27740 27741 27742 27743 27744 27745 27746 27747 27748 27749 27750 27751 27752 27753 27754 27755 27756 27757 27758 27759 27760 27761 27762 27763 27764 27765 27766 27767 27768 27769 27770 27771 27772 27773 27774 27775 27776 27777 27778 27779 27780 27781 27782 27783 27784 27785 27786 27787 27788 27789 27790 27791 27792 27793 27794 27795 27796 27797 27798 27799 27800 27801 27802 27803 27804 27805 27806 27807 27808 27809 27810 27811 27812 27813 27814 27815 27816 27817 27818 27819 27820 27821 27822 27823 27824 27825 27826 27827 27828 27829 27830 27831 27832 27833 27834 27835 27836 27837 27838 27839 27840 27841 27842 27843 27844 27845 27846 27847 27848 27849 27850 27851 27852 27853 27854 27855 27856 27857 27858 27859 27860 27861 27862 27863 27864 27865 27866 27867 27868 27869 27870 27871 27872 27873 27874 27875 27876 27877 27878 27879 27880 27881 27882 27883 27884 27885 27886 27887 27888 27889 27890 27891 27892 27893 27894 27895 27896 27897 27898 27899 27900 27901 27902 27903 27904 27905 27906 27907 27908 27909 27910 27911 27912 27913 27914 27915 27916 27917 27918 27919 27920 27921 27922 27923 27924 27925 27926 27927 27928 27929 27930 27931 27932 27933 27934 27935 27936 27937 27938 27939 27940 27941 27942 27943 27944 27945 27946 27947 27948 27949 27950 27951 27952 27953 27954 27955 27956 27957 27958 27959 27960 27961 27962 27963 27964 27965 27966 27967 27968 27969 27970 27971 27972 27973 27974 27975 27976 27977 27978 27979 27980 27981 27982 27983 27984 27985 27986 27987 27988 27989 27990 27991 27992 27993 27994 27995 27996 27997 27998 27999 28000 28001 28002 28003 28004 28005 28006 28007 28008 28009 28010 28011 28012 28013 28014 28015 28016 28017 28018 28019 28020 28021 28022 28023 28024 28025 28026 28027 28028 28029 28030 28031 28032 28033 28034 28035 28036 28037 28038 28039 28040 28041 28042 28043 28044 28045 28046 28047 28048 28049 28050 28051 28052 28053 28054 28055 28056 28057 28058 28059 28060 28061 28062 28063 28064 28065 28066 28067 28068 28069 28070 28071 28072 28073 28074 28075 28076 28077 28078 28079 28080 28081 28082 28083 28084 28085 28086 28087 28088 28089 28090 28091 28092 28093 28094 28095 28096 28097 28098 28099 28100 28101 28102 28103 28104 28105 28106 28107 28108 28109 28110 28111 28112 28113 28114 28115 28116 28117 28118 28119 28120 28121 28122 28123 28124 28125 28126 28127 28128 28129 28130 28131 28132 28133 28134 28135 28136 28137 28138 28139 28140 28141 28142 28143 28144 28145 28146 28147 28148 28149 28150 28151 28152 28153 28154 28155 28156 28157 28158 28159 28160 28161 28162 28163 28164 28165 28166 28167 28168 28169 28170 28171 28172 28173 28174 28175 28176 28177 28178 28179 28180 28181 28182 28183 28184 28185 28186 28187 28188 28189 28190 28191 28192 28193 28194 28195 28196 28197 28198 28199 28200 28201 28202 28203 28204 28205 28206 28207 28208 28209 28210 28211 28212 28213 28214 28215 28216 28217 28218 28219 28220 28221 28222 28223 28224 28225 28226 28227 28228 28229 28230 28231 28232 28233 28234 28235 28236 28237 28238 28239 28240 28241 28242 28243 28244 28245 28246 28247 28248 28249 28250 28251 28252 28253 28254 28255 28256 28257 28258 28259 28260 28261 28262 28263 28264 28265 28266 28267 28268 28269 28270 28271 28272 28273 28274 28275 28276 28277 28278 28279 28280 28281 28282 28283 28284 28285 28286 28287 28288 28289 28290 28291 28292 28293 28294 28295 28296 28297 28298 28299 28300 28301 28302 28303 28304 28305 28306 28307 28308 28309 28310 28311 28312 28313 28314 28315 28316 28317 28318 28319 28320 28321 28322 28323 28324 28325 28326 28327 28328 28329 28330 28331 28332 28333 28334 28335 28336 28337 28338 28339 28340 28341 28342 28343 28344 28345 28346 28347 28348 28349 28350 28351 28352 28353 28354 28355 28356 28357 28358 28359 28360 28361 28362 28363 28364 28365 28366 28367 28368 28369 28370 28371 28372 28373 28374 28375 28376 28377 28378 28379 28380 28381 28382 28383 28384 28385 28386 28387 28388 28389 28390 28391 28392 28393 28394 28395 28396 28397 28398 28399 28400 28401 28402 28403 28404 28405 28406 28407 28408 28409 28410 28411 28412 28413 28414 28415 28416 28417 28418 28419 28420 28421 28422 28423 28424 28425 28426 28427 28428 28429 28430 28431 28432 28433 28434 28435 28436 28437 28438 28439 28440 28441 28442 28443 28444 28445 28446 28447 28448 28449 28450 28451 28452 28453 28454 28455 28456 28457 28458 28459 28460 28461 28462 28463 28464 28465 28466 28467 28468 28469 28470 28471 28472 28473 28474 28475 28476 28477 28478 28479 28480 28481 28482 28483 28484 28485 28486 28487 28488 28489 28490 28491 28492 28493 28494 28495 28496 28497 28498 28499 28500 28501 28502 28503 28504 28505 28506 28507 28508 28509 28510 28511 28512 28513 28514 28515 28516 28517 28518 28519 28520 28521 28522 28523 28524 28525 28526 28527 28528 28529 28530 28531 28532 28533 28534 28535 28536 28537 28538 28539 28540 28541 28542 28543 28544 28545 28546 28547 28548 28549 28550 28551 28552 28553 28554 28555 28556 28557 28558 28559 28560 28561 28562 28563 28564 28565 28566 28567 28568 28569 28570 28571 28572 28573 28574 28575 28576 28577 28578 28579 28580 28581 28582 28583 28584 28585 28586 28587 28588 28589 28590 28591 28592 28593 28594 28595 28596 28597 28598 28599 28600 28601 28602 28603 28604 28605 28606 28607 28608 28609 28610 28611 28612 28613 28614 28615 28616 28617 28618 28619 28620 28621 28622 28623 28624 28625 28626 28627 28628 28629 28630 28631 28632 28633 28634 28635 28636 28637 28638 28639 28640 28641 28642 28643 28644 28645 28646 28647 28648 28649 28650 28651 28652 28653 28654 28655 28656 28657 28658 28659 28660 28661 28662 28663 28664 28665 28666 28667 28668 28669 28670 28671 28672 28673 28674 28675 28676 28677 28678 28679 28680 28681 28682 28683 28684 28685 28686 28687 28688 28689 28690 28691 28692 28693 28694 28695 28696 28697 28698 28699 28700 28701 28702 28703 28704 28705 28706 28707 28708 28709 28710 28711 28712 28713 28714 28715 28716 28717 28718 28719 28720 28721 28722 28723 28724 28725 28726 28727 28728 28729 28730 28731 28732 28733 28734 28735 28736 28737 28738 28739 28740 28741 28742 28743 28744 28745 28746 28747 28748 28749 28750 28751 28752 28753 28754 28755 28756 28757 28758 28759 28760 28761 28762 28763 28764 28765 28766 28767 28768 28769 28770 28771 28772 28773 28774 28775 28776 28777 28778 28779 28780 28781 28782 28783 28784 28785 28786 28787 28788 28789 28790 28791 28792 28793 28794 28795 28796 28797 28798 28799 28800 28801 28802 28803 28804 28805 28806 28807 28808 28809 28810 28811 28812 28813 28814 28815 28816 28817 28818 28819 28820 28821 28822 28823 28824 28825 28826 28827 28828 28829 28830 28831 28832 28833 28834 28835 28836 28837 28838 28839 28840 28841 28842 28843 28844 28845 28846 28847 28848 28849 28850 28851 28852 28853 28854 28855 28856 28857 28858 28859 28860 28861 28862 28863 28864 28865 28866 28867 28868 28869 28870 28871 28872 28873 28874 28875 28876 28877 28878 28879 28880 28881 28882 28883 28884 28885 28886 28887 28888 28889 28890 28891 28892 28893 28894 28895 28896 28897 28898 28899 28900 28901 28902 28903 28904 28905 28906 28907 28908 28909 28910 28911 28912 28913 28914 28915 28916 28917 28918 28919 28920 28921 28922 28923 28924 28925 28926 28927 28928 28929 28930 28931 28932 28933 28934 28935 28936 28937 28938 28939 28940 28941 28942 28943 28944 28945 28946 28947 28948 28949 28950 28951 28952 28953 28954 28955 28956 28957 28958 28959 28960 28961 28962 28963 28964 28965 28966 28967 28968 28969 28970 28971 28972 28973 28974 28975 28976 28977 28978 28979 28980 28981 28982 28983 28984 28985 28986 28987 28988 28989 28990 28991 28992 28993 28994 28995 28996 28997 28998 28999 29000 29001 29002 29003 29004 29005 29006 29007 29008 29009 29010 29011 29012 29013 29014 29015 29016 29017 29018 29019 29020 29021 29022 29023 29024 29025 29026 29027 29028 29029 29030 29031 29032 29033 29034 29035 29036 29037 29038 29039 29040 29041 29042 29043 29044 29045 29046 29047 29048 29049 29050 29051 29052 29053 29054 29055 29056 29057 29058 29059 29060 29061 29062 29063 29064 29065 29066 29067 29068 29069 29070 29071 29072 29073 29074 29075 29076 29077 29078 29079 29080 29081 29082 29083 29084 29085 29086 29087 29088 29089 29090 29091 29092 29093 29094 29095 29096 29097 29098 29099 29100 29101 29102 29103 29104 29105 29106 29107 29108 29109 29110 29111 29112 29113 29114 29115 29116 29117 29118 29119 29120 29121 29122 29123 29124 29125 29126 29127 29128 29129 29130 29131 29132 29133 29134 29135 29136 29137 29138 29139 29140 29141 29142 29143 29144 29145 29146 29147 29148 29149 29150 29151 29152 29153 29154 29155 29156 29157 29158 29159 29160 29161 29162 29163 29164 29165 29166 29167 29168 29169 29170 29171 29172 29173 29174 29175 29176 29177 29178 29179 29180 29181 29182 29183 29184 29185 29186 29187 29188 29189 29190 29191 29192 29193 29194 29195 29196 29197 29198 29199 29200 29201 29202 29203 29204 29205 29206 29207 29208 29209 29210 29211 29212 29213 29214 29215 29216 29217 29218 29219 29220 29221 29222 29223 29224 29225 29226 29227 29228 29229 29230 29231 29232 29233 29234 29235 29236 29237 29238 29239 29240 29241 29242 29243 29244 29245 29246 29247 29248 29249 29250 29251 29252 29253 29254 29255 29256 29257 29258 29259 29260 29261 29262 29263 29264 29265 29266 29267 29268 29269 29270 29271 29272 29273 29274 29275 29276 29277 29278 29279 29280 29281 29282 29283 29284 29285 29286 29287 29288 29289 29290 29291 29292 29293 29294 29295 29296 29297 29298 29299 29300 29301 29302 29303 29304 29305 29306 29307 29308 29309 29310 29311 29312 29313 29314 29315 29316 29317 29318 29319 29320 29321 29322 29323 29324 29325 29326 29327 29328 29329 29330 29331 29332 29333 29334 29335 29336 29337 29338 29339 29340 29341 29342 29343 29344 29345 29346 29347 29348 29349 29350 29351 29352 29353 29354 29355 29356 29357 29358 29359 29360 29361 29362 29363 29364 29365 29366 29367 29368 29369 29370 29371 29372 29373 29374 29375 29376 29377 29378 29379 29380 29381 29382 29383 29384 29385 29386 29387 29388 29389 29390 29391 29392 29393 29394 29395 29396 29397 29398 29399 29400 29401 29402 29403 29404 29405 29406 29407 29408 29409 29410 29411 29412 29413 29414 29415 29416 29417 29418 29419 29420 29421 29422 29423 29424 29425 29426 29427 29428 29429 29430 29431 29432 29433 29434 29435 29436 29437 29438 29439 29440 29441 29442 29443 29444 29445 29446 29447 29448 29449 29450 29451 29452 29453 29454 29455 29456 29457 29458 29459 29460 29461 29462 29463 29464 29465 29466 29467 29468 29469 29470 29471 29472 29473 29474 29475 29476 29477 29478 29479 29480 29481 29482 29483 29484 29485 29486 29487 29488 29489 29490 29491 29492 29493 29494 29495 29496 29497 29498 29499 29500 29501 29502 29503 29504 29505 29506 29507 29508 29509 29510 29511 29512 29513 29514 29515 29516 29517 29518 29519 29520 29521 29522 29523 29524 29525 29526 29527 29528 29529 29530 29531 29532 29533 29534 29535 29536 29537 29538 29539 29540 29541 29542 29543 29544 29545 29546 29547 29548 29549 29550 29551 29552 29553 29554 29555 29556 29557 29558 29559 29560 29561 29562 29563 29564 29565 29566 29567 29568 29569 29570 29571 29572 29573 29574 29575 29576 29577 29578 29579 29580 29581 29582 29583 29584 29585 29586 29587 29588 29589 29590 29591 29592 29593 29594 29595 29596 29597 29598 29599 29600 29601 29602 29603 29604 29605 29606 29607 29608 29609 29610 29611 29612 29613 29614 29615 29616 29617 29618 29619 29620 29621 29622 29623 29624 29625 29626 29627 29628 29629 29630 29631 29632 29633 29634 29635 29636 29637 29638 29639 29640 29641 29642 29643 29644 29645 29646 29647 29648 29649 29650 29651 29652 29653 29654 29655 29656 29657 29658 29659 29660 29661 29662 29663 29664 29665 29666 29667 29668 29669 29670 29671 29672 29673 29674 29675 29676 29677 29678 29679 29680 29681 29682 29683 29684 29685 29686 29687 29688 29689 29690 29691 29692 29693 29694 29695 29696 29697 29698 29699 29700 29701 29702 29703 29704 29705 29706 29707 29708 29709 29710 29711 29712 29713 29714 29715 29716 29717 29718 29719 29720 29721 29722 29723 29724 29725 29726 29727 29728 29729 29730 29731 29732 29733 29734 29735 29736 29737 29738 29739 29740 29741 29742 29743 29744 29745 29746 29747 29748 29749 29750 29751 29752 29753 29754 29755 29756 29757 29758 29759 29760 29761 29762 29763 29764 29765 29766 29767 29768 29769 29770 29771 29772 29773 29774 29775 29776 29777 29778 29779 29780 29781 29782 29783 29784 29785 29786 29787 29788 29789 29790 29791 29792 29793 29794 29795 29796 29797 29798 29799 29800 29801 29802 29803 29804 29805 29806 29807 29808 29809 29810 29811 29812 29813 29814 29815 29816 29817 29818 29819 29820 29821 29822 29823 29824 29825 29826 29827 29828 29829 29830 29831 29832 29833 29834 29835 29836 29837 29838 29839 29840 29841 29842 29843 29844 29845 29846 29847 29848 29849 29850 29851 29852 29853 29854 29855 29856 29857 29858 29859 29860 29861 29862 29863 29864 29865 29866 29867 29868 29869 29870 29871 29872 29873 29874 29875 29876 29877 29878 29879 29880 29881 29882 29883 29884 29885 29886 29887 29888 29889 29890 29891 29892 29893 29894 29895 29896 29897 29898 29899 29900 29901 29902 29903 29904 29905 29906 29907 29908 29909 29910 29911 29912 29913 29914 29915 29916 29917 29918 29919 29920 29921 29922 29923 29924 29925 29926 29927 29928 29929 29930 29931 29932 29933 29934 29935 29936 29937 29938 29939 29940 29941 29942 29943 29944 29945 29946 29947 29948 29949 29950 29951 29952 29953 29954 29955 29956 29957 29958 29959 29960 29961 29962 29963 29964 29965 29966 29967 29968 29969 29970 29971 29972 29973 29974 29975 29976 29977 29978 29979 29980 29981 29982 29983 29984 29985 29986 29987 29988 29989 29990 29991 29992 29993 29994 29995 29996 29997 29998 29999 30000 30001 30002 30003 30004 30005 30006 30007 30008 30009 30010 30011 30012 30013 30014 30015 30016 30017 30018 30019 30020 30021 30022 30023 30024 30025 30026 30027 30028 30029 30030 30031 30032 30033 30034 30035 30036 30037 30038 30039 30040 30041 30042 30043 30044 30045 30046 30047 30048 30049 30050 30051 30052 30053 30054 30055 30056 30057 30058 30059 30060 30061 30062 30063 30064 30065 30066 30067 30068 30069 30070 30071 30072 30073 30074 30075 30076 30077 30078 30079 30080 30081 30082 30083 30084 30085 30086 30087 30088 30089 30090 30091 30092 30093 30094 30095 30096 30097 30098 30099 30100 30101 30102 30103 30104 30105 30106 30107 30108 30109 30110 30111 30112 30113 30114 30115 30116 30117 30118 30119 30120 30121 30122 30123 30124 30125 30126 30127 30128 30129 30130 30131 30132 30133 30134 30135 30136 30137 30138 30139 30140 30141 30142 30143 30144 30145 30146 30147 30148 30149 30150 30151 30152 30153 30154 30155 30156 30157 30158 30159 30160 30161 30162 30163 30164 30165 30166 30167 30168 30169 30170 30171 30172 30173 30174 30175 30176 30177 30178 30179 30180 30181 30182 30183 30184 30185 30186 30187 30188 30189 30190 30191 30192 30193 30194 30195 30196 30197 30198 30199 30200 30201 30202 30203 30204 30205 30206 30207 30208 30209 30210 30211 30212 30213 30214 30215 30216 30217 30218 30219 30220 30221 30222 30223 30224 30225 30226 30227 30228 30229 30230 30231 30232 30233 30234 30235 30236 30237 30238 30239 30240 30241 30242 30243 30244 30245 30246 30247 30248 30249 30250 30251 30252 30253 30254 30255 30256 30257 30258 30259 30260 30261 30262 30263 30264 30265 30266 30267 30268 30269 30270 30271 30272 30273 30274 30275 30276 30277 30278 30279 30280 30281 30282 30283 30284 30285 30286 30287 30288 30289 30290 30291 30292 30293 30294 30295 30296 30297 30298 30299 30300 30301 30302 30303 30304 30305 30306 30307 30308 30309 30310 30311 30312 30313 30314 30315 30316 30317 30318 30319 30320 30321 30322 30323 30324 30325 30326 30327 30328 30329 30330 30331 30332 30333 30334 30335 30336 30337 30338 30339 30340 30341 30342 30343 30344 30345 30346 30347 30348 30349 30350 30351 30352 30353 30354 30355 30356 30357 30358 30359 30360 30361 30362 30363 30364 30365 30366 30367 30368 30369 30370 30371 30372 30373 30374 30375 30376 30377 30378 30379 30380 30381 30382 30383 30384 30385 30386 30387 30388 30389 30390 30391 30392 30393 30394 30395 30396 30397 30398 30399 30400 30401 30402 30403 30404 30405 30406 30407 30408 30409 30410 30411 30412 30413 30414 30415 30416 30417 30418 30419 30420 30421 30422 30423 30424 30425 30426 30427 30428 30429 30430 30431 30432 30433 30434 30435 30436 30437 30438 30439 30440 30441 30442 30443 30444 30445 30446 30447 30448 30449 30450 30451 30452 30453 30454 30455 30456 30457 30458 30459 30460 30461 30462 30463 30464 30465 30466 30467 30468 30469 30470 30471 30472 30473 30474 30475 30476 30477 30478 30479 30480 30481 30482 30483 30484 30485 30486 30487 30488 30489 30490 30491 30492 30493 30494 30495 30496 30497 30498 30499 30500 30501 30502 30503 30504 30505 30506 30507 30508 30509 30510 30511 30512 30513 30514 30515 30516 30517 30518 30519 30520 30521 30522 30523 30524 30525 30526 30527 30528 30529 30530 30531 30532 30533 30534 30535 30536 30537 30538 30539 30540 30541 30542 30543 30544 30545 30546 30547 30548 30549 30550 30551 30552 30553 30554 30555 30556 30557 30558 30559 30560 30561 30562 30563 30564 30565 30566 30567 30568 30569 30570 30571 30572 30573 30574 30575 30576 30577 30578 30579 30580 30581 30582 30583 30584 30585 30586 30587 30588 30589 30590 30591 30592 30593 30594 30595 30596 30597 30598 30599 30600 30601 30602 30603 30604 30605 30606 30607 30608 30609 30610 30611 30612 30613 30614 30615 30616 30617 30618 30619 30620 30621 30622 30623 30624 30625 30626 30627 30628 30629 30630 30631 30632 30633 30634 30635 30636 30637 30638 30639 30640 30641 30642 30643 30644 30645 30646 30647 30648 30649 30650 30651 30652 30653 30654 30655 30656 30657 30658 30659 30660 30661 30662 30663 30664 30665 30666 30667 30668 30669 30670 30671 30672 30673 30674 30675 30676 30677 30678 30679 30680 30681 30682 30683 30684 30685 30686 30687 30688 30689 30690 30691 30692 30693 30694 30695 30696 30697 30698 30699 30700 30701 30702 30703 30704 30705 30706 30707 30708 30709 30710 30711 30712 30713 30714 30715 30716 30717 30718 30719 30720 30721 30722 30723 30724 30725 30726 30727 30728 30729 30730 30731 30732 30733 30734 30735 30736 30737 30738 30739 30740 30741 30742 30743 30744 30745 30746 30747 30748 30749 30750 30751 30752 30753 30754 30755 30756 30757 30758 30759 30760 30761 30762 30763 30764 30765 30766 30767 30768 30769 30770 30771 30772 30773 30774 30775 30776 30777 30778 30779 30780 30781 30782 30783 30784 30785 30786 30787 30788 30789 30790 30791 30792 30793 30794 30795 30796 30797 30798 30799 30800 30801 30802 30803 30804 30805 30806 30807 30808 30809 30810 30811 30812 30813 30814 30815 30816 30817 30818 30819 30820 30821 30822 30823 30824 30825 30826 30827 30828 30829 30830 30831 30832 30833 30834 30835 30836 30837 30838 30839 30840 30841 30842 30843 30844 30845 30846 30847 30848 30849 30850 30851 30852 30853 30854 30855 30856 30857 30858 30859 30860 30861 30862 30863 30864 30865 30866 30867 30868 30869 30870 30871 30872 30873 30874 30875 30876 30877 30878 30879 30880 30881 30882 30883 30884 30885 30886 30887 30888 30889 30890 30891 30892 30893 30894 30895 30896 30897 30898 30899 30900 30901 30902 30903 30904 30905 30906 30907 30908 30909 30910 30911 30912 30913 30914 30915 30916 30917 30918 30919 30920 30921 30922 30923 30924 30925 30926 30927 30928 30929 30930 30931 30932 30933 30934 30935 30936 30937 30938 30939 30940 30941 30942 30943 30944 30945 30946 30947 30948 30949 30950 30951 30952 30953 30954 30955 30956 30957 30958 30959 30960 30961 30962 30963 30964 30965 30966 30967 30968 30969 30970 30971 30972 30973 30974 30975 30976 30977 30978 30979 30980 30981 30982 30983 30984 30985 30986 30987 30988 30989 30990 30991 30992 30993 30994 30995 30996 30997 30998 30999 31000 31001 31002 31003 31004 31005 31006 31007 31008 31009 31010 31011 31012 31013 31014 31015 31016 31017 31018 31019 31020 31021 31022 31023 31024 31025 31026 31027 31028 31029 31030 31031 31032 31033 31034 31035 31036 31037 31038 31039 31040 31041 31042 31043 31044 31045 31046 31047 31048 31049 31050 31051 31052 31053 31054 31055 31056 31057 31058 31059 31060 31061 31062 31063 31064 31065 31066 31067 31068 31069 31070 31071 31072 31073 31074 31075 31076 31077 31078 31079 31080 31081 31082 31083 31084 31085 31086 31087 31088 31089 31090 31091 31092 31093 31094 31095 31096 31097 31098 31099 31100 31101 31102 31103 31104 31105 31106 31107 31108 31109 31110 31111 31112 31113 31114 31115 31116 31117 31118 31119 31120 31121 31122 31123 31124 31125 31126 31127 31128 31129 31130 31131 31132 31133 31134 31135 31136 31137 31138 31139 31140 31141 31142 31143 31144 31145 31146 31147 31148 31149 31150 31151 31152 31153 31154 31155 31156 31157 31158 31159 31160 31161 31162 31163 31164 31165 31166 31167 31168 31169 31170 31171 31172 31173 31174 31175 31176 31177 31178 31179 31180 31181 31182 31183 31184 31185 31186 31187 31188 31189 31190 31191 31192 31193 31194 31195 31196 31197 31198 31199 31200 31201 31202 31203 31204 31205 31206 31207 31208 31209 31210 31211 31212 31213 31214 31215 31216 31217 31218 31219 31220 31221 31222 31223 31224 31225 31226 31227 31228 31229 31230 31231 31232 31233 31234 31235 31236 31237 31238 31239 31240 31241 31242 31243 31244 31245 31246 31247 31248 31249 31250 31251 31252 31253 31254 31255 31256 31257 31258 31259 31260 31261 31262 31263 31264 31265 31266 31267 31268 31269 31270 31271 31272 31273 31274 31275 31276 31277 31278 31279 31280 31281 31282 31283 31284 31285 31286 31287 31288 31289 31290 31291 31292 31293 31294 31295 31296 31297 31298 31299 31300 31301 31302 31303 31304 31305 31306 31307 31308 31309 31310 31311 31312 31313 31314 31315 31316 31317 31318 31319 31320 31321 31322 31323 31324 31325 31326 31327 31328 31329 31330 31331 31332 31333 31334 31335 31336 31337 31338 31339 31340 31341 31342 31343 31344 31345 31346 31347 31348 31349 31350 31351 31352 31353 31354 31355 31356 31357 31358 31359 31360 31361 31362 31363 31364 31365 31366 31367 31368 31369 31370 31371 31372 31373 31374 31375 31376 31377 31378 31379 31380 31381 31382 31383 31384 31385 31386 31387 31388 31389 31390 31391 31392 31393 31394 31395 31396 31397 31398 31399 31400 31401 31402 31403 31404 31405 31406 31407 31408 31409 31410 31411 31412 31413 31414 31415 31416 31417 31418 31419 31420 31421 31422 31423 31424 31425 31426 31427 31428 31429 31430 31431 31432 31433 31434 31435 31436 31437 31438 31439 31440 31441 31442 31443 31444 31445 31446 31447 31448 31449 31450 31451 31452 31453 31454 31455 31456 31457 31458 31459 31460 31461 31462 31463 31464 31465 31466 31467 31468 31469 31470 31471 31472 31473 31474 31475 31476 31477 31478 31479 31480 31481 31482 31483 31484 31485 31486 31487 31488 31489 31490 31491 31492 31493 31494 31495 31496 31497 31498 31499 31500 31501 31502 31503 31504 31505 31506 31507 31508 31509 31510 31511 31512 31513 31514 31515 31516 31517 31518 31519 31520 31521 31522 31523 31524 31525 31526 31527 31528 31529 31530 31531 31532 31533 31534 31535 31536 31537 31538 31539 31540 31541 31542 31543 31544 31545 31546 31547 31548 31549 31550 31551 31552 31553 31554 31555 31556 31557 31558 31559 31560 31561 31562 31563 31564 31565 31566 31567 31568 31569 31570 31571 31572 31573 31574 31575 31576 31577 31578 31579 31580 31581 31582 31583 31584 31585 31586 31587 31588 31589 31590 31591 31592 31593 31594 31595 31596 31597 31598 31599 31600 31601 31602 31603 31604 31605 31606 31607 31608 31609 31610 31611 31612 31613 31614 31615 31616 31617 31618 31619 31620 31621 31622 31623 31624 31625 31626 31627 31628 31629 31630 31631 31632 31633 31634 31635 31636 31637 31638 31639 31640 31641 31642 31643 31644 31645 31646 31647 31648 31649 31650 31651 31652 31653 31654 31655 31656 31657 31658 31659 31660 31661 31662 31663 31664 31665 31666 31667 31668 31669 31670 31671 31672 31673 31674 31675 31676 31677 31678 31679 31680 31681 31682 31683 31684 31685 31686 31687 31688 31689 31690 31691 31692 31693 31694 31695 31696 31697 31698 31699 31700 31701 31702 31703 31704 31705 31706 31707 31708 31709 31710 31711 31712 31713 31714 31715 31716 31717 31718 31719 31720 31721 31722 31723 31724 31725 31726 31727 31728 31729 31730 31731 31732 31733 31734 31735 31736 31737 31738 31739 31740 31741 31742 31743 31744 31745 31746 31747 31748 31749 31750 31751 31752 31753 31754 31755 31756 31757 31758 31759 31760 31761 31762 31763 31764 31765 31766 31767 31768 31769 31770 31771 31772 31773 31774 31775 31776 31777 31778 31779 31780 31781 31782 31783 31784 31785 31786 31787 31788 31789 31790 31791 31792 31793 31794 31795 31796 31797 31798 31799 31800 31801 31802 
</DataArray>
<DataArray type="UInt32" Name="offsets" format="ascii">
3 6 9 11 14 17 19 22 25 28 31 34 36 38 41 44 47 50 52 54 57 60 62 65 67 70 73 76 79 82 85 88 91 94 97 100 103 106 109 112 115 118 120 123 126 129 132 135 138 140 143 146 148 151 154 157 160 162 165 168 171 174 177 180 183 186 188 191 194 196 198 201 204 207 209 211 214 217 219 222 225 228 231 234 237 239 242 245 248 251 254 257 260 263 266 268 271 274 276 279 282 285 288 291 294 297 300 303 305 308 311 314 317 320 323 326 329 332 334 337 340 343 346 349 352 355 358 361 364 367 370 372 375 378 381 384 387 389 392 394 397 400 403 406 409 412 414 417 420 422 425 428 430 432 435 438 441 444 446 449 452 455 457 460 463 466 469 472 474 477 480 483 486 489 492 494 497 499 502 505 508 511 514 517 520 523 526 529 532 534 537 540 543 546 549 552 555 558 561 563 566 569 572 575 578 581 584 586 589 592 595 598 601 603 606 608 611 614 617 619 622 625 628 631 634 636 639 642 645 647 650 653 656 659 662 665 667 670 673 676 679 682 685 687 690 693 696 699 702 705 708 711 714 717 720 723 726 729 732 735 738 741 744 747 750 753 756 759 762 765 768 771 774 777 780 782 785 788 791 794 797 800 803 806 808 811 814 816 819 822 825 828 831 833 836 839 841 843 845 847 850 853 856 859 862 865 868 871 874 876 879 882 885 888 891 894 897 900 903 906 909 912 915 918 921 924 926 929 932 935 938 940 942 945 948 951 954 957 959 961 964 967 969 972 975 978 981 983 986 989 991 993 996 999 1002 1005 1007 1010 1012 1015 1018 1021 1024 1027 1030 1032 1035 1038 1041 1044 1047 1050 1053 1056 1059 1062 1065 1067 1070 1073 1076 1079 1082 1085 1087 1090 1093 1096 1099 1102 1105 1108 1111 1113 1116 1119 1122 1125 1127 1130 1133 1136 1139 1142 1145 1148 1151 1154 1157 1160 1163 1166 1169 1172 1175 1178 1181 1184 1186 1189 1192 1195 1198 1201 1204 1207 1210 1213 1216 1219 1222 1225 1228 1231 1234 1237 1240 1243 1246 1249 1252 1255 1258 1261 1264 1267 1270 1273 1276 1279 1282 1285 1288 1291 1294 1297 1300 1303 1306 1309 1312 1315 1318 1321 1324 1327 1330 1333 1336 1339 1342 1345 1348 1351 1354 1357 1360 1363 1366 1369 1372 1375 1378 1381 1384 1387 1389 1392 1394 1397 1400 1402 1405 1408 1411 1414 1417 1420 1423 1426 1429 1432 1435 1437 1440 1443 1446 1449 1452 1455 1458 1461 1464 1467 1469 1472 1475 1477 1480 1483 1486 1488 1491 1493 1495 1498 1501 1503 1506 1509 1512 1515 1518 1521 1524 1527 1530 1533 1536 1539 1542 1545 1548 1551 1554 1557 1559 1562 1565 1568 1571 1574 1577 1580 1583 1586 1589 1592 1595 1597 1600 1603 1606 1609 1612 1614 1617 1620 1623 1626 1629 1632 1634 1637 1640 1643 1646 1649 1652 1655 1658 1661 1664 1667 1670 1673 1676 1679 1681 1684 1687 1690 1693 1695 1698 1701 1704 1706 1709 1712 1715 1718 1721 1724 1727 1730 1733 1736 1739 1742 1744 1747 1750 1753 1756 1759 1762 1765 1767 1770 1773 1775 1778 1781 1784 1787 1790 1793 1796 1799 1802 1805 1808 1811 1814 1817 1820 1823 1826 1829 1832 1835 1838 1840 1843 1846 1849 1852 1855 1857 1860 1863 1866 1869 1872 1875 1878 1881 1884 1886 1889 1892 1895 1898 1901 1904 1907 1910 1912 1915 1918 1920 1923 1926 1928 1931 1934 1937 1940 1943 1946 1949 1952 1955 1958 1961 1964 1967 1970 1973 1976 1979 1982 1985 1987 1990 1993 1996 1999 2002 2005 2008 2011 2013 2015 2018 2021 2024 2026 2029 2032 2035 2038 2040 2043 2046 2049 2052 2055 2057 2060 2063 2066 2069 2072 2075 2078 2081 2084 2086 2089 2092 2095 2098 2101 2104 2106 2109 2112 2115 2117 2120 2123 2126 2128 2130 2133 2136 2139 2141 2144 2147 2150 2153 2156 2159 2162 2164 2167 2170 2173 2176 2179 2181 2184 2186 2189 2192 2194 2197 2200 2203 2205 2208 2211 2214 2217 2219 2222 2224 2227 2230 2233 2236 2239 2242 2245 2247 2250 2253 2256 2258 2261 2264 2267 2270 2273 2276 2279 2282 2285 2288 2291 2294 2296 2299 2302 2305 2308 2311 2314 2317 2320 2323 2325 2328 2331 2334 2336 2338 2341 2344 2346 2348 2351 2353 2356 2359 2362 2365 2368 2371 2374 2377 2380 2383 2386 2389 2392 2395 2398 2401 2404 2407 2410 2413 2416 2419 2422 2425 2428 2431 2434 2437 2440 2443 2446 2449 2451 2454 2457 2459 2462 2465 2468 2470 2473 2476 2479 2482 2485 2488 2491 2494 2497 2500 2502 2505 2508 2511 2514 2517 2520 2523 2526 2529 2531 2534 2537 2540 2543 2545 2548 2551 2554 2557 2560 2563 2566 2569 2572 2575 2578 2581 2584 2587 2590 2593 2596 2598 2601 2604 2607 2610 2613 2616 2619 2622 2625 2628 2631 2633 2636 2639 2642 2645 2648 2650 2652 2655 2658 2660 2663 2666 2669 2672 2675 2678 2681 2683 2686 2689 2692 2695 2697 2700 2702 2705 2708 2711 2714 2717 2720 2722 2725 2728 2731 2733 2736 2739 2742 2745 2748 2751 2754 2757 2760 2763 2766 2769 2772 2775 2778 2781 2784 2787 2789 2792 2794 2797 2800 2803 2806 2808 2811 2813 2816 2818 2821 2824 2826 2829 2832 2835 2837 2840 2843 2846 2849 2852 2855 2858 2861 2864 2867 2870 2873 2876 2879 2882 2884 2887 2890 2893 2895 2898 2901 2904 2907 2910 2913 2916 2919 2922 2925 2928 2931 2934 2937 2940 2942 2945 2948 2951 2954 2957 2960 2963 2966 2969 2972 2975 2978 2981 2984 2986 2989 2992 2995 2998 3001 3004 3007 3010 3013 3016 3019 3022 3025 3028 3031 3034 3037 3040 3043 3046 3049 3052 3055 3058 3061 3064 3067 3070 3073 3076 3079 3082 3085 3088 3091 3094 3097 3100 3103 3106 3109 3112 3115 3118 3121 3124 3127 3130 3132 3135 3138 3141 3144 3147 3150 3152 3155 3157 3159 3162 3165 3168 3171 3174 3177 3180 3183 3186 3189 3192 3195 3198 3201 3204 3207 3210 3213 3216 3219 3222 3225 3228 3231 3234 3237 3240 3243 3246 3249 3252 3255 3258 3260 3263 3266 3268 3271 3274 3277 3280 3283 3286 3289 3292 3295 3298 3301 3304 3307 3309 3312 3315 3318 3321 3323 3326 3329 3332 3335 3337 3340 3343 3345 3348 3351 3354 3356 3359 3361 3364 3367 3370 3373 3376 3379 3382 3385 3388 3391 3394 3396 3399 3402 3405 3408 3411 3414 3416 3419 3422 3425 3427 3430 3433 3436 3438 3441 3444 3447 3450 3453 3456 3459 3462 3465 3468 3471 3474 3477 3480 3483 3486 3489 3492 3495 3498 3500 3503 3506 3509 3512 3515 3517 3519 3522 3525 3528 3530 3533 3536 3539 3542 3544 3546 3549 3552 3555 3558 3560 3563 3566 3569 3572 3575 3578 3581 3584 3586 3589 3592 3595 3598 3601 3604 3607 3610 3613 3616 3618 3621 3624 3626 3629 3632 3635 3638 3641 3644 3647 3650 3652 3655 3658 3661 3663 3666 3669 3672 3675 3678 3681 3684 3687 3690 3693 3696 3699 3702 3705 3708 3711 3714 3716 3719 3722 3725 3728 3731 3734 3737 3740 3743 3746 3749 3752 3755 3758 3761 3764 3767 3769 3772 3775 3778 3781 3784 3787 3789 3792 3795 3798 3801 3804 3807 3810 3813 3816 3819 3822 3825 3828 3830 3833 3836 3839 3842 3844 3847 3850 3853 3856 3858 3861 3864 3867 3870 3873 3876 3879 3882 3885 3888 3891 3894 3897 3899 3902 3905 3908 3911 3914 3916 3919 3922 3925 3928 3931 3934 3937 3940 3943 3946 3949 3952 3955 3958 3960 3963 3966 3969 3972 3975 3978 3981 3984 3987 3990 3993 3995 3998 4001 4004 4007 4010 4012 4015 4018 4020 4023 4026 4029 4032 4035 4038 4041 4043 4046 4049 4051 4054 4057 4060 4063 4066 4069 4072 4075 4077 4080 4083 4086 4089 4092 4095 4098 4101 4104 4107 4110 4113 4116 4119 4122 4125 4128 4131 4134 4137 4139 4142 4145 4148 4151 4154 4157 4160 4163 4166 4169 4172 4174 4177 4180 4182 4185 4188 4191 4194 4197 4200 4203 4206 4209 4212 4214 4217 4220 4223 4225 4228 4231 4234 4237 4240 4242 4245 4248 4251 4254 4257 4260 4263 4266 4269 4272 4274 4276 4279 4282 4285 4288 4291 4294 4297 4300 4303 4306 4309 4312 4315 4318 4321 4324 4327 4330 4333 4336 4339 4342 4345 4348 4351 4353 4356 4358 4361 4364 4367 4370 4373 4376 4379 4381 4383 4386 4388 4391 4394 4397 4400 4403 4406 4409 4412 4415 4418 4421 4424 4427 4430 4433 4436 4439 4442 4445 4448 4451 4454 4457 4460 4462 4465 4468 4471 4474 4477 4480 4483 4486 4489 4492 4494 4497 4499 4502 4505 4508 4511 4513 4516 4519 4522 4524 4527 4530 4532 4535 4537 4540 4542 4545 4548 4550 4553 4555 4557 4560 4563 4565 4567 4569 4571 4574 4576 4579 4582 4584 4586 4589 4591 4593 4596 4599 4601 4604 4607 4609 4612 4615 4618 4620 4623 4625 4628 4631 4634 4637 4640 4642 4645 4648 4651 4654 4656 4659 4662 4665 4667 4670 4672 4675 4677 4680 4683 4686 4689 4691 4694 4697 4700 4702 4705 4708 4711 4714 4716 4719 4722 4725 4728 4731 4734 4737 4740 4743 4746 4749 4752 4754 4757 4760 4763 4766 4769 4772 4775 4778 4781 4784 4787 4790 4793 4796 4798 4801 4803 4806 4809 4812 4815 4817 4820 4823 4826 4828 4831 4834 4837 4839 4842 4845 4848 4851 4854 4857 4860 4863 4866 4869 4872 4875 4878 4881 4884 4887 4890 4893 4896 4899 4902 4905 4907 4910 4912 4915 4918 4920 4923 4926 4928 4931 4934 4936 4939 4942 4945 4948 4951 4954 4956 4959 4962 4964 4967 4970 4973 4976 4978 4981 4984 4986 4989 4991 4994 4997 5000 5003 5006 5008 5011 5013 5015 5018 5021 5024 5027 5030 5033 5036 5039 5042 5045 5047 5050 5053 5056 5058 5061 5063 5066 5069 5072 5074 5077 5080 5083 5086 5089 5092 5095 5097 5100 5102 5105 5108 5111 5114 5116 5119 5121 5124 5127 5129 5132 5135 5138 5141 5144 5147 5150 5153 5155 5158 5161 5164 5167 5170 5172 5175 5178 5181 5184 5187 5190 5193 5196 5199 5201 5204 5207 5210 5212 5215 5218 5221 5224 5227 5229 5232 5235 5238 5241 5244 5247 5250 5253 5256 5259 5262 5265 5268 5271 5274 5276 5279 5282 5284 5287 5289 5291 5294 5297 5299 5302 5305 5308 5311 5314 5317 5320 5323 5326 5328 5331 5333 5336 5338 5341 5344 5347 5350 5353 5356 5359 5362 5365 5367 5370 5373 5375 5378 5381 5384 5387 5390 5392 5395 5398 5401 5404 5406 5409 5412 5414 5417 5420 5423 5426 5428 5430 5433 5436 5438 5441 5444 5447 5450 5452 5454 5457 5460 5463 5466 5469 5472 5475 5478 5481 5483 5486 5489 5492 5494 5497 5499 5502 5505 5508 5511 5514 5516 5519 5522 5525 5528 5531 5534 5537 5540 5543 5546 5549 5552 5555 5558 5561 5564 5567 5569 5572 5575 5577 5580 5583 5586 5589 5592 5595 5598 5601 5604 5607 5609 5612 5615 5618 5621 5624 5626 5628 5631 5634 5637 5640 5643 5646 5649 5652 5654 5657 5660 5663 5666 5669 5672 5675 5678 5681 5684 5687 5690 5693 5696 5698 5701 5704 5707 5710 5713 5715 5717 5720 5723 5726 5729 5732 5735 5738 5741 5744 5747 5750 5753 5756 5759 5762 5765 5768 5771 5774 5777 5780 5783 5786 5789 5792 5795 5798 5801 5804 5807 5810 5813 5816 5819 5822 5825 5828 5831 5834 5837 5840 5843 5846 5849 5852 5855 5858 5861 5864 5867 5870 5872 5875 5878 5881 5884 5887 5890 5893 5896 5899 5902 5905 5908 5911 5914 5916 5918 5921 5924 5927 5929 5932 5935 5938 5940 5942 5945 5948 5950 5952 5955 5958 5961 5964 5967 5970 5973 5976 5979 5982 5985 5988 5991 5994 5997 6000 6003 6006 6009 6012 6015 6018 6021 6024 6027 6030 6033 6036 6039 6042 6045 6048 6051 6054 6057 6060 6063 6066 6069 6072 6075 6078 6081 6084 6087 6090 6093 6096 6099 6102 6105 6108 6111 6113 6116 6119 6121 6124 6127 6130 6132 6135 6138 6141 6143 6146 6149 6152 6154 6157 6160 6163 6166 6169 6172 6175 6177 6180 6183 6186 6188 6191 6193 6195 6197 6199 6202 6205 6208 6211 6214 6217 6220 6223 6226 6229 6232 6235 6238 6241 6244 6247 6250 6253 6256 6259 6261 6264 6267 6270 6273 6276 6279 6282 6285 6288 6290 6292 6295 6297 6300 6303 6306 6309 6311 6314 6317 6320 6323 6326 6329 6332 6335 6338 6340 6343 6345 6348 6351 6354 6357 6359 6362 6365 6367 6370 6373 6376 6379 6382 6384 6387 6390 6393 6395 6397 6399 6402 6405 6407 6410 6413 6415 6418 6421 6424 6426 6429 6432 6434 6437 6440 6443 6446 6449 6451 6453 6456 6458 6460 6463 6466 6469 6472 6475 6478 6480 6483 6486 6488 6491 6494 6497 6500 6503 6506 6509 6512 6515 6518 6521 6524 6527 6530 6533 6536 6539 6542 6545 6548 6551 6554 6556 6558 6560 6563 6566 6569 6572 6575 6577 6580 6583 6586 6589 6592 6595 6598 6601 6604 6607 6609 6612 6615 6618 6621 6624 6627 6630 6633 6636 6639 6642 6644 6647 6650 6653 6656 6659 6662 6665 6668 6670 6673 6676 6679 6682 6685 6688 6690 6693 6696 6698 6701 6703 6706 6709 6712 6714 6716 6719 6722 6725 6728 6730 6733 6736 6738 6741 6744 6747 6750 6753 6756 6759 6762 6764 6767 6770 6773 6776 6779 6782 6785 6788 6791 6794 6797 6800 6803 6805 6808 6811 6814 6817 6820 6823 6826 6829 6832 6835 6838 6841 6844 6847 6850 6853 6855 6858 6861 6864 6867 6870 6873 6875 6878 6880 6883 6886 6889 6892 6895 6898 6901 6904 6906 6909 6912 6915 6918 6921 6924 6926 6928 6931 6934 6937 6940 6943 6946 6949 6951 6953 6956 6959 6962 6965 6968 6971 6974 6977 6979 6982 6985 6988 6991 6994 6997 7000 7003 7006 7009 7012 7014 7017 7020 7023 7026 7029 7032 7035 7038 7041 7044 7047 7050 7053 7056 7059 7062 7065 7067 7070 7073 7076 7079 7082 7085 7088 7091 7094 7096 7099 7102 7104 7107 7109 7112 7115 7118 7121 7124 7127 7129 7131 7134 7137 7139 7142 7145 7148 7151 7154 7157 7160 7163 7165 7168 7170 7173 7176 7179 7182 7185 7188 7191 7194 7197 7200 7202 7205 7208 7211 7213 7216 7219 7222 7224 7227 7230 7233 7236 7238 7241 7244 7247 7250 7253 7256 7259 7262 7264 7267 7270 7272 7275 7278 7281 7283 7286 7289 7292 7295 7297 7300 7303 7306 7309 7312 7314 7317 7320 7323 7326 7329 7331 7334 7337 7340 7343 7346 7349 7352 7355 7358 7361 7364 7366 7369 7372 7374 7377 7380 7383 7386 7388 7390 7393 7395 7398 7401 7403 7406 7409 7412 7415 7418 7421 7423 7426 7429 7432 7435 7438 7441 7444 7447 7450 7453 7456 7459 7462 7464 7467 7470 7472 7475 7478 7481 7484 7487 7490 7493 7495 7498 7501 7504 7507 7510 7513 7516 7519 7522 7525 7528 7530 7532 7535 7538 7541 7543 7546 7549 7552 7555 7558 7561 7564 7567 7570 7573 7575 7578 7581 7584 7586 7589 7592 7595 7598 7601 7604 7607 7610 7612 7615 7618 7621 7624 7627 7630 7633 7636 7638 7641 7643 7646 7649 7652 7655 7657 7660 7663 7665 7668 7671 7673 7676 7679 7682 7685 7688 7691 7694 7696 7699 7702 7705 7707 7710 7713 7716 7719 7722 7725 7728 7731 7734 7737 7739 7742 7744 7747 7750 7752 7755 7757 7759 7762 7765 7768 7771 7774 7776 7779 7782 7785 7787 7789 7792 7795 7798 7801 7804 7807 7810 7813 7816 7819 7822 7825 7828 7831 7834 7836 7839 7842 7845 7848 7850 7853 7856 7859 7861 7864 7867 7870 7873 7876 7879 7882 7884 7887 7890 7893 7896 7898 7901 7904 7907 7909 7912 7915 7918 7921 7923 7926 7928 7931 7934 7937 7939 7941 7943 7946 7949 7951 7954 7957 7960 7962 7965 7967 7969 7972 7975 7978 7981 7983 7986 7989 7992 7995 7998 8000 8003 8006 8009 8012 8015 8018 8021 8024 8027 8030 8033 8035 8038 8041 8044 8046 8049 8052 8055 8058 8061 8064 8067 8069 8072 8075 8078 8081 8084 8087 8090 8093 8096 8099 8102 8105 8108 8111 8114 8117 8120 8123 8126 8129 8132 8135 8138 8141 8144 8147 8150 8153 8156 8159 8162 8165 8168 8171 8174 8177 8180 8182 8185 8187 8189 8192 8195 8198 8201 8204 8207 8210 8213 8216 8219 8222 8225 8228 8231 8234 8237 8240 8243 8246 8249 8251 8254 8257 8260 8263 8265 8268 8271 8274 8277 8280 8283 8286 8289 8292 8295 8298 8301 8304 8307 8310 8313 8316 8319 8322 8324 8327 8330 8333 8336 8339 8342 8345 8348 8350 8353 8356 8358 8361 8363 8366 8369 8371 8374 8376 8379 8381 8384 8387 8389 8392 8395 8398 8400 8402 8404 8407 8410 8413 8415 8418 8421 8423 8426 8428 8431 8434 8437 8440 8443 8445 8448 8451 8454 8457 8460 8463 8466 8468 8471 8474 8477 8479 8482 8485 8488 8491 8494 8497 8500 8502 8505 8508 8511 8513 8516 8518 8521 8524 8527 8530 8533 8536 8539 8542 8545 8547 8550 8553 8556 8559 8562 8565 8568 8571 8574 8577 8580 8583 8586 8589 8592 8595 8598 8601 8604 8607 8610 8613 8616 8619 8622 8625 8628 8631 8634 8637 8640 8643 8646 8649 8652 8655 8658 8660 8663 8666 8669 8671 8674 8677 8680 8683 8686 8689 8691 8693 8696 8698 8701 8703 8706 8709 8711 8714 8717 8720 8723 8725 8727 8729 8732 8735 8738 8741 8744 8747 8750 8753 8756 8759 8762 8764 8766 8769 8772 8775 8778 8781 8783 8785 8788 8790 8793 8795 8798 8801 8803 8806 8809 8812 8815 8817 8819 8822 8825 8827 8829 8832 8835 8837 8839 8842 8845 8847 8850 8852 8855 8858 8861 8864 8867 8870 8873 8876 8879 8882 8885 8888 8891 8893 8896 8898 8901 8903 8906 8909 8911 8914 8917 8920 8923 8926 8929 8931 8934 8937 8940 8943 8946 8949 8952 8955 8958 8961 8964 8967 8970 8973 8976 8978 8981 8984 8987 8990 8993 8996 8999 9001 9004 9007 9009 9012 9015 9017 9019 9022 9025 9028 9031 9033 9036 9039 9042 9045 9048 9051 9054 9057 9060 9063 9066 9069 9072 9075 9078 9081 9084 9087 9090 9092 9095 9098 9101 9104 9106 9109 9112 9114 9116 9119 9121 9124 9127 9130 9133 9136 9139 9141 9144 9147 9149 9152 9155 9158 9161 9164 9167 9170 9172 9175 9178 9180 9183 9185 9188 9191 9194 9197 9200 9203 9206 9209 9212 9214 9217 9220 9222 9225 9228 9231 9234 9237 9239 9242 9245 9248 9251 9254 9257 9260 9263 9266 9269 9272 9275 9278 9281 9284 9287 9290 9293 9296 9299 9302 9305 9307 9309 9312 9315 9318 9321 9324 9326 9329 9332 9335 9338 9340 9343 9346 9349 9352 9355 9358 9360 9363 9366 9369 9372 9375 9378 9381 9384 9386 9389 9392 9395 9397 9400 9403 9405 9408 9411 9414 9417 9420 9422 9425 9427 9430 9433 9435 9438 9441 9444 9447 9450 9453 9456 9459 9461 9464 9467 9470 9473 9475 9478 9481 9484 9487 9490 9493 9496 9499 9501 9504 9507 9510 9513 9516 9519 9521 9524 9527 9530 9532 9535 9538 9541 9544 9547 9550 9553 9556 9559 9562 9565 9568 9570 9573 9576 9579 9582 9585 9587 9590 9593 9596 9599 9602 9605 9608 9611 9614 9617 9620 9623 9626 9629 9632 9635 9638 9641 9644 9647 9650 9653 9656 9659 9662 9665 9668 9671 9674 9677 9680 9682 9684 9687 9690 9693 9696 9699 9702 9705 9708 9711 9714 9717 9720 9723 9726 9729 9732 9735 9738 9740 9743 9746 9749 9751 9754 9757 9760 9763 9765 9767 9770 9773 9776 9779 9781 9784 9786 9789 9792 9795 9798 9800 9803 9806 9809 9811 9814 9817 9820 9823 9826 9829 9831 9834 9837 9839 9842 9845 9847 9850 9853 9856 9859 9862 9865 9868 9871 9874 9876 9879 9882 9885 9888 9890 9893 9896 9899 9901 9904 9907 9910 9913 9916 9918 9921 9924 9927 9930 9933 9935 9938 9941 9944 9947 9949 9952 9955 9958 9961 9964 9967 9970 9973 9976 9979 9981 9984 9987 9990 9993 9995 9998 10001 10004 10006 10009 10012 10015 10018 10021 10024 10027 10030 10033 10036 10038 10041 10044 10047 10049 10051 10054 10057 10060 10063 10066 10069 10072 10075 10078 10081 10084 10086 10089 10092 10095 10097 10100 10103 10106 10108 10111 10114 10117 10120 10123 10125 10128 10131 10133 10136 10139 10142 10145 10148 10151 10154 10157 10160 10163 10166 10169 10172 10175 10178 10181 10183 10186 10188 10191 10194 10197 10200 10203 10205 10208 10211 10214 10217 10220 10223 10226 10229 10232 10234 10237 10240 10243 10246 10249 10252 10254 10257 10260 10263 10266 10269 10272 10275 10277 10280 10283 10286 10289 10292 10294 10297 10299 10302 10304 10307 10310 10312 10315 10318 10321 10324 10327 10329 10331 10334 10336 10339 10342 10344 10346 10349 10352 10355 10358 10361 10364 10367 10369 10372 10375 10378 10381 10384 10387 10390 10393 10396 10399 10402 10405 10408 10411 10414 10417 10420 10422 10425 10428 10431 10433 10436 10438 10441 10444 10447 10450 10452 10455 10458 10461 10464 10466 10469 10472 10475 10478 10480 10483 10486 10488 10491 10494 10497 10500 10503 10506 10509 10512 10515 10518 10521 10524 10526 10529 10532 10535 10538 10541 10544 10547 10549 10552 10555 10558 10561 10563 10566 10569 10572 10575 10578 10581 10584 10587 10590 10593 10596 10599 10602 10605 10608 10611 10614 10617 10619 10622 10625 10628 10631 10634 10636 10639 10642 10645 10648 10650 10652 10655 10658 10661 10664 10667 10669 10672 10675 10677 10680 10683 10685 10688 10691 10694 10697 10700 10703 10706 10709 10712 10715 10718 10721 10724 10727 10729 10732 10735 10738 10741 10744 10747 10750 10752 10755 10758 10761 10764 10767 10770 10773 10775 10778 10780 10783 10785 10788 10791 10794 10797 10799 10802 10804 10807 10810 10813 10815 10818 10821 10824 10826 10829 10832 10835 10837 10840 10843 10846 10849 10852 10854 10857 10860 10863 10865 10868 10871 10874 10877 10880 10882 10885 10888 10891 10893 10896 10899 10902 10905 10908 10911 10913 10916 10919 10921 10924 10927 10929 10932 10935 10938 10940 10943 10946 10949 10952 10955 10958 10961 10964 10967 10969 10972 10975 10978 10980 10983 10986 10988 10991 10994 10997 11000 11003 11006 11009 11012 11015 11017 11020 11023 11026 11029 11032 11035 11038 11041 11044 11047 11049 11052 11054 11057 11060 11063 11065 11068 11071 11073 11076 11079 11082 11085 11088 11091 11094 11097 11100 11103 11106 11109 11111 11114 11117 11119 11122 11125 11128 11131 11134 11137 11140 11143 11146 11149 11152 11155 11158 11161 11164 11167 11169 11172 11175 11178 11181 11184 11187 11190 11193 11196 11199 11202 11205 11208 11211 11213 11216 11219 11222 11224 11227 11230 11233 11236 11239 11242 11244 11247 11250 11253 11256 11258 11261 11264 11267 11270 11273 11276 11279 11282 11285 11288 11291 11293 11296 11299 11302 11305 11308 11311 11314 11317 11320 11323 11326 11329 11332 11335 11338 11340 11343 11346 11349 11352 11355 11358 11360 11363 11366 11369 11371 11374 11377 11379 11382 11385 11388 11391 11393 11396 11399 11402 11405 11408 11411 11414 11417 11420 11423 11426 11429 11431 11434 11437 11440 11443 11446 11449 11451 11453 11456 11458 11461 11464 11467 11470 11473 11476 11479 11482 11485 11488 11491 11494 11497 11500 11503 11506 11508 11511 11514 11517 11519 11522 11525 11528 11531 11534 11537 11540 11543 11546 11548 11551 11554 11557 11560 11563 11566 11569 11572 11575 11578 11580 11583 11586 11589 11592 11594 11597 11600 11603 11606 11609 11612 11615 11618 11621 11624 11627 11630 11633 11635 11638 11641 11644 11647 11650 11653 11655 11658 11661 11664 11667 11670 11673 11676 11679 11682 11685 11688 11691 11694 11697 11699 11702 11704 11707 11710 11713 11716 11719 11722 11725 11728 11731 11733 11736 11739 11742 11745 11748 11751 11754 11757 11760 11763 11766 11769 11772 11774 11777 11780 11783 11786 11788 11790 11793 11796 11799 11802 11805 11807 11810 11813 11816 11819 11822 11825 11828 11831 11834 11837 11840 11842 11845 11847 11850 11853 11856 11859 11861 11863 11866 11869 11872 11875 11878 11880 11883 11886 11888 11890 11893 11895 11897 11900 11903 11906 11909 11912 11915 11918 11921 11924 11927 11930 11933 11936 11939 11942 11945 11948 11951 11954 11957 11960 11963 11965 11968 11971 11974 11977 11980 11983 11986 11988 11991 11994 11997 12000 12003 12005 12008 12011 12013 12015 12018 12020 12023 12026 12029 12032 12035 12038 12040 12043 12046 12049 12052 12055 12058 12061 12064 12067 12070 12073 12076 12079 12082 12085 12088 12091 12094 12097 12100 12103 12106 12109 12112 12115 12118 12121 12124 12127 12129 12132 12135 12138 12141 12144 12147 12150 12153 12155 12158 12161 12164 12167 12170 12173 12176 12179 12182 12185 12188 12191 12194 12197 12200 12203 12206 12208 12211 12214 12217 12220 12223 12226 12228 12231 12234 12237 12240 12243 12246 12249 12252 12255 12258 12261 12264 12267 12270 12273 12276 12279 12282 12285 12288 12291 12293 12296 12299 12302 12304 12307 12310 12313 12316 12319 12322 12325 12327 12330 12333 12336 12339 12342 12345 12348 12350 12353 12356 12359 12362 12365 12368 12371 12374 12377 12380 12383 12386 12389 12392 12395 12398 12401 12404 12407 12410 12413 12416 12419 12422 12425 12428 12431 12433 12436 12439 12442 12445 12448 12451 12454 12457 12460 12463 12466 12469 12472 12475 12478 12480 12483 12486 12489 12492 12495 12498 12501 12504 12506 12509 12511 12514 12517 12520 12523 12526 12528 12531 12534 12537 12540 12543 12546 12549 12552 12555 12558 12561 12564 12567 12570 12573 12576 12579 12582 12584 12587 12590 12592 12595 12598 12601 12604 12607 12609 12612 12615 12618 12621 12623 12625 12628 12631 12634 12637 12640 12643 12646 12649 12652 12654 12657 12660 12662 12665 12668 12671 12674 12677 12680 12683 12686 12689 12692 12695 12698 12701 12704 12707 12710 12713 12715 12718 12721 12724 12727 12730 12733 12736 12738 12741 12744 12747 12750 12752 12755 12758 12761 12764 12767 12770 12773 12776 12779 12782 12785 12788 12791 12794 12797 12800 12803 12806 12809 12812 12814 12817 12820 12823 12826 12828 12831 12834 12837 12840 12843 12846 12848 12851 12854 12857 12860 12863 12866 12869 12872 12875 12878 12881 12884 12887 12890 12893 12896 12899 12902 12905 12908 12911 12914 12917 12920 12923 12926 12929 12932 12935 12938 12941 12944 12947 12950 12953 12956 12959 12962 12965 12968 12971 12974 12977 12980 12983 12986 12989 12992 12995 12997 12999 13002 13005 13008 13011 13013 13016 13019 13022 13025 13027 13030 13033 13036 13039 13042 13045 13048 13051 13054 13057 13060 13063 13066 13069 13072 13075 13077 13080 13083 13086 13089 13092 13095 13097 13100 13103 13106 13109 13112 13114 13117 13120 13123 13126 13129 13132 13135 13138 13141 13144 13147 13150 13153 13156 13159 13162 13165 13168 13171 13173 13176 13179 13182 13185 13188 13191 13194 13197 13200 13203 13206 13209 13212 13215 13218 13221 13223 13226 13229 13231 13233 13236 13239 13242 13245 13247 13249 13251 13254 13257 13260 13263 13266 13269 13272 13275 13278 13281 13284 13287 13290 13293 13296 13299 13302 13305 13307 13310 13313 13315 13318 13321 13324 13327 13330 13333 13336 13339 13342 13344 13347 13350 13353 13356 13359 13362 13364 13367 13370 13373 13375 13377 13379 13382 13385 13387 13390 13393 13395 13398 13401 13404 13407 13410 13413 13416 13419 13421 13424 13427 13430 13433 13435 13437 13440 13442 13445 13448 13451 13454 13457 13460 13463 13466 13469 13471 13474 13477 13480 13482 13485 13488 13490 13492 13495 13498 13500 13503 13506 13509 13512 13514 13517 13520 13523 13526 13529 13532 13535 13538 13541 13544 13547 13550 13553 13556 13559 13562 13565 13568 13570 13573 13576 13579 13582 13585 13588 13591 13594 13597 13600 13602 13605 13608 13610 13613 13616 13619 13622 13625 13628 13630 13633 13636 13639 13642 13645 13648 13651 13654 13657 13660 13663 13666 13668 13671 13674 13677 13679 13682 13685 13688 13691 13694 13697 13700 13703 13706 13709 13712 13715 13717 13720 13723 13726 13729 13731 13734 13737 13739 13741 13744 13747 13750 13753 13756 13759 13762 13765 13768 13771 13774 13777 13780 13783 13786 13789 13792 13795 13798 13801 13804 13807 13810 13813 13816 13819 13822 13824 13827 13830 13832 13835 13838 13841 13844 13847 13850 13853 13856 13859 13862 13865 13868 13871 13874 13877 13880 13883 13886 13889 13892 13895 13898 13901 13904 13906 13909 13912 13915 13918 13921 13924 13927 13930 13933 13936 13938 13941 13944 13947 13950 13953 13955 13957 13960 13963 13966 13968 13971 13974 13977 13980 13983 13986 13988 13990 13993 13995 13998 14001 14004 14007 14010 14012 14015 14018 14021 14024 14027 14030 14033 14036 14039 14042 14045 14048 14051 14054 14057 14060 14063 14066 14068 14070 14073 14076 14079 14082 14084 14087 14090 14093 14096 14099 14102 14105 14108 14111 14114 14117 14120 14122 14125 14127 14129 14132 14135 14138 14141 14144 14147 14149 14152 14155 14158 14161 14164 14166 14168 14171 14174 14176 14179 14182 14185 14187 14190 14193 14196 14199 14202 14205 14207 14210 14212 14215 14218 14220 14223 14225 14228 14231 14234 14236 14239 14242 14245 14247 14250 14253 14256 14259 14262 14265 14268 14271 14274 14277 14280 14283 14286 14289 14291 14293 14296 14299 14302 14305 14308 14311 14314 14317 14320 14323 14326 14329 14332 14335 14338 14341 14344 14346 14349 14352 14355 14358 14361 14364 14367 14369 14372 14375 14378 14381 14384 14387 14390 14393 14396 14399 14402 14405 14408 14411 14414 14417 14420 14423 14426 14429 14432 14435 14438 14441 14444 14447 14450 14453 14456 14459 14462 14465 14468 14471 14474 14477 14480 14483 14486 14489 14492 14495 14498 14501 14504 14507 14510 14512 14515 14517 14520 14523 14526 14529 14531 14534 14537 14540 14543 14546 14549 14552 14555 14558 14561 14564 14567 14570 14573 14575 14578 14581 14584 14586 14589 14592 14595 14598 14601 14604 14607 14610 14613 14616 14619 14622 14625 14628 14631 14634 14637 14640 14643 14646 14648 14651 14654 14657 14660 14663 14666 14669 14672 14675 14678 14681 14684 14687 14690 14693 14696 14698 14701 14704 14707 14710 14713 14716 14719 14722 14725 14728 14730 14733 14736 14739 14742 14744 14747 14750 14753 14755 14758 14760 14763 14765 14767 14770 14773 14775 14778 14781 14784 14787 14790 14793 14796 14799 14802 14805 14808 14811 14814 14817 14820 14823 14826 14829 14832 14835 14838 14841 14844 14847 14849 14852 14855 14858 14861 14864 14867 14869 14872 14874 14876 14879 14882 14885 14888 14891 14894 14896 14899 14902 14905 14908 14911 14914 14917 14919 14922 14925 14928 14931 14934 14937 14940 14943 14946 14949 14952 14955 14958 14961 14964 14967 14970 14973 14976 14979 14982 14985 14988 14991 14994 14997 15000 15003 15005 15007 15010 15013 15016 15019 15022 15025 15028 15031 15034 15037 15040 15043 15046 15049 15052 15055 15058 15061 15064 15067 15070 15073 15076 15079 15082 15085 15088 15091 15094 15097 15100 15103 15106 15109 15112 15115 15118 15121 15124 15126 15129 15132 15135 15138 15140 15143 15146 15148 15151 15154 15157 15160 15163 15166 15169 15172 15175 15178 15181 15184 15187 15190 15193 15196 15199 15202 15205 15208 15211 15214 15217 15220 15223 15226 15229 15232 15235 15238 15241 15244 15247 15250 15252 15255 15258 15261 15264 15267 15270 15273 15276 15279 15282 15285 15288 15291 15294 15297 15300 15303 15306 15309 15311 15314 15317 15320 15323 15326 15329 15331 15334 15337 15340 15343 15346 15349 15352 15355 15358 15361 15364 15367 15369 15372 15375 15378 15381 15384 15387 15390 15393 15396 15399 15401 15404 15407 15410 15413 15416 15419 15422 15425 15427 15430 15433 15436 15439 15442 15445 15448 15451 15454 15457 15460 15463 15466 15469 15472 15475 15478 15481 15484 15487 15490 15493 15496 15499 15502 15505 15508 15511 15514 15517 15520 15523 15526 15529 15532 15535 15538 15541 15544 15547 15550 15553 15556 15559 15562 15565 15568 15571 15574 15576 15579 15582 15585 15588 15591 15594 15597 15600 15603 15606 15609 15612 15615 15618 15621 15624 15627 15630 15633 15636 15639 15642 15644 15647 15649 15652 15655 15658 15661 15664 15667 15670 15673 15676 15679 15682 15685 15688 15691 15694 15697 15700 15703 15706 15709 15712 15715 15718 15721 15724 15727 15730 15733 15736 15739 15742 15745 15748 15751 15754 15757 15760 15763 15766 15769 15772 15775 15778 15781 15784 15787 15790 15793 15796 15799 15802 15805 15808 15811 15814 15816 15819 15822 15825 15828 15831 15834 15837 15840 15843 15846 15849 15852 15855 15858 15861 15864 15867 15870 15873 15876 15879 15882 15884 15887 15890 15893 15896 15899 15902 15905 15908 15911 15914 15917 15920 15923 15926 15929 15932 15935 15938 15941 15944 15947 15950 15953 15956 15959 15962 15965 15968 15971 15974 15977 15980 15983 15985 15987 15990 15993 15996 15999 16002 16005 16008 16011 16014 16017 16020 16023 16026 16029 16032 16035 16037 16040 16043 16046 16049 16052 16055 16058 16061 16064 16066 16069 16071 16074 16077 16080 16083 16086 16089 16092 16094 16096 16098 16101 16104 16106 16109 16111 16114 16117 16120 16123 16126 16129 16132 16134 16137 16140 16143 16145 16148 16151 16154 16157 16159 16162 16164 16167 16169 16172 16175 16178 16180 16183 16186 16189 16192 16195 16198 16201 16204 16207 16210 16213 16216 16219 16222 16225 16228 16230 16233 16236 16238 16241 16244 16247 16250 16253 16255 16258 16261 16264 16267 16270 16272 16275 16278 16280 16283 16286 16289 16292 16295 16298 16301 16304 16307 16310 16313 16316 16318 16320 16323 16326 16329 16332 16335 16338 16340 16343 16346 16349 16352 16355 16358 16361 16364 16367 16370 16373 16376 16378 16381 16384 16387 16389 16392 16395 16398 16401 16403 16405 16408 16411 16413 16416 16419 16422 16425 16428 16431 16434 16437 16440 16443 16446 16449 16452 16455 16457 16460 16463 16466 16468 16471 16474 16477 16480 16483 16486 16488 16490 16492 16495 16498 16500 16503 16506 16509 16511 16513 16516 16519 16522 16525 16528 16530 16533 16536 16539 16542 16545 16548 16550 16553 16556 16559 16562 16565 16568 16571 16574 16577 16579 16582 16585 16588 16591 16593 16596 16599 16602 16605 16608 16611 16614 16617 16620 16623 16625 16627 16630 16633 16636 16638 16641 16643 16646 16649 16652 16655 16658 16661 16664 16667 16670 16673 16676 16679 16682 16685 16688 16691 16694 16697 16700 16703 16705 16708 16711 16714 16717 16719 16722 16725 16728 16730 16733 16736 16739 16742 16745 16748 16751 16754 16757 16760 16763 16766 16768 16770 16773 16776 16779 16782 16785 16788 16791 16794 16797 16800 16803 16806 16809 16812 16815 16818 16821 16824 16827 16830 16833 16836 16839 16842 16845 16848 16851 16853 16856 16859 16862 16865 16867 16870 16873 16876 16879 16882 16885 16888 16891 16894 16897 16900 16903 16906 16909 16912 16915 16918 16921 16924 16927 16930 16933 16936 16939 16942 16945 16948 16951 16954 16957 16960 16963 16966 16969 16972 16975 16978 16981 16984 16987 16990 16993 16996 16999 17002 17005 17008 17011 17014 17017 17020 17022 17025 17028 17031 17034 17037 17040 17043 17046 17048 17051 17054 17057 17060 17063 17066 17069 17072 17075 17078 17081 17084 17087 17090 17093 17096 17099 17102 17105 17108 17111 17114 17117 17120 17123 17126 17129 17132 17135 17138 17141 17144 17147 17150 17153 17156 17159 17162 17165 17168 17171 17173 17176 17179 17182 17185 17188 17190 17193 17196 17199 17202 17205 17208 17211 17213 17216 17219 17222 17225 17228 17231 17233 17236 17239 17242 17245 17248 17251 17254 17257 17260 17262 17264 17267 17270 17273 17276 17279 17281 17284 17287 17290 17293 17296 17299 17302 17305 17308 17311 17314 17317 17320 17323 17326 17329 17332 17335 17338 17341 17344 17347 17349 17352 17354 17357 17360 17363 17366 17369 17372 17375 17378 17381 17384 17387 17390 17393 17396 17399 17402 17405 17408 17411 17414 17417 17420 17423 17426 17429 17432 17435 17438 17441 17444 17447 17450 17453 17456 17459 17462 17465 17468 17471 17474 17477 17480 17483 17486 17489 17492 17495 17497 17500 17503 17506 17508 17511 17514 17517 17520 17523 17526 17529 17532 17535 17538 17541 17544 17547 17550 17553 17556 17559 17562 17565 17568 17571 17574 17577 17580 17583 17586 17589 17592 17595 17598 17601 17604 17607 17610 17613 17616 17619 17622 17625 17628 17631 17634 17637 17640 17643 17646 17649 17652 17655 17658 17661 17664 17667 17670 17673 17676 17679 17682 17685 17688 17691 17694 17697 17700 17703 17706 17708 17711 17714 17717 17720 17722 17725 17728 17731 17734 17737 17740 17743 17746 17749 17752 17755 17758 17761 17764 17767 17770 17773 17776 17779 17782 17785 17788 17791 17794 17797 17800 17803 17806 17809 17812 17814 17817 17820 17823 17826 17829 17832 17835 17838 17841 17844 17846 17849 17851 17854 17857 17859 17862 17865 17867 17870 17873 17876 17879 17881 17884 17886 17888 17891 17894 17897 17899 17901 17904 17907 17910 17913 17916 17919 17922 17924 17927 17929 17932 17935 17938 17941 17944 17947 17950 17952 17954 17956 17959 17962 17965 17968 17971 17973 17976 17979 17982 17985 17987 17990 17993 17996 17999 18002 18005 18008 18011 18014 18017 18020 18023 18026 18029 18032 18034 18037 18040 18043 18046 18049 18052 18055 18058 18061 18063 18066 18069 18071 18074 18076 18079 18082 18084 18087 18090 18093 18096 18098 18101 18104 18106 18109 18112 18115 18118 18121 18123 18125 18128 18131 18134 18136 18139 18141 18144 18147 18150 18153 18156 18159 18162 18165 18168 18171 18174 18176 18179 18182 18185 18187 18190 18193 18196 18199 18202 18205 18208 18211 18214 18216 18219 18222 18225 18228 18230 18233 18236 18239 18242 18244 18247 18250 18252 18255 18258 18261 18264 18267 18270 18273 18276 18279 18281 18283 18286 18289 18292 18295 18298 18301 18303 18306 18309 18312 18315 18317 18319 18321 18324 18327 18330 18332 18335 18338 18340 18343 18346 18349 18352 18355 18358 18361 18364 18367 18370 18373 18375 18378 18380 18383 18386 18389 18391 18394 18396 18398 18401 18404 18407 18410 18413 18416 18419 18422 18425 18428 18431 18434 18437 18440 18442 18445 18447 18450 18453 18456 18458 18461 18464 18467 18469 18472 18475 18478 18481 18483 18485 18487 18489 18492 18495 18498 18501 18504 18507 18510 18513 18516 18518 18521 18524 18526 18529 18532 18535 18538 18541 18544 18547 18550 18552 18555 18558 18561 18564 18567 18570 18573 18576 18579 18582 18585 18588 18591 18594 18597 18600 18603 18606 18609 18612 18615 18618 18621 18624 18626 18629 18632 18635 18638 18640 18643 18646 18649 18652 18655 18657 18660 18663 18666 18669 18672 18675 18678 18681 18684 18686 18689 18692 18695 18698 18700 18703 18706 18709 18712 18715 18718 18721 18724 18727 18730 18733 18736 18739 18742 18745 18747 18750 18753 18755 18758 18761 18764 18766 18769 18772 18775 18778 18781 18784 18787 18790 18793 18796 18799 18802 18805 18808 18811 18814 18817 18819 18822 18825 18827 18830 18833 18836 18839 18842 18845 18848 18850 18852 18855 18858 18861 18863 18866 18869 18872 18875 18877 18880 18883 18886 18889 18891 18894 18897 18900 18903 18906 18909 18911 18914 18917 18920 18923 18926 18929 18932 18935 18938 18940 18943 18946 18949 18952 18955 18958 18961 18963 18966 18968 18971 18973 18976 18979 18982 18985 18988 18990 18993 18996 18999 19002 19004 19007 19010 19013 19016 19019 19022 19025 19028 19031 19034 19037 19040 19043 19046 19049 19052 19055 19057 19060 19062 19065 19068 19071 19074 19077 19080 19082 19085 19088 19091 19093 19096 19099 19102 19105 19108 19111 19114 19117 19120 19123 19126 19129 19132 19135 19138 19141 19144 19147 19150 19153 19156 19159 19162 19165 19168 19171 19174 19177 19180 19183 19186 19189 19192 19195 19197 19200 19203 19206 19209 19212 19215 19218 19221 19224 19227 19230 19233 19236 19239 19242 19245 19248 19251 19254 19257 19260 19263 19266 19269 19272 19275 19278 19280 19283 19286 19289 19292 19295 19298 19301 19304 19307 19310 19313 19316 19319 19322 19325 19328 19331 19334 19337 19340 19343 19346 19349 19352 19355 19358 19361 19364 19367 19370 19373 19376 19379 19382 19385 19388 19391 19394 19397 19400 19403 19405 19408 19411 19414 19417 19420 19423 19426 19429 19431 19434 19437 19439 19442 19445 19448 19451 19454 19457 19460 19463 19466 19469 19472 19475 19478 19481 19484 19487 19490 19493 19495 19498 19501 19503 19506 19509 19512 19515 19518 19521 19524 19526 19529 19532 19535 19537 19540 19543 19546 19549 19552 19555 19558 19561 19564 19567 19570 19573 19576 19579 19582 19585 19588 19590 19593 19596 19599 19601 19604 19606 19609 19612 19615 19618 19620 19623 19626 19629 19632 19635 19638 19641 19644 19647 19650 19653 19656 19658 19661 19664 19666 19669 19671 19674 19677 19680 19683 19686 19689 19691 19694 19696 19699 19702 19704 19707 19710 19713 19716 19719 19722 19725 19728 19731 19734 19737 19740 19743 19746 19749 19752 19755 19758 19761 19764 19767 19770 19773 19776 19779 19781 19784 19787 19790 19793 19796 19799 19802 19805 19808 19811 19814 19816 19819 19822 19825 19828 19831 19834 19837 19840 19843 19846 19849 19852 19855 19858 19861 19864 19867 19870 19872 19875 19878 19880 19883 19886 19889 19892 19895 19898 19901 19904 19907 19910 19913 19915 19918 19921 19924 19926 19929 19932 19935 19938 19941 19944 19947 19950 19953 19956 19959 19962 19965 19968 19971 19974 19977 19980 19983 19986 19988 19991 19994 19996 19999 20002 20005 20008 20011 20014 20017 20020 20022 20025 20028 20031 20034 20037 20040 20043 20046 20049 20052 20055 20058 20060 20063 20066 20068 20071 20074 20077 20080 20083 20085 20088 20090 20093 20096 20099 20102 20105 20108 20111 20114 20117 20120 20123 20126 20129 20132 20135 20138 20141 20143 20146 20149 20152 20155 20158 20161 20164 20166 20169 20171 20174 20177 20180 20183 20186 20189 20191 20194 20196 20199 20202 20204 20207 20210 20213 20216 20218 20220 20223 20226 20228 20230 20233 20235 20237 20239 20242 20245 20247 20250 20253 20255 20258 20261 20264 20267 20270 20273 20275 20277 20280 20283 20286 20289 20292 20295 20298 20301 20304 20307 20309 20312 20315 20318 20321 20324 20327 20330 20333 20336 20339 20342 20345 20348 20351 20354 20357 20360 20363 20366 20369 20372 20375 20378 20381 20384 20387 20390 20393 20396 20399 20402 20405 20408 20411 20414 20416 20419 20422 20425 20428 20431 20434 20436 20439 20442 20445 20447 20450 20453 20456 20459 20462 20465 20468 20471 20474 20477 20480 20482 20485 20488 20491 20494 20497 20500 20503 20506 20508 20511 20514 20517 20520 20523 20526 20529 20532 20535 20537 20540 20542 20545 20548 20551 20554 20557 20560 20563 20566 20569 20571 20574 20577 20580 20583 20586 20589 20592 20595 20598 20601 20604 20607 20610 20612 20615 20618 20620 20623 20625 20628 20631 20634 20637 20639 20642 20645 20648 20651 20653 20656 20659 20662 20665 20668 20671 20674 20677 20680 20683 20686 20689 20692 20695 20698 20701 20703 20705 20708 20711 20714 20717 20720 20723 20726 20729 20732 20735 20738 20741 20744 20747 20750 20753 20756 20759 20761 20764 20767 20770 20773 20776 20779 20782 20785 20788 20790 20793 20796 20799 20802 20804 20807 20810 20813 20816 20819 20822 20825 20828 20830 20833 20836 20838 20841 20843 20846 20849 20851 20854 20857 20859 20862 20865 20868 20871 20874 20876 20879 20882 20885 20888 20891 20894 20897 20900 20903 20906 20909 20912 20915 20918 20921 20924 20927 20930 20933 20936 20939 20942 20945 20948 20951 20954 20957 20959 20962 20965 20968 20971 20973 20976 20979 20982 20985 20988 20991 20994 20997 21000 21003 21006 21009 21012 21015 21018 21021 21024 21027 21030 21033 21036 21039 21042 21045 21048 21051 21054 21057 21060 21063 21066 21069 21072 21075 21077 21080 21083 21086 21089 21092 21095 21097 21099 21102 21105 21108 21111 21114 21117 21120 21123 21125 21127 21130 21133 21136 21139 21142 21145 21148 21151 21154 21157 21159 21162 21165 21168 21171 21174 21177 21180 21183 21186 21189 21192 21195 21198 21201 21204 21207 21210 21213 21216 21219 21222 21225 21228 21231 21234 21237 21240 21243 21246 21249 21252 21255 21258 21261 21264 21267 21270 21273 21276 21279 21282 21285 21288 21291 21294 21297 21300 21303 21306 21309 21312 21315 21318 21320 21323 21325 21328 21331 21333 21336 21339 21342 21345 21348 21350 21352 21355 21358 21360 21363 21366 21369 21371 21374 21377 21379 21382 21385 21387 21390 21393 21395 21398 21401 21404 21407 21410 21413 21416 21419 21422 21425 21428 21430 21433 21435 21438 21441 21443 21446 21449 21452 21455 21458 21460 21463 21466 21469 21472 21474 21477 21479 21481 21484 21487 21490 21492 21495 21498 21500 21503 21506 21508 21511 21514 21517 21520 21522 21525 21528 21531 21533 21536 21539 21542 21545 21548 21551 21554 21557 21560 21563 21566 21568 21571 21574 21577 21580 21582 21585 21588 21591 21594 21597 21600 21603 21605 21608 21610 21613 21616 21619 21622 21625 21628 21631 21634 21637 21640 21643 21646 21649 21652 21655 21657 21660 21663 21666 21669 21672 21675 21678 21681 21684 21687 21690 21693 21696 21698 21701 21703 21706 21708 21710 21713 21716 21719 21722 21725 21728 21731 21734 21737 21739 21742 21744 21747 21750 21753 21756 21759 21761 21764 21767 21770 21772 21775 21778 21781 21784 21787 21790 21793 21796 21799 21801 21804 21807 21810 21812 21815 21818 21821 21824 21827 21830 21833 21836 21839 21842 21845 21848 21851 21854 21856 21859 21862 21865 21868 21870 21873 21875 21878 21880 21883 21886 21889 21892 21895 21897 21900 21903 21906 21909 21912 21915 21917 21920 21923 21925 21928 21931 21933 21936 21939 21941 21944 21947 21950 21953 21956 21959 21962 21964 21967 21970 21973 21976 21979 21982 21985 21987 21990 21993 21996 21998 22001 22004 22007 22009 22012 22015 22018 22021 22024 22027 22030 22033 22036 22039 22042 22045 22048 22051 22054 22057 22060 22063 22066 22068 22071 22073 22076 22078 22081 22084 22087 22089 22092 22095 22097 22099 22102 22104 22106 22109 22112 22115 22117 22120 22123 22126 22129 22132 22135 22138 22141 22144 22147 22150 22153 22156 22159 22162 22165 22168 22170 22173 22175 22178 22181 22183 22186 22188 22190 22193 22195 22198 22201 22204 22207 22210 22213 22216 22219 22222 22225 22228 22231 22234 22237 22240 22243 22246 22249 22252 22255 22258 22261 22264 22267 22270 22273 22276 22279 22282 22285 22288 22291 22294 22297 22300 22303 22306 22309 22312 22315 22318 22321 22324 22326 22328 22331 22334 22337 22339 22342 22345 22348 22351 22353 22355 22358 22361 22364 22366 22369 22372 22375 22378 22380 22383 22386 22389 22392 22395 22398 22401 22404 22407 22410 22413 22416 22419 22422 22425 22428 22431 22434 22437 22440 22443 22446 22449 22452 22455 22458 22461 22464 22466 22469 22472 22474 22477 22480 22483 22486 22489 22492 22495 22498 22501 22504 22507 22510 22513 22516 22519 22522 22525 22528 22531 22534 22537 22540 22543 22546 22549 22552 22554 22557 22560 22563 22565 22568 22571 22574 22576 22579 22582 22585 22587 22589 22592 22595 22598 22600 22603 22606 22608 22611 22614 22617 22620 22622 22625 22627 22630 22632 22634 22637 22640 22643 22646 22649 22652 22655 22658 22661 22664 22667 22669 22672 22675 22677 22679 22682 22685 22688 22691 22693 22696 22699 22702 22704 22706 22708 22711 22713 22716 22718 22721 22724 22726 22729 22732 22734 22737 22739 22742 22745 22747 22750 22753 22756 22758 22761 22763 22766 22769 22772 22775 22778 22781 22783 22786 22788 22791 22794 22796 22799 22801 22804 22806 22809 22812 22815 22817 22820 22823 22826 22829 22832 22835 22838 22840 22843 22846 22849 22852 22855 22858 22861 22864 22867 22870 22873 22876 22879 22881 22884 22887 22890 22893 22895 22898 22901 22904 22907 22910 22913 22916 22919 22921 22924 22927 22930 22933 22936 22939 22942 22944 22947 22949 22952 22955 22958 22961 22964 22967 22970 22973 22976 22979 22982 22985 22988 22991 22994 22997 23000 23003 23006 23009 23012 23015 23017 23020 23022 23024 23027 23030 23033 23036 23039 23042 23045 23048 23051 23054 23057 23060 23062 23065 23068 23070 23073 23076 23079 23082 23085 23088 23091 23094 23097 23100 23103 23105 23108 23110 23113 23116 23119 23122 23125 23128 23131 23134 23137 23140 23143 23146 23149 23152 23155 23158 23161 23164 23167 23170 23173 23176 23179 23182 23184 23187 23190 23193 23196 23198 23201 23204 23206 23209 23212 23215 23218 23221 23224 23227 23230 23233 23236 23239 23242 23245 23247 23250 23253 23256 23259 23262 23265 23268 23270 23273 23276 23279 23282 23285 23287 23289 23292 23295 23297 23300 23302 23305 23307 23310 23312 23315 23318 23321 23324 23327 23329 23332 23335 23338 23340 23343 23346 23349 23351 23354 23357 23360 23363 23366 23369 23372 23375 23378 23381 23384 23387 23389 23392 23395 23398 23400 23403 23406 23408 23411 23413 23416 23419 23421 23423 23426 23429 23432 23435 23438 23441 23444 23447 23450 23453 23456 23459 23462 23465 23468 23471 23474 23477 23480 23483 23486 23488 23491 23494 23497 23499 23502 23504 23507 23510 23512 23514 23517 23520 23523 23525 23528 23531 23533 23536 23539 23542 23545 23548 23551 23554 23557 23560 23563 23565 23568 23570 23573 23576 23579 23582 23585 23588 23591 23593 23596 23599 23602 23605 23608 23611 23613 23616 23618 23621 23624 23627 23630 23633 23636 23639 23642 23645 23648 23650 23652 23655 23658 23661 23664 23667 23669 23672 23675 23678 23681 23684 23687 23690 23692 23695 23698 23701 23704 23706 23709 23712 23715 23718 23721 23724 23727 23730 23733 23736 23739 23742 23745 23748 23751 23754 23757 23760 23763 23766 23769 23772 23775 23778 23781 23784 23787 23790 23793 23796 23798 23801 23804 23807 23810 23812 23815 23818 23820 23823 23826 23829 23832 23835 23838 23840 23843 23846 23849 23852 23855 23858 23861 23864 23867 23870 23873 23876 23879 23882 23884 23886 23889 23892 23895 23898 23901 23904 23907 23910 23913 23916 23919 23922 23925 23928 23931 23934 23937 23940 23943 23946 23949 23952 23955 23958 23961 23964 23967 23970 23973 23976 23979 23982 23985 23988 23991 23994 23997 23999 24002 24005 24008 24011 24014 24017 24020 24022 24025 24027 24029 24032 24035 24038 24041 24043 24046 24049 24052 24054 24057 24060 24063 24066 24068 24071 24074 24077 24080 24083 24086 24088 24091 24094 24097 24099 24102 24105 24108 24111 24114 24117 24120 24123 24126 24129 24132 24135 24138 24141 24144 24147 24150 24153 24156 24159 24162 24164 24167 24170 24172 24175 24178 24181 24184 24187 24190 24193 24196 24199 24202 24205 24208 24210 24213 24216 24219 24222 24224 24227 24230 24233 24236 24239 24242 24245 24248 24251 24253 24256 24259 24262 24265 24268 24271 24274 24277 24280 24283 24286 24288 24291 24294 24297 24300 24303 24306 24309 24312 24315 24318 24321 24324 24327 24330 24333 24335 24338 24341 24344 24347 24350 24352 24355 24358 24361 24364 24367 24370 24373 24376 24379 24382 24384 24387 24390 24393 24396 24399 24402 24405 24408 24411 24414 24417 24420 24423 24426 24428 24431 24434 24437 24440 24443 24446 24449 24452 24455 24458 24461 24464 24467 24470 24473 24476 24479 24482 24484 24487 24490 24493 24496 24499 24502 24504 24507 24510 24513 24516 24519 24522 24525 24528 24530 24533 24536 24539 24542 24545 24547 24550 24553 24556 24558 24561 24564 24566 24569 24572 24575 24578 24581 24583 24585 24588 24591 24594 24597 24600 24603 24606 24608 24611 24614 24617 24620 24623 24626 24628 24631 24633 24636 24639 24641 24644 24647 24650 24653 24656 24659 24662 24665 24668 24671 24674 24676 24679 24682 24685 24688 24690 24693 24695 24698 24700 24703 24706 24709 24712 24715 24718 24721 24724 24727 24730 24733 24736 24739 24742 24745 24748 24751 24754 24757 24760 24763 24766 24769 24772 24774 24777 24780 24783 24786 24789 24792 24795 24797 24800 24803 24806 24809 24812 24815 24818 24821 24824 24826 24829 24832 24835 24838 24841 24843 24846 24849 24852 24855 24858 24861 24864 24867 24870 24872 24875 24878 24881 24884 24887 24890 24893 24896 24899 24902 24905 24908 24911 24914 24916 24919 24922 24925 24928 24930 24933 24936 24938 24941 24944 24947 24950 24953 24955 24958 24961 24964 24967 24970 24973 24976 24979 24982 24985 24987 24990 24993 24996 24999 25002 25005 25008 25011 25014 25017 25020 25022 25025 25027 25030 25033 25035 25038 25041 25043 25046 25049 25052 25055 25057 25060 25063 25065 25068 25071 25074 25076 25078 25080 25083 25086 25089 25092 25095 25098 25101 25104 25107 25109 25112 25115 25118 25121 25123 25126 25129 25132 25135 25137 25140 25143 25146 25149 25152 25155 25158 25161 25164 25166 25169 25172 25175 25177 25180 25183 25186 25189 25192 25195 25198 25201 25203 25206 25209 25211 25214 25217 25220 25223 25226 25229 25232 25235 25238 25241 25244 25247 25250 25253 25256 25259 25262 25265 25268 25271 25274 25277 25279 25282 25284 25287 25290 25293 25296 25299 25302 25305 25308 25311 25313 25316 25319 25322 25325 25328 25331 25334 25337 25340 25342 25345 25348 25351 25353 25355 25358 25361 25364 25367 25370 25372 25375 25377 25380 25383 25386 25389 25391 25394 25397 25399 25402 25405 25408 25411 25414 25417 25420 25423 25426 25429 25431 25434 25437 25440 25443 25445 25448 25451 25453 25456 25459 25462 25464 25467 25470 25472 25475 25477 25480 25483 25486 25489 25491 25494 25497 25500 25503 25506 25509 25512 25515 25518 25520 25523 25526 25528 25531 25534 25537 25539 25542 25545 25548 25551 25554 25557 25560 25563 25566 25569 25572 25575 25578 25581 25583 25586 25589 25592 25595 25598 25601 25604 25607 25610 25613 25615 25618 25621 25624 25627 25630 25633 25636 25639 25642 25645 25648 25651 25654 25656 25659 25662 25665 25668 25671 25673 25676 25678 25681 25684 25687 25690 25693 25696 25698 25701 25704 25707 25710 25713 25716 25718 25721 25724 25726 25729 25732 25735 25738 25741 25744 25747 25750 25753 25756 25759 25761 25764 25767 25770 25773 25776 25779 25782 25784 25787 25790 25793 25796 25799 25802 25804 25807 25810 25813 25816 25819 25822 25824 25827 25830 25833 25836 25839 25842 25844 25847 25850 25853 25856 25858 25860 25863 25866 25869 25872 25875 25878 25881 25884 25887 25890 25892 25895 25898 25900 25903 25906 25909 25912 25915 25917 25920 25923 25926 25929 25932 25935 25938 25941 25944 25946 25949 25952 25955 25958 25960 25963 25966 25969 25972 25975 25978 25981 25984 25987 25989 25992 25995 25998 26000 26003 26006 26009 26012 26015 26018 26021 26024 26027 26030 26033 26036 26039 26042 26045 26048 26051 26054 26057 26059 26062 26065 26068 26071 26074 26077 26079 26082 26085 26088 26091 26094 26097 26100 26103 26106 26109 26112 26115 26118 26121 26124 26127 26130 26133 26135 26138 26141 26143 26146 26149 26152 26155 26158 26161 26164 26167 26170 26173 26176 26179 26182 26185 26188 26191 26194 26197 26200 26203 26206 26209 26212 26215 26218 26221 26224 26226 26229 26232 26235 26238 26241 26244 26247 26250 26253 26256 26259 26261 26264 26267 26270 26273 26276 26279 26282 26284 26287 26290 26292 26295 26298 26301 26304 26307 26310 26312 26314 26317 26320 26323 26326 26329 26332 26335 26338 26341 26344 26347 26350 26352 26355 26358 26361 26363 26366 26369 26372 26375 26377 26380 26383 26386 26389 26392 26395 26398 26401 26404 26407 26410 26413 26416 26419 26422 26425 26428 26431 26433 26436 26439 26442 26445 26448 26451 26454 26457 26460 26463 26466 26469 26472 26475 26478 26481 26484 26487 26490 26493 26496 26499 26502 26505 26508 26511 26514 26517 26520 26523 26526 26529 26532 26535 26538 26541 26544 26547 26550 26553 26556 26559 26562 26565 26568 26571 26574 26577 26580 26583 26586 26589 26592 26595 26598 26601 26604 26607 26610 26613 26616 26619 26622 26624 26627 26630 26633 26636 26639 26642 26645 26648 26651 26654 26657 26660 26663 26666 26669 26672 26675 26678 26680 26683 26686 26689 26692 26694 26697 26699 26702 26705 26708 26711 26714 26717 26720 26723 26726 26729 26732 26734 26737 26739 26742 26745 26748 26750 26753 26755 26758 26761 26764 26767 26770 26773 26776 26779 26782 26785 26787 26790 26793 26796 26799 26802 26805 26807 26810 26813 26816 26819 26822 26824 26826 26829 26832 26835 26838 26841 26844 26847 26850 26852 26855 26857 26860 26863 26866 26869 26872 26875 26878 26881 26883 26886 26889 26891 26894 26897 26899 26902 26905 26908 26911 26913 26916 26919 26921 26924 26927 26930 26932 26934 26937 26939 26942 26945 26947 26950 26953 26956 26959 26962 26965 26968 26971 26974 26977 26980 26983 26986 26989 26991 26993 26996 26999 27002 27004 27007 27010 27013 27016 27019 27022 27024 27027 27030 27032 27034 27037 27040 27043 27045 27047 27050 27053 27056 27059 27062 27065 27067 27070 27073 27075 27078 27081 27084 27087 27090 27093 27096 27099 27102 27105 27108 27111 27113 27116 27118 27121 27124 27127 27130 27133 27135 27138 27141 27144 27147 27149 27152 27155 27158 27161 27164 27167 27170 27172 27175 27177 27180 27183 27186 27189 27192 27195 27198 27201 27204 27206 27208 27211 27214 27217 27219 27222 27225 27228 27231 27234 27237 27240 27243 27246 27249 27252 27255 27258 27261 27264 27267 27270 27273 27276 27279 27282 27285 27288 27291 27294 27297 27299 27301 27303 27306 27309 27312 27315 27317 27320 27323 27326 27329 27331 27334 27337 27339 27342 27345 27348 27350 27353 27356 27359 27361 27364 27367 27370 27372 27375 27377 27379 27382 27385 27388 27391 27394 27397 27400 27403 27406 27409 27412 27414 27417 27420 27423 27426 27429 27431 27434 27437 27439 27442 27444 27447 27450 27453 27455 27457 27460 27463 27466 27469 27472 27475 27478 27481 27484 27487 27490 27493 27496 27499 27502 27504 27507 27510 27513 27516 27519 27521 27524 27527 27530 27532 27535 27538 27541 27544 27547 27549 27551 27554 27557 27560 27563 27566 27569 27572 27575 27578 27580 27583 27586 27588 27591 27594 27597 27600 27602 27605 27608 27610 27613 27615 27618 27620 27623 27626 27629 27632 27635 27638 27641 27644 27647 27650 27653 27656 27659 27662 27664 27667 27670 27673 27676 27679 27682 27685 27688 27691 27694 27697 27700 27702 27705 27708 27711 27714 27716 27719 27722 27724 27726 27728 27730 27733 27736 27739 27742 27745 27748 27750 27753 27756 27759 27761 27764 27767 27770 27772 27775 27778 27781 27784 27786 27788 27791 27794 27797 27800 27802 27805 27808 27811 27813 27816 27819 27822 27825 27828 27831 27834 27837 27840 27843 27846 27848 27850 27853 27856 27858 27861 27864 27867 27870 27873 27876 27878 27881 27884 27887 27890 27893 27895 27898 27900 27902 27905 27908 27910 27913 27916 27918 27921 27924 27926 27929 27932 27935 27938 27940 27942 27945 27948 27951 27954 27957 27960 27963 27966 27969 27971 27974 27977 27980 27983 27986 27988 27991 27994 27997 28000 28003 28006 28009 28012 28014 28017 28020 28023 28026 28029 28032 28035 28037 28040 28042 28045 28048 28050 28053 28056 28059 28062 28064 28067 28070 28072 28075 28078 28081 28084 28087 28090 28093 28096 28099 28102 28105 28108 28111 28114 28117 28120 28123 28126 28129 28132 28135 28138 28141 28144 28147 28150 28153 28156 28159 28162 28165 28168 28170 28173 28176 28179 28182 28185 28188 28191 28194 28197 28200 28203 28206 28209 28212 28215 28218 28220 28223 28226 28229 28232 28234 28237 28240 28243 28246 28249 28252 28255 28258 28261 28264 28267 28270 28273 28275 28278 28281 28283 28286 28289 28291 28294 28297 28300 28303 28306 28308 28311 28314 28317 28320 28323 28326 28329 28332 28335 28338 28341 28344 28347 28350 28353 28356 28358 28361 28364 28367 28369 28372 28375 28378 28381 28384 28387 28390 28393 28396 28399 28402 28404 28407 28409 28411 28414 28417 28420 28422 28425 28427 28430 28433 28435 28438 28441 28444 28447 28450 28453 28456 28459 28462 28464 28467 28470 28473 28475 28478 28481 28483 28486 28489 28492 28495 28498 28501 28504 28507 28509 28512 28515 28518 28521 28524 28527 28529 28532 28535 28538 28541 28544 28547 28550 28553 28556 28558 28561 28564 28567 28570 28573 28576 28578 28581 28584 28587 28590 28593 28596 28598 28601 28604 28607 28609 28612 28615 28618 28620 28623 28626 28629 28632 28635 28638 28641 28644 28647 28649 28652 28655 28658 28660 28663 28666 28669 28672 28675 28678 28681 28684 28687 28690 28693 28696 28699 28702 28705 28708 28711 28714 28717 28719 28722 28725 28727 28730 28733 28736 28739 28742 28745 28748 28751 28754 28757 28760 28763 28766 28769 28772 28775 28778 28781 28784 28787 28790 28793 28796 28799 28802 28805 28808 28811 28814 28817 28819 28822 28825 28827 28830 28833 28836 28839 28842 28845 28848 28851 28854 28857 28860 28862 28865 28868 28871 28874 28877 28880 28883 28886 28889 28892 28895 28898 28901 28904 28907 28910 28913 28916 28919 28922 28925 28928 28931 28934 28937 28940 28943 28946 28949 28952 28955 28958 28961 28964 28967 28970 28973 28976 28979 28982 28985 28988 28991 28994 28997 29000 29003 29006 29009 29012 29015 29018 29021 29024 29027 29030 29033 29036 29039 29042 29045 29048 29051 29054 29056 29059 29062 29065 29068 29071 29073 29076 29079 29082 29085 29088 29091 29094 29096 29099 29102 29105 29108 29111 29114 29117 29120 29123 29126 29129 29132 29135 29138 29141 29144 29147 29150 29152 29155 29158 29161 29164 29167 29170 29173 29176 29179 29182 29185 29188 29190 29193 29196 29199 29201 29204 29207 29209 29211 29214 29217 29219 29222 29225 29228 29231 29234 29237 29240 29243 29246 29249 29252 29255 29258 29261 29264 29267 29270 29272 29275 29278 29281 29284 29286 29289 29292 29295 29298 29301 29304 29307 29310 29313 29316 29319 29322 29325 29328 29331 29334 29337 29340 29343 29346 29348 29351 29353 29356 29359 29362 29365 29368 29371 29373 29376 29379 29382 29385 29388 29390 29393 29396 29398 29401 29404 29407 29410 29413 29416 29419 29421 29424 29427 29430 29433 29435 29438 29441 29444 29447 29450 29453 29456 29459 29462 29465 29468 29471 29474 29477 29480 29483 29486 29489 29492 29495 29498 29501 29504 29507 29509 29512 29515 29518 29521 29524 29527 29530 29533 29536 29539 29542 29545 29548 29551 29553 29556 29559 29562 29565 29567 29570 29573 29575 29578 29581 29583 29586 29589 29592 29595 29598 29601 29604 29607 29610 29613 29616 29619 29622 29625 29628 29631 29634 29636 29639 29642 29645 29648 29651 29654 29656 29659 29661 29664 29667 29670 29673 29676 29679 29682 29685 29687 29690 29693 29695 29698 29701 29704 29707 29710 29712 29715 29718 29721 29724 29727 29730 29732 29734 29737 29740 29743 29746 29749 29752 29755 29758 29760 29763 29766 29769 29771 29773 29776 29779 29782 29785 29787 29789 29792 29794 29797 29800 29803 29805 29808 29811 29813 29816 29819 29822 29825 29828 29831 29834 29836 29839 29842 29845 29848 29851 29854 29857 29860 29863 29866 29869 29872 29875 29877 29880 29883 29886 29888 29890 29893 29896 29899 29902 29905 29908 29911 29914 29917 29920 29923 29926 29929 29932 29935 29938 29941 29944 29947 29950 29953 29956 29959 29962 29965 29968 29971 29974 29977 29980 29983 29986 29989 29992 29995 29997 30000 30003 30006 30009 30012 30014 30017 30020 30023 30026 30029 30032 30035 30038 30041 30044 30047 30049 30052 30055 30058 30061 30064 30067 30070 30072 30075 30078 30081 30083 30086 30088 30091 30093 30095 30098 30100 30103 30106 30109 30111 30114 30117 30120 30123 30126 30128 30131 30134 30137 30140 30143 30146 30149 30152 30155 30158 30161 30164 30166 30169 30172 30175 30178 30181 30184 30186 30189 30192 30195 30198 30201 30203 30206 30209 30212 30215 30217 30220 30223 30226 30229 30232 30235 30238 30241 30244 30247 30250 30253 30256 30259 30262 30265 30268 30270 30273 30276 30278 30281 30284 30287 30290 30293 30296 30299 30302 30305 30308 30310 30313 30316 30319 30321 30324 30327 30330 30333 30336 30339 30342 30345 30348 30351 30354 30357 30360 30363 30365 30368 30370 30373 30375 30378 30380 30383 30386 30388 30391 30393 30395 30398 30400 30403 30405 30407 30410 30413 30416 30418 30421 30423 30426 30429 30432 30435 30438 30440 30443 30446 30449 30452 30455 30458 30461 30464 30467 30470 30473 30476 30479 30481 30484 30487 30490 30492 30495 30498 30500 30503 30506 30509 30512 30515 30517 30520 30523 30526 30529 30532 30534 30537 30540 30543 30546 30549 30552 30555 30558 30561 30564 30567 30570 30573 30576 30579 30582 30585 30588 30591 30594 30597 30600 30603 30606 30609 30612 30615 30618 30621 30624 30626 30629 30632 30635 30637 30640 30643 30646 30649 30652 30655 30658 30661 30663 30666 30669 30672 30674 30676 30679 30682 30685 30688 30691 30694 30697 30700 30703 30705 30707 30710 30713 30716 30719 30722 30724 30727 30730 30733 30735 30738 30741 30744 30747 30750 30753 30756 30759 30761 30764 30766 30769 30772 30774 30777 30779 30782 30785 30788 30790 30793 30795 30798 30800 30803 30805 30808 30811 30813 30816 30819 30821 30824 30827 30829 30831 30833 30836 30839 30842 30845 30848 30851 30854 30857 30860 30863 30866 30868 30871 30873 30876 30879 30882 30885 30888 30890 30893 30896 30898 30901 30904 30907 30910 30912 30914 30917 30920 30922 30925 30928 30930 30933 30936 30939 30942 30945 30948 30950 30953 30956 30958 30961 30964 30967 30970 30973 30976 30979 30981 30984 30987 30990 30992 30995 30998 31001 31004 31006 31009 31012 31015 31018 31021 31024 31027 31030 31033 31036 31039 31042 31045 31048 31051 31054 31057 31060 31063 31066 31069 31072 31075 31078 31081 31084 31087 31090 31093 31096 31099 31102 31105 31108 31111 31114 31117 31119 31121 31123 31125 31128 31131 31134 31136 31138 31141 31144 31147 31150 31153 31155 31157 31160 31163 31166 31169 31172 31175 31178 31181 31184 31187 31190 31193 31196 31199 31202 31205 31208 31211 31214 31217 31220 31223 31226 31229 31232 31235 31238 31241 31244 31246 31249 31252 31255 31258 31261 31263 31266 31269 31272 31275 31278 31281 31284 31287 31290 31293 31296 31299 31302 31305 31307 31309 31312 31315 31318 31321 31324 31327 31330 31333 31335 31338 31341 31344 31347 31350 31353 31356 31359 31361 31364 31367 31370 31373 31376 31379 31381 31384 31386 31389 31392 31395 31397 31399 31401 31404 31406 31409 31412 31414 31417 31420 31423 31426 31429 31432 31435 31438 31441 31444 31447 31450 31453 31455 31458 31461 31464 31466 31469 31472 31475 31477 31480 31483 31486 31488 31491 31494 31497 31500 31503 31505 31508 31511 31514 31517 31520 31522 31525 31528 31531 31534 31537 31540 31543 31546 31549 31552 31554 31557 31560 31563 31566 31569 31572 31574 31577 31580 31582 31584 31587 31590 31593 31595 31597 31600 31602 31605 31607 31610 31613 31616 31619 31621 31624 31627 31630 31633 31635 31638 31641 31644 31647 31650 31653 31656 31659 31662 31665 31668 31671 31674 31677 31680 31683 31685 31688 31691 31694 31697 31700 31703 31706 31709 31712 31715 31718 31721 31724 31727 31730 31733 31736 31739 31742 31745 31748 31751 31754 31756 31759 31762 31765 31768 31770 31773 31776 31779 31782 31785 31788 31791 31794 31797 31800 31803 
</DataArray>
<DataArray type="UInt32" Name="types" format="ascii">
5 5 5 3 5 5 3 5 5 5 5 5 3 3 5 5 5 5 3 3 5 5 3 5 3 5 5 5 5 5 5 5 5 5 5 5 5 5 5 5 5 5 3 5 5 5 5 5 5 3 5 5 3 5 5 5 5 3 5 5 5 5 5 5 5 5 3 5 5 3 3 5 5 5 3 3 5 5 3 5 5 5 5 5 5 3 5 5 5 5 5 5 5 5 5 3 5 5 3 5 5 5 5 5 5 5 5 5 3 5 5 5 5 5 5 5 5 5 3 5 5 5 5 5 5 5 5 5 5 5 5 3 5 5 5 5 5 3 5 3 5 5 5 5 5 5 3 5 5 3 5 5 3 3 5 5 5 5 3 5 5 5 3 5 5 5 5 5 3 5 5 5 5 5 5 3 5 3 5 5 5 5 5 5 5 5 5 5 5 3 5 5 5 5 5 5 5 5 5 3 5 5 5 5 5 5 5 3 5 5 5 5 5 3 5 3 5 5 5 3 5 5 5 5 5 3 5 5 5 3 5 5 5 5 5 5 3 5 5 5 5 5 5 3 5 5 5 5 5 5 5 5 5 5 5 5 5 5 5 5 5 5 5 5 5 5 5 5 5 5 5 5 5 5 5 3 5 5 5 5 5 5 5 5 3 5 5 3 5 5 5 5 5 3 5 5 3 3 3 3 5 5 5 5 5 5 5 5 5 3 5 5 5 5 5 5 5 5 5 5 5 5 5 5 5 5 3 5 5 5 5 3 3 5 5 5 5 5 3 3 5 5 3 5 5 5 5 3 5 5 3 3 5 5 5 5 3 5 3 5 5 5 5 5 5 3 5 5 5 5 5 5 5 5 5 5 5 3 5 5 5 5 5 5 3 5 5 5 5 5 5 5 5 3 5 5 5 5 3 5 5 5 5 5 5 5 5 5 5 5 5 5 5 5 5 5 5 5 3 5 5 5 5 5 5 5 5 5 5 5 5 5 5 5 5 5 5 5 5 5 5 5 5 5 5 5 5 5 5 5 5 5 5 5 5 5 5 5 5 5 5 5 5 5 5 5 5 5 5 5 5 5 5 5 5 5 5 5 5 5 5 5 5 5 5 5 3 5 3 5 5 3 5 5 5 5 5 5 5 5 5 5 5 3 5 5 5 5 5 5 5 5 5 5 3 5 5 3 5 5 5 3 5 3 3 5 5 3 5 5 5 5 5 5 5 5 5 5 5 5 5 5 5 5 5 5 3 5 5 5 5 5 5 5 5 5 5 5 5 3 5 5 5 5 5 3 5 5 5 5 5 5 3 5 5 5 5 5 5 5 5 5 5 5 5 5 5 5 3 5 5 5 5 3 5 5 5 3 5 5 5 5 5 5 5 5 5 5 5 5 3 5 5 5 5 5 5 5 3 5 5 3 5 5 5 5 5 5 5 5 5 5 5 5 5 5 5 5 5 5 5 5 5 3 5 5 5 5 5 3 5 5 5 5 5 5 5 5 5 3 5 5 5 5 5 5 5 5 3 5 5 3 5 5 3 5 5 5 5 5 5 5 5 5 5 5 5 5 5 5 5 5 5 5 3 5 5 5 5 5 5 5 5 3 3 5 5 5 3 5 5 5 5 3 5 5 5 5 5 3 5 5 5 5 5 5 5 5 5 3 5 5 5 5 5 5 3 5 5 5 3 5 5 5 3 3 5 5 5 3 5 5 5 5 5 5 5 3 5 5 5 5 5 3 5 3 5 5 3 5 5 5 3 5 5 5 5 3 5 3 5 5 5 5 5 5 5 3 5 5 5 3 5 5 5 5 5 5 5 5 5 5 5 5 3 5 5 5 5 5 5 5 5 5 3 5 5 5 3 3 5 5 3 3 5 3 5 5 5 5 5 5 5 5 5 5 5 5 5 5 5 5 5 5 5 5 5 5 5 5 5 5 5 5 5 5 5 5 3 5 5 3 5 5 5 3 5 5 5 5 5 5 5 5 5 5 3 5 5 5 5 5 5 5 5 5 3 5 5 5 5 3 5 5 5 5 5 5 5 5 5 5 5 5 5 5 5 5 5 3 5 5 5 5 5 5 5 5 5 5 5 3 5 5 5 5 5 3 3 5 5 3 5 5 5 5 5 5 5 3 5 5 5 5 3 5 3 5 5 5 5 5 5 3 5 5 5 3 5 5 5 5 5 5 5 5 5 5 5 5 5 5 5 5 5 5 3 5 3 5 5 5 5 3 5 3 5 3 5 5 3 5 5 5 3 5 5 5 5 5 5 5 5 5 5 5 5 5 5 5 3 5 5 5 3 5 5 5 5 5 5 5 5 5 5 5 5 5 5 5 3 5 5 5 5 5 5 5 5 5 5 5 5 5 5 3 5 5 5 5 5 5 5 5 5 5 5 5 5 5 5 5 5 5 5 5 5 5 5 5 5 5 5 5 5 5 5 5 5 5 5 5 5 5 5 5 5 5 5 5 5 5 5 5 3 5 5 5 5 5 5 3 5 3 3 5 5 5 5 5 5 5 5 5 5 5 5 5 5 5 5 5 5 5 5 5 5 5 5 5 5 5 5 5 5 5 5 5 3 5 5 3 5 5 5 5 5 5 5 5 5 5 5 5 5 3 5 5 5 5 3 5 5 5 5 3 5 5 3 5 5 5 3 5 3 5 5 5 5 5 5 5 5 5 5 5 3 5 5 5 5 5 5 3 5 5 5 3 5 5 5 3 5 5 5 5 5 5 5 5 5 5 5 5 5 5 5 5 5 5 5 5 3 5 5 5 5 5 3 3 5 5 5 3 5 5 5 5 3 3 5 5 5 5 3 5 5 5 5 5 5 5 5 3 5 5 5 5 5 5 5 5 5 5 3 5 5 3 5 5 5 5 5 5 5 5 3 5 5 5 3 5 5 5 5 5 5 5 5 5 5 5 5 5 5 5 5 5 3 5 5 5 5 5 5 5 5 5 5 5 5 5 5 5 5 5 3 5 5 5 5 5 5 3 5 5 5 5 5 5 5 5 5 5 5 5 5 3 5 5 5 5 3 5 5 5 5 3 5 5 5 5 5 5 5 5 5 5 5 5 5 3 5 5 5 5 5 3 5 5 5 5 5 5 5 5 5 5 5 5 5 5 3 5 5 5 5 5 5 5 5 5 5 5 3 5 5 5 5 5 3 5 5 3 5 5 5 5 5 5 5 3 5 5 3 5 5 5 5 5 5 5 5 3 5 5 5 5 5 5 5 5 5 5 5 5 5 5 5 5 5 5 5 5 3 5 5 5 5 5 5 5 5 5 5 5 3 5 5 3 5 5 5 5 5 5 5 5 5 5 3 5 5 5 3 5 5 5 5 5 3 5 5 5 5 5 5 5 5 5 5 3 3 5 5 5 5 5 5 5 5 5 5 5 5 5 5 5 5 5 5 5 5 5 5 5 5 5 3 5 3 5 5 5 5 5 5 5 3 3 5 3 5 5 5 5 5 5 5 5 5 5 5 5 5 5 5 5 5 5 5 5 5 5 5 5 3 5 5 5 5 5 5 5 5 5 5 3 5 3 5 5 5 5 3 5 5 5 3 5 5 3 5 3 5 3 5 5 3 5 3 3 5 5 3 3 3 3 5 3 5 5 3 3 5 3 3 5 5 3 5 5 3 5 5 5 3 5 3 5 5 5 5 5 3 5 5 5 5 3 5 5 5 3 5 3 5 3 5 5 5 5 3 5 5 5 3 5 5 5 5 3 5 5 5 5 5 5 5 5 5 5 5 5 3 5 5 5 5 5 5 5 5 5 5 5 5 5 5 3 5 3 5 5 5 5 3 5 5 5 3 5 5 5 3 5 5 5 5 5 5 5 5 5 5 5 5 5 5 5 5 5 5 5 5 5 5 3 5 3 5 5 3 5 5 3 5 5 3 5 5 5 5 5 5 3 5 5 3 5 5 5 5 3 5 5 3 5 3 5 5 5 5 5 3 5 3 3 5 5 5 5 5 5 5 5 5 5 3 5 5 5 3 5 3 5 5 5 3 5 5 5 5 5 5 5 3 5 3 5 5 5 5 3 5 3 5 5 3 5 5 5 5 5 5 5 5 3 5 5 5 5 5 3 5 5 5 5 5 5 5 5 5 3 5 5 5 3 5 5 5 5 5 3 5 5 5 5 5 5 5 5 5 5 5 5 5 5 5 3 5 5 3 5 3 3 5 5 3 5 5 5 5 5 5 5 5 5 3 5 3 5 3 5 5 5 5 5 5 5 5 5 3 5 5 3 5 5 5 5 5 3 5 5 5 5 3 5 5 3 5 5 5 5 3 3 5 5 3 5 5 5 5 3 3 5 5 5 5 5 5 5 5 5 3 5 5 5 3 5 3 5 5 5 5 5 3 5 5 5 5 5 5 5 5 5 5 5 5 5 5 5 5 5 3 5 5 3 5 5 5 5 5 5 5 5 5 5 3 5 5 5 5 5 3 3 5 5 5 5 5 5 5 5 3 5 5 5 5 5 5 5 5 5 5 5 5 5 5 3 5 5 5 5 5 3 3 5 5 5 5 5 5 5 5 5 5 5 5 5 5 5 5 5 5 5 5 5 5 5 5 5 5 5 5 5 5 5 5 5 5 5 5 5 5 5 5 5 5 5 5 5 5 5 5 5 5 5 3 5 5 5 5 5 5 5 5 5 5 5 5 5 5 3 3 5 5 5 3 5 5 5 3 3 5 5 3 3 5 5 5 5 5 5 5 5 5 5 5 5 5 5 5 5 5 5 5 5 5 5 5 5 5 5 5 5 5 5 5 5 5 5 5 5 5 5 5 5 5 5 5 5 5 5 5 5 5 5 5 5 5 3 5 5 3 5 5 5 3 5 5 5 3 5 5 5 3 5 5 5 5 5 5 5 3 5 5 5 3 5 3 3 3 3 5 5 5 5 5 5 5 5 5 5 5 5 5 5 5 5 5 5 5 5 3 5 5 5 5 5 5 5 5 5 3 3 5 3 5 5 5 5 3 5 5 5 5 5 5 5 5 5 3 5 3 5 5 5 5 3 5 5 3 5 5 5 5 5 3 5 5 5 3 3 3 5 5 3 5 5 3 5 5 5 3 5 5 3 5 5 5 5 5 3 3 5 3 3 5 5 5 5 5 5 3 5 5 3 5 5 5 5 5 5 5 5 5 5 5 5 5 5 5 5 5 5 5 5 5 5 3 3 3 5 5 5 5 5 3 5 5 5 5 5 5 5 5 5 5 3 5 5 5 5 5 5 5 5 5 5 5 3 5 5 5 5 5 5 5 5 3 5 5 5 5 5 5 3 5 5 3 5 3 5 5 5 3 3 5 5 5 5 3 5 5 3 5 5 5 5 5 5 5 5 3 5 5 5 5 5 5 5 5 5 5 5 5 5 3 5 5 5 5 5 5 5 5 5 5 5 5 5 5 5 5 3 5 5 5 5 5 5 3 5 3 5 5 5 5 5 5 5 5 3 5 5 5 5 5 5 3 3 5 5 5 5 5 5 5 3 3 5 5 5 5 5 5 5 5 3 5 5 5 5 5 5 5 5 5 5 5 3 5 5 5 5 5 5 5 5 5 5 5 5 5 5 5 5 5 3 5 5 5 5 5 5 5 5 5 3 5 5 3 5 3 5 5 5 5 5 5 3 3 5 5 3 5 5 5 5 5 5 5 5 3 5 3 5 5 5 5 5 5 5 5 5 5 3 5 5 5 3 5 5 5 3 5 5 5 5 3 5 5 5 5 5 5 5 5 3 5 5 3 5 5 5 3 5 5 5 5 3 5 5 5 5 5 3 5 5 5 5 5 3 5 5 5 5 5 5 5 5 5 5 5 3 5 5 3 5 5 5 5 3 3 5 3 5 5 3 5 5 5 5 5 5 3 5 5 5 5 5 5 5 5 5 5 5 5 5 3 5 5 3 5 5 5 5 5 5 5 3 5 5 5 5 5 5 5 5 5 5 5 3 3 5 5 5 3 5 5 5 5 5 5 5 5 5 5 3 5 5 5 3 5 5 5 5 5 5 5 5 3 5 5 5 5 5 5 5 5 3 5 3 5 5 5 5 3 5 5 3 5 5 3 5 5 5 5 5 5 5 3 5 5 5 3 5 5 5 5 5 5 5 5 5 5 3 5 3 5 5 3 5 3 3 5 5 5 5 5 3 5 5 5 3 3 5 5 5 5 5 5 5 5 5 5 5 5 5 5 5 3 5 5 5 5 3 5 5 5 3 5 5 5 5 5 5 5 3 5 5 5 5 3 5 5 5 3 5 5 5 5 3 5 3 5 5 5 3 3 3 5 5 3 5 5 5 3 5 3 3 5 5 5 5 3 5 5 5 5 5 3 5 5 5 5 5 5 5 5 5 5 5 3 5 5 5 3 5 5 5 5 5 5 5 3 5 5 5 5 5 5 5 5 5 5 5 5 5 5 5 5 5 5 5 5 5 5 5 5 5 5 5 5 5 5 5 5 5 5 5 5 5 3 5 3 3 5 5 5 5 5 5 5 5 5 5 5 5 5 5 5 5 5 5 5 5 3 5 5 5 5 3 5 5 5 5 5 5 5 5 5 5 5 5 5 5 5 5 5 5 5 3 5 5 5 5 5 5 5 5 3 5 5 3 5 3 5 5 3 5 3 5 3 5 5 3 5 5 5 3 3 3 5 5 5 3 5 5 3 5 3 5 5 5 5 5 3 5 5 5 5 5 5 5 3 5 5 5 3 5 5 5 5 5 5 5 3 5 5 5 3 5 3 5 5 5 5 5 5 5 5 5 3 5 5 5 5 5 5 5 5 5 5 5 5 5 5 5 5 5 5 5 5 5 5 5 5 5 5 5 5 5 5 5 5 5 5 5 5 5 3 5 5 5 3 5 5 5 5 5 5 3 3 5 3 5 3 5 5 3 5 5 5 5 3 3 3 5 5 5 5 5 5 5 5 5 5 5 3 3 5 5 5 5 5 3 3 5 3 5 3 5 5 3 5 5 5 5 3 3 5 5 3 3 5 5 3 3 5 5 3 5 3 5 5 5 5 5 5 5 5 5 5 5 5 5 3 5 3 5 3 5 5 3 5 5 5 5 5 5 3 5 5 5 5 5 5 5 5 5 5 5 5 5 5 5 3 5 5 5 5 5 5 5 3 5 5 3 5 5 3 3 5 5 5 5 3 5 5 5 5 5 5 5 5 5 5 5 5 5 5 5 5 5 5 5 3 5 5 5 5 3 5 5 3 3 5 3 5 5 5 5 5 5 3 5 5 3 5 5 5 5 5 5 5 3 5 5 3 5 3 5 5 5 5 5 5 5 5 5 3 5 5 3 5 5 5 5 5 3 5 5 5 5 5 5 5 5 5 5 5 5 5 5 5 5 5 5 5 5 5 5 3 3 5 5 5 5 5 3 5 5 5 5 3 5 5 5 5 5 5 3 5 5 5 5 5 5 5 5 3 5 5 5 3 5 5 3 5 5 5 5 5 3 5 3 5 5 3 5 5 5 5 5 5 5 5 3 5 5 5 5 3 5 5 5 5 5 5 5 5 3 5 5 5 5 5 5 3 5 5 5 3 5 5 5 5 5 5 5 5 5 5 5 5 3 5 5 5 5 5 3 5 5 5 5 5 5 5 5 5 5 5 5 5 5 5 5 5 5 5 5 5 5 5 5 5 5 5 5 5 5 5 3 3 5 5 5 5 5 5 5 5 5 5 5 5 5 5 5 5 5 5 3 5 5 5 3 5 5 5 5 3 3 5 5 5 5 3 5 3 5 5 5 5 3 5 5 5 3 5 5 5 5 5 5 3 5 5 3 5 5 3 5 5 5 5 5 5 5 5 5 3 5 5 5 5 3 5 5 5 3 5 5 5 5 5 3 5 5 5 5 5 3 5 5 5 5 3 5 5 5 5 5 5 5 5 5 5 3 5 5 5 5 3 5 5 5 3 5 5 5 5 5 5 5 5 5 5 3 5 5 5 3 3 5 5 5 5 5 5 5 5 5 5 5 3 5 5 5 3 5 5 5 3 5 5 5 5 5 3 5 5 3 5 5 5 5 5 5 5 5 5 5 5 5 5 5 5 5 3 5 3 5 5 5 5 5 3 5 5 5 5 5 5 5 5 5 3 5 5 5 5 5 5 3 5 5 5 5 5 5 5 3 5 5 5 5 5 3 5 3 5 3 5 5 3 5 5 5 5 5 3 3 5 3 5 5 3 3 5 5 5 5 5 5 5 3 5 5 5 5 5 5 5 5 5 5 5 5 5 5 5 5 5 3 5 5 5 3 5 3 5 5 5 5 3 5 5 5 5 3 5 5 5 5 3 5 5 3 5 5 5 5 5 5 5 5 5 5 5 5 3 5 5 5 5 5 5 5 3 5 5 5 5 3 5 5 5 5 5 5 5 5 5 5 5 5 5 5 5 5 5 5 3 5 5 5 5 5 3 5 5 5 5 3 3 5 5 5 5 5 3 5 5 3 5 5 3 5 5 5 5 5 5 5 5 5 5 5 5 5 5 3 5 5 5 5 5 5 5 3 5 5 5 5 5 5 5 3 5 3 5 3 5 5 5 5 3 5 3 5 5 5 3 5 5 5 3 5 5 5 3 5 5 5 5 5 3 5 5 5 3 5 5 5 5 5 3 5 5 5 3 5 5 5 5 5 5 3 5 5 3 5 5 3 5 5 5 3 5 5 5 5 5 5 5 5 5 3 5 5 5 3 5 5 3 5 5 5 5 5 5 5 5 5 3 5 5 5 5 5 5 5 5 5 5 3 5 3 5 5 5 3 5 5 3 5 5 5 5 5 5 5 5 5 5 5 5 3 5 5 3 5 5 5 5 5 5 5 5 5 5 5 5 5 5 5 5 3 5 5 5 5 5 5 5 5 5 5 5 5 5 5 3 5 5 5 3 5 5 5 5 5 5 3 5 5 5 5 3 5 5 5 5 5 5 5 5 5 5 5 3 5 5 5 5 5 5 5 5 5 5 5 5 5 5 5 3 5 5 5 5 5 5 3 5 5 5 3 5 5 3 5 5 5 5 3 5 5 5 5 5 5 5 5 5 5 5 5 3 5 5 5 5 5 5 3 3 5 3 5 5 5 5 5 5 5 5 5 5 5 5 5 5 5 5 3 5 5 5 3 5 5 5 5 5 5 5 5 5 3 5 5 5 5 5 5 5 5 5 5 3 5 5 5 5 3 5 5 5 5 5 5 5 5 5 5 5 5 5 3 5 5 5 5 5 5 3 5 5 5 5 5 5 5 5 5 5 5 5 5 5 3 5 3 5 5 5 5 5 5 5 5 5 3 5 5 5 5 5 5 5 5 5 5 5 5 5 3 5 5 5 5 3 3 5 5 5 5 5 3 5 5 5 5 5 5 5 5 5 5 5 3 5 3 5 5 5 5 3 3 5 5 5 5 5 3 5 5 3 3 5 3 3 5 5 5 5 5 5 5 5 5 5 5 5 5 5 5 5 5 5 5 5 5 5 3 5 5 5 5 5 5 5 3 5 5 5 5 5 3 5 5 3 3 5 3 5 5 5 5 5 5 3 5 5 5 5 5 5 5 5 5 5 5 5 5 5 5 5 5 5 5 5 5 5 5 5 5 5 5 5 5 3 5 5 5 5 5 5 5 5 3 5 5 5 5 5 5 5 5 5 5 5 5 5 5 5 5 5 3 5 5 5 5 5 5 3 5 5 5 5 5 5 5 5 5 5 5 5 5 5 5 5 5 5 5 5 5 3 5 5 5 3 5 5 5 5 5 5 5 3 5 5 5 5 5 5 5 3 5 5 5 5 5 5 5 5 5 5 5 5 5 5 5 5 5 5 5 5 5 5 5 5 5 5 5 3 5 5 5 5 5 5 5 5 5 5 5 5 5 5 5 3 5 5 5 5 5 5 5 5 3 5 3 5 5 5 5 5 3 5 5 5 5 5 5 5 5 5 5 5 5 5 5 5 5 5 5 3 5 5 3 5 5 5 5 5 3 5 5 5 5 3 3 5 5 5 5 5 5 5 5 5 3 5 5 3 5 5 5 5 5 5 5 5 5 5 5 5 5 5 5 5 5 3 5 5 5 5 5 5 5 3 5 5 5 5 3 5 5 5 5 5 5 5 5 5 5 5 5 5 5 5 5 5 5 5 5 3 5 5 5 5 3 5 5 5 5 5 5 3 5 5 5 5 5 5 5 5 5 5 5 5 5 5 5 5 5 5 5 5 5 5 5 5 5 5 5 5 5 5 5 5 5 5 5 5 5 5 5 5 5 5 5 5 5 5 5 5 5 3 3 5 5 5 5 3 5 5 5 5 3 5 5 5 5 5 5 5 5 5 5 5 5 5 5 5 5 3 5 5 5 5 5 5 3 5 5 5 5 5 3 5 5 5 5 5 5 5 5 5 5 5 5 5 5 5 5 5 5 5 3 5 5 5 5 5 5 5 5 5 5 5 5 5 5 5 5 3 5 5 3 3 5 5 5 5 3 3 3 5 5 5 5 5 5 5 5 5 5 5 5 5 5 5 5 5 5 3 5 5 3 5 5 5 5 5 5 5 5 5 3 5 5 5 5 5 5 3 5 5 5 3 3 3 5 5 3 5 5 3 5 5 5 5 5 5 5 5 3 5 5 5 5 3 3 5 3 5 5 5 5 5 5 5 5 5 3 5 5 5 3 5 5 3 3 5 5 3 5 5 5 5 3 5 5 5 5 5 5 5 5 5 5 5 5 5 5 5 5 5 5 3 5 5 5 5 5 5 5 5 5 5 3 5 5 3 5 5 5 5 5 5 3 5 5 5 5 5 5 5 5 5 5 5 5 3 5 5 5 3 5 5 5 5 5 5 5 5 5 5 5 5 3 5 5 5 5 3 5 5 3 3 5 5 5 5 5 5 5 5 5 5 5 5 5 5 5 5 5 5 5 5 5 5 5 5 5 5 5 3 5 5 3 5 5 5 5 5 5 5 5 5 5 5 5 5 5 5 5 5 5 5 5 5 5 5 5 3 5 5 5 5 5 5 5 5 5 5 3 5 5 5 5 5 3 3 5 5 5 3 5 5 5 5 5 5 3 3 5 3 5 5 5 5 5 3 5 5 5 5 5 5 5 5 5 5 5 5 5 5 5 5 5 5 3 3 5 5 5 5 3 5 5 5 5 5 5 5 5 5 5 5 5 3 5 3 3 5 5 5 5 5 5 3 5 5 5 5 5 3 3 5 5 3 5 5 5 3 5 5 5 5 5 5 3 5 3 5 5 3 5 3 5 5 5 3 5 5 5 3 5 5 5 5 5 5 5 5 5 5 5 5 5 5 3 3 5 5 5 5 5 5 5 5 5 5 5 5 5 5 5 5 5 3 5 5 5 5 5 5 5 3 5 5 5 5 5 5 5 5 5 5 5 5 5 5 5 5 5 5 5 5 5 5 5 5 5 5 5 5 5 5 5 5 5 5 5 5 5 5 5 5 5 5 5 5 5 5 5 3 5 3 5 5 5 5 3 5 5 5 5 5 5 5 5 5 5 5 5 5 5 3 5 5 5 3 5 5 5 5 5 5 5 5 5 5 5 5 5 5 5 5 5 5 5 5 3 5 5 5 5 5 5 5 5 5 5 5 5 5 5 5 5 3 5 5 5 5 5 5 5 5 5 5 3 5 5 5 5 3 5 5 5 3 5 3 5 3 3 5 5 3 5 5 5 5 5 5 5 5 5 5 5 5 5 5 5 5 5 5 5 5 5 5 5 5 3 5 5 5 5 5 5 3 5 3 3 5 5 5 5 5 5 3 5 5 5 5 5 5 5 3 5 5 5 5 5 5 5 5 5 5 5 5 5 5 5 5 5 5 5 5 5 5 5 5 5 5 5 5 3 3 5 5 5 5 5 5 5 5 5 5 5 5 5 5 5 5 5 5 5 5 5 5 5 5 5 5 5 5 5 5 5 5 5 5 5 5 5 5 5 3 5 5 5 5 3 5 5 3 5 5 5 5 5 5 5 5 5 5 5 5 5 5 5 5 5 5 5 5 5 5 5 5 5 5 5 5 5 5 5 5 5 5 3 5 5 5 5 5 5 5 5 5 5 5 5 5 5 5 5 5 5 5 3 5 5 5 5 5 5 3 5 5 5 5 5 5 5 5 5 5 5 5 3 5 5 5 5 5 5 5 5 5 5 3 5 5 5 5 5 5 5 5 3 5 5 5 5 5 5 5 5 5 5 5 5 5 5 5 5 5 5 5 5 5 5 5 5 5 5 5 5 5 5 5 5 5 5 5 5 5 5 5 5 5 5 5 5 5 5 5 5 5 3 5 5 5 5 5 5 5 5 5 5 5 5 5 5 5 5 5 5 5 5 5 5 3 5 3 5 5 5 5 5 5 5 5 5 5 5 5 5 5 5 5 5 5 5 5 5 5 5 5 5 5 5 5 5 5 5 5 5 5 5 5 5 5 5 5 5 5 5 5 5 5 5 5 5 5 5 5 5 5 5 3 5 5 5 5 5 5 5 5 5 5 5 5 5 5 5 5 5 5 5 5 5 5 3 5 5 5 5 5 5 5 5 5 5 5 5 5 5 5 5 5 5 5 5 5 5 5 5 5 5 5 5 5 5 5 5 5 3 3 5 5 5 5 5 5 5 5 5 5 5 5 5 5 5 5 3 5 5 5 5 5 5 5 5 5 3 5 3 5 5 5 5 5 5 5 3 3 3 5 5 3 5 3 5 5 5 5 5 5 5 3 5 5 5 3 5 5 5 5 3 5 3 5 3 5 5 5 3 5 5 5 5 5 5 5 5 5 5 5 5 5 5 5 5 3 5 5 3 5 5 5 5 5 3 5 5 5 5 5 3 5 5 3 5 5 5 5 5 5 5 5 5 5 5 5 3 3 5 5 5 5 5 5 3 5 5 5 5 5 5 5 5 5 5 5 5 3 5 5 5 3 5 5 5 5 3 3 5 5 3 5 5 5 5 5 5 5 5 5 5 5 5 5 5 3 5 5 5 3 5 5 5 5 5 5 3 3 3 5 5 3 5 5 5 3 3 5 5 5 5 5 3 5 5 5 5 5 5 3 5 5 5 5 5 5 5 5 5 3 5 5 5 5 3 5 5 5 5 5 5 5 5 5 5 3 3 5 5 5 3 5 3 5 5 5 5 5 5 5 5 5 5 5 5 5 5 5 5 5 5 5 5 3 5 5 5 5 3 5 5 5 3 5 5 5 5 5 5 5 5 5 5 5 5 3 3 5 5 5 5 5 5 5 5 5 5 5 5 5 5 5 5 5 5 5 5 5 5 5 5 5 5 5 3 5 5 5 5 3 5 5 5 5 5 5 5 5 5 5 5 5 5 5 5 5 5 5 5 5 5 5 5 5 5 5 5 5 5 5 5 5 5 5 5 5 5 5 5 5 5 5 5 5 5 5 5 5 5 5 5 3 5 5 5 5 5 5 5 5 3 5 5 5 5 5 5 5 5 5 5 5 5 5 5 5 5 5 5 5 5 5 5 5 5 5 5 5 5 5 5 5 5 5 5 5 5 5 5 5 5 5 3 5 5 5 5 5 3 5 5 5 5 5 5 5 3 5 5 5 5 5 5 3 5 5 5 5 5 5 5 5 5 3 3 5 5 5 5 5 3 5 5 5 5 5 5 5 5 5 5 5 5 5 5 5 5 5 5 5 5 5 5 3 5 3 5 5 5 5 5 5 5 5 5 5 5 5 5 5 5 5 5 5 5 5 5 5 5 5 5 5 5 5 5 5 5 5 5 5 5 5 5 5 5 5 5 5 5 5 5 5 5 3 5 5 5 3 5 5 5 5 5 5 5 5 5 5 5 5 5 5 5 5 5 5 5 5 5 5 5 5 5 5 5 5 5 5 5 5 5 5 5 5 5 5 5 5 5 5 5 5 5 5 5 5 5 5 5 5 5 5 5 5 5 5 5 5 5 5 5 5 5 5 3 5 5 5 5 3 5 5 5 5 5 5 5 5 5 5 5 5 5 5 5 5 5 5 5 5 5 5 5 5 5 5 5 5 5 5 3 5 5 5 5 5 5 5 5 5 5 3 5 3 5 5 3 5 5 3 5 5 5 5 3 5 3 3 5 5 5 3 3 5 5 5 5 5 5 5 3 5 3 5 5 5 5 5 5 5 3 3 3 5 5 5 5 5 3 5 5 5 5 3 5 5 5 5 5 5 5 5 5 5 5 5 5 5 5 3 5 5 5 5 5 5 5 5 5 3 5 5 3 5 3 5 5 3 5 5 5 5 3 5 5 3 5 5 5 5 5 3 3 5 5 5 3 5 3 5 5 5 5 5 5 5 5 5 5 5 3 5 5 5 3 5 5 5 5 5 5 5 5 5 3 5 5 5 5 3 5 5 5 5 3 5 5 3 5 5 5 5 5 5 5 5 5 3 3 5 5 5 5 5 5 3 5 5 5 5 3 3 3 5 5 5 3 5 5 3 5 5 5 5 5 5 5 5 5 5 5 3 5 3 5 5 5 3 5 3 3 5 5 5 5 5 5 5 5 5 5 5 5 5 5 3 5 3 5 5 5 3 5 5 5 3 5 5 5 5 3 3 3 3 5 5 5 5 5 5 5 5 5 3 5 5 3 5 5 5 5 5 5 5 5 3 5 5 5 5 5 5 5 5 5 5 5 5 5 5 5 5 5 5 5 5 5 5 5 5 3 5 5 5 5 3 5 5 5 5 5 3 5 5 5 5 5 5 5 5 5 3 5 5 5 5 3 5 5 5 5 5 5 5 5 5 5 5 5 5 5 5 3 5 5 3 5 5 5 3 5 5 5 5 5 5 5 5 5 5 5 5 5 5 5 5 5 3 5 5 3 5 5 5 5 5 5 5 3 3 5 5 5 3 5 5 5 5 3 5 5 5 5 3 5 5 5 5 5 5 3 5 5 5 5 5 5 5 5 5 3 5 5 5 5 5 5 5 3 5 3 5 3 5 5 5 5 5 3 5 5 5 5 3 5 5 5 5 5 5 5 5 5 5 5 5 5 5 5 5 5 3 5 3 5 5 5 5 5 5 3 5 5 5 3 5 5 5 5 5 5 5 5 5 5 5 5 5 5 5 5 5 5 5 5 5 5 5 5 5 5 5 5 5 5 5 5 5 5 3 5 5 5 5 5 5 5 5 5 5 5 5 5 5 5 5 5 5 5 5 5 5 5 5 5 5 5 3 5 5 5 5 5 5 5 5 5 5 5 5 5 5 5 5 5 5 5 5 5 5 5 5 5 5 5 5 5 5 5 5 5 5 5 5 5 5 5 5 5 3 5 5 5 5 5 5 5 5 3 5 5 3 5 5 5 5 5 5 5 5 5 5 5 5 5 5 5 5 5 5 3 5 5 3 5 5 5 5 5 5 5 3 5 5 5 3 5 5 5 5 5 5 5 5 5 5 5 5 5 5 5 5 5 3 5 5 5 3 5 3 5 5 5 5 3 5 5 5 5 5 5 5 5 5 5 5 5 3 5 5 3 5 3 5 5 5 5 5 5 3 5 3 5 5 3 5 5 5 5 5 5 5 5 5 5 5 5 5 5 5 5 5 5 5 5 5 5 5 5 5 3 5 5 5 5 5 5 5 5 5 5 5 3 5 5 5 5 5 5 5 5 5 5 5 5 5 5 5 5 5 5 3 5 5 3 5 5 5 5 5 5 5 5 5 5 5 3 5 5 5 3 5 5 5 5 5 5 5 5 5 5 5 5 5 5 5 5 5 5 5 5 3 5 5 3 5 5 5 5 5 5 5 5 3 5 5 5 5 5 5 5 5 5 5 5 5 3 5 5 3 5 5 5 5 5 3 5 3 5 5 5 5 5 5 5 5 5 5 5 5 5 5 5 5 5 3 5 5 5 5 5 5 5 3 5 3 5 5 5 5 5 5 3 5 3 5 5 3 5 5 5 5 3 3 5 5 3 3 5 3 3 3 5 5 3 5 5 3 5 5 5 5 5 5 3 3 5 5 5 5 5 5 5 5 5 5 3 5 5 5 5 5 5 5 5 5 5 5 5 5 5 5 5 5 5 5 5 5 5 5 5 5 5 5 5 5 5 5 5 5 5 5 3 5 5 5 5 5 5 3 5 5 5 3 5 5 5 5 5 5 5 5 5 5 5 3 5 5 5 5 5 5 5 5 3 5 5 5 5 5 5 5 5 5 3 5 3 5 5 5 5 5 5 5 5 5 3 5 5 5 5 5 5 5 5 5 5 5 5 5 3 5 5 3 5 3 5 5 5 5 3 5 5 5 5 3 5 5 5 5 5 5 5 5 5 5 5 5 5 5 5 5 3 3 5 5 5 5 5 5 5 5 5 5 5 5 5 5 5 5 5 5 3 5 5 5 5 5 5 5 5 5 3 5 5 5 5 3 5 5 5 5 5 5 5 5 3 5 5 3 5 3 5 5 3 5 5 3 5 5 5 5 5 3 5 5 5 5 5 5 5 5 5 5 5 5 5 5 5 5 5 5 5 5 5 5 5 5 5 5 5 3 5 5 5 5 3 5 5 5 5 5 5 5 5 5 5 5 5 5 5 5 5 5 5 5 5 5 5 5 5 5 5 5 5 5 5 5 5 5 5 3 5 5 5 5 5 5 3 3 5 5 5 5 5 5 5 5 3 3 5 5 5 5 5 5 5 5 5 5 3 5 5 5 5 5 5 5 5 5 5 5 5 5 5 5 5 5 5 5 5 5 5 5 5 5 5 5 5 5 5 5 5 5 5 5 5 5 5 5 5 5 5 5 5 5 5 5 5 5 5 5 5 5 3 5 3 5 5 3 5 5 5 5 5 3 3 5 5 3 5 5 5 3 5 5 3 5 5 3 5 5 3 5 5 5 5 5 5 5 5 5 5 5 3 5 3 5 5 3 5 5 5 5 5 3 5 5 5 5 3 5 3 3 5 5 5 3 5 5 3 5 5 3 5 5 5 5 3 5 5 5 3 5 5 5 5 5 5 5 5 5 5 5 3 5 5 5 5 3 5 5 5 5 5 5 5 3 5 3 5 5 5 5 5 5 5 5 5 5 5 5 5 5 5 3 5 5 5 5 5 5 5 5 5 5 5 5 5 3 5 3 5 3 3 5 5 5 5 5 5 5 5 5 3 5 3 5 5 5 5 5 3 5 5 5 3 5 5 5 5 5 5 5 5 5 3 5 5 5 3 5 5 5 5 5 5 5 5 5 5 5 5 5 5 3 5 5 5 5 3 5 3 5 3 5 5 5 5 5 3 5 5 5 5 5 5 3 5 5 3 5 5 3 5 5 3 5 5 5 5 5 5 5 3 5 5 5 5 5 5 5 3 5 5 5 3 5 5 5 3 5 5 5 5 5 5 5 5 5 5 5 5 5 5 5 5 5 5 5 3 5 3 5 3 5 5 5 3 5 5 3 3 5 3 3 5 5 5 3 5 5 5 5 5 5 5 5 5 5 5 5 5 5 5 5 5 3 5 3 5 5 3 5 3 3 5 3 5 5 5 5 5 5 5 5 5 5 5 5 5 5 5 5 5 5 5 5 5 5 5 5 5 5 5 5 5 5 5 5 5 5 5 5 5 5 5 5 5 5 5 3 3 5 5 5 3 5 5 5 5 3 3 5 5 5 3 5 5 5 5 3 5 5 5 5 5 5 5 5 5 5 5 5 5 5 5 5 5 5 5 5 5 5 5 5 5 5 5 5 3 5 5 3 5 5 5 5 5 5 5 5 5 5 5 5 5 5 5 5 5 5 5 5 5 5 5 5 5 5 3 5 5 5 3 5 5 5 3 5 5 5 3 3 5 5 5 3 5 5 3 5 5 5 5 3 5 3 5 3 3 5 5 5 5 5 5 5 5 5 5 5 3 5 5 3 3 5 5 5 5 3 5 5 5 3 3 3 5 3 5 3 5 5 3 5 5 3 5 3 5 5 3 5 5 5 3 5 3 5 5 5 5 5 5 3 5 3 5 5 3 5 3 5 3 5 5 5 3 5 5 5 5 5 5 5 3 5 5 5 5 5 5 5 5 5 5 5 5 5 3 5 5 5 5 3 5 5 5 5 5 5 5 5 3 5 5 5 5 5 5 5 3 5 3 5 5 5 5 5 5 5 5 5 5 5 5 5 5 5 5 5 5 5 5 5 5 3 5 3 3 5 5 5 5 5 5 5 5 5 5 5 5 3 5 5 3 5 5 5 5 5 5 5 5 5 5 5 3 5 3 5 5 5 5 5 5 5 5 5 5 5 5 5 5 5 5 5 5 5 5 5 5 5 5 3 5 5 5 5 3 5 5 3 5 5 5 5 5 5 5 5 5 5 5 5 5 3 5 5 5 5 5 5 5 3 5 5 5 5 5 3 3 5 5 3 5 3 5 3 5 3 5 5 5 5 5 3 5 5 5 3 5 5 5 3 5 5 5 5 5 5 5 5 5 5 5 5 3 5 5 5 3 5 5 3 5 3 5 5 3 3 5 5 5 5 5 5 5 5 5 5 5 5 5 5 5 5 5 5 5 5 5 3 5 5 5 3 5 3 5 5 3 3 5 5 5 3 5 5 3 5 5 5 5 5 5 5 5 5 5 3 5 3 5 5 5 5 5 5 5 3 5 5 5 5 5 5 3 5 3 5 5 5 5 5 5 5 5 5 5 3 3 5 5 5 5 5 3 5 5 5 5 5 5 5 3 5 5 5 5 3 5 5 5 5 5 5 5 5 5 5 5 5 5 5 5 5 5 5 5 5 5 5 5 5 5 5 5 5 5 5 3 5 5 5 5 3 5 5 3 5 5 5 5 5 5 3 5 5 5 5 5 5 5 5 5 5 5 5 5 5 3 3 5 5 5 5 5 5 5 5 5 5 5 5 5 5 5 5 5 5 5 5 5 5 5 5 5 5 5 5 5 5 5 5 5 5 5 5 5 3 5 5 5 5 5 5 5 3 5 3 3 5 5 5 5 3 5 5 5 3 5 5 5 5 3 5 5 5 5 5 5 3 5 5 5 3 5 5 5 5 5 5 5 5 5 5 5 5 5 5 5 5 5 5 5 5 5 3 5 5 3 5 5 5 5 5 5 5 5 5 5 5 5 3 5 5 5 5 3 5 5 5 5 5 5 5 5 5 3 5 5 5 5 5 5 5 5 5 5 5 3 5 5 5 5 5 5 5 5 5 5 5 5 5 5 5 3 5 5 5 5 5 3 5 5 5 5 5 5 5 5 5 5 3 5 5 5 5 5 5 5 5 5 5 5 5 5 5 3 5 5 5 5 5 5 5 5 5 5 5 5 5 5 5 5 5 5 3 5 5 5 5 5 5 3 5 5 5 5 5 5 5 5 3 5 5 5 5 5 3 5 5 5 3 5 5 3 5 5 5 5 5 3 3 5 5 5 5 5 5 5 3 5 5 5 5 5 5 3 5 3 5 5 3 5 5 5 5 5 5 5 5 5 5 5 3 5 5 5 5 3 5 3 5 3 5 5 5 5 5 5 5 5 5 5 5 5 5 5 5 5 5 5 5 5 5 5 5 5 3 5 5 5 5 5 5 5 3 5 5 5 5 5 5 5 5 5 3 5 5 5 5 5 3 5 5 5 5 5 5 5 5 5 3 5 5 5 5 5 5 5 5 5 5 5 5 5 5 3 5 5 5 5 3 5 5 3 5 5 5 5 5 3 5 5 5 5 5 5 5 5 5 5 3 5 5 5 5 5 5 5 5 5 5 5 3 5 3 5 5 3 5 5 3 5 5 5 5 3 5 5 3 5 5 5 3 3 3 5 5 5 5 5 5 5 5 5 3 5 5 5 5 3 5 5 5 5 3 5 5 5 5 5 5 5 5 5 3 5 5 5 3 5 5 5 5 5 5 5 5 3 5 5 3 5 5 5 5 5 5 5 5 5 5 5 5 5 5 5 5 5 5 5 5 5 5 3 5 3 5 5 5 5 5 5 5 5 5 3 5 5 5 5 5 5 5 5 5 3 5 5 5 3 3 5 5 5 5 5 3 5 3 5 5 5 5 3 5 5 3 5 5 5 5 5 5 5 5 5 5 3 5 5 5 5 3 5 5 3 5 5 5 3 5 5 3 5 3 5 5 5 5 3 5 5 5 5 5 5 5 5 5 3 5 5 3 5 5 5 3 5 5 5 5 5 5 5 5 5 5 5 5 5 5 3 5 5 5 5 5 5 5 5 5 5 3 5 5 5 5 5 5 5 5 5 5 5 5 5 3 5 5 5 5 5 3 5 3 5 5 5 5 5 5 3 5 5 5 5 5 5 3 5 5 3 5 5 5 5 5 5 5 5 5 5 5 3 5 5 5 5 5 5 5 3 5 5 5 5 5 5 3 5 5 5 5 5 5 3 5 5 5 5 5 5 3 5 5 5 5 3 3 5 5 5 5 5 5 5 5 5 5 3 5 5 3 5 5 5 5 5 3 5 5 5 5 5 5 5 5 5 3 5 5 5 5 3 5 5 5 5 5 5 5 5 5 3 5 5 5 3 5 5 5 5 5 5 5 5 5 5 5 5 5 5 5 5 5 5 5 3 5 5 5 5 5 5 3 5 5 5 5 5 5 5 5 5 5 5 5 5 5 5 5 5 5 3 5 5 3 5 5 5 5 5 5 5 5 5 5 5 5 5 5 5 5 5 5 5 5 5 5 5 5 5 5 5 3 5 5 5 5 5 5 5 5 5 5 5 3 5 5 5 5 5 5 5 3 5 5 3 5 5 5 5 5 5 3 3 5 5 5 5 5 5 5 5 5 5 5 5 3 5 5 5 3 5 5 5 5 3 5 5 5 5 5 5 5 5 5 5 5 5 5 5 5 5 5 5 3 5 5 5 5 5 5 5 5 5 5 5 5 5 5 5 5 5 5 5 5 5 5 5 5 5 5 5 5 5 5 5 5 5 5 5 5 5 5 5 5 5 5 5 5 5 5 5 5 5 5 5 5 5 5 5 5 5 5 5 5 5 5 5 3 5 5 5 5 5 5 5 5 5 5 5 5 5 5 5 5 5 5 3 5 5 5 5 3 5 3 5 5 5 5 5 5 5 5 5 5 5 3 5 3 5 5 5 3 5 3 5 5 5 5 5 5 5 5 5 5 3 5 5 5 5 5 5 3 5 5 5 5 5 3 3 5 5 5 5 5 5 5 5 3 5 3 5 5 5 5 5 5 5 5 3 5 5 3 5 5 3 5 5 5 5 3 5 5 3 5 5 5 3 3 5 3 5 5 3 5 5 5 5 5 5 5 5 5 5 5 5 5 5 3 3 5 5 5 3 5 5 5 5 5 5 3 5 5 3 3 5 5 5 3 3 5 5 5 5 5 5 3 5 5 3 5 5 5 5 5 5 5 5 5 5 5 5 3 5 3 5 5 5 5 5 3 5 5 5 5 3 5 5 5 5 5 5 5 3 5 3 5 5 5 5 5 5 5 5 5 3 3 5 5 5 3 5 5 5 5 5 5 5 5 5 5 5 5 5 5 5 5 5 5 5 5 5 5 5 5 5 5 3 3 3 5 5 5 5 3 5 5 5 5 3 5 5 3 5 5 5 3 5 5 5 3 5 5 5 3 5 3 3 5 5 5 5 5 5 5 5 5 5 5 3 5 5 5 5 5 3 5 5 3 5 3 5 5 5 3 3 5 5 5 5 5 5 5 5 5 5 5 5 5 5 5 3 5 5 5 5 5 3 5 5 5 3 5 5 5 5 5 3 3 5 5 5 5 5 5 5 5 5 3 5 5 3 5 5 5 5 3 5 5 3 5 3 5 3 5 5 5 5 5 5 5 5 5 5 5 5 5 5 3 5 5 5 5 5 5 5 5 5 5 5 5 3 5 5 5 5 3 5 5 3 3 3 3 5 5 5 5 5 5 3 5 5 5 3 5 5 5 3 5 5 5 5 3 3 5 5 5 5 3 5 5 5 3 5 5 5 5 5 5 5 5 5 5 5 3 3 5 5 3 5 5 5 5 5 5 3 5 5 5 5 5 3 5 3 3 5 5 3 5 5 3 5 5 3 5 5 5 5 3 3 5 5 5 5 5 5 5 5 5 3 5 5 5 5 5 3 5 5 5 5 5 5 5 5 3 5 5 5 5 5 5 5 3 5 3 5 5 3 5 5 5 5 3 5 5 3 5 5 5 5 5 5 5 5 5 5 5 5 5 5 5 5 5 5 5 5 5 5 5 5 5 5 5 5 5 5 5 5 3 5 5 5 5 5 5 5 5 5 5 5 5 5 5 5 5 3 5 5 5 5 3 5 5 5 5 5 5 5 5 5 5 5 5 5 3 5 5 3 5 5 3 5 5 5 5 5 3 5 5 5 5 5 5 5 5 5 5 5 5 5 5 5 5 3 5 5 5 3 5 5 5 5 5 5 5 5 5 5 5 3 5 3 3 5 5 5 3 5 3 5 5 3 5 5 5 5 5 5 5 5 5 3 5 5 5 3 5 5 3 5 5 5 5 5 5 5 5 3 5 5 5 5 5 5 3 5 5 5 5 5 5 5 5 5 3 5 5 5 5 5 5 3 5 5 5 5 5 5 3 5 5 5 3 5 5 5 3 5 5 5 5 5 5 5 5 5 3 5 5 5 3 5 5 5 5 5 5 5 5 5 5 5 5 5 5 5 5 5 5 5 3 5 5 3 5 5 5 5 5 5 5 5 5 5 5 5 5 5 5 5 5 5 5 5 5 5 5 5 5 5 5 5 5 5 3 5 5 3 5 5 5 5 5 5 5 5 5 5 5 3 5 5 5 5 5 5 5 5 5 5 5 5 5 5 5 5 5 5 5 5 5 5 5 5 5 5 5 5 5 5 5 5 5 5 5 5 5 5 5 5 5 5 5 5 5 5 5 5 5 5 5 5 5 5 5 5 5 5 5 5 5 5 5 5 3 5 5 5 5 5 3 5 5 5 5 5 5 5 3 5 5 5 5 5 5 5 5 5 5 5 5 5 5 5 5 5 5 3 5 5 5 5 5 5 5 5 5 5 5 5 3 5 5 5 3 5 5 3 3 5 5 3 5 5 5 5 5 5 5 5 5 5 5 5 5 5 5 5 5 3 5 5 5 5 3 5 5 5 5 5 5 5 5 5 5 5 5 5 5 5 5 5 5 5 5 3 5 3 5 5 5 5 5 5 3 5 5 5 5 5 3 5 5 3 5 5 5 5 5 5 5 3 5 5 5 5 3 5 5 5 5 5 5 5 5 5 5 5 5 5 5 5 5 5 5 5 5 5 5 5 5 3 5 5 5 5 5 5 5 5 5 5 5 5 5 5 3 5 5 5 5 3 5 5 3 5 5 3 5 5 5 5 5 5 5 5 5 5 5 5 5 5 5 5 5 3 5 5 5 5 5 5 3 5 3 5 5 5 5 5 5 5 5 3 5 5 3 5 5 5 5 5 3 5 5 5 5 5 5 3 3 5 5 5 5 5 5 5 5 3 5 5 5 3 3 5 5 5 5 3 3 5 3 5 5 5 3 5 5 3 5 5 5 5 5 5 5 3 5 5 5 5 5 5 5 5 5 5 5 5 5 3 5 5 5 3 3 5 5 5 5 5 5 5 5 5 5 5 5 5 5 5 5 5 5 5 5 5 5 5 5 5 5 5 5 5 5 5 5 5 5 5 3 5 5 5 5 5 3 5 5 5 5 5 5 5 5 5 5 5 3 5 5 5 5 5 5 5 3 5 5 5 3 5 3 5 3 3 5 3 5 5 5 3 5 5 5 5 5 3 5 5 5 5 5 5 5 5 5 5 5 5 3 5 5 5 5 5 5 3 5 5 5 5 5 3 5 5 5 5 3 5 5 5 5 5 5 5 5 5 5 5 5 5 5 5 5 5 3 5 5 3 5 5 5 5 5 5 5 5 5 5 3 5 5 5 3 5 5 5 5 5 5 5 5 5 5 5 5 5 5 3 5 3 5 3 5 3 5 5 3 5 3 3 5 3 5 3 3 5 5 5 3 5 3 5 5 5 5 5 3 5 5 5 5 5 5 5 5 5 5 5 5 5 3 5 5 5 3 5 5 3 5 5 5 5 5 3 5 5 5 5 5 3 5 5 5 5 5 5 5 5 5 5 5 5 5 5 5 5 5 5 5 5 5 5 5 5 5 5 5 5 5 5 3 5 5 5 3 5 5 5 5 5 5 5 5 3 5 5 5 3 3 5 5 5 5 5 5 5 5 5 3 3 5 5 5 5 5 3 5 5 5 3 5 5 5 5 5 5 5 5 3 5 3 5 5 3 5 3 5 5 5 3 5 3 5 3 5 3 5 5 3 5 5 3 5 5 3 3 3 5 5 5 5 5 5 5 5 5 5 5 3 5 3 5 5 5 5 5 3 5 5 3 5 5 5 5 3 3 5 5 3 5 5 3 5 5 5 5 5 5 3 5 5 3 5 5 5 5 5 5 5 3 5 5 5 3 5 5 5 5 3 5 5 5 5 5 5 5 5 5 5 5 5 5 5 5 5 5 5 5 5 5 5 5 5 5 5 5 5 5 5 5 5 5 5 5 5 5 3 3 3 3 5 5 5 3 3 5 5 5 5 5 3 3 5 5 5 5 5 5 5 5 5 5 5 5 5 5 5 5 5 5 5 5 5 5 5 5 5 5 5 5 5 3 5 5 5 5 5 3 5 5 5 5 5 5 5 5 5 5 5 5 5 5 3 3 5 5 5 5 5 5 5 5 3 5 5 5 5 5 5 5 5 3 5 5 5 5 5 5 3 5 3 5 5 5 3 3 3 5 3 5 5 3 5 5 5 5 5 5 5 5 5 5 5 5 5 3 5 5 5 3 5 5 5 3 5 5 5 3 5 5 5 5 5 3 5 5 5 5 5 3 5 5 5 5 5 5 5 5 5 5 3 5 5 5 5 5 5 3 5 5 3 3 5 5 5 3 3 5 3 5 3 5 5 5 5 3 5 5 5 5 3 5 5 5 5 5 5 5 5 5 5 5 5 5 5 5 5 3 5 5 5 5 5 5 5 5 5 5 5 5 5 5 5 5 5 5 5 5 5 5 5 3 5 5 5 5 3 5 5 5 5 5 5 5 5 5 5 5 
</DataArray>
</Cells>
<PointData Scalars="" Vectors="displacement," Tensors="">
<DataArray type="Float64" Name="displacement" NumberOfComponents="3" format="ascii">
-0.014999962796561446 -4.8408854943260072e-08 0 -0.013478261363100088 -3.5086053454937738e-05 0 -0.011709919832269954 -3.1132280274945704e-07 0 -0.014999962796561446 -4.8408854943260072e-08 0 -0.014997247208578979 5.2185008097709729e-07 0 -0.013478261363100088 -3.5086053454937738e-05 0 -0.013478261363100088 -3.5086053454937738e-05 0 -0.012502936669307138 -6.2195763734184981e-05 0 -0.012816304892566029 -5.8722174351727227e-05 0 -0.012632211697002002 2.5826174372893406e-05 0 -0.013689330100943538 0.00013687199126748308 0 -0.012409226486130492 0.00013675015681138402 0 -0.012419822479125125 0.00031090912442118928 0 -0.012343029115187703 5.7690147549486706e-05 0 -0.012910855115059213 -6.5263293767641142e-05 0 -0.013199566366591175 -4.2577831349890909e-05 0 -0.013166923708972782 3.2332202358813743e-06 0 -0.013689330100943538 0.00013687199126748308 0 -0.012442354532404155 0.00013376394008734398 0 -0.013478261363100088 -3.5086053454937738e-05 0 -0.013199566366591175 -4.2577831349890909e-05 0 -0.012816304892566029 -5.8722174351727227e-05 0 -0.012910855115059213 -6.5263293767641142e-05 0 -0.013199566366591175 -4.2577831349890909e-05 0 -0.012816304892566029 -5.8722174351727227e-05 0 -0.013478261363100088 -3.5086053454937738e-05 0 -0.013199566366591175 -4.2577831349890909e-05 0 -0.013844560868832121 4.1594724901816256e-05 0 -0.013199566366591175 -4.2577831349890909e-05 0 -0.013166923708972782 3.2332202358813743e-06 0 -0.013844560868832121 4.1594724901816256e-05 0 -0.015014506410849456 -2.8380529122515099e-05 0 -0.015014097636381556 -2.4603247908702703e-05 0 -0.015006789944630934 -2.0456655873478255e-05 0 -0.013689330100943538 0.00013687199126748308 0 -0.014547384534527297 -8.9659040902254389e-06 0 -0.014547384534527297 -8.9659040902254389e-06 0 -0.015107541273432133 5.3510031788507535e-06 0 -0.014968298397705995 -2.8155971378341893e-05 0 -0.014970181634638013 -2.3703382040485957e-05 0 -0.014995411002090774 -9.1645269303647495e-06 0 -0.014982021776117925 -2.8760258995585098e-07 0 -0.014990340949311114 -4.1240065864122889e-07 0 -0.014995209951135516 -5.1681795682919061e-07 0 -0.014970181634638013 -2.3703382040485957e-05 0 -0.014995411002090774 -9.1645269303647495e-06 0 -0.014995209951135516 -5.1681795682919061e-07 0 -0.014997247208578979 5.2185008097709729e-07 0 -0.013478261363100088 -3.5086053454937738e-05 0 -0.013844560868832121 4.1594724901816256e-05 0 -0.013689330100943538 0.00013687199126748308 0 -0.014451319180194513 -4.1343749258636756e-05 0 -0.014547384534527297 -8.9659040902254389e-06 0 -0.015001947927640114 -1.4388425284664867e-05 0 -0.015014097636381556 -2.4603247908702703e-05 0 -0.015009707265644004 -1.0214087840466111e-05 0 -0.015006789944630934 -2.0456655873478255e-05 0 -0.014995411002090774 -9.1645269303647495e-06 0 -0.014999989640366564 -3.2825408128125258e-10 0 -0.014995209951135516 -5.1681795682919061e-07 0 -0.014999662994183037 -8.2441486090914607e-08 0 -0.014451319180194513 -4.1343749258636756e-05 0 -0.015000009094091719 -9.2437066569836972e-10 0 -0.014995411002090774 -9.1645269303647495e-06 0 -0.014999989640366564 -3.2825408128125258e-10 0 -0.015001947927640114 -1.4388425284664867e-05 0 -0.014999999537731432 1.9448579731595186e-09 0 -0.014999989640366564 -3.2825408128125258e-10 0 -0.014999987904766617 -2.3022918198658038e-09 0 -0.014995209951135516 -5.1681795682919061e-07 0 -0.014990340949311114 -4.1240065864122889e-07 0 -0.014999987904766617 -2.3022918198658038e-09 0 -0.014995209951135516 -5.1681795682919061e-07 0 -0.015000023792133084 -6.5092695356445663e-09 0 -0.014999993214396228 -9.4388075195627024e-10 0 -0.015002287900789113 -8.3607697164087657e-06 0 -0.015009707265644004 -1.0214087840466111e-05 0 -0.015000023792133084 -6.5092695356445663e-09 0 -0.015002287900789113 -8.3607697164087657e-06 0 -0.014999993214396228 -9.4388075195627024e-10 0 -0.015002287900789113 -8.3607697164087657e-06 0 -0.014993357208736933 -1.9347689368085687e-05 0 -0.015006789944630934 -2.0456655873478255e-05 0 -0.015002287900789113 -8.3607697164087657e-06 0 -0.014993357208736933 -1.9347689368085687e-05 0 -0.015009707265644004 -1.0214087840466111e-05 0 -0.015006789944630934 -2.0456655873478255e-05 0 -0.015002287900789113 -8.3607697164087657e-06 0 -0.014999993214396228 -9.4388075195627024e-10 0 -0.014984362348833541 -1.1934779293300082e-05 0 -0.014993357208736933 -1.9347689368085687e-05 0 -0.014999977363296767 -6.5315392836337458e-09 0 -0.014984362348833541 -1.1934779293300082e-05 0 -0.014979097326603604 -9.87314934091918e-06 0 -0.014999993214396228 -9.4388075195627024e-10 0 -0.014999977363296767 -6.5315392836337458e-09 0 -0.014984362348833541 -1.1934779293300082e-05 0 -0.014984362348833541 -1.1934779293300082e-05 0 -0.014979097326603604 -9.87314934091918e-06 0 -0.01495550907609843 -2.9434158870763641e-05 0 -0.014984362348833541 -1.1934779293300082e-05 0 -0.014972177254265917 -3.3438823448158301e-05 0 -0.01495550907609843 -2.9434158870763641e-05 0 -0.014984362348833541 -1.1934779293300082e-05 0 -0.014972177254265917 -3.3438823448158301e-05 0 -0.014993357208736933 -1.9347689368085687e-05 0 -0.014972177254265917 -3.3438823448158301e-05 0 -0.014993357208736933 -1.9347689368085687e-05 0 -0.01498555087939602 -5.4734857241689771e-05 0 -0.014955724545410193 -5.2429996823198084e-05 0 -0.01498555087939602 -5.4734857241689771e-05 0 -0.014955825192739308 -9.1441538203257224e-05 0 -0.014972177254265917 -3.3438823448158301e-05 0 -0.014955724545410193 -5.2429996823198084e-05 0 -0.01498555087939602 -5.4734857241689771e-05 0 -0.014972177254265917 -3.3438823448158301e-05 0 -0.014955724545410193 -5.2429996823198084e-05 0 -0.01495550907609843 -2.9434158870763641e-05 0 -0.014897365821596198 -5.4256538047664924e-05 0 -0.014927646150375321 -2.6810257686582778e-05 0 -0.014955724545410193 -5.2429996823198084e-05 0 -0.014926653463454719 -6.9573310532233844e-05 0 -0.01495550907609843 -2.9434158870763641e-05 0 -0.015006789944630934 -2.0456655873478255e-05 0 -0.01500422300986518 -3.7249362768773329e-05 0 -0.014993357208736933 -1.9347689368085687e-05 0 -0.015014506410849456 -2.8380529122515099e-05 0 -0.015006789944630934 -2.0456655873478255e-05 0 -0.01500422300986518 -3.7249362768773329e-05 0 -0.01500422300986518 -3.7249362768773329e-05 0 -0.014993357208736933 -1.9347689368085687e-05 0 -0.01498555087939602 -5.4734857241689771e-05 0 -0.01500422300986518 -3.7249362768773329e-05 0 -0.01498555087939602 -5.4734857241689771e-05 0 -0.015012503673933425 -6.7686374549668857e-05 0 -0.015014506410849456 -2.8380529122515099e-05 0 -0.01500422300986518 -3.7249362768773329e-05 0 -0.015012503673933425 -6.7686374549668857e-05 0 -0.013689330100943538 0.00013687199126748308 0 -0.013897329595186631 4.6320625003600032e-05 0 -0.012834306152878157 0.0002757870892571757 0 -0.012749800788754978 0.00018299284543956545 0 -0.012804047310100135 0.00018092979468411382 0 -0.012749800788754978 0.00018299284543956545 0 -0.012776191615262325 9.7967100881246247e-05 0 -0.012804047310100135 0.00018092979468411382 0 -0.013897329595186631 4.6320625003600032e-05 0 -0.013984276787493666 2.4076933161012554e-05 0 -0.01498555087939602 -5.4734857241689771e-05 0 -0.015012503673933425 -6.7686374549668857e-05 0 -0.015004151251573764 -0.0001530890980416301 0 -0.012749800788754978 0.00018299284543956545 0 -0.012682914002953558 0.00010321102449787213 0 -0.012776191615262325 9.7967100881246247e-05 0 -0.014840699263921611 -6.3908744955529283e-05 0 -0.014865574191354914 -2.672283119227884e-05 0 -0.014891782291555612 -0.0001522436983648531 0 -0.014926653463454719 -6.9573310532233844e-05 0 -0.014955825192739308 -9.1441538203257224e-05 0 -0.014891782291555612 -0.0001522436983648531 0 -0.014897365821596198 -5.4256538047664924e-05 0 -0.014897975316152031 -0.0001442737336594355 0 -0.014955724545410193 -5.2429996823198084e-05 0 -0.014926653463454719 -6.9573310532233844e-05 0 -0.014955825192739308 -9.1441538203257224e-05 0 -0.01498555087939602 -5.4734857241689771e-05 0 -0.015004151251573764 -0.0001530890980416301 0 -0.014955825192739308 -9.1441538203257224e-05 0 -0.015004151251573764 -0.0001530890980416301 0 -0.014955825192739308 -9.1441538203257224e-05 0 -0.014891782291555612 -0.0001522436983648531 0 -0.015004151251573764 -0.0001530890980416301 0 -0.014891782291555612 -0.0001522436983648531 0 -0.014882119576408902 -0.00025964033136638095 0 -0.014840699263921611 -6.3908744955529283e-05 0 -0.014891782291555612 -0.0001522436983648531 0 -0.01476911102472577 -0.00021365906198045635 0 -0.014891782291555612 -0.0001522436983648531 0 -0.01476911102472577 -0.00021365906198045635 0 -0.014882119576408902 -0.00025964033136638095 0 -0.01476911102472577 -0.00021365906198045635 0 -0.014785799058517946 -0.00037801532379224848 0 -0.014882119576408902 -0.00025964033136638095 0 -0.014785799058517946 -0.00037801532379224848 0 -0.014882119576408902 -0.00025964033136638095 0 -0.014888450130298665 -0.00040970987932669887 0 -0.014907656436938749 -0.00077908756614669683 0 -0.012922958588933461 -0.00029872853506158754 0 -0.012682914002953558 0.00010321102449787213 0 -0.012625684551968283 3.0192590079435396e-05 0 -0.012702600727981178 4.9228019183560153e-05 0 -0.015004151251573764 -0.0001530890980416301 0 -0.014882119576408902 -0.00025964033136638095 0 -0.014888450130298665 -0.00040970987932669887 0 -0.013984276787493666 2.4076933161012554e-05 0 -0.012922958588933461 -0.00029872853506158754 0 -0.012922958588933461 -0.00029872853506158754 0 -0.011095488547715523 -0.00036919987611969916 0 -0.010263665612952423 -0.00079224229393977125 0 -0.010311764938003922 -0.00093431552833069692 0 -0.010061840429785657 -0.00078068139447492687 0 -0.012625684551968283 3.0192590079435396e-05 0 -0.012702600727981178 4.9228019183560153e-05 0 -0.012677641495044672 -2.8446345476987724e-06 0 -0.010263665612952423 -0.00079224229393977125 0 -0.010311764938003922 -0.00093431552833069692 0 -0.010480991793804869 -0.00074129723032171572 0 -0.0099275362669077882 -0.00089732764580645211 0 -0.011777578971763868 -0.0006885425247864118 0 -0.012922958588933461 -0.00029872853506158754 0 -0.011777578971763868 -0.0006885425247864118 0 -0.014948608916530746 -0.00048864765033131109 0 -0.014723707028519009 -0.00056102752391335245 0 -0.014746504481275824 -0.00076901108358853431 0 -0.014785799058517946 -0.00037801532379224848 0 -0.014948608916530746 -0.00048864765033131109 0 -0.014723707028519009 -0.00056102752391335245 0 -0.012428105936324142 -5.2539751213163262e-05 0 -0.012379309444887802 2.3384328456658642e-05 0 -0.012776191615262325 9.7967100881246247e-05 0 -0.012702600727981178 4.9228019183560153e-05 0 -0.012748746932022218 2.6773385075493684e-05 0 -0.012682914002953558 0.00010321102449787213 0 -0.012776191615262325 9.7967100881246247e-05 0 -0.012702600727981178 4.9228019183560153e-05 0 -0.012702600727981178 4.9228019183560153e-05 0 -0.012677641495044672 -2.8446345476987724e-06 0 -0.012748746932022218 2.6773385075493684e-05 0 -0.012045927297436197 -0.00010381572929663129 0 -0.011396226611262883 -5.4240744083007187e-05 0 -0.011198662887332725 -3.6800589518778242e-05 0 -0.013478261363100088 -3.5086053454937738e-05 0 -0.011709919832269954 -3.1132280274945704e-07 0 -0.012502936669307138 -6.2195763734184981e-05 0 -0.011814884667926037 -7.7375001503397244e-05 0 -0.011679815583149003 -7.8954803848505666e-05 0 -0.011703494015050936 9.019953427217733e-05 0 -0.011588588131671757 -0.00010841080855006394 0 -0.011457066096271144 2.2659768520439982e-05 0 -0.011679815583149003 -7.8954803848505666e-05 0 -0.011396226611262883 -5.4240744083007187e-05 0 -0.011227351150091255 -6.1227074025882011e-05 0 -0.012081332219269958 -0.00015331679365524056 0 -0.011814884667926037 -7.7375001503397244e-05 0 -0.011942222529056129 -0.0001252096213480833 0 -0.011814884667926037 -7.7375001503397244e-05 0 -0.011679815583149003 -7.8954803848505666e-05 0 -0.011942222529056129 -0.0001252096213480833 0 -0.011679815583149003 -7.8954803848505666e-05 0 -0.011942222529056129 -0.0001252096213480833 0 -0.012045927297436197 -0.00010381572929663129 0 -0.011679815583149003 -7.8954803848505666e-05 0 -0.012045927297436197 -0.00010381572929663129 0 -0.011396226611262883 -5.4240744083007187e-05 0 -0.012045927297436197 -0.00010381572929663129 0 -0.011709919832269954 -3.1132280274945704e-07 0 -0.012502936669307138 -6.2195763734184981e-05 0 -0.012045927297436197 -0.00010381572929663129 0 -0.011709919832269954 -3.1132280274945704e-07 0 -0.011198662887332725 -3.6800589518778242e-05 0 -0.012816304892566029 -5.8722174351727227e-05 0 -0.012401536136437243 -5.2078281265081984e-05 0 -0.012398711108785014 -8.1905710192284453e-05 0 -0.012502936669307138 -6.2195763734184981e-05 0 -0.012816304892566029 -5.8722174351727227e-05 0 -0.012398711108785014 -8.1905710192284453e-05 0 -0.012632211697002002 2.5826174372893406e-05 0 -0.012490306112296996 -7.9911265422669752e-05 0 -0.012409226486130492 0.00013675015681138402 0 -0.012343029115187703 5.7690147549486706e-05 0 -0.012401536136437243 -5.2078281265081984e-05 0 -0.012081332219269958 -0.00015331679365524056 0 -0.012343029115187703 5.7690147549486706e-05 0 -0.012401536136437243 -5.2078281265081984e-05 0 -0.012428105936324142 -5.2539751213163262e-05 0 -0.012442354532404155 0.00013376394008734398 0 -0.012910855115059213 -6.5263293767641142e-05 0 -0.012816304892566029 -5.8722174351727227e-05 0 -0.012401536136437243 -5.2078281265081984e-05 0 -0.012401536136437243 -5.2078281265081984e-05 0 -0.012186691780312614 -0.00011794842714517289 0 -0.012398711108785014 -8.1905710192284453e-05 0 -0.012081332219269958 -0.00015331679365524056 0 -0.012401536136437243 -5.2078281265081984e-05 0 -0.012186691780312614 -0.00011794842714517289 0 -0.012081332219269958 -0.00015331679365524056 0 -0.011942222529056129 -0.0001252096213480833 0 -0.012186691780312614 -0.00011794842714517289 0 -0.011942222529056129 -0.0001252096213480833 0 -0.012045927297436197 -0.00010381572929663129 0 -0.012186691780312614 -0.00011794842714517289 0 -0.012045927297436197 -0.00010381572929663129 0 -0.012502936669307138 -6.2195763734184981e-05 0 -0.012398711108785014 -8.1905710192284453e-05 0 -0.012045927297436197 -0.00010381572929663129 0 -0.012186691780312614 -0.00011794842714517289 0 -0.012398711108785014 -8.1905710192284453e-05 0 -0.014834734579388264 -0.00014448932591642843 0 -0.014726926304137437 -0.00014422809880630278 0 -0.014795567711041721 -0.00015120685373384531 0 -0.014938166781522639 -0.00015857331538665756 0 -0.014953151903700059 -0.00010296372391593364 0 -0.014834734579388264 -0.00014448932591642843 0 -0.014784692176316368 -0.00017472175190988204 0 -0.014814947212646916 -0.00014912403438611862 0 -0.014634299780756994 -0.00019914431513020712 0 -0.014834734579388264 -0.00014448932591642843 0 -0.014726926304137437 -0.00014422809880630278 0 -0.014953151903700059 -0.00010296372391593364 0 -0.014966114061868853 -3.8548894996005392e-05 0 -0.014983809720055929 -7.496502548705604e-05 0 -0.014953151903700059 -0.00010296372391593364 0 -0.014834734579388264 -0.00014448932591642843 0 -0.014966114061868853 -3.8548894996005392e-05 0 -0.014834734579388264 -0.00014448932591642843 0 -0.014901489701885566 -5.633732035463974e-05 0 -0.014966114061868853 -3.8548894996005392e-05 0 -0.014834734579388264 -0.00014448932591642843 0 -0.014901489701885566 -5.633732035463974e-05 0 -0.014840536220431915 -8.3262812491262018e-05 0 -0.014901489701885566 -5.633732035463974e-05 0 -0.014958903930108946 -1.6610992623877261e-05 0 -0.014917934024055116 -2.7266883689985597e-05 0 -0.014901489701885566 -5.633732035463974e-05 0 -0.014958903930108946 -1.6610992623877261e-05 0 -0.014966114061868853 -3.8548894996005392e-05 0 -0.014958903930108946 -1.6610992623877261e-05 0 -0.014999945610089974 -1.9990812485355364e-09 0 -0.014999900784606453 -1.4798548275067212e-08 0 -0.014958903930108946 -1.6610992623877261e-05 0 -0.014999945610089974 -1.9990812485355364e-09 0 -0.014966114061868853 -3.8548894996005392e-05 0 -0.014966705302536324 -3.7796287065636644e-05 0 -0.014999786449326029 -1.7166545679067861e-05 0 -0.014966114061868853 -3.8548894996005392e-05 0 -0.01499981660733689 -2.925128718183508e-05 0 -0.014996914666464687 -4.9062888964932081e-05 0 -0.014966114061868853 -3.8548894996005392e-05 0 -0.014996914666464687 -4.9062888964932081e-05 0 -0.014983809720055929 -7.496502548705604e-05 0 -0.014999945610089974 -1.9990812485355364e-09 0 -0.01500002206891049 -1.0316679380213703e-08 0 -0.015002092999104742 -5.820958300524663e-06 0 -0.014999945610089974 -1.9990812485355364e-09 0 -0.014966114061868853 -3.8548894996005392e-05 0 -0.015002092999104742 -5.820958300524663e-06 0 -0.01500002206891049 -1.0316679380213703e-08 0 -0.015002092999104742 -5.820958300524663e-06 0 -0.014999993457763178 4.900517666805465e-09 0 -0.01499981660733689 -2.925128718183508e-05 0 -0.015006732144245041 -3.365673503443658e-05 0 -0.015005650791118305 -2.1137835844947676e-05 0 -0.01499981660733689 -2.925128718183508e-05 0 -0.015006732144245041 -3.365673503443658e-05 0 -0.014996914666464687 -4.9062888964932081e-05 0 -0.014996914666464687 -4.9062888964932081e-05 0 -0.015011943805815072 -4.789709265009361e-05 0 -0.015006729415866869 -7.6226851361225196e-05 0 -0.015006732144245041 -3.365673503443658e-05 0 -0.014996914666464687 -4.9062888964932081e-05 0 -0.015011943805815072 -4.789709265009361e-05 0 -0.015006729415866869 -7.6226851361225196e-05 0 -0.015018749208676499 -0.00011903346704821206 0 -0.015028759937910681 -6.448355653064546e-05 0 -0.014817692362852903 -4.9957388398025909e-05 0 -0.014803275613635637 -4.2135313229328145e-05 0 -0.014829303183971689 -3.691124937861974e-06 0 -0.015011943805815072 -4.789709265009361e-05 0 -0.015006729415866869 -7.6226851361225196e-05 0 -0.015028759937910681 -6.448355653064546e-05 0 -0.014921650629734013 -7.2729064282294454e-05 0 -0.014926682482742239 -3.4904163423971008e-05 0 -0.015006729415866869 -7.6226851361225196e-05 0 -0.014984871963408501 -0.0001202221412791031 0 -0.015018749208676499 -0.00011903346704821206 0 -0.014996914666464687 -4.9062888964932081e-05 0 -0.015006729415866869 -7.6226851361225196e-05 0 -0.014983809720055929 -7.496502548705604e-05 0 -0.014953151903700059 -0.00010296372391593364 0 -0.014983809720055929 -7.496502548705604e-05 0 -0.014984871963408501 -0.0001202221412791031 0 -0.015006729415866869 -7.6226851361225196e-05 0 -0.014983809720055929 -7.496502548705604e-05 0 -0.014984871963408501 -0.0001202221412791031 0 -0.014938166781522639 -0.00015857331538665756 0 -0.014984871963408501 -0.0001202221412791031 0 -0.01499299459682402 -0.00017399106027831464 0 -0.014784692176316368 -0.00017472175190988204 0 -0.01472028385592181 -0.00011128222976188577 0 -0.014938166781522639 -0.00015857331538665756 0 -0.014953151903700059 -0.00010296372391593364 0 -0.014984871963408501 -0.0001202221412791031 0 -0.014921650629734013 -7.2729064282294454e-05 0 -0.01472028385592181 -0.00011128222976188577 0 -0.014817692362852903 -4.9957388398025909e-05 0 -0.014803275613635637 -4.2135313229328145e-05 0 -0.0147782064892494 -8.0459252552748676e-05 0 -0.014984871963408501 -0.0001202221412791031 0 -0.015018749208676499 -0.00011903346704821206 0 -0.01499299459682402 -0.00017399106027831464 0 -0.014842266279797458 -4.0996622845450656e-05 0 -0.014867175085634024 -3.1144564794231517e-05 0 -0.014832796388423121 -4.7170247701461201e-05 0 -0.014867175085634024 -3.1144564794231517e-05 0 -0.01487238069198815 -3.5335206402536995e-05 0 -0.014832796388423121 -4.7170247701461201e-05 0 -0.014867175085634024 -3.1144564794231517e-05 0 -0.014885026449575312 -2.138958388920504e-05 0 -0.014900681073384311 -2.0437097455313426e-05 0 -0.014867175085634024 -3.1144564794231517e-05 0 -0.014900681073384311 -2.0437097455313426e-05 0 -0.01487238069198815 -3.5335206402536995e-05 0 -0.014920231704787413 -1.7841961859281003e-05 0 -0.014879315034610738 -3.613924698146655e-05 0 -0.014867175085634024 -3.1144564794231517e-05 0 -0.014885026449575312 -2.138958388920504e-05 0 -0.014866032985018712 -2.2351527401537691e-05 0 -0.014842266279797458 -4.0996622845450656e-05 0 -0.014867175085634024 -3.1144564794231517e-05 0 -0.014866032985018712 -2.2351527401537691e-05 0 -0.014835530473206633 -4.7627249812378903e-05 0 -0.014926682482742239 -3.4904163423971008e-05 0 -0.015015295128102684 -4.1686703073300107e-05 0 -0.015013516663181164 -2.5260806083647052e-05 0 -0.015014120322876761 -3.2338245462057833e-05 0 -0.015011943805815072 -4.789709265009361e-05 0 -0.015028759937910681 -6.448355653064546e-05 0 -0.015014120322876761 -3.2338245462057833e-05 0 -0.014926682482742239 -3.4904163423971008e-05 0 -0.014994378152047559 -3.4309033012634428e-05 0 -0.014926682482742239 -3.4904163423971008e-05 0 -0.014959778941117795 -2.1520855413671036e-05 0 -0.014885026449575312 -2.138958388920504e-05 0 -0.014866032985018712 -2.2351527401537691e-05 0 -0.014907118744279347 -1.2814393352281977e-05 0 -0.015013516663181164 -2.5260806083647052e-05 0 -0.015014120322876761 -3.2338245462057833e-05 0 -0.015005650791118305 -2.1137835844947676e-05 0 -0.015006732144245041 -3.365673503443658e-05 0 -0.015014120322876761 -3.2338245462057833e-05 0 -0.015005650791118305 -2.1137835844947676e-05 0 -0.015006732144245041 -3.365673503443658e-05 0 -0.015011943805815072 -4.789709265009361e-05 0 -0.015014120322876761 -3.2338245462057833e-05 0 -0.014999786449326029 -1.7166545679067861e-05 0 -0.015000007657589918 -3.2373889907658799e-09 0 -0.01499981660733689 -2.925128718183508e-05 0 -0.015005650791118305 -2.1137835844947676e-05 0 -0.015000044417394529 -5.3420874156308633e-08 0 -0.015013516663181164 -2.5260806083647052e-05 0 -0.015005650791118305 -2.1137835844947676e-05 0 -0.015002983506994926 -1.1557225126968457e-05 0 -0.015005650791118305 -2.1137835844947676e-05 0 -0.015002983506994926 -1.1557225126968457e-05 0 -0.015000044417394529 -5.3420874156308633e-08 0 -0.014999969787687703 2.5832888636152358e-09 0 -0.014920231704787413 -1.7841961859281003e-05 0 -0.014999911192066272 3.5697884202990773e-08 0 -0.014987664684644573 -1.7365109636798029e-06 0 -0.014900681073384311 -2.0437097455313426e-05 0 -0.014999967425709845 -3.7825817418560195e-09 0 -0.014936743539919054 -1.6496392937403951e-05 0 -0.01497007903287614 -8.7404331605980571e-06 0 -0.015000044417394529 -5.3420874156308633e-08 0 -0.014999911192066272 3.5697884202990773e-08 0 -0.014987664684644573 -1.7365109636798029e-06 0 -0.015002983506994926 -1.1557225126968457e-05 0 -0.015000044417394529 -5.3420874156308633e-08 0 -0.014987664684644573 -1.7365109636798029e-06 0 -0.015013516663181164 -2.5260806083647052e-05 0 -0.015002983506994926 -1.1557225126968457e-05 0 -0.014987664684644573 -1.7365109636798029e-06 0 -0.014959778941117795 -2.1520855413671036e-05 0 -0.01497786644055156 -8.9755942700903444e-06 0 -0.014907118744279347 -1.2814393352281977e-05 0 -0.014987664684644573 -1.7365109636798029e-06 0 -0.014900681073384311 -2.0437097455313426e-05 0 -0.014885026449575312 -2.138958388920504e-05 0 -0.014907118744279347 -1.2814393352281977e-05 0 -0.014900681073384311 -2.0437097455313426e-05 0 -0.014936743539919054 -1.6496392937403951e-05 0 -0.014942345637099537 -1.5267302549366519e-05 0 -0.014915872933684706 -2.1653406350083665e-05 0 -0.014936743539919054 -1.6496392937403951e-05 0 -0.01497007903287614 -8.7404331605980571e-06 0 -0.014942345637099537 -1.5267302549366519e-05 0 -0.014999923251151267 -1.6501222905733748e-08 0 -0.01497007903287614 -8.7404331605980571e-06 0 -0.014942345637099537 -1.5267302549366519e-05 0 -0.014999967425709845 -3.7825817418560195e-09 0 -0.014999923251151267 -1.6501222905733748e-08 0 -0.01497007903287614 -8.7404331605980571e-06 0 -0.014999980452458789 1.0128453016828256e-09 0 -0.014960786256238149 -1.0884163428032174e-05 0 -0.014999977363296767 -6.5315392836337458e-09 0 -0.014999975115111057 -3.5250358411150491e-09 0 -0.014979097326603604 -9.87314934091918e-06 0 -0.014960786256238149 -1.0884163428032174e-05 0 -0.014927646150375321 -2.6810257686582778e-05 0 -0.014942345637099537 -1.5267302549366519e-05 0 -0.014900635140013999 -2.6098452999824267e-05 0 -0.014915872933684706 -2.1653406350083665e-05 0 -0.014900635140013999 -2.6098452999824267e-05 0 -0.014915872933684706 -2.1653406350083665e-05 0 -0.01487238069198815 -3.5335206402536995e-05 0 -0.014936743539919054 -1.6496392937403951e-05 0 -0.014915872933684706 -2.1653406350083665e-05 0 -0.01487238069198815 -3.5335206402536995e-05 0 -0.014865574191354914 -2.672283119227884e-05 0 -0.014900635140013999 -2.6098452999824267e-05 0 -0.014868331495056862 -3.9066584533827071e-05 0 -0.014900635140013999 -2.6098452999824267e-05 0 -0.01487238069198815 -3.5335206402536995e-05 0 -0.014868331495056862 -3.9066584533827071e-05 0 -0.014840699263921611 -6.3908744955529283e-05 0 -0.014868331495056862 -3.9066584533827071e-05 0 -0.01486103534548924 -5.4753581645042422e-05 0 -0.014840699263921611 -6.3908744955529283e-05 0 -0.014865574191354914 -2.672283119227884e-05 0 -0.014868331495056862 -3.9066584533827071e-05 0 -0.01487238069198815 -3.5335206402536995e-05 0 -0.014868331495056862 -3.9066584533827071e-05 0 -0.01486103534548924 -5.4753581645042422e-05 0 -0.01486103534548924 -5.4753581645042422e-05 0 -0.014889649786159078 -0.00011441326933819617 0 -0.014791924990253039 -6.3907969776067199e-05 0 -0.014840699263921611 -6.3908744955529283e-05 0 -0.01476911102472577 -0.00021365906198045635 0 -0.014458389780134947 -0.00025456732886515926 0 -0.014840699263921611 -6.3908744955529283e-05 0 -0.01486103534548924 -5.4753581645042422e-05 0 -0.014889649786159078 -0.00011441326933819617 0 -0.01484155394304507 -5.7162403318563008e-05 0 -0.014614497597132823 -0.00022764887799886114 0 -0.014785799058517946 -0.00037801532379224848 0 -0.014533820887608701 -0.00054744216417917685 0 -0.014458389780134947 -0.00025456732886515926 0 -0.01476911102472577 -0.00021365906198045635 0 -0.014785799058517946 -0.00037801532379224848 0 -0.014458389780134947 -0.00025456732886515926 0 -0.014533820887608701 -0.00054744216417917685 0 -0.014326548158530362 -0.00065625504522918488 0 -0.014746504481275824 -0.00076901108358853431 0 -0.014785799058517946 -0.00037801532379224848 0 -0.014723707028519009 -0.00056102752391335245 0 -0.014533820887608701 -0.00054744216417917685 0 -0.014723707028519009 -0.00056102752391335245 0 -0.014533820887608701 -0.00054744216417917685 0 -0.014746504481275824 -0.00076901108358853431 0 -0.014326548158530362 -0.00065625504522918488 0 -0.014458389780134947 -0.00025456732886515926 0 -0.014045227616679982 -0.00061771725722884114 0 -0.014533820887608701 -0.00054744216417917685 0 -0.014326548158530362 -0.00065625504522918488 0 -0.014458389780134947 -0.00025456732886515926 0 -0.014326548158530362 -0.00065625504522918488 0 -0.014045227616679982 -0.00061771725722884114 0 -0.014233556861553587 -0.00091580335099071422 0 -0.014889649786159078 -0.00011441326933819617 0 -0.01474785122216119 -0.00019003093632065444 0 -0.014807944938365217 -0.00031291660735184346 0 -0.014614497597132823 -0.00022764887799886114 0 -0.014718660400787677 -0.00038535719790461036 0 -0.01474785122216119 -0.00019003093632065444 0 -0.014626476808330695 -0.00012091296892780778 0 -0.014791924990253039 -6.3907969776067199e-05 0 -0.014889649786159078 -0.00011441326933819617 0 -0.01474785122216119 -0.00019003093632065444 0 -0.014791924990253039 -6.3907969776067199e-05 0 -0.01474785122216119 -0.00019003093632065444 0 -0.014807944938365217 -0.00031291660735184346 0 -0.014604901171441706 -0.00028352699891194885 0 -0.014807944938365217 -0.00031291660735184346 0 -0.014604901171441706 -0.00028352699891194885 0 -0.014623997455011827 -0.00054289095311306371 0 -0.01474785122216119 -0.00019003093632065444 0 -0.014604901171441706 -0.00028352699891194885 0 -0.014626476808330695 -0.00012091296892780778 0 -0.014604901171441706 -0.00028352699891194885 0 -0.014626476808330695 -0.00012091296892780778 0 -0.014457068762375565 -0.00013997754183220143 0 -0.014626476808330695 -0.00012091296892780778 0 -0.014791924990253039 -6.3907969776067199e-05 0 -0.014509240762648508 0.00010428895807950512 0 -0.0147966378518641 -4.2317186531245712e-05 0 -0.014643184056966043 -2.7782126045868071e-05 0 -0.01487238069198815 -3.5335206402536995e-05 0 -0.01486103534548924 -5.4753581645042422e-05 0 -0.014832796388423121 -4.7170247701461201e-05 0 -0.01486103534548924 -5.4753581645042422e-05 0 -0.014791924990253039 -6.3907969776067199e-05 0 -0.014832796388423121 -4.7170247701461201e-05 0 -0.014842266279797458 -4.0996622845450656e-05 0 -0.014832796388423121 -4.7170247701461201e-05 0 -0.014832387462674243 -4.6296657444558143e-05 0 -0.014791924990253039 -6.3907969776067199e-05 0 -0.014832796388423121 -4.7170247701461201e-05 0 -0.014832387462674243 -4.6296657444558143e-05 0 -0.014817692362852903 -4.9957388398025909e-05 0 -0.014806719560415411 -9.5708232651098296e-05 0 -0.0147782064892494 -8.0459252552748676e-05 0 -0.014835530473206633 -4.7627249812378903e-05 0 -0.014643184056966043 -2.7782126045868071e-05 0 -0.01438929676858049 -9.2738848822888217e-05 0 -0.014465575104861253 -0.00011912680762290685 0 -0.014443575461455501 -5.3985571368414677e-05 0 -0.014643184056966043 -2.7782126045868071e-05 0 -0.01472028385592181 -0.00011128222976188577 0 -0.01438929676858049 -9.2738848822888217e-05 0 -0.014455306302692721 -0.00013594907169303322 0 -0.014465575104861253 -0.00011912680762290685 0 -0.014634299780756994 -0.00019914431513020712 0 -0.014449597355136391 -0.00014577384371332685 0 -0.014465575104861253 -0.00011912680762290685 0 -0.014634299780756994 -0.00019914431513020712 0 -0.014465575104861253 -0.00011912680762290685 0 -0.014567137208417737 -9.4438709735785584e-05 0 -0.01472028385592181 -0.00011128222976188577 0 -0.014662920004431243 -0.00014989556472913413 0 -0.014465575104861253 -0.00011912680762290685 0 -0.01448073498240717 -7.0725188926566812e-05 0 -0.014567137208417737 -9.4438709735785584e-05 0 -0.014465575104861253 -0.00011912680762290685 0 -0.014443575461455501 -5.3985571368414677e-05 0 -0.01448073498240717 -7.0725188926566812e-05 0 -0.014443575461455501 -5.3985571368414677e-05 0 -0.01448073498240717 -7.0725188926566812e-05 0 -0.014467175540805687 -2.564188713680173e-05 0 -0.014443575461455501 -5.3985571368414677e-05 0 -0.014467175540805687 -2.564188713680173e-05 0 -0.014418270047682783 1.4140152705460331e-05 0 -0.01448073498240717 -7.0725188926566812e-05 0 -0.014467175540805687 -2.564188713680173e-05 0 -0.014567137208417737 -9.4438709735785584e-05 0 -0.014643184056966043 -2.7782126045868071e-05 0 -0.014402539118351657 -8.1473270545921506e-05 0 -0.014626476808330695 -0.00012091296892780778 0 -0.014509240762648508 0.00010428895807950512 0 -0.014457068762375565 -0.00013997754183220143 0 -0.01438929676858049 -9.2738848822888217e-05 0 -0.014443575461455501 -5.3985571368414677e-05 0 -0.014418270047682783 1.4140152705460331e-05 0 -0.014604901171441706 -0.00028352699891194885 0 -0.014385035061959121 -0.00036832228301214635 0 -0.014519999168861424 -0.00042631592677074459 0 -0.014402539118351657 -8.1473270545921506e-05 0 -0.014525239047250376 -0.0001564627365683774 0 -0.014604901171441706 -0.00028352699891194885 0 -0.014457068762375565 -0.00013997754183220143 0 -0.014385035061959121 -0.00036832228301214635 0 -0.014421975470556807 -8.4295212394244951e-05 0 -0.014381264073741127 1.222739528204792e-05 0 -0.014251444351919015 -8.3303248395994825e-05 0 -0.014467175540805687 -2.564188713680173e-05 0 -0.014418270047682783 1.4140152705460331e-05 0 -0.014381264073741127 1.222739528204792e-05 0 -0.014418270047682783 1.4140152705460331e-05 0 -0.014421975470556807 -8.4295212394244951e-05 0 -0.014381264073741127 1.222739528204792e-05 0 -0.014467175540805687 -2.564188713680173e-05 0 -0.014381264073741127 1.222739528204792e-05 0 -0.014642506317021893 -9.8866495464901994e-06 0 -0.014381264073741127 1.222739528204792e-05 0 -0.014229514755122727 -1.5937925514395825e-05 0 -0.014223682606985401 -9.7515130866400138e-06 0 -0.014396435821859573 4.8091322698472425e-06 0 -0.014439799797203775 -2.1143830139975167e-05 0 -0.014381264073741127 1.222739528204792e-05 0 -0.014229514755122727 -1.5937925514395825e-05 0 -0.014251444351919015 -8.3303248395994825e-05 0 -0.014251444351919015 -8.3303248395994825e-05 0 -0.014172175935709042 -3.7434216911117629e-05 0 -0.014087499145555271 -0.00012988225840748757 0 -0.014172175935709042 -3.7434216911117629e-05 0 -0.014087499145555271 -0.00012988225840748757 0 -0.014106313370597316 -8.220555621103249e-05 0 -0.014229514755122727 -1.5937925514395825e-05 0 -0.014251444351919015 -8.3303248395994825e-05 0 -0.014172175935709042 -3.7434216911117629e-05 0 -0.014229514755122727 -1.5937925514395825e-05 0 -0.014172175935709042 -3.7434216911117629e-05 0 -0.01426760651271643 -2.4828411166207042e-05 0 -0.014229514755122727 -1.5937925514395825e-05 0 -0.01426760651271643 -2.4828411166207042e-05 0 -0.014223682606985401 -9.7515130866400138e-06 0 -0.014439799797203775 -2.1143830139975167e-05 0 -0.014559215596797029 -0.00013135951332539738 0 -0.01426760651271643 -2.4828411166207042e-05 0 -0.014223682606985401 -9.7515130866400138e-06 0 -0.014333499717996419 -0.00014528034458379202 0 -0.014467175540805687 -2.564188713680173e-05 0 -0.014642506317021893 -9.8866495464901994e-06 0 -0.014567137208417737 -9.4438709735785584e-05 0 -0.014642506317021893 -9.8866495464901994e-06 0 -0.014567137208417737 -9.4438709735785584e-05 0 -0.014726926304137437 -0.00014422809880630278 0 -0.014634299780756994 -0.00019914431513020712 0 -0.014567137208417737 -9.4438709735785584e-05 0 -0.014726926304137437 -0.00014422809880630278 0 -0.014726926304137437 -0.00014422809880630278 0 -0.014791085482377406 -0.00013870835282858287 0 -0.014795567711041721 -0.00015120685373384531 0 -0.014642506317021893 -9.8866495464901994e-06 0 -0.014726926304137437 -0.00014422809880630278 0 -0.014791085482377406 -0.00013870835282858287 0 -0.013563306042163771 0.00034087088073910329 0 -0.013898396069187455 0.0003163166563445349 0 -0.013833637155263761 0.00026486038229954142 0 -0.013743586740847046 0.00022528255777027901 0 -0.013619100360189856 0.00025847429363669278 0 -0.013679734374269753 0.00017058875630273152 0 -0.013743586740847046 0.00022528255777027901 0 -0.013679734374269753 0.00017058875630273152 0 -0.013833002702439482 0.00012755409591461367 0 -0.013743586740847046 0.00022528255777027901 0 -0.013833002702439482 0.00012755409591461367 0 -0.013896353233967242 0.00018482506619047412 0 -0.013743586740847046 0.00022528255777027901 0 -0.013833637155263761 0.00026486038229954142 0 -0.013896353233967242 0.00018482506619047412 0 -0.013743586740847046 0.00022528255777027901 0 -0.013563306042163771 0.00034087088073910329 0 -0.013833637155263761 0.00026486038229954142 0 -0.013743586740847046 0.00022528255777027901 0 -0.013619100360189856 0.00025847429363669278 0 -0.013563306042163771 0.00034087088073910329 0 -0.013619100360189856 0.00025847429363669278 0 -0.013526057744030972 0.00027124066728566949 0 -0.013563306042163771 0.00034087088073910329 0 -0.013526057744030972 0.00027124066728566949 0 -0.013582289777073155 0.00014237824711504828 0 -0.013439595427741702 0.00013997548235408501 0 -0.013619100360189856 0.00025847429363669278 0 -0.013526057744030972 0.00027124066728566949 0 -0.013679734374269753 0.00017058875630273152 0 -0.013526057744030972 0.00027124066728566949 0 -0.013582289777073155 0.00014237824711504828 0 -0.013679734374269753 0.00017058875630273152 0 -0.013582289777073155 0.00014237824711504828 0 -0.01372236714489846 6.1582661465817905e-05 0 -0.013679734374269753 0.00017058875630273152 0 -0.013582289777073155 0.00014237824711504828 0 -0.01372236714489846 6.1582661465817905e-05 0 -0.013681853077698257 -4.8416987132531314e-05 0 -0.013582289777073155 0.00014237824711504828 0 -0.013681853077698257 -4.8416987132531314e-05 0 -0.013439595427741702 0.00013997548235408501 0 -0.01372236714489846 6.1582661465817905e-05 0 -0.013796097539357267 8.1680903784430654e-05 0 -0.013844128886761956 -2.5948763123606112e-05 0 -0.013796097539357267 8.1680903784430654e-05 0 -0.013679734374269753 0.00017058875630273152 0 -0.013833002702439482 0.00012755409591461367 0 -0.01372236714489846 6.1582661465817905e-05 0 -0.013796097539357267 8.1680903784430654e-05 0 -0.013679734374269753 0.00017058875630273152 0 -0.013833002702439482 0.00012755409591461367 0 -0.013901647752177306 3.0336761355708519e-05 0 -0.013939200193353986 8.9495162740376767e-05 0 -0.013796097539357267 8.1680903784430654e-05 0 -0.013833002702439482 0.00012755409591461367 0 -0.013901647752177306 3.0336761355708519e-05 0 -0.013901647752177306 3.0336761355708519e-05 0 -0.014005582954175892 -6.1970847886211983e-05 0 -0.014005824194074762 4.6382632843280604e-06 0 -0.013901647752177306 3.0336761355708519e-05 0 -0.013844128886761956 -2.5948763123606112e-05 0 -0.014005582954175892 -6.1970847886211983e-05 0 -0.013796097539357267 8.1680903784430654e-05 0 -0.013901647752177306 3.0336761355708519e-05 0 -0.013844128886761956 -2.5948763123606112e-05 0 -0.014005582954175892 -6.1970847886211983e-05 0 -0.014087499145555271 -0.00012988225840748757 0 -0.014106313370597316 -8.220555621103249e-05 0 -0.013844128886761956 -2.5948763123606112e-05 0 -0.014005582954175892 -6.1970847886211983e-05 0 -0.014087499145555271 -0.00012988225840748757 0 -0.014087499145555271 -0.00012988225840748757 0 -0.014241865070305264 -0.00020839859022733458 0 -0.014212759112228024 -0.00032842877291791253 0 -0.014027549947126359 -0.00014560292712590011 0 -0.014065705523155359 -0.0001026918698462993 0 -0.014251444351919015 -8.3303248395994825e-05 0 -0.014087499145555271 -0.00012988225840748757 0 -0.014241865070305264 -0.00020839859022733458 0 -0.014251444351919015 -8.3303248395994825e-05 0 -0.014241865070305264 -0.00020839859022733458 0 -0.014322832497303168 -0.00019008552225393099 0 -0.014241865070305264 -0.00020839859022733458 0 -0.014212759112228024 -0.00032842877291791253 0 -0.014316729124181913 -0.00032002944743058981 0 -0.013844128886761956 -2.5948763123606112e-05 0 -0.014087499145555271 -0.00012988225840748757 0 -0.013681853077698257 -4.8416987132531314e-05 0 -0.01372236714489846 6.1582661465817905e-05 0 -0.013844128886761956 -2.5948763123606112e-05 0 -0.013681853077698257 -4.8416987132531314e-05 0 -0.014212759112228024 -0.00032842877291791253 0 -0.014316729124181913 -0.00032002944743058981 0 -0.014310848856194307 -0.00049596802930088415 0 -0.014359867302931753 -0.00031018959954016848 0 -0.014316729124181913 -0.00032002944743058981 0 -0.014310848856194307 -0.00049596802930088415 0 -0.014370897679517377 -0.0003072106364361569 0 -0.014316729124181913 -0.00032002944743058981 0 -0.014322832497303168 -0.00019008552225393099 0 -0.01324677974277419 -0.00069845444944545681 0 -0.014013605278852544 -0.00048389748602461954 0 -0.014241865070305264 -0.00020839859022733458 0 -0.014316729124181913 -0.00032002944743058981 0 -0.014322832497303168 -0.00019008552225393099 0 -0.014421975470556807 -8.4295212394244951e-05 0 -0.014370897679517377 -0.0003072106364361569 0 -0.014322832497303168 -0.00019008552225393099 0 -0.014525239047250376 -0.0001564627365683774 0 -0.01324677974277419 -0.00069845444944545681 0 -0.014421975470556807 -8.4295212394244951e-05 0 -0.014251444351919015 -8.3303248395994825e-05 0 -0.014322832497303168 -0.00019008552225393099 0 -0.014315420588505047 -0.00062161778164751308 0 -0.014445667583176501 -0.00049456124620596482 0 -0.014623997455011827 -0.00054289095311306371 0 -0.014385035061959121 -0.00036832228301214635 0 -0.014315420588505047 -0.00062161778164751308 0 -0.014445667583176501 -0.00049456124620596482 0 -0.014385035061959121 -0.00036832228301214635 0 -0.014519999168861424 -0.00042631592677074459 0 -0.014445667583176501 -0.00049456124620596482 0 -0.010662302008094796 -0.00087969185278802503 0 -0.010684058987424482 -0.00092757239120588072 0 -0.010802907952414372 -0.00083355296786073632 0 -0.01324677974277419 -0.00069845444944545681 0 -0.012364226181172971 -0.0007856886539206418 0 -0.010684058987424482 -0.00092757239120588072 0 -0.010667507502448085 -0.00094460641579742737 0 -0.010668958212343198 -0.00095154242753413103 0 -0.010662302008094796 -0.00087969185278802503 0 -0.010684058987424482 -0.00092757239120588072 0 -0.010667507502448085 -0.00094460641579742737 0 -0.01324677974277419 -0.00069845444944545681 0 -0.012691910895343288 -0.00096195105667627647 0 -0.014065705523155359 -0.0001026918698462993 0 -0.012691910895343288 -0.00096195105667627647 0 -0.012691910895343288 -0.00096195105667627647 0 -0.012993632889136601 -0.00062385840678189303 0 -0.012691910895343288 -0.00096195105667627647 0 -0.010946291607682608 -0.0015317316547650778 0 -0.012234373081962294 -0.003009857946296018 0 -0.011444060231225638 -0.0019194480471318976 0 -0.012581854647948252 -0.0014478825427488449 0 -0.013526057744030972 0.00027124066728566949 0 -0.013439595427741702 0.00013997548235408501 0 -0.013392898391528105 0.000372827987666955 0 -0.010668958212343198 -0.00095154242753413103 0 -0.010617395518521934 -0.00094858988268083891 0 -0.010683762730144606 -0.00095971038201724684 0 -0.010667507502448085 -0.00094460641579742737 0 -0.010668958212343198 -0.00095154242753413103 0 -0.010683762730144606 -0.00095971038201724684 0 -0.010668958212343198 -0.00095154242753413103 0 -0.010654029583382393 -0.00094864010799682833 0 -0.010677321563451993 -0.00093446585435259745 0 -0.010668958212343198 -0.00095154242753413103 0 -0.010654029583382393 -0.00094864010799682833 0 -0.010617395518521934 -0.00094858988268083891 0 -0.010654029583382393 -0.00094864010799682833 0 -0.010617395518521934 -0.00094858988268083891 0 -0.010654485778928162 -0.00096356785737625877 0 -0.010654485778928162 -0.00096356785737625877 0 -0.010689909578342335 -0.00094625465504248683 0 -0.010754785837374261 -0.00094509334913676099 0 -0.0098906349325409565 -0.0015101415822692044 0 -0.0094660828128876693 -0.0020215340071276962 0 -0.0094457253258039969 -0.001700294330172997 0 -0.010237157965310092 -0.001305447928303788 0 -0.010251178253374646 -0.001010853047961887 0 -0.010654029583382393 -0.00094864010799682833 0 -0.010654485778928162 -0.00096356785737625877 0 -0.010689909578342335 -0.00094625465504248683 0 -0.010689909578342335 -0.00094625465504248683 0 -0.010724774632469193 -0.00093643143410860751 0 -0.010704274763027164 -0.00092622787089434509 0 -0.010689909578342335 -0.00094625465504248683 0 -0.010704274763027164 -0.00092622787089434509 0 -0.010677321563451993 -0.00093446585435259745 0 -0.010761614295755961 -0.00086619530594666194 0 -0.010740860920622474 -0.00090322963069998298 0 -0.010767291513516734 -0.0009511703390224092 0 -0.010689909578342335 -0.00094625465504248683 0 -0.010724774632469193 -0.00093643143410860751 0 -0.010754785837374261 -0.00094509334913676099 0 -0.010724774632469193 -0.00093643143410860751 0 -0.010746071231195 -0.00093900597694032001 0 -0.010754785837374261 -0.00094509334913676099 0 -0.010746071231195 -0.00093900597694032001 0 -0.010729675865753758 -0.00092395741504922935 0 -0.010740860920622474 -0.00090322963069998298 0 -0.010746071231195 -0.00093900597694032001 0 -0.010740860920622474 -0.00090322963069998298 0 -0.010767291513516734 -0.0009511703390224092 0 -0.010724774632469193 -0.00093643143410860751 0 -0.010746071231195 -0.00093900597694032001 0 -0.010729675865753758 -0.00092395741504922935 0 -0.010724774632469193 -0.00093643143410860751 0 -0.010729675865753758 -0.00092395741504922935 0 -0.010704274763027164 -0.00092622787089434509 0 -0.010729675865753758 -0.00092395741504922935 0 -0.010704274763027164 -0.00092622787089434509 0 -0.010740860920622474 -0.00090322963069998298 0 -0.010704274763027164 -0.00092622787089434509 0 -0.010696119673177719 -0.00090467054173049488 0 -0.010740860920622474 -0.00090322963069998298 0 -0.010704274763027164 -0.00092622787089434509 0 -0.010677321563451993 -0.00093446585435259745 0 -0.010696119673177719 -0.00090467054173049488 0 -0.010684058987424482 -0.00092757239120588072 0 -0.010668958212343198 -0.00095154242753413103 0 -0.010677321563451993 -0.00093446585435259745 0 -0.010684058987424482 -0.00092757239120588072 0 -0.010677321563451993 -0.00093446585435259745 0 -0.010696119673177719 -0.00090467054173049488 0 -0.010654029583382393 -0.00094864010799682833 0 -0.010689909578342335 -0.00094625465504248683 0 -0.010677321563451993 -0.00093446585435259745 0 -0.010171381049274921 -0.001088289282540516 0 -0.012364226181172971 -0.0007856886539206418 0 -0.010684058987424482 -0.00092757239120588072 0 -0.010696119673177719 -0.00090467054173049488 0 -0.010689660035363315 -0.00085199454332244434 0 -0.014519999168861424 -0.00042631592677074459 0 -0.014445667583176501 -0.00049456124620596482 0 -0.014623997455011827 -0.00054289095311306371 0 -0.014604901171441706 -0.00028352699891194885 0 -0.014519999168861424 -0.00042631592677074459 0 -0.014623997455011827 -0.00054289095311306371 0 -0.014045227616679982 -0.00061771725722884114 0 -0.013628653616451816 -0.0010606414965384594 0 -0.014233556861553587 -0.00091580335099071422 0 -0.012364226181172971 -0.0007856886539206418 0 -0.012708602908842011 -0.00086145769590042565 0 -0.014718660400787677 -0.00038535719790461036 0 -0.012364226181172971 -0.0007856886539206418 0 -0.010689660035363315 -0.00085199454332244434 0 -0.010761614295755961 -0.00086619530594666194 0 -0.010813413119979921 -0.00078051394000361676 0 -0.010696119673177719 -0.00090467054173049488 0 -0.010689660035363315 -0.00085199454332244434 0 -0.010761614295755961 -0.00086619530594666194 0 -0.010696119673177719 -0.00090467054173049488 0 -0.010761614295755961 -0.00086619530594666194 0 -0.010740860920622474 -0.00090322963069998298 0 -0.010761614295755961 -0.00086619530594666194 0 -0.010813413119979921 -0.00078051394000361676 0 -0.010886516793652405 -0.00086262272421593381 0 -0.010761614295755961 -0.00086619530594666194 0 -0.010886516793652405 -0.00086262272421593381 0 -0.010767291513516734 -0.0009511703390224092 0 -0.010578483025195311 -0.00073198864190151148 0 -0.010251178253374646 -0.001010853047961887 0 -0.012708602908842011 -0.00086145769590042565 0 -0.011777578971763868 -0.0006885425247864118 0 -0.010446140192746306 -0.00061041168620071002 0 -0.010314456874093766 -0.00065892464366899427 0 -0.010362647995228473 -0.00075262692496470699 0 -0.010813413119979921 -0.00078051394000361676 0 -0.010886516793652405 -0.00086262272421593381 0 -0.011010871464843659 -0.00072418578748928561 0 -0.010578483025195311 -0.00073198864190151148 0 -0.011777578971763868 -0.0006885425247864118 0 -0.014326548158530362 -0.00065625504522918488 0 -0.014233556861553587 -0.00091580335099071422 0 -0.014746504481275824 -0.00076901108358853431 0 -0.010446140192746306 -0.00061041168620071002 0 -0.010314456874093766 -0.00065892464366899427 0 -0.01034279338632885 -0.00055340678765177463 0 -0.010446140192746306 -0.00061041168620071002 0 -0.010443843691637577 -0.00053926581441161598 0 -0.01034279338632885 -0.00055340678765177463 0 -0.010431869853419224 -0.00035874156108130841 0 -0.010291222795623159 -0.00050354310069433239 0 -0.01030981979471021 -0.00037559461660354468 0 -0.0097978093861657411 -0.00097067716918909088 0 -0.010457623887323127 -0.00040002146531769537 0 -0.010443843691637577 -0.00053926581441161598 0 -0.010442674741188415 -0.00047630817176710818 0 -0.01034279338632885 -0.00055340678765177463 0 -0.010446140192746306 -0.00061041168620071002 0 -0.010443843691637577 -0.00053926581441161598 0 -0.010506184928261771 -0.00051257834024231346 0 -0.010443319525699072 -0.001062974036956283 0 -0.010251178253374646 -0.001010853047961887 0 -0.010251178253374646 -0.001010853047961887 0 -0.0097978093861657411 -0.00097067716918909088 0 -0.010443843691637577 -0.00053926581441161598 0 -0.010506184928261771 -0.00051257834024231346 0 -0.010442674741188415 -0.00047630817176710818 0 -0.0093152977569720147 -0.0013471639930744818 0 -0.0089726263554474901 -0.0016394445771088057 0 -0.0088593991161844184 -0.0010769890736791719 0 -0.0094660828128876693 -0.0020215340071276962 0 -0.0094457253258039969 -0.001700294330172997 0 -0.0090664897808945561 -0.0017956878389585019 0 -0.0094457253258039969 -0.001700294330172997 0 -0.0093835476023325995 -0.0014718143678136672 0 -0.0090664897808945561 -0.0017956878389585019 0 -0.0092448958837653122 -0.0015163226060667082 0 -0.0097978093861657411 -0.00097067716918909088 0 -0.0098906349325409565 -0.0015101415822692044 0 -0.0094457253258039969 -0.001700294330172997 0 -0.0093835476023325995 -0.0014718143678136672 0 -0.0097978093861657411 -0.00097067716918909088 0 -0.0092797512534102695 -0.00072449981402295915 0 -0.010431869853419224 -0.00035874156108130841 0 -0.01030981979471021 -0.00037559461660354468 0 -0.010257958467363633 -0.00024892154015101158 0 -0.0089726263554474901 -0.0016394445771088057 0 -0.0088593991161844184 -0.0010769890736791719 0 -0.0083232999439533089 -0.0012033972959060463 0 -0.0088593991161844184 -0.0010769890736791719 0 -0.0089151583406685084 -0.00062564232009039889 0 -0.0083680207851499142 -0.00060387767129385726 0 -0.0093152977569720147 -0.0013471639930744818 0 -0.0088593991161844184 -0.0010769890736791719 0 -0.0092531547274093285 -0.0009656862152459465 0 -0.0088593991161844184 -0.0010769890736791719 0 -0.0092531547274093285 -0.0009656862152459465 0 -0.0089151583406685084 -0.00062564232009039889 0 -0.0093152977569720147 -0.0013471639930744818 0 -0.0092531547274093285 -0.0009656862152459465 0 -0.0097235666553122675 -0.0010868375945187333 0 -0.0092448958837653122 -0.0015163226060667082 0 -0.0097114927075184505 -0.0010833410585907889 0 -0.0092531547274093285 -0.0009656862152459465 0 -0.009502297234431226 -0.00067016280131625659 0 -0.0097235666553122675 -0.0010868375945187333 0 -0.009502297234431226 -0.00067016280131625659 0 -0.0089151583406685084 -0.00062564232009039889 0 -0.0093465137370484421 -0.00014072531529957802 0 -0.0092531547274093285 -0.0009656862152459465 0 -0.009502297234431226 -0.00067016280131625659 0 -0.0089151583406685084 -0.00062564232009039889 0 -0.0089151583406685084 -0.00062564232009039889 0 -0.0086890074168652146 -0.00016304306703528361 0 -0.0083680207851499142 -0.00060387767129385726 0 -0.0088054726485739931 0.00035491500623247631 0 -0.0083209404713387673 0.00015691940958810439 0 -0.0080666861168727476 0.00052905216637357498 0 -0.0086890074168652146 -0.00016304306703528361 0 -0.0088054726485739931 0.00035491500623247631 0 -0.0083209404713387673 0.00015691940958810439 0 -0.0088054726485739931 0.00035491500623247631 0 -0.0093465137370484421 -0.00014072531529957802 0 -0.0095354302041850518 0.00050420239224508107 0 -0.0089151583406685084 -0.00062564232009039889 0 -0.0086890074168652146 -0.00016304306703528361 0 -0.0093465137370484421 -0.00014072531529957802 0 -0.0086890074168652146 -0.00016304306703528361 0 -0.0088054726485739931 0.00035491500623247631 0 -0.0093465137370484421 -0.00014072531529957802 0 -0.0093465137370484421 -0.00014072531529957802 0 -0.0095354302041850518 0.00050420239224508107 0 -0.010167631801291066 7.7699402974623071e-06 0 -0.0093465137370484421 -0.00014072531529957802 0 -0.010167631801291066 7.7699402974623071e-06 0 -0.0099838601704575775 -0.0005242789034297906 0 -0.0099580606754885916 0.00077023149064364726 0 -0.010237520004794238 0.00017270407424400266 0 -0.0098936953876813775 0.0011305087512102491 0 -0.010400708756222406 0.0010185845306656133 0 -0.010321092192062856 0.00035974712551965456 0 -0.010400708756222406 0.0010185845306656133 0 -0.011386528691199273 0.0011782403189265168 0 -0.010209434234227623 0.0015034928594596347 0 -0.010321092192062856 0.00035974712551965456 0 -0.0110516393993317 -0.00072290524855188559 0 -0.011060467225467765 0.00015990735718204212 0 -0.010400708756222406 0.0010185845306656133 0 -0.010321092192062856 0.00035974712551965456 0 -0.011060467225467765 0.00015990735718204212 0 -0.010167631801291066 7.7699402974623071e-06 0 -0.010615540672197532 -0.00076063401444792045 0 -0.0110516393993317 -0.00072290524855188559 0 -0.010167631801291066 7.7699402974623071e-06 0 -0.010615540672197532 -0.00076063401444792045 0 -0.0099838601704575775 -0.0005242789034297906 0 -0.010237520004794238 0.00017270407424400266 0 -0.011018040941615338 -0.00069175579183967711 0 -0.0099838601704575775 -0.0005242789034297906 0 -0.01000448535580095 -0.00086652197151136201 0 -0.010516730859754082 -0.00088374806243801847 0 -0.010615540672197532 -0.00076063401444792045 0 -0.0099838601704575775 -0.0005242789034297906 0 -0.010516730859754082 -0.00088374806243801847 0 -0.009502297234431226 -0.00067016280131625659 0 -0.0093465137370484421 -0.00014072531529957802 0 -0.0099838601704575775 -0.0005242789034297906 0 -0.009502297234431226 -0.00067016280131625659 0 -0.0099838601704575775 -0.0005242789034297906 0 -0.01000448535580095 -0.00086652197151136201 0 -0.0098906349325409565 -0.0015101415822692044 0 -0.0093835476023325995 -0.0014718143678136672 0 -0.0097235666553122675 -0.0010868375945187333 0 -0.0098906349325409565 -0.0015101415822692044 0 -0.01000448535580095 -0.00086652197151136201 0 -0.010516730859754082 -0.00088374806243801847 0 -0.0098906349325409565 -0.0015101415822692044 0 -0.01000448535580095 -0.00086652197151136201 0 -0.0097235666553122675 -0.0010868375945187333 0 -0.009502297234431226 -0.00067016280131625659 0 -0.01000448535580095 -0.00086652197151136201 0 -0.0097235666553122675 -0.0010868375945187333 0 -0.010237157965310092 -0.001305447928303788 0 -0.010531718982164776 -0.00086771572908259716 0 -0.010615540672197532 -0.00076063401444792045 0 -0.010516730859754082 -0.00088374806243801847 0 -0.010683762730144606 -0.00095971038201724684 0 -0.010617395518521934 -0.00094858988268083891 0 -0.010516730859754082 -0.00088374806243801847 0 -0.010683762730144606 -0.00095971038201724684 0 -0.010617395518521934 -0.00094858988268083891 0 -0.010654485778928162 -0.00096356785737625877 0 -0.010516730859754082 -0.00088374806243801847 0 -0.011444060231225638 -0.0019194480471318976 0 -0.011824799062853032 -0.00093055720837537548 0 -0.0110516393993317 -0.00072290524855188559 0 -0.0106586553223847 -0.0007806765465826163 0 -0.010946291607682608 -0.0015317316547650778 0 -0.010615540672197532 -0.00076063401444792045 0 -0.011444060231225638 -0.0019194480471318976 0 -0.0110516393993317 -0.00072290524855188559 0 -0.011444060231225638 -0.0019194480471318976 0 -0.012581854647948252 -0.0014478825427488449 0 -0.011824799062853032 -0.00093055720837537548 0 -0.012581854647948252 -0.0014478825427488449 0 -0.012434623214002211 -0.00061508043265541524 0 -0.013043059540211278 0.0003358731721903781 0 -0.011824799062853032 -0.00093055720837537548 0 -0.012009914346062051 -0.00045416117930702389 0 -0.011560406685849766 -0.0003182352274191389 0 -0.011824799062853032 -0.00093055720837537548 0 -0.012434623214002211 -0.00061508043265541524 0 -0.012009914346062051 -0.00045416117930702389 0 -0.012581854647948252 -0.0014478825427488449 0 -0.011824799062853032 -0.00093055720837537548 0 -0.012434623214002211 -0.00061508043265541524 0 -0.012434623214002211 -0.00061508043265541524 0 -0.012343414765722807 -0.00021547342714097449 0 -0.013043059540211278 0.0003358731721903781 0 -0.012434623214002211 -0.00061508043265541524 0 -0.012343414765722807 -0.00021547342714097449 0 -0.012009914346062051 -0.00045416117930702389 0 -0.012343414765722807 -0.00021547342714097449 0 -0.011929669584866085 -0.00012916266379575051 0 -0.012227268984132247 -7.7897527676988282e-06 0 -0.012343414765722807 -0.00021547342714097449 0 -0.012009914346062051 -0.00045416117930702389 0 -0.011929669584866085 -0.00012916266379575051 0 -0.012009914346062051 -0.00045416117930702389 0 -0.011929669584866085 -0.00012916266379575051 0 -0.011560406685849766 -0.0003182352274191389 0 -0.011560406685849766 -0.0003182352274191389 0 -0.0110516393993317 -0.00072290524855188559 0 -0.011060467225467765 0.00015990735718204212 0 -0.011929669584866085 -0.00012916266379575051 0 -0.011560406685849766 -0.0003182352274191389 0 -0.011625529266549818 0.00010708251863158317 0 -0.011824799062853032 -0.00093055720837537548 0 -0.011560406685849766 -0.0003182352274191389 0 -0.0110516393993317 -0.00072290524855188559 0 -0.011060467225467765 0.00015990735718204212 0 -0.011670265950183415 0.00053612829777496666 0 -0.011386528691199273 0.0011782403189265168 0 -0.011060467225467765 0.00015990735718204212 0 -0.011625529266549818 0.00010708251863158317 0 -0.011670265950183415 0.00053612829777496666 0 -0.011560406685849766 -0.0003182352274191389 0 -0.011060467225467765 0.00015990735718204212 0 -0.011625529266549818 0.00010708251863158317 0 -0.010400708756222406 0.0010185845306656133 0 -0.011060467225467765 0.00015990735718204212 0 -0.011386528691199273 0.0011782403189265168 0 -0.0098810439284642958 0.0016901165139306693 0 -0.0096302984595736489 0.0016943107677245919 0 -0.0095833822312127604 0.0018511679649853147 0 -0.010647840050771372 0.0014130092532952184 0 -0.01131357845626437 0.0010840334577257695 0 -0.0098810439284642958 0.0016901165139306693 0 -0.0096302984595736489 0.0016943107677245919 0 -0.0097247867719427155 0.0015600966440218137 0 -0.011670265950183415 0.00053612829777496666 0 -0.011386528691199273 0.0011782403189265168 0 -0.013019106879519864 0.0003539139356799855 0 -0.011670265950183415 0.00053612829777496666 0 -0.012114625578376309 0.00019190239688322597 0 -0.013019106879519864 0.0003539139356799855 0 -0.011625529266549818 0.00010708251863158317 0 -0.011670265950183415 0.00053612829777496666 0 -0.012114625578376309 0.00019190239688322597 0 -0.011929669584866085 -0.00012916266379575051 0 -0.012114625578376309 0.00019190239688322597 0 -0.012227268984132247 -7.7897527676988282e-06 0 -0.012114625578376309 0.00019190239688322597 0 -0.012227268984132247 -7.7897527676988282e-06 0 -0.012538312757829019 0.0001268053009283617 0 -0.011929669584866085 -0.00012916266379575051 0 -0.011625529266549818 0.00010708251863158317 0 -0.012114625578376309 0.00019190239688322597 0 -0.012114625578376309 0.00019190239688322597 0 -0.012538312757829019 0.0001268053009283617 0 -0.013019106879519864 0.0003539139356799855 0 -0.012343414765722807 -0.00021547342714097449 0 -0.012538312757829019 0.0001268053009283617 0 -0.013043059540211278 0.0003358731721903781 0 -0.012343414765722807 -0.00021547342714097449 0 -0.012227268984132247 -7.7897527676988282e-06 0 -0.012538312757829019 0.0001268053009283617 0 -0.0095833822312127604 0.0018511679649853147 0 -0.0094403399970912575 0.0018713809070075812 0 -0.0093029158214773984 0.0019938164526948862 0 -0.013019106879519864 0.0003539139356799855 0 -0.013043059540211278 0.0003358731721903781 0 -0.013219574332040216 0.00038637589856239127 0 -0.012538312757829019 0.0001268053009283617 0 -0.013019106879519864 0.0003539139356799855 0 -0.013043059540211278 0.0003358731721903781 0 -0.0095833822312127604 0.0018511679649853147 0 -0.0094403399970912575 0.0018713809070075812 0 -0.0095123520693679749 0.0018388253603453743 0 -0.0094403399970912575 0.0018713809070075812 0 -0.009462511758985867 0.0018345008045333134 0 -0.0095123520693679749 0.0018388253603453743 0 -0.0094403399970912575 0.0018713809070075812 0 -0.009462511758985867 0.0018345008045333134 0 -0.0094244406189597073 0.0018237971157446123 0 -0.009462511758985867 0.0018345008045333134 0 -0.0094244406189597073 0.0018237971157446123 0 -0.0094730727906984728 0.0018034007220451476 0 -0.0094244406189597073 0.0018237971157446123 0 -0.0094730727906984728 0.0018034007220451476 0 -0.0094043581300095741 0.0017673156011449502 0 -0.0095123520693679749 0.0018388253603453743 0 -0.0094730727906984728 0.0018034007220451476 0 -0.0095246964873913383 0.0018020654543129753 0 -0.009462511758985867 0.0018345008045333134 0 -0.0095123520693679749 0.0018388253603453743 0 -0.0094730727906984728 0.0018034007220451476 0 -0.0094730727906984728 0.0018034007220451476 0 -0.0095246964873913383 0.0018020654543129753 0 -0.0094906041006166692 0.0017540629497525008 0 -0.0094730727906984728 0.0018034007220451476 0 -0.0094906041006166692 0.0017540629497525008 0 -0.0094043581300095741 0.0017673156011449502 0 -0.0096302984595736489 0.0016943107677245919 0 -0.0095833822312127604 0.0018511679649853147 0 -0.0095642303786867104 0.0017623831866853772 0 -0.0095833822312127604 0.0018511679649853147 0 -0.0095246964873913383 0.0018020654543129753 0 -0.0095642303786867104 0.0017623831866853772 0 -0.0095833822312127604 0.0018511679649853147 0 -0.0095123520693679749 0.0018388253603453743 0 -0.0095246964873913383 0.0018020654543129753 0 -0.0095246964873913383 0.0018020654543129753 0 -0.0095642303786867104 0.0017623831866853772 0 -0.0094906041006166692 0.0017540629497525008 0 -0.0095642303786867104 0.0017623831866853772 0 -0.0094906041006166692 0.0017540629497525008 0 -0.0095152121905395272 0.0016742251369045887 0 -0.0096302984595736489 0.0016943107677245919 0 -0.0095642303786867104 0.0017623831866853772 0 -0.0095152121905395272 0.0016742251369045887 0 -0.0094906041006166692 0.0017540629497525008 0 -0.0094335778612994678 0.0017061958586934716 0 -0.0094043581300095741 0.0017673156011449502 0 -0.0094906041006166692 0.0017540629497525008 0 -0.0094335778612994678 0.0017061958586934716 0 -0.0095152121905395272 0.0016742251369045887 0 -0.0095152121905395272 0.0016742251369045887 0 -0.0094222880142941657 0.0015930957929005073 0 -0.0095492457947535837 0.0015354321454260987 0 -0.0094335778612994678 0.0017061958586934716 0 -0.0095152121905395272 0.0016742251369045887 0 -0.0094222880142941657 0.0015930957929005073 0 -0.0096302984595736489 0.0016943107677245919 0 -0.0095152121905395272 0.0016742251369045887 0 -0.0095492457947535837 0.0015354321454260987 0 -0.0092648331889409966 0.0016441476489373488 0 -0.0093238652564062476 0.0016113885485719134 0 -0.0093240057087940822 0.0016685006006941481 0 -0.0092648331889409966 0.0016441476489373488 0 -0.0092108504837882695 0.0016780267412751329 0 -0.0091975157859491893 0.0016225004239657347 0 -0.0092648331889409966 0.0016441476489373488 0 -0.0092452715036712412 0.0015779840091659284 0 -0.0091975157859491893 0.0016225004239657347 0 -0.0092648331889409966 0.0016441476489373488 0 -0.0093238652564062476 0.0016113885485719134 0 -0.0092452715036712412 0.0015779840091659284 0 -0.0094335778612994678 0.0017061958586934716 0 -0.0094222880142941657 0.0015930957929005073 0 -0.0093719356005289561 0.001660554835954313 0 -0.0094222880142941657 0.0015930957929005073 0 -0.0093238652564062476 0.0016113885485719134 0 -0.0093719356005289561 0.001660554835954313 0 -0.0093238652564062476 0.0016113885485719134 0 -0.0093719356005289561 0.001660554835954313 0 -0.0093240057087940822 0.0016685006006941481 0 -0.0093719356005289561 0.001660554835954313 0 -0.0093240057087940822 0.0016685006006941481 0 -0.0093566385807033279 0.0017211200383011891 0 -0.0094335778612994678 0.0017061958586934716 0 -0.0093719356005289561 0.001660554835954313 0 -0.0093566385807033279 0.0017211200383011891 0 -0.0094335778612994678 0.0017061958586934716 0 -0.0093566385807033279 0.0017211200383011891 0 -0.0094043581300095741 0.0017673156011449502 0 -0.0093566385807033279 0.0017211200383011891 0 -0.0093199892715309166 0.0017643466124677432 0 -0.0094043581300095741 0.0017673156011449502 0 -0.0093566385807033279 0.0017211200383011891 0 -0.0092768298517017615 0.0017134305496203956 0 -0.0093199892715309166 0.0017643466124677432 0 -0.0092648331889409966 0.0016441476489373488 0 -0.0093240057087940822 0.0016685006006941481 0 -0.0092768298517017615 0.0017134305496203956 0 -0.0093240057087940822 0.0016685006006941481 0 -0.0093566385807033279 0.0017211200383011891 0 -0.0092768298517017615 0.0017134305496203956 0 -0.0092648331889409966 0.0016441476489373488 0 -0.0092768298517017615 0.0017134305496203956 0 -0.0092108504837882695 0.0016780267412751329 0 -0.0092768298517017615 0.0017134305496203956 0 -0.0092179214602584811 0.0017337465465230588 0 -0.0092108504837882695 0.0016780267412751329 0 -0.0092768298517017615 0.0017134305496203956 0 -0.0092562426699694094 0.0017831661707165319 0 -0.0092179214602584811 0.0017337465465230588 0 -0.0092768298517017615 0.0017134305496203956 0 -0.0092562426699694094 0.0017831661707165319 0 -0.0093199892715309166 0.0017643466124677432 0 -0.0092562426699694094 0.0017831661707165319 0 -0.0093199892715309166 0.0017643466124677432 0 -0.0093030604185604208 0.001804649918871359 0 -0.0092562426699694094 0.0017831661707165319 0 -0.0093030604185604208 0.001804649918871359 0 -0.0092891180478927478 0.0018484225688829038 0 -0.0093030604185604208 0.001804649918871359 0 -0.0093551355327895977 0.0018101630660906068 0 -0.0092891180478927478 0.0018484225688829038 0 -0.0092562426699694094 0.0017831661707165319 0 -0.0092891180478927478 0.0018484225688829038 0 -0.0091984418878459425 0.0018264799906314397 0 -0.0093199892715309166 0.0017643466124677432 0 -0.0094043581300095741 0.0017673156011449502 0 -0.0093551355327895977 0.0018101630660906068 0 -0.0093199892715309166 0.0017643466124677432 0 -0.0093030604185604208 0.001804649918871359 0 -0.0093551355327895977 0.0018101630660906068 0 -0.0094244406189597073 0.0018237971157446123 0 -0.0093551355327895977 0.0018101630660906068 0 -0.009367550284432145 0.001851677191413456 0 -0.0094244406189597073 0.0018237971157446123 0 -0.0094043581300095741 0.0017673156011449502 0 -0.0093551355327895977 0.0018101630660906068 0 -0.0094403399970912575 0.0018713809070075812 0 -0.009367550284432145 0.001851677191413456 0 -0.0093248726931310488 0.0018978783316856845 0 -0.0094403399970912575 0.0018713809070075812 0 -0.0094244406189597073 0.0018237971157446123 0 -0.009367550284432145 0.001851677191413456 0 -0.0093551355327895977 0.0018101630660906068 0 -0.009367550284432145 0.001851677191413456 0 -0.0092891180478927478 0.0018484225688829038 0 -0.009367550284432145 0.001851677191413456 0 -0.0092891180478927478 0.0018484225688829038 0 -0.0093248726931310488 0.0018978783316856845 0 -0.0092891180478927478 0.0018484225688829038 0 -0.0093248726931310488 0.0018978783316856845 0 -0.0092046049402571446 0.0019237453766195497 0 -0.0093248726931310488 0.0018978783316856845 0 -0.0093029158214773984 0.0019938164526948862 0 -0.0092046049402571446 0.0019237453766195497 0 -0.013236603733287031 0.00037814132936985222 0 -0.013583169836145614 0.00038811632793618844 0 -0.013445080040271859 0.00037022751547447988 0 -0.013219574332040216 0.00038637589856239127 0 -0.013236603733287031 0.00037814132936985222 0 -0.01319749830782152 0.00044601199947536522 0 -0.013231874912218113 0.00041222965593124737 0 -0.013472832760597424 0.00035580267351684967 0 -0.0094403399970912575 0.0018713809070075812 0 -0.0093248726931310488 0.0018978783316856845 0 -0.0093029158214773984 0.0019938164526948862 0 -0.012993632889136601 -0.00062385840678189303 0 -0.013059792513624525 0.00035871415052436939 0 -0.013043059540211278 0.0003358731721903781 0 -0.013219574332040216 0.00038637589856239127 0 -0.013236603733287031 0.00037814132936985222 0 -0.013392898391528105 0.000372827987666955 0 -0.013043059540211278 0.0003358731721903781 0 -0.013236603733287031 0.00037814132936985222 0 -0.01131357845626437 0.0010840334577257695 0 -0.011171573231284549 0.0012582459295678249 0 -0.013236603733287031 0.00037814132936985222 0 -0.013402444976479588 0.00036833030557576596 0 -0.013445080040271859 0.00037022751547447988 0 -0.013526057744030972 0.00027124066728566949 0 -0.013392898391528105 0.000372827987666955 0 -0.013402444976479588 0.00036833030557576596 0 -0.013526057744030972 0.00027124066728566949 0 -0.013402444976479588 0.00036833030557576596 0 -0.013563306042163771 0.00034087088073910329 0 -0.013402444976479588 0.00036833030557576596 0 -0.013563306042163771 0.00034087088073910329 0 -0.013445080040271859 0.00037022751547447988 0 -0.013392898391528105 0.000372827987666955 0 -0.013236603733287031 0.00037814132936985222 0 -0.013402444976479588 0.00036833030557576596 0 -0.013563306042163771 0.00034087088073910329 0 -0.013583169836145614 0.00038811632793618844 0 -0.013621673201668795 0.00037236045524059448 0 -0.013563306042163771 0.00034087088073910329 0 -0.013583169836145614 0.00038811632793618844 0 -0.013445080040271859 0.00037022751547447988 0 -0.011709919832269954 -3.1132280274945704e-07 0 -0.010477290876892361 -5.0014734320568124e-05 0 -0.0092221560296548103 -1.8820245648310404e-07 0 -0.01010363849348773 -0.00012047347873318867 0 -0.0096174031493335387 -0.00010885064894856328 0 -0.010477290876892361 -5.0014734320568124e-05 0 -0.01010363849348773 -0.00012047347873318867 0 -0.010477290876892361 -5.0014734320568124e-05 0 -0.010556427371481941 1.2447142930552699e-05 0 -0.01010363849348773 -0.00012047347873318867 0 -0.0099768785583924137 -0.00018462773828547841 0 -0.010556427371481941 1.2447142930552699e-05 0 -0.0097818187258935114 -0.00033468297012794748 0 -0.010753652306264154 -5.8038514470557162e-05 0 -0.0099768785583924137 -0.00018462773828547841 0 -0.0097958292949026117 -0.00015701436282146647 0 -0.0097519424627603591 -0.00012178992677826882 0 -0.01010363849348773 -0.00012047347873318867 0 -0.0099768785583924137 -0.00018462773828547841 0 -0.0097958292949026117 -0.00015701436282146647 0 -0.01010363849348773 -0.00012047347873318867 0 -0.0097958292949026117 -0.00015701436282146647 0 -0.0096174031493335387 -0.00010885064894856328 0 -0.0096174031493335387 -0.00010885064894856328 0 -0.010477290876892361 -5.0014734320568124e-05 0 -0.0092221560296548103 -1.8820245648310404e-07 0 -0.011709919832269954 -3.1132280274945704e-07 0 -0.010477290876892361 -5.0014734320568124e-05 0 -0.011198662887332725 -3.6800589518778242e-05 0 -0.010477290876892361 -5.0014734320568124e-05 0 -0.011198662887332725 -3.6800589518778242e-05 0 -0.010917161062559388 -3.5759014471207254e-05 0 -0.011396226611262883 -5.4240744083007187e-05 0 -0.011198662887332725 -3.6800589518778242e-05 0 -0.010917161062559388 -3.5759014471207254e-05 0 -0.010477290876892361 -5.0014734320568124e-05 0 -0.010917161062559388 -3.5759014471207254e-05 0 -0.010556427371481941 1.2447142930552699e-05 0 -0.0099768785583924137 -0.00018462773828547841 0 -0.010556427371481941 1.2447142930552699e-05 0 -0.01033767532083679 0.00014630415295861335 0 -0.010917161062559388 -3.5759014471207254e-05 0 -0.010556427371481941 1.2447142930552699e-05 0 -0.010942350392787662 -6.4989082562428376e-06 0 -0.010568933417476844 4.4032722230438359e-05 0 -0.010753652306264154 -5.8038514470557162e-05 0 -0.01171924416744856 0.00025623815505251851 0 -0.011703494015050936 9.019953427217733e-05 0 -0.011828313022359812 0.00019336200544617461 0 -0.010917161062559388 -3.5759014471207254e-05 0 -0.010942350392787662 -6.4989082562428376e-06 0 -0.011227351150091255 -6.1227074025882011e-05 0 -0.010753652306264154 -5.8038514470557162e-05 0 -0.011457066096271144 2.2659768520439982e-05 0 -0.011396226611262883 -5.4240744083007187e-05 0 -0.010917161062559388 -3.5759014471207254e-05 0 -0.011227351150091255 -6.1227074025882011e-05 0 -0.012677641495044672 -2.8446345476987724e-06 0 -0.012748746932022218 2.6773385075493684e-05 0 -0.012724670599655704 -3.5731116566965824e-05 0 -0.011814884667926037 -7.7375001503397244e-05 0 -0.011703494015050936 9.019953427217733e-05 0 -0.011828313022359812 0.00019336200544617461 0 -0.012379309444887802 2.3384328456658642e-05 0 -0.011460527728291274 -0.00012195408277518852 0 -0.0097775133619510124 -0.00060436425551144092 0 -0.0098612082179834314 -0.00065602221323141172 0 -0.0098618819833407156 -0.00063909894970806333 0 -0.010753652306264154 -5.8038514470557162e-05 0 -0.011460527728291274 -0.00012195408277518852 0 -0.011460527728291274 -0.00012195408277518852 0 -0.011385130505859859 -0.00022171830905361295 0 -0.0098605385160868402 -0.00065827102098719775 0 -0.0098618819833407156 -0.00063909894970806333 0 -0.0099355831231962358 -0.00064386548352282126 0 -0.010061840429785657 -0.00078068139447492687 0 -0.0098605385160868402 -0.00065827102098719775 0 -0.0099355831231962358 -0.00064386548352282126 0 -0.011095488547715523 -0.00036919987611969916 0 -0.011460527728291274 -0.00012195408277518852 0 -0.010061840429785657 -0.00078068139447492687 0 -0.010037448070576847 -0.00064309620174834016 0 -0.010170283553593926 -0.00066657169796319248 0 -0.010061840429785657 -0.00078068139447492687 0 -0.0099355831231962358 -0.00064386548352282126 0 -0.010037448070576847 -0.00064309620174834016 0 -0.0099677495376274891 -0.00056525322604087118 0 -0.010112297156691905 -0.00053829176701937996 0 -0.010001324079886542 -0.00045530321348945452 0 -0.0099355831231962358 -0.00064386548352282126 0 -0.010037448070576847 -0.00064309620174834016 0 -0.0099677495376274891 -0.00056525322604087118 0 -0.010037448070576847 -0.00064309620174834016 0 -0.0099677495376274891 -0.00056525322604087118 0 -0.010112297156691905 -0.00053829176701937996 0 -0.0099677495376274891 -0.00056525322604087118 0 -0.0098552345992953087 -0.0004992553562677952 0 -0.010001324079886542 -0.00045530321348945452 0 -0.0099677495376274891 -0.00056525322604087118 0 -0.0098552345992953087 -0.0004992553562677952 0 -0.0098922109130507516 -0.00058515379553091419 0 -0.0097775133619510124 -0.00060436425551144092 0 -0.0098552345992953087 -0.0004992553562677952 0 -0.009841694715829543 -0.00057933512436127805 0 -0.0098552345992953087 -0.0004992553562677952 0 -0.009841694715829543 -0.00057933512436127805 0 -0.0098922109130507516 -0.00058515379553091419 0 -0.0097775133619510124 -0.00060436425551144092 0 -0.0098618819833407156 -0.00063909894970806333 0 -0.009841694715829543 -0.00057933512436127805 0 -0.0098618819833407156 -0.00063909894970806333 0 -0.009841694715829543 -0.00057933512436127805 0 -0.0098922109130507516 -0.00058515379553091419 0 -0.0098618819833407156 -0.00063909894970806333 0 -0.0099355831231962358 -0.00064386548352282126 0 -0.0098922109130507516 -0.00058515379553091419 0 -0.0099355831231962358 -0.00064386548352282126 0 -0.0099677495376274891 -0.00056525322604087118 0 -0.0098922109130507516 -0.00058515379553091419 0 -0.010263665612952423 -0.00079224229393977125 0 -0.010314456874093766 -0.00065892464366899427 0 -0.010362647995228473 -0.00075262692496470699 0 -0.010263665612952423 -0.00079224229393977125 0 -0.010061840429785657 -0.00078068139447492687 0 -0.010170283553593926 -0.00066657169796319248 0 -0.010263665612952423 -0.00079224229393977125 0 -0.010314456874093766 -0.00065892464366899427 0 -0.010170283553593926 -0.00066657169796319248 0 -0.010170283553593926 -0.00066657169796319248 0 -0.010112297156691905 -0.00053829176701937996 0 -0.010291222795623159 -0.00050354310069433239 0 -0.010037448070576847 -0.00064309620174834016 0 -0.010170283553593926 -0.00066657169796319248 0 -0.010112297156691905 -0.00053829176701937996 0 -0.010115913223425511 -0.00071831312144864307 0 -0.010457623887323127 -0.00040002146531769537 0 -0.010314456874093766 -0.00065892464366899427 0 -0.010170283553593926 -0.00066657169796319248 0 -0.01034279338632885 -0.00055340678765177463 0 -0.010291222795623159 -0.00050354310069433239 0 -0.01030981979471021 -0.00037559461660354468 0 -0.010175407596209463 -0.00040384148550292313 0 -0.010112297156691905 -0.00053829176701937996 0 -0.010291222795623159 -0.00050354310069433239 0 -0.010175407596209463 -0.00040384148550292313 0 -0.010112297156691905 -0.00053829176701937996 0 -0.010175407596209463 -0.00040384148550292313 0 -0.010001324079886542 -0.00045530321348945452 0 -0.010175407596209463 -0.00040384148550292313 0 -0.010083370671907264 -0.00029383068106482869 0 -0.010001324079886542 -0.00045530321348945452 0 -0.010175407596209463 -0.00040384148550292313 0 -0.010083370671907264 -0.00029383068106482869 0 -0.010257958467363633 -0.00024892154015101158 0 -0.01030981979471021 -0.00037559461660354468 0 -0.010175407596209463 -0.00040384148550292313 0 -0.010257958467363633 -0.00024892154015101158 0 -0.009777001549087172 -0.00037285522039105204 0 -0.0097775133619510124 -0.00060436425551144092 0 -0.0098552345992953087 -0.0004992553562677952 0 -0.009777001549087172 -0.00037285522039105204 0 -0.010001324079886542 -0.00045530321348945452 0 -0.0099255891793395782 -0.00027015986708250574 0 -0.009777001549087172 -0.00037285522039105204 0 -0.0098552345992953087 -0.0004992553562677952 0 -0.010001324079886542 -0.00045530321348945452 0 -0.010083370671907264 -0.00029383068106482869 0 -0.0099255891793395782 -0.00027015986708250574 0 -0.010060178571095788 -0.00012239744407573577 0 -0.010083370671907264 -0.00029383068106482869 0 -0.010001324079886542 -0.00045530321348945452 0 -0.0099255891793395782 -0.00027015986708250574 0 -0.0097818187258935114 -0.00033468297012794748 0 -0.0097987229132457995 -0.00011668654386478613 0 -0.009777001549087172 -0.00037285522039105204 0 -0.0099255891793395782 -0.00027015986708250574 0 -0.0097519424627603591 -0.00012178992677826882 0 -0.0099255891793395782 -0.00027015986708250574 0 -0.0097519424627603591 -0.00012178992677826882 0 -0.0098908263286613049 -0.00012482069432644837 0 -0.0097519424627603591 -0.00012178992677826882 0 -0.0098908263286613049 -0.00012482069432644837 0 -0.0098202155154806844 2.5057371826174875e-05 0 -0.0098908263286613049 -0.00012482069432644837 0 -0.0098202155154806844 2.5057371826174875e-05 0 -0.010060178571095788 -0.00012239744407573577 0 -0.0099255891793395782 -0.00027015986708250574 0 -0.0098908263286613049 -0.00012482069432644837 0 -0.010060178571095788 -0.00012239744407573577 0 -0.0086590211462656205 -0.00012566722603650442 0 -0.0089332947907329787 -0.0004246037613319787 0 -0.0076079066909469934 -0.00023477405443626703 0 -0.0074730079461142341 -0.00025966116192297135 0 -0.0077750126867765258 -0.00072149625474281936 0 -0.0076079066909469934 -0.00023477405443626703 0 -0.0077750126867765258 -0.00072149625474281936 0 -0.0079418446887830427 -0.00034568890395823951 0 -0.0097519424627603591 -0.00012178992677826882 0 -0.0098202155154806844 2.5057371826174875e-05 0 -0.0095320938161942582 -9.5037556786735768e-05 0 -0.0083232999439533089 -0.0012033972959060463 0 -0.0077750126867765258 -0.00072149625474281936 0 -0.0083680207851499142 -0.00060387767129385726 0 -0.0088593991161844184 -0.0010769890736791719 0 -0.0083232999439533089 -0.0012033972959060463 0 -0.0083680207851499142 -0.00060387767129385726 0 -0.010083370671907264 -0.00029383068106482869 0 -0.010257958467363633 -0.00024892154015101158 0 -0.010060178571095788 -0.00012239744407573577 0 -0.0092797512534102695 -0.00072449981402295915 0 -0.0089332947907329787 -0.0004246037613319787 0 -0.0077750126867765258 -0.00072149625474281936 0 -0.0079418446887830427 -0.00034568890395823951 0 -0.0083680207851499142 -0.00060387767129385726 0 -0.0086890074168652146 -0.00016304306703528361 0 -0.0083680207851499142 -0.00060387767129385726 0 -0.008213644984979368 -0.00014715635646088973 0 -0.0079418446887830427 -0.00034568890395823951 0 -0.0083680207851499142 -0.00060387767129385726 0 -0.008213644984979368 -0.00014715635646088973 0 -0.0086890074168652146 -0.00016304306703528361 0 -0.008213644984979368 -0.00014715635646088973 0 -0.0083209404713387673 0.00015691940958810439 0 -0.008213644984979368 -0.00014715635646088973 0 -0.0079884847554657669 0.00020196628121986162 0 -0.0083209404713387673 0.00015691940958810439 0 -0.0076079066909469934 -0.00023477405443626703 0 -0.0079418446887830427 -0.00034568890395823951 0 -0.0078747411205560437 -3.6868728300693706e-05 0 -0.0079418446887830427 -0.00034568890395823951 0 -0.008213644984979368 -0.00014715635646088973 0 -0.0078747411205560437 -3.6868728300693706e-05 0 -0.008213644984979368 -0.00014715635646088973 0 -0.0078747411205560437 -3.6868728300693706e-05 0 -0.0079884847554657669 0.00020196628121986162 0 -0.0078747411205560437 -3.6868728300693706e-05 0 -0.0079884847554657669 0.00020196628121986162 0 -0.0077162951673705816 0.00026290537664935837 0 -0.0079884847554657669 0.00020196628121986162 0 -0.0077162951673705816 0.00026290537664935837 0 -0.0079566954973611589 0.00039643565715311572 0 -0.0079884847554657669 0.00020196628121986162 0 -0.0083209404713387673 0.00015691940958810439 0 -0.0080666861168727476 0.00052905216637357498 0 -0.0074730079461142341 -0.00025966116192297135 0 -0.0074802848296621413 -7.4062090937333628e-05 0 -0.0075093345984959346 4.4362444367991222e-05 0 -0.0076079066909469934 -0.00023477405443626703 0 -0.0074730079461142341 -0.00025966116192297135 0 -0.0074802848296621413 -7.4062090937333628e-05 0 -0.0076079066909469934 -0.00023477405443626703 0 -0.0074802848296621413 -7.4062090937333628e-05 0 -0.0075567055055541388 -2.4910263215251062e-05 0 -0.0076079066909469934 -0.00023477405443626703 0 -0.0078747411205560437 -3.6868728300693706e-05 0 -0.0077162951673705816 0.00026290537664935837 0 -0.0075868798876846692 -0.00024025359050293375 0 -0.0077220829991765166 0.00014482615604649869 0 -0.0074802848296621413 -7.4062090937333628e-05 0 -0.0074574230580231804 -6.6605593526007629e-05 0 -0.0074844766879917993 4.7348709827169178e-06 0 -0.0074802848296621413 -7.4062090937333628e-05 0 -0.0075567055055541388 -2.4910263215251062e-05 0 -0.0074844766879917993 4.7348709827169178e-06 0 -0.0074574230580231804 -6.6605593526007629e-05 0 -0.0080285714895876013 0.00010215030304588326 0 -0.0072953926926620939 -2.9558770023142204e-05 0 -0.0074574230580231804 -6.6605593526007629e-05 0 -0.0075093345984959346 4.4362444367991222e-05 0 -0.0080285714895876013 0.00010215030304588326 0 -0.0084269187973974088 7.1717179762355153e-05 0 -0.0081174285937410367 0.00010403272885591014 0 -0.0093251710921896987 0.00018355113894673498 0 -0.0090123418010700559 -4.1897093573512154e-05 0 -0.0080285714895876013 0.00010215030304588326 0 -0.0074802848296621413 -7.4062090937333628e-05 0 -0.0074574230580231804 -6.6605593526007629e-05 0 -0.0075093345984959346 4.4362444367991222e-05 0 -0.0098202155154806844 2.5057371826174875e-05 0 -0.0093251710921896987 0.00018355113894673498 0 -0.0095320938161942582 -9.5037556786735768e-05 0 -0.0086590211462656205 -0.00012566722603650442 0 -0.0084269187973974088 7.1717179762355153e-05 0 -0.0093251710921896987 0.00018355113894673498 0 -0.0090123418010700559 -4.1897093573512154e-05 0 -0.0095320938161942582 -9.5037556786735768e-05 0 -0.0096174031493335387 -0.00010885064894856328 0 -0.0090123418010700559 -4.1897093573512154e-05 0 -0.0095320938161942582 -9.5037556786735768e-05 0 -0.0097958292949026117 -0.00015701436282146647 0 -0.0096174031493335387 -0.00010885064894856328 0 -0.0095320938161942582 -9.5037556786735768e-05 0 -0.0097958292949026117 -0.00015701436282146647 0 -0.0097519424627603591 -0.00012178992677826882 0 -0.0095320938161942582 -9.5037556786735768e-05 0 -0.0090123418010700559 -4.1897093573512154e-05 0 -0.0092221560296548103 -1.8820245648310404e-07 0 -0.0080285714895876013 0.00010215030304588326 0 -0.0096174031493335387 -0.00010885064894856328 0 -0.0090123418010700559 -4.1897093573512154e-05 0 -0.0092221560296548103 -1.8820245648310404e-07 0 -0.0092221560296548103 -1.8820245648310404e-07 0 -0.0080285714895876013 0.00010215030304588326 0 -0.0074037309623539759 2.3133922618794211e-07 0 -0.0080285714895876013 0.00010215030304588326 0 -0.0074037309623539759 2.3133922618794211e-07 0 -0.0072953926926620939 -2.9558770023142204e-05 0 -0.0074037309623539759 2.3133922618794211e-07 0 -0.0066216182837748041 0.00015131612513378989 0 -0.006075219614057244 -5.6504555646602032e-08 0 -0.0074037309623539759 2.3133922618794211e-07 0 -0.0072953926926620939 -2.9558770023142204e-05 0 -0.0066216182837748041 0.00015131612513378989 0 -0.0074574230580231804 -6.6605593526007629e-05 0 -0.0073768579797644385 0.0001008916998598727 0 -0.0074844766879917993 4.7348709827169178e-06 0 -0.0074574230580231804 -6.6605593526007629e-05 0 -0.0072953926926620939 -2.9558770023142204e-05 0 -0.0073768579797644385 0.0001008916998598727 0 -0.0066420546159722685 0.00016013768099963188 0 -0.0065417648152081738 0.00015518888935823989 0 -0.0072953926926620939 -2.9558770023142204e-05 0 -0.0066216182837748041 0.00015131612513378989 0 -0.0073768579797644385 0.0001008916998598727 0 -0.0066216182837748041 0.00015131612513378989 0 -0.0058153164508793053 -2.8860698791477863e-05 0 -0.0056090303910806289 0.00019086286103061546 0 -0.0066216182837748041 0.00015131612513378989 0 -0.0058024669711412274 0.00025459862745116495 0 -0.0056090303910806289 0.00019086286103061546 0 -0.0058153164508793053 -2.8860698791477863e-05 0 -0.006075219614057244 -5.6504555646602032e-08 0 -0.0056026498596943291 -1.450130415300368e-05 0 -0.0066216182837748041 0.00015131612513378989 0 -0.0058153164508793053 -2.8860698791477863e-05 0 -0.006075219614057244 -5.6504555646602032e-08 0 -0.006075219614057244 -5.6504555646602032e-08 0 -0.0056026498596943291 -1.450130415300368e-05 0 -0.0051055157097545361 2.4234515560595048e-07 0 -0.0056026498596943291 -1.450130415300368e-05 0 -0.0051055157097545361 2.4234515560595048e-07 0 -0.0053714748401196624 5.6742730205790005e-05 0 -0.0051040955296187919 -7.9056958667949428e-08 0 -0.0046135917259389116 2.3385515153867044e-05 0 -0.0051055157097545361 2.4234515560595048e-07 0 -0.0053714748401196624 5.6742730205790005e-05 0 -0.0050957205378365563 8.8119513915869063e-05 0 -0.0053714748401196624 5.6742730205790005e-05 0 -0.0051747106720844904 0.00012368641238424581 0 -0.0050957205378365563 8.8119513915869063e-05 0 -0.0057238355173901221 -3.7239000070224615e-05 0 -0.0052192254060938349 -0.0001871182403053728 0 -0.0058153164508793053 -2.8860698791477863e-05 0 -0.0053714748401196624 5.6742730205790005e-05 0 -0.0051747106720844904 0.00012368641238424581 0 -0.0058153164508793053 -2.8860698791477863e-05 0 -0.0056026498596943291 -1.450130415300368e-05 0 -0.0053714748401196624 5.6742730205790005e-05 0 -0.0058153164508793053 -2.8860698791477863e-05 0 -0.0056090303910806289 0.00019086286103061546 0 -0.0053058836505149934 -0.00027066566444045932 0 -0.0058153164508793053 -2.8860698791477863e-05 0 -0.0052713347659130395 -0.00047355408683428808 0 -0.0053058836505149934 -0.00027066566444045932 0 -0.0056090303910806289 0.00019086286103061546 0 -0.0053058836505149934 -0.00027066566444045932 0 -0.0052038276387502977 -0.00019444211706768667 0 -0.0053058836505149934 -0.00027066566444045932 0 -0.0052038276387502977 -0.00019444211706768667 0 -0.0050187963676062396 -0.00039709162670678247 0 -0.0053058836505149934 -0.00027066566444045932 0 -0.0050133430614635374 -0.00054670049257026909 0 -0.0049197489822644085 -0.00054289430104463327 0 -0.0053058836505149934 -0.00027066566444045932 0 -0.0050187963676062396 -0.00039709162670678247 0 -0.0049197489822644085 -0.00054289430104463327 0 -0.0052713347659130395 -0.00047355408683428808 0 -0.0053058836505149934 -0.00027066566444045932 0 -0.0050133430614635374 -0.00054670049257026909 0 -0.0052713347659130395 -0.00047355408683428808 0 -0.0050133430614635374 -0.00054670049257026909 0 -0.0048681882972611886 -0.00061207771501480424 0 -0.0052713347659130395 -0.00047355408683428808 0 -0.0048681882972611886 -0.00061207771501480424 0 -0.0046538238563362862 -0.00068229172149167794 0 -0.0050133430614635374 -0.00054670049257026909 0 -0.0048681882972611886 -0.00061207771501480424 0 -0.0047979973375011581 -0.00062965704775651038 0 -0.0049197489822644085 -0.00054289430104463327 0 -0.0047558369812216311 -0.00062818016105459988 0 -0.0047979973375011581 -0.00062965704775651038 0 -0.0050133430614635374 -0.00054670049257026909 0 -0.0049197489822644085 -0.00054289430104463327 0 -0.0047979973375011581 -0.00062965704775651038 0 -0.0047558369812216311 -0.00062818016105459988 0 -0.0046287762781168293 -0.00065864856382426295 0 -0.0047979973375011581 -0.00062965704775651038 0 -0.0047558369812216311 -0.00062818016105459988 0 -0.0046287762781168293 -0.00065864856382426295 0 -0.0046527111160090812 -0.00063999509842734882 0 -0.0048681882972611886 -0.00061207771501480424 0 -0.0046602264423367097 -0.00066175779519870388 0 -0.0046538238563362862 -0.00068229172149167794 0 -0.0048681882972611886 -0.00061207771501480424 0 -0.0047979973375011581 -0.00062965704775651038 0 -0.0046602264423367097 -0.00066175779519870388 0 -0.0046287762781168293 -0.00065864856382426295 0 -0.0047979973375011581 -0.00062965704775651038 0 -0.0046602264423367097 -0.00066175779519870388 0 -0.0046287762781168293 -0.00065864856382426295 0 -0.0046602264423367097 -0.00066175779519870388 0 -0.0044256211828519239 -0.00065043517246454133 0 -0.0046602264423367097 -0.00066175779519870388 0 -0.0046538238563362862 -0.00068229172149167794 0 -0.0044256211828519239 -0.00065043517246454133 0 -0.0041823233323755168 -8.0515572859657549e-05 0 -0.0046135917259389116 2.3385515153867044e-05 0 -0.0040724155953844651 -0.00011416878407145321 0 -0.0039543358680220013 -7.0708843920237635e-05 0 -0.00416507573692228 -6.7910651663999564e-06 0 -0.0040724155953844651 -0.00011416878407145321 0 -0.0042163823035281421 -0.00010902021854057834 0 -0.0050957205378365563 8.8119513915869063e-05 0 -0.0039543358680220013 -7.0708843920237635e-05 0 -0.0043550387732842434 -2.2719880647762735e-07 0 -0.0036060031381347393 -1.3667989366187465e-07 0 -0.0051037524896130112 3.2788996027050899e-07 0 -0.00416507573692228 -6.7910651663999564e-06 0 -0.0043550387732842434 -2.2719880647762735e-07 0 -0.0039543358680220013 -7.0708843920237635e-05 0 -0.00416507573692228 -6.7910651663999564e-06 0 -0.0043550387732842434 -2.2719880647762735e-07 0 -0.0052192254060938349 -0.0001871182403053728 0 -0.0044435950707434691 -0.00040188512718435429 0 -0.0051747106720844904 0.00012368641238424581 0 -0.0042163823035281421 -0.00010902021854057834 0 -0.0050957205378365563 8.8119513915869063e-05 0 -0.0051959646689336298 0.00035321262131311201 0 -0.0054802198257442244 0.00035153656615538104 0 -0.0053072109762250831 0.00061635765126430539 0 -0.0051959646689336298 0.00035321262131311201 0 -0.0049870017370012834 0.00035564865020506071 0 -0.0051152420631012619 0.00054904478909868 0 -0.0051959646689336298 0.00035321262131311201 0 -0.0049870017370012834 0.00035564865020506071 0 -0.0049925231969014444 0.00016880526941408334 0 -0.0049870017370012834 0.00035564865020506071 0 -0.0049925231969014444 0.00016880526941408334 0 -0.0047920467911111951 0.00017241198562654634 0 -0.0049925231969014444 0.00016880526941408334 0 -0.0047920467911111951 0.00017241198562654634 0 -0.0048956855887427198 -3.2836016495186146e-05 0 -0.0051959646689336298 0.00035321262131311201 0 -0.0054802198257442244 0.00035153656615538104 0 -0.0052171505582339359 2.4300545237989145e-05 0 -0.0051959646689336298 0.00035321262131311201 0 -0.0049925231969014444 0.00016880526941408334 0 -0.0052171505582339359 2.4300545237989145e-05 0 -0.0046699581064608567 -0.0006280488276603106 0 -0.0046271664574290203 -0.00058283326942594341 0 -0.0047453920872210292 -0.00058976547123610148 0 -0.0050759533457302259 -0.0001272804933352484 0 -0.0049801661131766619 -0.00027223860850059871 0 -0.0046527111160090812 -0.00063999509842734882 0 -0.0046699581064608567 -0.0006280488276603106 0 -0.0046271664574290203 -0.00058283326942594341 0 -0.0047558369812216311 -0.00062818016105459988 0 -0.0046527111160090812 -0.00063999509842734882 0 -0.0046699581064608567 -0.0006280488276603106 0 -0.0049197489822644085 -0.00054289430104463327 0 -0.0047558369812216311 -0.00062818016105459988 0 -0.0046699581064608567 -0.0006280488276603106 0 -0.0050187963676062396 -0.00039709162670678247 0 -0.0049197489822644085 -0.00054289430104463327 0 -0.0046699581064608567 -0.0006280488276603106 0 -0.0054802198257442244 0.00035153656615538104 0 -0.0055100967180840158 0.00069853849815444311 0 -0.0056838042184042059 0.00079349455050485899 0 -0.0054802198257442244 0.00035153656615538104 0 -0.0055100967180840158 0.00069853849815444311 0 -0.0053072109762250831 0.00061635765126430539 0 -0.0055100967180840158 0.00069853849815444311 0 -0.0054271182027208703 0.00073526382873081596 0 -0.0053072109762250831 0.00061635765126430539 0 -0.0050187963676062396 -0.00039709162670678247 0 -0.0046699581064608567 -0.0006280488276603106 0 -0.0048817789934447117 -0.00028219518393215613 0 -0.0050759533457302259 -0.0001272804933352484 0 -0.0053035734050857729 0.0002273542204634202 0 -0.0056090303910806289 0.00019086286103061546 0 -0.0052038276387502977 -0.00019444211706768667 0 -0.0048817789934447117 -0.00028219518393215613 0 -0.0056090303910806289 0.00019086286103061546 0 -0.0056838042184042059 0.00079349455050485899 0 -0.0057052645551703965 0.00060295896533773402 0 -0.005553328790140824 0.00020479344342479554 0 -0.0053035734050857729 0.0002273542204634202 0 -0.0052038276387502977 -0.00019444211706768667 0 -0.0050187963676062396 -0.00039709162670678247 0 -0.0048817789934447117 -0.00028219518393215613 0 -0.0056838042184042059 0.00079349455050485899 0 -0.0057052645551703965 0.00060295896533773402 0 -0.005604751146072097 0.00074450830375480327 0 -0.0057397978471837672 0.00068295361066582241 0 -0.0060000474278889817 0.00083213161337867072 0 -0.0057052645551703965 0.00060295896533773402 0 -0.005604751146072097 0.00074450830375480327 0 -0.0054953413121692678 0.00089382654334518332 0 -0.0055100967180840158 0.00069853849815444311 0 -0.0054271182027208703 0.00073526382873081596 0 -0.0054980944719937594 0.00077721061783051588 0 -0.0054271182027208703 0.00073526382873081596 0 -0.0054980944719937594 0.00077721061783051588 0 -0.0054124859840743349 0.00080873459924981825 0 -0.0055100967180840158 0.00069853849815444311 0 -0.005604751146072097 0.00074450830375480327 0 -0.0054980944719937594 0.00077721061783051588 0 -0.0055100967180840158 0.00069853849815444311 0 -0.0056838042184042059 0.00079349455050485899 0 -0.005604751146072097 0.00074450830375480327 0 -0.005604751146072097 0.00074450830375480327 0 -0.0054980944719937594 0.00077721061783051588 0 -0.0054953413121692678 0.00089382654334518332 0 -0.0054980944719937594 0.00077721061783051588 0 -0.0054124859840743349 0.00080873459924981825 0 -0.0054953413121692678 0.00089382654334518332 0 -0.0053076822205378807 0.00085751173188689845 0 -0.0052118515885674144 0.00092080175931383973 0 -0.0054953413121692678 0.00089382654334518332 0 -0.0053076822205378807 0.00085751173188689845 0 -0.0052172174544052865 0.00080391460637707168 0 -0.0053366692117294678 0.00077954559837825697 0 -0.0054124859840743349 0.00080873459924981825 0 -0.0053076822205378807 0.00085751173188689845 0 -0.0054953413121692678 0.00089382654334518332 0 -0.0054124859840743349 0.00080873459924981825 0 -0.0053076822205378807 0.00085751173188689845 0 -0.0053366692117294678 0.00077954559837825697 0 -0.0052172174544052865 0.00080391460637707168 0 -0.0051085107016599993 0.0008499382493605376 0 -0.0052118515885674144 0.00092080175931383973 0 -0.0053076822205378807 0.00085751173188689845 0 -0.0052172174544052865 0.00080391460637707168 0 -0.0052118515885674144 0.00092080175931383973 0 -0.0052172174544052865 0.00080391460637707168 0 -0.0053072109762250831 0.00061635765126430539 0 -0.0051126606231745716 0.00070780863272272023 0 -0.0052172174544052865 0.00080391460637707168 0 -0.0053366692117294678 0.00077954559837825697 0 -0.0053072109762250831 0.00061635765126430539 0 -0.0054271182027208703 0.00073526382873081596 0 -0.0053366692117294678 0.00077954559837825697 0 -0.0053072109762250831 0.00061635765126430539 0 -0.0054271182027208703 0.00073526382873081596 0 -0.0054124859840743349 0.00080873459924981825 0 -0.0053366692117294678 0.00077954559837825697 0 -0.0051959646689336298 0.00035321262131311201 0 -0.0053072109762250831 0.00061635765126430539 0 -0.0051152420631012619 0.00054904478909868 0 -0.0053072109762250831 0.00061635765126430539 0 -0.0051152420631012619 0.00054904478909868 0 -0.0051126606231745716 0.00070780863272272023 0 -0.0049913566127906799 0.00037463385032560044 0 -0.004886820904660567 0.00063549285703977203 0 -0.0049870017370012834 0.00035564865020506071 0 -0.0051152420631012619 0.00054904478909868 0 -0.0049249326146779187 0.00066799147215223045 0 -0.0051152420631012619 0.00054904478909868 0 -0.0051126606231745716 0.00070780863272272023 0 -0.0049249326146779187 0.00066799147215223045 0 -0.0050325511375598651 0.00077505025422043561 0 -0.0051126606231745716 0.00070780863272272023 0 -0.0049249326146779187 0.00066799147215223045 0 -0.0050325511375598651 0.00077505025422043561 0 -0.0049847622843192177 0.00087574504054987556 0 -0.0049249326146779187 0.00066799147215223045 0 -0.0050325511375598651 0.00077505025422043561 0 -0.0051126606231745716 0.00070780863272272023 0 -0.0051085107016599993 0.0008499382493605376 0 -0.0052172174544052865 0.00080391460637707168 0 -0.0051126606231745716 0.00070780863272272023 0 -0.0051085107016599993 0.0008499382493605376 0 -0.0051085107016599993 0.0008499382493605376 0 -0.0049847622843192177 0.00087574504054987556 0 -0.0051765647176243322 0.00096084148677332351 0 -0.0050325511375598651 0.00077505025422043561 0 -0.0051085107016599993 0.0008499382493605376 0 -0.0049847622843192177 0.00087574504054987556 0 -0.0060852136466469538 0.0007499096872158104 0 -0.0051952049466702848 0.00094350497925373914 0 -0.0060852136466469538 0.0007499096872158104 0 -0.0065960676843491474 0.00055752331890510478 0 -0.0060271659956225932 0.00071992413370370472 0 -0.0059310641328078869 0.00073615096194145019 0 -0.0059619196842269359 0.00079926122532970433 0 -0.0049847622843192177 0.00087574504054987556 0 -0.0051765647176243322 0.00096084148677332351 0 -0.0048445007018493805 0.0010149231793925247 0 -0.0072388425120108206 0.00083253331573497917 0 -0.006499678215722041 0.000641838120488472 0 -0.006470002289957707 0.00083064579600740384 0 -0.0060852136466469538 0.0007499096872158104 0 -0.0060000474278889817 0.00083213161337867072 0 -0.0069400582835288938 0.00055387021540843342 0 -0.0072388425120108206 0.00083253331573497917 0 -0.0071888471325595987 0.00034512179764854996 0 -0.0051085107016599993 0.0008499382493605376 0 -0.0052118515885674144 0.00092080175931383973 0 -0.0051765647176243322 0.00096084148677332351 0 -0.0069400582835288938 0.00055387021540843342 0 -0.0072388425120108206 0.00083253331573497917 0 -0.006499678215722041 0.000641838120488472 0 -0.0052118515885674144 0.00092080175931383973 0 -0.0051735259701519778 0.0009707868754669168 0 -0.0054953413121692678 0.00089382654334518332 0 -0.005840922204528187 0.00092929207430916436 0 -0.0060852136466469538 0.0007499096872158104 0 -0.0071888471325595987 0.00034512179764854996 0 -0.0074767166323301028 0.0003113341892650429 0 -0.0072676636123300779 -6.6708366100488574e-05 0 -0.0069400582835288938 0.00055387021540843342 0 -0.0070005721207623741 0.00015839665369835407 0 -0.0067017929529392542 0.00033873460705251143 0 -0.0072388425120108206 0.00083253331573497917 0 -0.0071888471325595987 0.00034512179764854996 0 -0.0074767166323301028 0.0003113341892650429 0 -0.0069400582835288938 0.00055387021540843342 0 -0.0070005721207623741 0.00015839665369835407 0 -0.0071888471325595987 0.00034512179764854996 0 -0.0072388425120108206 0.00083253331573497917 0 -0.0074767166323301028 0.0003113341892650429 0 -0.0077943752209179264 0.00034801349547786185 0 -0.0073159141872405518 0.00035796688583278108 0 -0.0065960676843491474 0.00055752331890510478 0 -0.0074767166323301028 0.0003113341892650429 0 -0.0077606931198255322 0.00015612536620949184 0 -0.0077943752209179264 0.00034801349547786185 0 -0.0056090303910806289 0.00019086286103061546 0 -0.0058500696461682737 0.00038495365827698652 0 -0.0058887736455236492 0.00022123933092027409 0 -0.0056090303910806289 0.00019086286103061546 0 -0.0057052645551703965 0.00060295896533773402 0 -0.0058500696461682737 0.00038495365827698652 0 -0.0057052645551703965 0.00060295896533773402 0 -0.0060428179504430374 0.00056827550274167308 0 -0.0058500696461682737 0.00038495365827698652 0 -0.0058500696461682737 0.00038495365827698652 0 -0.0060816652708117177 0.00041314508166240336 0 -0.0058887736455236492 0.00022123933092027409 0 -0.0060428179504430374 0.00056827550274167308 0 -0.0058500696461682737 0.00038495365827698652 0 -0.0060816652708117177 0.00041314508166240336 0 -0.0060816652708117177 0.00041314508166240336 0 -0.006499678215722041 0.000641838120488472 0 -0.0061886584819765408 0.00017599080349576612 0 -0.0057052645551703965 0.00060295896533773402 0 -0.0060428179504430374 0.00056827550274167308 0 -0.006470002289957707 0.00083064579600740384 0 -0.0069400582835288938 0.00055387021540843342 0 -0.006499678215722041 0.000641838120488472 0 -0.0067017929529392542 0.00033873460705251143 0 -0.0064877395104164272 0.00064463528873879802 0 -0.0064579531424258452 0.00026159579131264718 0 -0.0060428179504430374 0.00056827550274167308 0 -0.0060816652708117177 0.00041314508166240336 0 -0.0062707898454694259 0.00061262234173185077 0 -0.0060428179504430374 0.00056827550274167308 0 -0.0062707898454694259 0.00061262234173185077 0 -0.006470002289957707 0.00083064579600740384 0 -0.0060816652708117177 0.00041314508166240336 0 -0.0062707898454694259 0.00061262234173185077 0 -0.006499678215722041 0.000641838120488472 0 -0.0062707898454694259 0.00061262234173185077 0 -0.006499678215722041 0.000641838120488472 0 -0.006470002289957707 0.00083064579600740384 0 -0.0061886584819765408 0.00017599080349576612 0 -0.0058887736455236492 0.00022123933092027409 0 -0.0061014621400653501 2.0036129123199345e-05 0 -0.0070005721207623741 0.00015839665369835407 0 -0.0067017929529392542 0.00033873460705251143 0 -0.0067213469989438326 -6.4647061850775633e-05 0 -0.0064579531424258452 0.00026159579131264718 0 -0.0070888306023735833 0.00014523333584715004 0 -0.0060816652708117177 0.00041314508166240336 0 -0.0061886584819765408 0.00017599080349576612 0 -0.0058887736455236492 0.00022123933092027409 0 -0.0058024669711412274 0.00025459862745116495 0 -0.0056090303910806289 0.00019086286103061546 0 -0.0058887736455236492 0.00022123933092027409 0 -0.0058024669711412274 0.00025459862745116495 0 -0.0058887736455236492 0.00022123933092027409 0 -0.0061014621400653501 2.0036129123199345e-05 0 -0.0065417648152081738 0.00015518888935823989 0 -0.0070888306023735833 0.00014523333584715004 0 -0.0073768579797644385 0.0001008916998598727 0 -0.0075585568194542077 7.982656358836805e-05 0 -0.0074844766879917993 4.7348709827169178e-06 0 -0.0075567055055541388 -2.4910263215251062e-05 0 -0.0075585568194542077 7.982656358836805e-05 0 -0.0074844766879917993 4.7348709827169178e-06 0 -0.0077162951673705816 0.00026290537664935837 0 -0.0078202116504121899 0.00051950143776215336 0 -0.0079566954973611589 0.00039643565715311572 0 -0.0077220829991765166 0.00014482615604649869 0 -0.0070888306023735833 0.00014523333584715004 0 -0.0077467852747711225 0.0002100133479044776 0 -0.0076338464365682543 0.0002010816256847966 0 -0.0074767166323301028 0.0003113341892650429 0 -0.0077606931198255322 0.00015612536620949184 0 -0.0072676636123300779 -6.6708366100488574e-05 0 -0.0078235841827974679 0.00021499104590528068 0 -0.0077606931198255322 0.00015612536620949184 0 -0.0072676636123300779 -6.6708366100488574e-05 0 -0.0078235841827974679 0.00021499104590528068 0 -0.0079972870585587105 0.00045532076028495565 0 -0.0080034578728659638 0.00042576166616177085 0 -0.0070888306023735833 0.00014523333584715004 0 -0.0076338464365682543 0.0002010816256847966 0 -0.0070005721207623741 0.00015839665369835407 0 -0.0071888471325595987 0.00034512179764854996 0 -0.0072676636123300779 -6.6708366100488574e-05 0 -0.0070005721207623741 0.00015839665369835407 0 -0.0067213469989438326 -6.4647061850775633e-05 0 -0.0072676636123300779 -6.6708366100488574e-05 0 -0.0078202116504121899 0.00051950143776215336 0 -0.0079972870585587105 0.00045532076028495565 0 -0.0079566954973611589 0.00039643565715311572 0 -0.0079972870585587105 0.00045532076028495565 0 -0.0079566954973611589 0.00039643565715311572 0 -0.0080034578728659638 0.00042576166616177085 0 -0.0079566954973611589 0.00039643565715311572 0 -0.0080034578728659638 0.00042576166616177085 0 -0.0080666861168727476 0.00052905216637357498 0 -0.0079884847554657669 0.00020196628121986162 0 -0.0079566954973611589 0.00039643565715311572 0 -0.0080666861168727476 0.00052905216637357498 0 -0.0078235841827974679 0.00021499104590528068 0 -0.0080034578728659638 0.00042576166616177085 0 -0.0080666861168727476 0.00052905216637357498 0 -0.008270941086139837 0.00050840401505692408 0 -0.0076814494750106887 0.00096827827218746011 0 -0.0078235841827974679 0.00021499104590528068 0 -0.0080666861168727476 0.00052905216637357498 0 -0.0074837122712453586 0.00027308695295805185 0 -0.0088054726485739931 0.00035491500623247631 0 -0.0080666861168727476 0.00052905216637357498 0 -0.0089633641094833891 0.0010778822963368221 0 -0.0078235841827974679 0.00021499104590528068 0 -0.0077606931198255322 0.00015612536620949184 0 -0.0074837122712453586 0.00027308695295805185 0 -0.0077606931198255322 0.00015612536620949184 0 -0.0074837122712453586 0.00027308695295805185 0 -0.0077112175689438523 4.8427924889666172e-05 0 -0.0052426611563087195 0.0009141579968134461 0 -0.0052549523863246158 0.00093715599279758498 0 -0.0052786832670557483 0.000942176032551365 0 -0.0076814494750106887 0.00096827827218746011 0 -0.0065960676843491474 0.00055752331890510478 0 -0.0052549523863246158 0.00093715599279758498 0 -0.0051681226484804809 0.0011390610632131684 0 -0.0052508472915640493 0.001065604986752217 0 -0.0076814494750106887 0.00096827827218746011 0 -0.0078734121064348329 0.0012662440253442529 0 -0.0053324853253833068 0.0010053642903191048 0 -0.0052549523863246158 0.00093715599279758498 0 -0.0054995475225733045 0.00095039569172025555 0 -0.0052426611563087195 0.0009141579968134461 0 -0.0052549523863246158 0.00093715599279758498 0 -0.0054995475225733045 0.00095039569172025555 0 -0.0052494110017008069 0.00094939023661329096 0 -0.0052165711771789995 0.0010451929566220963 0 -0.0096983593347517716 0.0014744267309973593 0 -0.0099456512498579727 0.001413454130615375 0 -0.010084576085043383 0.0015161209826318365 0 -0.0053324853253833068 0.0010053642903191048 0 -0.0052508472915640493 0.001065604986752217 0 -0.0053339148303859999 0.0010607258342192336 0 -0.0053324853253833068 0.0010053642903191048 0 -0.0052549523863246158 0.00093715599279758498 0 -0.0052508472915640493 0.001065604986752217 0 -0.0099580606754885916 0.00077023149064364726 0 -0.0076814494750106887 0.00096827827218746011 0 -0.0098936953876813775 0.0011305087512102491 0 -0.0096983593347517716 0.0014744267309973593 0 -0.0099456512498579727 0.001413454130615375 0 -0.0088054726485739931 0.00035491500623247631 0 -0.0095354302041850518 0.00050420239224508107 0 -0.0089633641094833891 0.0010778822963368221 0 -0.0098936953876813775 0.0011305087512102491 0 -0.010400708756222406 0.0010185845306656133 0 -0.010209434234227623 0.0015034928594596347 0 -0.0098936953876813775 0.0011305087512102491 0 -0.0099456512498579727 0.001413454130615375 0 -0.010209434234227623 0.0015034928594596347 0 -0.010647840050771372 0.0014130092532952184 0 -0.010260961272042551 0.0015063207392063112 0 -0.010085620106136842 0.0014143177218071867 0 -0.010084576085043383 0.0015161209826318365 0 -0.010027306722609595 0.0012690203324475919 0 -0.0078734121064348329 0.0012662440253442529 0 -0.0073570546384885607 0.0012223605407488479 0 -0.010209434234227623 0.0015034928594596347 0 -0.010085620106136842 0.0014143177218071867 0 -0.01000705573950946 0.0013940734212900753 0 -0.010209434234227623 0.0015034928594596347 0 -0.010085620106136842 0.0014143177218071867 0 -0.010084576085043383 0.0015161209826318365 0 -0.010085620106136842 0.0014143177218071867 0 -0.01000705573950946 0.0013940734212900753 0 -0.010027306722609595 0.0012690203324475919 0 -0.0099456512498579727 0.001413454130615375 0 -0.010209434234227623 0.0015034928594596347 0 -0.010084576085043383 0.0015161209826318365 0 -0.0054995475225733045 0.00095039569172025555 0 -0.0054040659060327397 0.0010923937969541957 0 -0.0053339148303859999 0.0010607258342192336 0 -0.0053324853253833068 0.0010053642903191048 0 -0.0054995475225733045 0.00095039569172025555 0 -0.0053339148303859999 0.0010607258342192336 0 -0.0054040659060327397 0.0010923937969541957 0 -0.0055616786640710339 0.0011421389650198429 0 -0.0053196642172846824 0.0012271157302241556 0 -0.0053443499685762374 0.0012367184258462115 0 -0.0056596363744311441 0.001346318676521149 0 -0.0055616786640710339 0.0011421389650198429 0 -0.0053196642172846824 0.0012271157302241556 0 -0.005904419419491381 0.0014886668911867212 0 -0.0054040659060327397 0.0010923937969541957 0 -0.0053196642172846824 0.0012271157302241556 0 -0.0052713962631066825 0.0011703943326234578 0 -0.0054995475225733045 0.00095039569172025555 0 -0.0054040659060327397 0.0010923937969541957 0 -0.0055616786640710339 0.0011421389650198429 0 -0.0051225842323295275 0.0011533186134262705 0 -0.0073570546384885607 0.0012223605407488479 0 -0.0055616786640710339 0.0011421389650198429 0 -0.0059240003975174075 0.0012577926925610532 0 -0.0061208638406616079 0.0011091217289017257 0 -0.0054995475225733045 0.00095039569172025555 0 -0.0055616786640710339 0.0011421389650198429 0 -0.0059857999004720025 0.0011136968314214566 0 -0.0055616786640710339 0.0011421389650198429 0 -0.0059240003975174075 0.0012577926925610532 0 -0.005904419419491381 0.0014886668911867212 0 -0.0059240003975174075 0.0012577926925610532 0 -0.005904419419491381 0.0014886668911867212 0 -0.0061064961370400125 0.0012883697108270239 0 -0.0059240003975174075 0.0012577926925610532 0 -0.0061208638406616079 0.0011091217289017257 0 -0.0061064961370400125 0.0012883697108270239 0 -0.005904419419491381 0.0014886668911867212 0 -0.0061064961370400125 0.0012883697108270239 0 -0.006282745828106796 0.0013979903808256898 0 -0.0053971742776302446 0.001213500186179727 0 -0.0052978551488528543 0.0013165962034881913 0 -0.0053154705705588346 0.001244081145673877 0 -0.0053971742776302446 0.001213500186179727 0 -0.0052978551488528543 0.0013165962034881913 0 -0.0055670932297864654 0.0014109669419325008 0 -0.0052978551488528543 0.0013165962034881913 0 -0.0055670932297864654 0.0014109669419325008 0 -0.0054880847629504197 0.0016229645736228883 0 -0.0053196642172846824 0.0012271157302241556 0 -0.0053971742776302446 0.001213500186179727 0 -0.0053154705705588346 0.001244081145673877 0 -0.0053154705705588346 0.001244081145673877 0 -0.005223669162825675 0.0013200078691488273 0 -0.0051836905426870718 0.0013138030570153765 0 -0.0053196642172846824 0.0012271157302241556 0 -0.0053154705705588346 0.001244081145673877 0 -0.0052730112798816007 0.0012653070890796961 0 -0.0053076069524634773 0.0012561299699418388 0 -0.0052295854294198713 0.0012787752427378374 0 -0.0053154705705588346 0.001244081145673877 0 -0.0052572877162446307 0.0013122687408606043 0 -0.005223669162825675 0.0013200078691488273 0 -0.0052978551488528543 0.0013165962034881913 0 -0.0053154705705588346 0.001244081145673877 0 -0.0052572877162446307 0.0013122687408606043 0 -0.0052978551488528543 0.0013165962034881913 0 -0.0052572877162446307 0.0013122687408606043 0 -0.0051801096003140307 0.0013662452579003767 0 -0.0052572877162446307 0.0013122687408606043 0 -0.005223669162825675 0.0013200078691488273 0 -0.0051801096003140307 0.0013662452579003767 0 -0.005223669162825675 0.0013200078691488273 0 -0.0051938187781909312 0.0013296467030779009 0 -0.0051801096003140307 0.0013662452579003767 0 -0.005223669162825675 0.0013200078691488273 0 -0.0051938187781909312 0.0013296467030779009 0 -0.0051836905426870718 0.0013138030570153765 0 -0.0051938187781909312 0.0013296467030779009 0 -0.0052051963949928158 0.0013288847058982604 0 -0.0051867463601242576 0.0013151913100360819 0 -0.0051938187781909312 0.0013296467030779009 0 -0.0051836905426870718 0.0013138030570153765 0 -0.0052051963949928158 0.0013288847058982604 0 -0.0052730112798816007 0.0012653070890796961 0 -0.005124291864399561 0.0012965496873516245 0 -0.0052086833128623718 0.0012174306194626032 0 -0.0052295854294198713 0.0012787752427378374 0 -0.0051520560221960301 0.0010411987987094897 0 -0.0051836905426870718 0.0013138030570153765 0 -0.0052051963949928158 0.0013288847058982604 0 -0.0052253750437983417 0.0013396035242590632 0 -0.0052734132111374567 0.00092733141214687196 0 -0.0052715620526770967 0.0009276771850606348 0 -0.0052786832670557483 0.000942176032551365 0 -0.0052051963949928158 0.0013288847058982604 0 -0.00522989152987646 0.0013327803170641184 0 -0.0052253750437983417 0.0013396035242590632 0 -0.0050873062880227816 0.0010252523191662242 0 -0.0051520560221960301 0.0010411987987094897 0 -0.0050873062880227816 0.0010252523191662242 0 -0.0051952049466702848 0.00094350497925373914 0 -0.0049847622843192177 0.00087574504054987556 0 -0.0048311064811342348 0.0009824574370977451 0 -0.0048445007018493805 0.0010149231793925247 0 -0.0051502203211669251 0.0010032424384952632 0 -0.0051344688622635935 0.00096526598829555388 0 -0.0051641958555990099 0.00096008334664246596 0 -0.0051952049466702848 0.00094350497925373914 0 -0.0051520560221960301 0.0010411987987094897 0 -0.0051952049466702848 0.00094350497925373914 0 -0.0065960676843491474 0.00055752331890510478 0 -0.0052549523863246158 0.00093715599279758498 0 -0.0052786832670557483 0.000942176032551365 0 -0.0052663402954486824 0.00093909790295534034 0 -0.0051520560221960301 0.0010411987987094897 0 -0.0052165711771789995 0.0010451929566220963 0 -0.005124291864399561 0.0012965496873516245 0 -0.0051681226484804809 0.0011390610632131684 0 -0.0052086833128623718 0.0012174306194626032 0 -0.0052715620526770967 0.0009276771850606348 0 -0.0052786832670557483 0.000942176032551365 0 -0.0052663402954486824 0.00093909790295534034 0 -0.0051681226484804809 0.0011390610632131684 0 -0.0052508472915640493 0.001065604986752217 0 -0.0052713962631066825 0.0011703943326234578 0 -0.0052508472915640493 0.001065604986752217 0 -0.0053339148303859999 0.0010607258342192336 0 -0.0052713962631066825 0.0011703943326234578 0 -0.0054040659060327397 0.0010923937969541957 0 -0.0053339148303859999 0.0010607258342192336 0 -0.0052713962631066825 0.0011703943326234578 0 -0.0053196642172846824 0.0012271157302241556 0 -0.0052730112798816007 0.0012653070890796961 0 -0.0052713962631066825 0.0011703943326234578 0 -0.0052730112798816007 0.0012653070890796961 0 -0.0052713962631066825 0.0011703943326234578 0 -0.0052086833128623718 0.0012174306194626032 0 -0.0051681226484804809 0.0011390610632131684 0 -0.0052713962631066825 0.0011703943326234578 0 -0.0052086833128623718 0.0012174306194626032 0 -0.0092309656723189443 0.001375792264043776 0 -0.0093363947292177361 0.0011616485638645492 0 -0.0090775064659907659 0.0013084048314895708 0 -0.0092309656723189443 0.001375792264043776 0 -0.0094402365374952179 0.0013562932801454862 0 -0.0093363947292177361 0.0011616485638645492 0 -0.0092309656723189443 0.001375792264043776 0 -0.0093037513992492559 0.0014992648597860372 0 -0.0091811240778676868 0.0015083460034248551 0 -0.0093238652564062476 0.0016113885485719134 0 -0.0093037513992492559 0.0014992648597860372 0 -0.0092452715036712412 0.0015779840091659284 0 -0.0093037513992492559 0.0014992648597860372 0 -0.0092452715036712412 0.0015779840091659284 0 -0.0091811240778676868 0.0015083460034248551 0 -0.0094222880142941657 0.0015930957929005073 0 -0.0093238652564062476 0.0016113885485719134 0 -0.0093037513992492559 0.0014992648597860372 0 -0.0094222880142941657 0.0015930957929005073 0 -0.0093037513992492559 0.0014992648597860372 0 -0.0094278651344981007 0.0014917809726644193 0 -0.0092309656723189443 0.001375792264043776 0 -0.0093037513992492559 0.0014992648597860372 0 -0.0094402365374952179 0.0013562932801454862 0 -0.0093037513992492559 0.0014992648597860372 0 -0.0094278651344981007 0.0014917809726644193 0 -0.0094402365374952179 0.0013562932801454862 0 -0.0095492457947535837 0.0015354321454260987 0 -0.0094402365374952179 0.0013562932801454862 0 -0.0096829226024426115 0.0014059057870184325 0 -0.0094278651344981007 0.0014917809726644193 0 -0.0095492457947535837 0.0015354321454260987 0 -0.0094402365374952179 0.0013562932801454862 0 -0.0094222880142941657 0.0015930957929005073 0 -0.0094278651344981007 0.0014917809726644193 0 -0.0095492457947535837 0.0015354321454260987 0 -0.0094402365374952179 0.0013562932801454862 0 -0.0096781238416942632 0.0011950825833080825 0 -0.0093363947292177361 0.0011616485638645492 0 -0.0094402365374952179 0.0013562932801454862 0 -0.0096829226024426115 0.0014059057870184325 0 -0.0096781238416942632 0.0011950825833080825 0 -0.0096829226024426115 0.0014059057870184325 0 -0.0098587651026391769 0.0013463210558690892 0 -0.0096781238416942632 0.0011950825833080825 0 -0.0096829226024426115 0.0014059057870184325 0 -0.0098814827305444761 0.0014710295147973469 0 -0.0098587651026391769 0.0013463210558690892 0 -0.0095492457947535837 0.0015354321454260987 0 -0.0096829226024426115 0.0014059057870184325 0 -0.0097247867719427155 0.0015600966440218137 0 -0.0096302984595736489 0.0016943107677245919 0 -0.0095492457947535837 0.0015354321454260987 0 -0.0097247867719427155 0.0015600966440218137 0 -0.0096829226024426115 0.0014059057870184325 0 -0.0097247867719427155 0.0015600966440218137 0 -0.0098814827305444761 0.0014710295147973469 0 -0.0098810439284642958 0.0016901165139306693 0 -0.0097247867719427155 0.0015600966440218137 0 -0.0098814827305444761 0.0014710295147973469 0 -0.0098810439284642958 0.0016901165139306693 0 -0.010209434234227623 0.0015034928594596347 0 -0.0098814827305444761 0.0014710295147973469 0 -0.010209434234227623 0.0015034928594596347 0 -0.0098814827305444761 0.0014710295147973469 0 -0.01000705573950946 0.0013940734212900753 0 -0.0098814827305444761 0.0014710295147973469 0 -0.01000705573950946 0.0013940734212900753 0 -0.0098587651026391769 0.0013463210558690892 0 -0.01000705573950946 0.0013940734212900753 0 -0.0098587651026391769 0.0013463210558690892 0 -0.010027306722609595 0.0012690203324475919 0 -0.0073570546384885607 0.0012223605407488479 0 -0.0083500306029566478 0.0011594710170931583 0 -0.0098587651026391769 0.0013463210558690892 0 -0.010027306722609595 0.0012690203324475919 0 -0.0096781238416942632 0.0011950825833080825 0 -0.0062850113940431914 0.0012001938856749184 0 -0.0061546500127556379 0.0011345848444934438 0 -0.0067096883609863503 0.0011349800644280931 0 -0.0064899849237877632 0.0010000007116506798 0 -0.0073570546384885607 0.0012223605407488479 0 -0.0062850113940431914 0.0012001938856749184 0 -0.006282745828106796 0.0013979903808256898 0 -0.0065286867605878519 0.001358799769742442 0 -0.0062850113940431914 0.0012001938856749184 0 -0.0061064961370400125 0.0012883697108270239 0 -0.006282745828106796 0.0013979903808256898 0 -0.0062850113940431914 0.0012001938856749184 0 -0.0061208638406616079 0.0011091217289017257 0 -0.0061064961370400125 0.0012883697108270239 0 -0.0056596363744311441 0.001346318676521149 0 -0.0062074130405631277 0.0015014894347953269 0 -0.005904419419491381 0.0014886668911867212 0 -0.006282745828106796 0.0013979903808256898 0 -0.006439536135667388 0.0016343478905839952 0 -0.0053971742776302446 0.001213500186179727 0 -0.0055670932297864654 0.0014109669419325008 0 -0.0059876658957274268 0.0013603691802939997 0 -0.0055670932297864654 0.0014109669419325008 0 -0.0059876658957274268 0.0013603691802939997 0 -0.0057581948628613478 0.001581273611183736 0 -0.006282745828106796 0.0013979903808256898 0 -0.006439536135667388 0.0016343478905839952 0 -0.0065286867605878519 0.001358799769742442 0 -0.006439536135667388 0.0016343478905839952 0 -0.0068485116649187952 0.0014064319825745381 0 -0.0068534337666546451 0.0017605962770556646 0 -0.006439536135667388 0.0016343478905839952 0 -0.0065286867605878519 0.001358799769742442 0 -0.0068485116649187952 0.0014064319825745381 0 -0.0067096883609863503 0.0011349800644280931 0 -0.0065286867605878519 0.001358799769742442 0 -0.0068485116649187952 0.0014064319825745381 0 -0.0062850113940431914 0.0012001938856749184 0 -0.0067096883609863503 0.0011349800644280931 0 -0.0065286867605878519 0.001358799769742442 0 -0.0067096883609863503 0.0011349800644280931 0 -0.0068485116649187952 0.0014064319825745381 0 -0.0072011661288279467 0.00112250806509646 0 -0.0068485116649187952 0.0014064319825745381 0 -0.0071719291459012274 0.0015138399446551448 0 -0.0072011661288279467 0.00112250806509646 0 -0.0083500306029566478 0.0011594710170931583 0 -0.0082289762814236646 0.0011416343672991888 0 -0.0068485116649187952 0.0014064319825745381 0 -0.0071719291459012274 0.0015138399446551448 0 -0.0068534337666546451 0.0017605962770556646 0 -0.0071719291459012274 0.0015138399446551448 0 -0.007185672432936799 0.0018819507633689981 0 -0.0075109884617528006 0.0015909759278679391 0 -0.0071719291459012274 0.0015138399446551448 0 -0.0072011661288279467 0.00112250806509646 0 -0.0074644380942791898 0.0013448441736597769 0 -0.0070637320046643571 0.0021874603459792401 0 -0.0071684311946987236 0.0024989487138475696 0 -0.0073979438076979698 0.0022033916301229476 0 -0.0070637320046643571 0.0021874603459792401 0 -0.007185672432936799 0.0018819507633689981 0 -0.0068019165710626545 0.0020238490542895918 0 -0.0070637320046643571 0.0021874603459792401 0 -0.007185672432936799 0.0018819507633689981 0 -0.0073979438076979698 0.0022033916301229476 0 -0.0071719291459012274 0.0015138399446551448 0 -0.007185672432936799 0.0018819507633689981 0 -0.0068534337666546451 0.0017605962770556646 0 -0.007185672432936799 0.0018819507633689981 0 -0.0065790150667134782 0.0015911953829665444 0 -0.0068019165710626545 0.0020238490542895918 0 -0.0065790150667134782 0.0015911953829665444 0 -0.0068019165710626545 0.0020238490542895918 0 -0.0064372406301055731 0.0020620482998498319 0 -0.0071496661306549312 0.0018623627690584419 0 -0.0067192331414431677 0.0016815224421610987 0 -0.0070637320046643571 0.0021874603459792401 0 -0.0068019165710626545 0.0020238490542895918 0 -0.0067237899525864897 0.0023611358395499555 0 -0.0068019165710626545 0.0020238490542895918 0 -0.0064372406301055731 0.0020620482998498319 0 -0.0067237899525864897 0.0023611358395499555 0 -0.0061036651072345349 0.0021556544691090996 0 -0.0064372406301055731 0.0020620482998498319 0 -0.0062659958389311363 0.00247665098685997 0 -0.0061036651072345349 0.0021556544691090996 0 -0.0064372406301055731 0.0020620482998498319 0 -0.0060604848886773822 0.0018054084084345309 0 -0.0062074130405631277 0.0015014894347953269 0 -0.0067192331414431677 0.0016815224421610987 0 -0.0065790150667134782 0.0015911953829665444 0 -0.0064372406301055731 0.0020620482998498319 0 -0.0060604848886773822 0.0018054084084345309 0 -0.0059876658957274268 0.0013603691802939997 0 -0.0065790150667134782 0.0015911953829665444 0 -0.0060604848886773822 0.0018054084084345309 0 -0.0059876658957274268 0.0013603691802939997 0 -0.0060604848886773822 0.0018054084084345309 0 -0.0057581948628613478 0.001581273611183736 0 -0.0060604848886773822 0.0018054084084345309 0 -0.0057581948628613478 0.001581273611183736 0 -0.0057461600748322846 0.0018134765531313411 0 -0.0057581948628613478 0.001581273611183736 0 -0.0057461600748322846 0.0018134765531313411 0 -0.0054880847629504197 0.0016229645736228883 0 -0.0057461600748322846 0.0018134765531313411 0 -0.0055554420729242273 0.0018507852385339137 0 -0.0056243343819446382 0.001988871708363267 0 -0.0057461600748322846 0.0018134765531313411 0 -0.0058429520815510456 0.0020984935626943086 0 -0.0056243343819446382 0.001988871708363267 0 -0.0060604848886773822 0.0018054084084345309 0 -0.0057461600748322846 0.0018134765531313411 0 -0.0058429520815510456 0.0020984935626943086 0 -0.0061036651072345349 0.0021556544691090996 0 -0.0060604848886773822 0.0018054084084345309 0 -0.0058429520815510456 0.0020984935626943086 0 -0.0061036651072345349 0.0021556544691090996 0 -0.0058429520815510456 0.0020984935626943086 0 -0.0058394868717703908 0.0024039358612820702 0 -0.0058429520815510456 0.0020984935626943086 0 -0.0056537072892795968 0.0022025049332999925 0 -0.0056243343819446382 0.001988871708363267 0 -0.0058429520815510456 0.0020984935626943086 0 -0.0056537072892795968 0.0022025049332999925 0 -0.0058394868717703908 0.0024039358612820702 0 -0.0058394868717703908 0.0024039358612820702 0 -0.006006110007644957 0.0026373636857879236 0 -0.0062659958389311363 0.00247665098685997 0 -0.0056537072892795968 0.0022025049332999925 0 -0.0058394868717703908 0.0024039358612820702 0 -0.0056085115578484151 0.0023817231091943338 0 -0.0058394868717703908 0.0024039358612820702 0 -0.006006110007644957 0.0026373636857879236 0 -0.005740650862045435 0.0026754625480298316 0 -0.0058394868717703908 0.0024039358612820702 0 -0.005740650862045435 0.0026754625480298316 0 -0.0056085115578484151 0.0023817231091943338 0 -0.0041535658980758009 0.0020280075090592375 0 -0.0047200436022720189 0.0020695970644100036 0 -0.0044487351370206159 0.0018455565349731011 0 -0.0052513507426457905 0.0025655860196591969 0 -0.0049736947269554983 0.0018020847544683164 0 -0.005740650862045435 0.0026754625480298316 0 -0.0062658286917927552 0.0029257055703854982 0 -0.0055571589700781666 0.0028758325037793577 0 -0.006006110007644957 0.0026373636857879236 0 -0.005740650862045435 0.0026754625480298316 0 -0.0062658286917927552 0.0029257055703854982 0 -0.0062658286917927552 0.0029257055703854982 0 -0.0062659958389311363 0.00247665098685997 0 -0.0065585055003959955 0.002659085758286692 0 -0.006006110007644957 0.0026373636857879236 0 -0.0062658286917927552 0.0029257055703854982 0 -0.0062659958389311363 0.00247665098685997 0 -0.0061036651072345349 0.0021556544691090996 0 -0.0058394868717703908 0.0024039358612820702 0 -0.0062659958389311363 0.00247665098685997 0 -0.0062659958389311363 0.00247665098685997 0 -0.0067237899525864897 0.0023611358395499555 0 -0.0065585055003959955 0.002659085758286692 0 -0.0064372406301055731 0.0020620482998498319 0 -0.0062659958389311363 0.00247665098685997 0 -0.0067237899525864897 0.0023611358395499555 0 -0.0067237899525864897 0.0023611358395499555 0 -0.0068593285028974455 0.0026279226598290126 0 -0.0065585055003959955 0.002659085758286692 0 -0.0041535658980758009 0.0020280075090592375 0 -0.0035966062434011213 0.0019780285605090755 0 -0.0037882101471836301 0.0018587393096726221 0 -0.0062658286917927552 0.0029257055703854982 0 -0.0065585055003959955 0.002659085758286692 0 -0.0068509423359481006 0.0028820777407391209 0 -0.0062658286917927552 0.0029257055703854982 0 -0.0068509423359481006 0.0028820777407391209 0 -0.0069185330004062334 0.0029442531316893508 0 -0.0052513507426457905 0.0025655860196591969 0 -0.0052439824850565985 0.0023772986749266848 0 -0.0035966062434011213 0.0019780285605090755 0 -0.0036475498413337392 0.0018364788068977672 0 -0.0037882101471836301 0.0018587393096726221 0 -0.0068593285028974455 0.0026279226598290126 0 -0.0065585055003959955 0.002659085758286692 0 -0.0068509423359481006 0.0028820777407391209 0 -0.0068509423359481006 0.0028820777407391209 0 -0.0070314897348691665 0.0027203205619656923 0 -0.0072455841093716248 0.0028740930428318534 0 -0.0068593285028974455 0.0026279226598290126 0 -0.0068509423359481006 0.0028820777407391209 0 -0.0070314897348691665 0.0027203205619656923 0 -0.0068509423359481006 0.0028820777407391209 0 -0.0069185330004062334 0.0029442531316893508 0 -0.0070698103885698865 0.0029549573777399706 0 -0.0074245608793930395 0.0028466619613333644 0 -0.0054029000826010306 0.0022744492632060151 0 -0.0052439824850565985 0.0023772986749266848 0 -0.0046921021573532954 0.002098737325705158 0 -0.0068509423359481006 0.0028820777407391209 0 -0.0070698103885698865 0.0029549573777399706 0 -0.0071362870995767443 0.0028954337247815974 0 -0.0035966062434011213 0.0019780285605090755 0 -0.0034196091583107366 0.0019609500514048707 0 -0.0033323678062041578 0.0017815357248112266 0 -0.0046921021573532954 0.002098737325705158 0 -0.0054029000826010306 0.0022744492632060151 0 -0.0070314897348691665 0.0027203205619656923 0 -0.0072455841093716248 0.0028740930428318534 0 -0.0071684311946987236 0.0024989487138475696 0 -0.0070637320046643571 0.0021874603459792401 0 -0.0067237899525864897 0.0023611358395499555 0 -0.0071684311946987236 0.0024989487138475696 0 -0.0067237899525864897 0.0023611358395499555 0 -0.0068593285028974455 0.0026279226598290126 0 -0.0071684311946987236 0.0024989487138475696 0 -0.0068593285028974455 0.0026279226598290126 0 -0.0070314897348691665 0.0027203205619656923 0 -0.0071684311946987236 0.0024989487138475696 0 -0.0052464786404308131 0.0012541657628709635 0 -0.0051243008954378975 0.0012072419026385494 0 -0.0051605748478406443 0.00093892499818828924 0 -0.0051243008954378975 0.0012072419026385494 0 -0.0050136769898387421 0.0010649413662146827 0 -0.0051605748478406443 0.00093892499818828924 0 -0.0047052129389504966 0.00064188966833999726 0 -0.0046048201882291076 0.00037479536294396804 0 -0.0047981898053387952 0.00043308097385100024 0 -0.0049707817492306997 0.00095768664097370328 0 -0.0048795290972683683 0.00065434122530514554 0 -0.0047052129389504966 0.00064188966833999726 0 -0.0049030227366698795 0.00062738157467304991 0 -0.0047981898053387952 0.00043308097385100024 0 -0.0049870017370012834 0.00035564865020506071 0 -0.0049030227366698795 0.00062738157467304991 0 -0.0047981898053387952 0.00043308097385100024 0 -0.0049847622843192177 0.00087574504054987556 0 -0.0048311064811342348 0.0009824574370977451 0 -0.0049249326146779187 0.00066799147215223045 0 -0.004817398810305005 0.00090948962715575005 0 -0.0047052129389504966 0.00064188966833999726 0 -0.0049030227366698795 0.00062738157467304991 0 -0.0050873062880227816 0.0010252523191662242 0 -0.0049707817492306997 0.00095768664097370328 0 -0.0052051963949928158 0.0013288847058982604 0 -0.00522989152987646 0.0013327803170641184 0 -0.0052464786404308131 0.0012541657628709635 0 -0.0050873062880227816 0.0010252523191662242 0 -0.004886820904660567 0.00063549285703977203 0 -0.0052051963949928158 0.0013288847058982604 0 -0.0052464786404308131 0.0012541657628709635 0 -0.0051867463601242576 0.0013151913100360819 0 -0.0051243008954378975 0.0012072419026385494 0 -0.0051867463601242576 0.0013151913100360819 0 -0.0051393807706408608 0.0012935462578876095 0 -0.0052464786404308131 0.0012541657628709635 0 -0.0051243008954378975 0.0012072419026385494 0 -0.0051867463601242576 0.0013151913100360819 0 -0.0051938187781909312 0.0013296467030779009 0 -0.0051867463601242576 0.0013151913100360819 0 -0.0051801096003140307 0.0013662452579003767 0 -0.0051801096003140307 0.0013662452579003767 0 -0.005292755882889146 0.0015291600805234138 0 -0.0052536083058607221 0.0015633238140754808 0 -0.0052978551488528543 0.0013165962034881913 0 -0.0051801096003140307 0.0013662452579003767 0 -0.005292755882889146 0.0015291600805234138 0 -0.0051597061975096432 0.0013994514352600644 0 -0.0050172537047570047 0.001247066863242492 0 -0.0051801096003140307 0.0013662452579003767 0 -0.0051393807706408608 0.0012935462578876095 0 -0.0050230771735612053 0.0012107064784245261 0 -0.0051801096003140307 0.0013662452579003767 0 -0.004834145081487308 0.0011592222449034067 0 -0.0050230771735612053 0.0012107064784245261 0 -0.0051867463601242576 0.0013151913100360819 0 -0.0051801096003140307 0.0013662452579003767 0 -0.0051393807706408608 0.0012935462578876095 0 -0.0052802748368031994 0.0012988602282635675 0 -0.005375902933975372 0.0018549034934529215 0 -0.0052978551488528543 0.0013165962034881913 0 -0.0054880847629504197 0.0016229645736228883 0 -0.0053602109060934865 0.0019791574771556531 0 -0.0055670932297864654 0.0014109669419325008 0 -0.0057581948628613478 0.001581273611183736 0 -0.0054880847629504197 0.0016229645736228883 0 -0.0054880847629504197 0.0016229645736228883 0 -0.0055554420729242273 0.0018507852385339137 0 -0.0053602109060934865 0.0019791574771556531 0 -0.0057461600748322846 0.0018134765531313411 0 -0.0054880847629504197 0.0016229645736228883 0 -0.0055554420729242273 0.0018507852385339137 0 -0.005292755882889146 0.0015291600805234138 0 -0.0052536083058607221 0.0015633238140754808 0 -0.0053169435498306977 0.0017452973042611959 0 -0.0055554420729242273 0.0018507852385339137 0 -0.0056243343819446382 0.001988871708363267 0 -0.0053602109060934865 0.0019791574771556531 0 -0.0056537072892795968 0.0022025049332999925 0 -0.0056243343819446382 0.001988871708363267 0 -0.0053602109060934865 0.0019791574771556531 0 -0.0056537072892795968 0.0022025049332999925 0 -0.0053602109060934865 0.0019791574771556531 0 -0.0056085115578484151 0.0023817231091943338 0 -0.0051243008954378975 0.0012072419026385494 0 -0.0050230771735612053 0.0012107064784245261 0 -0.0050136769898387421 0.0010649413662146827 0 -0.0051243008954378975 0.0012072419026385494 0 -0.0051393807706408608 0.0012935462578876095 0 -0.0050230771735612053 0.0012107064784245261 0 -0.0050230771735612053 0.0012107064784245261 0 -0.0050136769898387421 0.0010649413662146827 0 -0.004861194364034596 0.001000132651170924 0 -0.004834145081487308 0.0011592222449034067 0 -0.0050230771735612053 0.0012107064784245261 0 -0.004861194364034596 0.001000132651170924 0 -0.0050136769898387421 0.0010649413662146827 0 -0.0049318990704407149 0.00092512427216628597 0 -0.0051605748478406443 0.00093892499818828924 0 -0.0050136769898387421 0.0010649413662146827 0 -0.0049318990704407149 0.00092512427216628597 0 -0.004861194364034596 0.001000132651170924 0 -0.0049318990704407149 0.00092512427216628597 0 -0.004861194364034596 0.001000132651170924 0 -0.0047725899384042031 0.00080580187587456003 0 -0.0049318990704407149 0.00092512427216628597 0 -0.0047725899384042031 0.00080580187587456003 0 -0.0048968220418448317 0.00075838342631219784 0 -0.0049318990704407149 0.00092512427216628597 0 -0.0048968220418448317 0.00075838342631219784 0 -0.0051605748478406443 0.00093892499818828924 0 -0.004834145081487308 0.0011592222449034067 0 -0.004861194364034596 0.001000132651170924 0 -0.0045814807139057086 0.00078483394292588199 0 -0.0050172537047570047 0.001247066863242492 0 -0.0050547434856521821 0.0017422612315669019 0 -0.0053602109060934865 0.0019791574771556531 0 -0.0056085115578484151 0.0023817231091943338 0 -0.0054657697530213836 0.0026359173822273194 0 -0.005375902933975372 0.0018549034934529215 0 -0.0050547434856521821 0.0017422612315669019 0 -0.0047725899384042031 0.00080580187587456003 0 -0.0045814807139057086 0.00078483394292588199 0 -0.0046565703217040059 0.00071149313534111516 0 -0.004861194364034596 0.001000132651170924 0 -0.0047725899384042031 0.00080580187587456003 0 -0.0045814807139057086 0.00078483394292588199 0 -0.005740650862045435 0.0026754625480298316 0 -0.0056085115578484151 0.0023817231091943338 0 -0.0054657697530213836 0.0026359173822273194 0 -0.0048889791198386146 0.0017948818238140878 0 -0.0047653592661346432 0.001475902441774865 0 -0.0048400878859270122 0.0014813319736909334 0 -0.0050547434856521821 0.0017422612315669019 0 -0.0049736947269554983 0.0018020847544683164 0 -0.005740650862045435 0.0026754625480298316 0 -0.0054657697530213836 0.0026359173822273194 0 -0.0055571589700781666 0.0028758325037793577 0 -0.0050547434856521821 0.0017422612315669019 0 -0.0046624187815186317 0.0013134350369623674 0 -0.0045814807139057086 0.00078483394292588199 0 -0.0045698244812337092 0.00064719143403438914 0 -0.0046565703217040059 0.00071149313534111516 0 -0.0049736947269554983 0.0018020847544683164 0 -0.0046624187815186317 0.0013134350369623674 0 -0.0045698244812337092 0.00064719143403438914 0 -0.0046565703217040059 0.00071149313534111516 0 -0.004717429902034405 0.00063619173812594311 0 -0.0047725899384042031 0.00080580187587456003 0 -0.0046565703217040059 0.00071149313534111516 0 -0.004717429902034405 0.00063619173812594311 0 -0.0046624187815186317 0.0013134350369623674 0 -0.0046045863855056178 0.0008028465414591185 0 -0.004338297089733263 0.00059760478499410363 0 -0.004584564670830152 0.00046932797585409053 0 -0.0044457746581525051 0.00023293958730000262 0 -0.004338297089733263 0.00059760478499410363 0 -0.004584564670830152 0.00046932797585409053 0 -0.004717429902034405 0.00063619173812594311 0 -0.0048968220418448317 0.00075838342631219784 0 -0.0049130705154181668 0.00045704545778235819 0 -0.0051605748478406443 0.00093892499818828924 0 -0.0047137874560366777 0.0003032703432251895 0 -0.0048795290972683683 0.00065434122530514554 0 -0.0048968220418448317 0.00075838342631219784 0 -0.004717429902034405 0.00063619173812594311 0 -0.0049130705154181668 0.00045704545778235819 0 -0.0047725899384042031 0.00080580187587456003 0 -0.0048968220418448317 0.00075838342631219784 0 -0.004717429902034405 0.00063619173812594311 0 -0.004584564670830152 0.00046932797585409053 0 -0.004717429902034405 0.00063619173812594311 0 -0.0049130705154181668 0.00045704545778235819 0 -0.0045312264330652028 0.00013565458298637014 0 -0.0046494688726517065 0.00011626052418054076 0 -0.0046048201882291076 0.00037479536294396804 0 -0.0046494688726517065 0.00011626052418054076 0 -0.0046048201882291076 0.00037479536294396804 0 -0.0047920467911111951 0.00017241198562654634 0 -0.0049870017370012834 0.00035564865020506071 0 -0.0047981898053387952 0.00043308097385100024 0 -0.0047920467911111951 0.00017241198562654634 0 -0.0046048201882291076 0.00037479536294396804 0 -0.0047981898053387952 0.00043308097385100024 0 -0.0047920467911111951 0.00017241198562654634 0 -0.0046494688726517065 0.00011626052418054076 0 -0.0047920467911111951 0.00017241198562654634 0 -0.0047357505906007891 -5.0934032954207489e-05 0 -0.0047920467911111951 0.00017241198562654634 0 -0.0047357505906007891 -5.0934032954207489e-05 0 -0.0048956855887427198 -3.2836016495186146e-05 0 -0.0048339028115633523 -0.00016770447034246646 0 -0.0047357505906007891 -5.0934032954207489e-05 0 -0.0047583596568855427 -0.00017829999928298737 0 -0.0048339028115633523 -0.00016770447034246646 0 -0.0047357505906007891 -5.0934032954207489e-05 0 -0.0048956855887427198 -3.2836016495186146e-05 0 -0.0047357505906007891 -5.0934032954207489e-05 0 -0.0046303772717675405 -0.00012179683821126893 0 -0.0047583596568855427 -0.00017829999928298737 0 -0.0047357505906007891 -5.0934032954207489e-05 0 -0.0046303772717675405 -0.00012179683821126893 0 -0.0045872107470886691 -9.0468627457030691e-06 0 -0.0046494688726517065 0.00011626052418054076 0 -0.0047357505906007891 -5.0934032954207489e-05 0 -0.0045872107470886691 -9.0468627457030691e-06 0 -0.0045312264330652028 0.00013565458298637014 0 -0.0046494688726517065 0.00011626052418054076 0 -0.0045872107470886691 -9.0468627457030691e-06 0 -0.0047137874560366777 0.0003032703432251895 0 -0.0045178036700792654 -1.019723592222381e-05 0 -0.0045312264330652028 0.00013565458298637014 0 -0.0045872107470886691 -9.0468627457030691e-06 0 -0.0044827509958564578 -3.9427816478567353e-05 0 -0.0049130705154181668 0.00045704545778235819 0 -0.0044457746581525051 0.00023293958730000262 0 -0.0044827509958564578 -3.9427816478567353e-05 0 -0.004584564670830152 0.00046932797585409053 0 -0.0049130705154181668 0.00045704545778235819 0 -0.0044457746581525051 0.00023293958730000262 0 -0.0046624187815186317 0.0013134350369623674 0 -0.0043682599657718021 0.00056947084668034745 0 -0.004550569164105343 0.0016335059843769154 0 -0.0045788715150146958 0.0016352528649239673 0 -0.0045159680312957182 0.001267569945802552 0 -0.004338297089733263 0.00059760478499410363 0 -0.0044457746581525051 0.00023293958730000262 0 -0.0042677059680711381 -5.4346864767579964e-05 0 -0.0044457746581525051 0.00023293958730000262 0 -0.0043842012402287569 4.4842432832572548e-07 0 -0.0044827509958564578 -3.9427816478567353e-05 0 -0.0044457746581525051 0.00023293958730000262 0 -0.0042677059680711381 -5.4346864767579964e-05 0 -0.0043842012402287569 4.4842432832572548e-07 0 -0.0042677059680711381 -5.4346864767579964e-05 0 -0.0043842012402287569 4.4842432832572548e-07 0 -0.0043628001829789853 -9.2758392732809878e-05 0 -0.0043842012402287569 4.4842432832572548e-07 0 -0.0043628001829789853 -9.2758392732809878e-05 0 -0.0044827509958564578 -3.9427816478567353e-05 0 -0.0043628001829789853 -9.2758392732809878e-05 0 -0.0044827509958564578 -3.9427816478567353e-05 0 -0.0043922503714896111 -0.000135776445985849 0 -0.0043628001829789853 -9.2758392732809878e-05 0 -0.0043922503714896111 -0.000135776445985849 0 -0.0043281794449408243 -0.00010501695305767701 0 -0.0042677059680711381 -5.4346864767579964e-05 0 -0.0043628001829789853 -9.2758392732809878e-05 0 -0.0043276533017223761 -8.8954683993918934e-05 0 -0.0046303772717675405 -0.00012179683821126893 0 -0.0043922503714896111 -0.000135776445985849 0 -0.0045297321168999392 -6.7204844764488087e-05 0 -0.0046303772717675405 -0.00012179683821126893 0 -0.0045872107470886691 -9.0468627457030691e-06 0 -0.0045297321168999392 -6.7204844764488087e-05 0 -0.0045872107470886691 -9.0468627457030691e-06 0 -0.0044827509958564578 -3.9427816478567353e-05 0 -0.0045297321168999392 -6.7204844764488087e-05 0 -0.0044827509958564578 -3.9427816478567353e-05 0 -0.0043922503714896111 -0.000135776445985849 0 -0.0045297321168999392 -6.7204844764488087e-05 0 -0.0046303772717675405 -0.00012179683821126893 0 -0.0043922503714896111 -0.000135776445985849 0 -0.0046593775617191609 -0.00024832784314781649 0 -0.0043922503714896111 -0.000135776445985849 0 -0.0042289396756119675 -6.5460847233592554e-05 0 -0.0039422884427867764 -9.1697447970184276e-05 0 -0.0043334312948881092 -9.8987673228202372e-05 0 -0.0043651162000504411 -0.00020685010644537675 0 -0.0043922503714896111 -0.000135776445985849 0 -0.0043281794449408243 -0.00010501695305767701 0 -0.0042289396756119675 -6.5460847233592554e-05 0 -0.0042677059680711381 -5.4346864767579964e-05 0 -0.0043276533017223761 -8.8954683993918934e-05 0 -0.0043792808697853706 -6.7235319236305159e-05 0 -0.0043276533017223761 -8.8954683993918934e-05 0 -0.0043281794449408243 -0.00010501695305767701 0 -0.00431006679339786 -7.5391706341279503e-05 0 -0.0043628001829789853 -9.2758392732809878e-05 0 -0.0043276533017223761 -8.8954683993918934e-05 0 -0.0043281794449408243 -0.00010501695305767701 0 -0.0043281794449408243 -0.00010501695305767701 0 -0.0042289396756119675 -6.5460847233592554e-05 0 -0.00431006679339786 -7.5391706341279503e-05 0 -0.0043276533017223761 -8.8954683993918934e-05 0 -0.00431006679339786 -7.5391706341279503e-05 0 -0.0043792808697853706 -6.7235319236305159e-05 0 -0.0042289396756119675 -6.5460847233592554e-05 0 -0.0042795054244154605 1.5509425801225767e-05 0 -0.004175237273013107 0.00014302040076172477 0 -0.0042795054244154605 1.5509425801225767e-05 0 -0.0043792808697853706 -6.7235319236305159e-05 0 -0.0042946923921439173 0.00017396016044678172 0 -0.00431006679339786 -7.5391706341279503e-05 0 -0.0042795054244154605 1.5509425801225767e-05 0 -0.0043792808697853706 -6.7235319236305159e-05 0 -0.0042289396756119675 -6.5460847233592554e-05 0 -0.00431006679339786 -7.5391706341279503e-05 0 -0.0042795054244154605 1.5509425801225767e-05 0 -0.0042795054244154605 1.5509425801225767e-05 0 -0.0042946923921439173 0.00017396016044678172 0 -0.004175237273013107 0.00014302040076172477 0 -0.0042289396756119675 -6.5460847233592554e-05 0 -0.0039492415932757654 8.1658130667776996e-05 0 -0.004175237273013107 0.00014302040076172477 0 -0.0042289396756119675 -6.5460847233592554e-05 0 -0.0039492415932757654 8.1658130667776996e-05 0 -0.0039422884427867764 -9.1697447970184276e-05 0 -0.0039492415932757654 8.1658130667776996e-05 0 -0.0039422884427867764 -9.1697447970184276e-05 0 -0.0035686817287851691 0.00012091747323722329 0 -0.0043651162000504411 -0.00020685010644537675 0 -0.0036646296511541198 0.00014475263206842971 0 -0.0039422884427867764 -9.1697447970184276e-05 0 -0.0034888193329429785 0.0001158620835650089 0 -0.0035686817287851691 0.00012091747323722329 0 -0.0046593775617191609 -0.00024832784314781649 0 -0.0047750640511388491 -0.00021265575381663025 0 -0.0047795055123017035 -0.00022876656995355097 0 -0.0048145397520003427 -0.00018460867078352617 0 -0.0047750640511388491 -0.00021265575381663025 0 -0.0047795055123017035 -0.00022876656995355097 0 -0.0048145397520003427 -0.00018460867078352617 0 -0.0047750640511388491 -0.00021265575381663025 0 -0.0048451882015820213 -0.00019747323820845891 0 -0.0047750640511388491 -0.00021265575381663025 0 -0.0047583596568855427 -0.00017829999928298737 0 -0.0048451882015820213 -0.00019747323820845891 0 -0.0048339028115633523 -0.00016770447034246646 0 -0.0047583596568855427 -0.00017829999928298737 0 -0.0048451882015820213 -0.00019747323820845891 0 -0.0046593775617191609 -0.00024832784314781649 0 -0.0047750640511388491 -0.00021265575381663025 0 -0.0047583596568855427 -0.00017829999928298737 0 -0.0046303772717675405 -0.00012179683821126893 0 -0.0046593775617191609 -0.00024832784314781649 0 -0.0047583596568855427 -0.00017829999928298737 0 -0.0033912569981546089 0.0014098631064158249 0 -0.0034702148718021436 0.0011966601905969816 0 -0.0032335936774768453 0.0012549112598335211 0 -0.0035507371093154486 0.0014048341726121216 0 -0.0033912569981546089 0.0014098631064158249 0 -0.0034702148718021436 0.0011966601905969816 0 -0.0035507371093154486 0.0014048341726121216 0 -0.0036862324362320663 0.0013118859033185049 0 -0.0034702148718021436 0.0011966601905969816 0 -0.0035507371093154486 0.0014048341726121216 0 -0.0035711917514585087 0.0015636455548123909 0 -0.0037603019703724527 0.0015238522694548836 0 -0.0035507371093154486 0.0014048341726121216 0 -0.0033912569981546089 0.0014098631064158249 0 -0.0035711917514585087 0.0015636455548123909 0 -0.0033912569981546089 0.0014098631064158249 0 -0.0033736335960986522 0.001594036405192401 0 -0.0035711917514585087 0.0015636455548123909 0 -0.0033736335960986522 0.001594036405192401 0 -0.0033323678062041578 0.0017815357248112266 0 -0.0034902195180047555 0.0016665362545016749 0 -0.0033736335960986522 0.001594036405192401 0 -0.0034902195180047555 0.0016665362545016749 0 -0.0035711917514585087 0.0015636455548123909 0 -0.0033323678062041578 0.0017815357248112266 0 -0.0035395843517845227 0.0017941854877420653 0 -0.0034902195180047555 0.0016665362545016749 0 -0.0035966062434011213 0.0019780285605090755 0 -0.0033323678062041578 0.0017815357248112266 0 -0.0035395843517845227 0.0017941854877420653 0 -0.0035966062434011213 0.0019780285605090755 0 -0.0036475498413337392 0.0018364788068977672 0 -0.0035395843517845227 0.0017941854877420653 0 -0.0035395843517845227 0.0017941854877420653 0 -0.0034902195180047555 0.0016665362545016749 0 -0.0036663154439869833 0.0017146174300982533 0 -0.0036475498413337392 0.0018364788068977672 0 -0.0035395843517845227 0.0017941854877420653 0 -0.0036663154439869833 0.0017146174300982533 0 -0.0034902195180047555 0.0016665362545016749 0 -0.0035711917514585087 0.0015636455548123909 0 -0.0036663154439869833 0.0017146174300982533 0 -0.0036663154439869833 0.0017146174300982533 0 -0.0039119824723150287 0.0017377058956568935 0 -0.0037603019703724527 0.0015238522694548836 0 -0.0041535658980758009 0.0020280075090592375 0 -0.0037882101471836301 0.0018587393096726221 0 -0.0039119824723150287 0.0017377058956568935 0 -0.0035711917514585087 0.0015636455548123909 0 -0.0036663154439869833 0.0017146174300982533 0 -0.0037603019703724527 0.0015238522694548836 0 -0.0036663154439869833 0.0017146174300982533 0 -0.0037882101471836301 0.0018587393096726221 0 -0.0039119824723150287 0.0017377058956568935 0 -0.0036475498413337392 0.0018364788068977672 0 -0.0036663154439869833 0.0017146174300982533 0 -0.0037882101471836301 0.0018587393096726221 0 -0.0039119824723150287 0.0017377058956568935 0 -0.0037603019703724527 0.0015238522694548836 0 -0.0040085945648115177 0.0015697782056197734 0 -0.0037603019703724527 0.0015238522694548836 0 -0.0039446433821971423 0.0013817142244290301 0 -0.0040085945648115177 0.0015697782056197734 0 -0.0037603019703724527 0.0015238522694548836 0 -0.0036862324362320663 0.0013118859033185049 0 -0.0039446433821971423 0.0013817142244290301 0 -0.0035507371093154486 0.0014048341726121216 0 -0.0037603019703724527 0.0015238522694548836 0 -0.0036862324362320663 0.0013118859033185049 0 -0.0036862324362320663 0.0013118859033185049 0 -0.0038418862978079667 0.001230532838069065 0 -0.0036388431395257656 0.0011458942457859733 0 -0.0038418862978079667 0.001230532838069065 0 -0.0039446433821971423 0.0013817142244290301 0 -0.0040222430520182872 0.0011466137577506275 0 -0.0036862324362320663 0.0013118859033185049 0 -0.0038418862978079667 0.001230532838069065 0 -0.0039446433821971423 0.0013817142244290301 0 -0.0041215647805005985 0.0013839793802965144 0 -0.0042450383847705674 0.0012561411600564272 0 -0.0040222430520182872 0.0011466137577506275 0 -0.0039446433821971423 0.0013817142244290301 0 -0.0041215647805005985 0.0013839793802965144 0 -0.0040222430520182872 0.0011466137577506275 0 -0.0041215647805005985 0.0013839793802965144 0 -0.0042450383847705674 0.0012561411600564272 0 -0.0042744002859613824 0.0014668698700741835 0 -0.0041215647805005985 0.0013839793802965144 0 -0.0042744002859613824 0.0014668698700741835 0 -0.0041931054840064971 0.0015687807221306919 0 -0.0041215647805005985 0.0013839793802965144 0 -0.0040085945648115177 0.0015697782056197734 0 -0.0041931054840064971 0.0015687807221306919 0 -0.0039446433821971423 0.0013817142244290301 0 -0.0041215647805005985 0.0013839793802965144 0 -0.0040085945648115177 0.0015697782056197734 0 -0.0039119824723150287 0.0017377058956568935 0 -0.0040085945648115177 0.0015697782056197734 0 -0.0041720514142869706 0.0017466166034014843 0 -0.0040085945648115177 0.0015697782056197734 0 -0.0041720514142869706 0.0017466166034014843 0 -0.0041931054840064971 0.0015687807221306919 0 -0.0041535658980758009 0.0020280075090592375 0 -0.0039119824723150287 0.0017377058956568935 0 -0.0041720514142869706 0.0017466166034014843 0 -0.0041720514142869706 0.0017466166034014843 0 -0.0043241921305311789 0.0016263452770583565 0 -0.0044487351370206159 0.0018455565349731011 0 -0.0041535658980758009 0.0020280075090592375 0 -0.0041720514142869706 0.0017466166034014843 0 -0.0044487351370206159 0.0018455565349731011 0 -0.0041720514142869706 0.0017466166034014843 0 -0.0041931054840064971 0.0015687807221306919 0 -0.0043241921305311789 0.0016263452770583565 0 -0.0042744002859613824 0.0014668698700741835 0 -0.0041931054840064971 0.0015687807221306919 0 -0.0043241921305311789 0.0016263452770583565 0 -0.004550569164105343 0.0016335059843769154 0 -0.0045159680312957182 0.001267569945802552 0 -0.00440401521485379 0.0012839280115161428 0 -0.0049736947269554983 0.0018020847544683164 0 -0.0043940787240054164 0.0013858243220550017 0 -0.0047200436022720189 0.0020695970644100036 0 -0.0044487351370206159 0.0018455565349731011 0 -0.0044914643262533964 0.0014983232611171728 0 -0.0043241921305311789 0.0016263452770583565 0 -0.0044487351370206159 0.0018455565349731011 0 -0.0044914643262533964 0.0014983232611171728 0 -0.0045159680312957182 0.001267569945802552 0 -0.00440401521485379 0.0012839280115161428 0 -0.0044624243805952424 0.00087413890035189894 0 -0.0042450383847705674 0.0012561411600564272 0 -0.0044914643262533964 0.0014983232611171728 0 -0.0042361342321162844 0.00091677196628507521 0 -0.0042450383847705674 0.0012561411600564272 0 -0.0042744002859613824 0.0014668698700741835 0 -0.0044914643262533964 0.0014983232611171728 0 -0.0042744002859613824 0.0014668698700741835 0 -0.0043241921305311789 0.0016263452770583565 0 -0.0044914643262533964 0.0014983232611171728 0 -0.0043940787240054164 0.0013858243220550017 0 -0.0042639521039362967 0.00094203105210924462 0 -0.00440401521485379 0.0012839280115161428 0 -0.0044624243805952424 0.00087413890035189894 0 -0.0042361342321162844 0.00091677196628507521 0 -0.0043682599657718021 0.00056947084668034745 0 -0.0044156019815950985 0.00041898751126624793 0 -0.0044156019815950985 0.00041898751126624793 0 -0.0043714658895915434 0.00033665610232239232 0 -0.0044624243805952424 0.00087413890035189894 0 -0.0043092912100518369 0.00069539005140117872 0 -0.0043630653090180761 0.0003453765972739659 0 -0.0043792808697853706 -6.7235319236305159e-05 0 -0.0043630653090180761 0.0003453765972739659 0 -0.0042946923921439173 0.00017396016044678172 0 -0.0044624243805952424 0.00087413890035189894 0 -0.0043092912100518369 0.00069539005140117872 0 -0.0042361342321162844 0.00091677196628507521 0 -0.003979690813714104 0.00085355483014436858 0 -0.0042361342321162844 0.00091677196628507521 0 -0.0041089024675375861 0.00057149552809940263 0 -0.0043092912100518369 0.00069539005140117872 0 -0.0042361342321162844 0.00091677196628507521 0 -0.0041089024675375861 0.00057149552809940263 0 -0.0043092912100518369 0.00069539005140117872 0 -0.0041089024675375861 0.00057149552809940263 0 -0.0042400597946999343 0.00049147173824158087 0 -0.003979690813714104 0.00085355483014436858 0 -0.0039173186016756307 0.00065454155276891779 0 -0.0041089024675375861 0.00057149552809940263 0 -0.003979690813714104 0.00085355483014436858 0 -0.0042361342321162844 0.00091677196628507521 0 -0.0040222430520182872 0.0011466137577506275 0 -0.0042450383847705674 0.0012561411600564272 0 -0.0042361342321162844 0.00091677196628507521 0 -0.0040222430520182872 0.0011466137577506275 0 -0.0038418862978079667 0.001230532838069065 0 -0.0040222430520182872 0.0011466137577506275 0 -0.0037963758872319553 0.0010172111554075797 0 -0.0038418862978079667 0.001230532838069065 0 -0.0037963758872319553 0.0010172111554075797 0 -0.0036388431395257656 0.0011458942457859733 0 -0.0037963758872319553 0.0010172111554075797 0 -0.0035555975581995614 0.00098280679790519582 0 -0.0036388431395257656 0.0011458942457859733 0 -0.0037963758872319553 0.0010172111554075797 0 -0.0037237781872323785 0.00076172865792113211 0 -0.0035555975581995614 0.00098280679790519582 0 -0.003979690813714104 0.00085355483014436858 0 -0.0040222430520182872 0.0011466137577506275 0 -0.0037963758872319553 0.0010172111554075797 0 -0.003979690813714104 0.00085355483014436858 0 -0.0039173186016756307 0.00065454155276891779 0 -0.0037237781872323785 0.00076172865792113211 0 -0.003979690813714104 0.00085355483014436858 0 -0.0037963758872319553 0.0010172111554075797 0 -0.0037237781872323785 0.00076172865792113211 0 -0.0039173186016756307 0.00065454155276891779 0 -0.0037237781872323785 0.00076172865792113211 0 -0.0038072257512408122 0.00041423102469756326 0 -0.0037237781872323785 0.00076172865792113211 0 -0.0034282715977567556 0.00077433742598241779 0 -0.0035555975581995614 0.00098280679790519582 0 -0.0037237781872323785 0.00076172865792113211 0 -0.0034282715977567556 0.00077433742598241779 0 -0.0035219949469733462 0.00057723848349790512 0 -0.0034282715977567556 0.00077433742598241779 0 -0.0035219949469733462 0.00057723848349790512 0 -0.0032482031211529395 0.00054082886387244486 0 -0.0035555975581995614 0.00098280679790519582 0 -0.0034702148718021436 0.0011966601905969816 0 -0.0032834734706534575 0.0010029195551917076 0 -0.0034282715977567556 0.00077433742598241779 0 -0.0035555975581995614 0.00098280679790519582 0 -0.0032834734706534575 0.0010029195551917076 0 -0.0036862324362320663 0.0013118859033185049 0 -0.0036388431395257656 0.0011458942457859733 0 -0.0034702148718021436 0.0011966601905969816 0 -0.0035555975581995614 0.00098280679790519582 0 -0.0036388431395257656 0.0011458942457859733 0 -0.0034702148718021436 0.0011966601905969816 0 -0.0034702148718021436 0.0011966601905969816 0 -0.0032834734706534575 0.0010029195551917076 0 -0.0032335936774768453 0.0012549112598335211 0 -0.0034596990807185266 0.00019134136852900778 0 -0.0034128610868805354 0.00040106961532726147 0 -0.0038072257512408122 0.00041423102469756326 0 -0.0034596990807185266 0.00019134136852900778 0 -0.0034128610868805354 0.00040106961532726147 0 -0.0031827114207952211 0.00036155591420815005 0 -0.0034128610868805354 0.00040106961532726147 0 -0.0035219949469733462 0.00057723848349790512 0 -0.0038072257512408122 0.00041423102469756326 0 -0.0034128610868805354 0.00040106961532726147 0 -0.0035219949469733462 0.00057723848349790512 0 -0.0032482031211529395 0.00054082886387244486 0 -0.0037237781872323785 0.00076172865792113211 0 -0.0035219949469733462 0.00057723848349790512 0 -0.0038072257512408122 0.00041423102469756326 0 -0.0039173186016756307 0.00065454155276891779 0 -0.0038072257512408122 0.00041423102469756326 0 -0.0041089024675375861 0.00057149552809940263 0 -0.0034596990807185266 0.00019134136852900778 0 -0.0038072257512408122 0.00041423102469756326 0 -0.0039965828155762847 0.00019001512189338018 0 0.0001175952178563648 0.00077055558639548916 0 -5.6933928808103805e-05 0.00079539593096209871 0 3.60043307966593e-05 0.00063827347540516984 0 -0.0017866897252256648 0.00047602387728122548 0 -0.0019993898639572177 0.00050214771945508295 0 -0.0039965828155762847 0.00019001512189338018 0 -0.0041783347878731735 0.00036255170359760825 0 -0.0043674068852225922 0.00033112889463615561 0 -5.6933928808103805e-05 0.00079539593096209871 0 -0.00030007411429469258 0.00084702138798966914 0 -0.0001339104314670568 0.00062165954377948855 0 -0.0019993898639572177 0.00050214771945508295 0 -0.0023270358062477264 0.00059345225278632037 0 -0.0038072257512408122 0.00041423102469756326 0 -0.0039965828155762847 0.00019001512189338018 0 -0.0041783347878731735 0.00036255170359760825 0 -0.0038072257512408122 0.00041423102469756326 0 -0.0041089024675375861 0.00057149552809940263 0 -0.0041783347878731735 0.00036255170359760825 0 -0.0041089024675375861 0.00057149552809940263 0 -0.0042400597946999343 0.00049147173824158087 0 -0.0041783347878731735 0.00036255170359760825 0 -0.0043092912100518369 0.00069539005140117872 0 -0.0042400597946999343 0.00049147173824158087 0 -0.0043630653090180761 0.0003453765972739659 0 -0.0042400597946999343 0.00049147173824158087 0 -0.0041783347878731735 0.00036255170359760825 0 -0.0043630653090180761 0.0003453765972739659 0 -0.0043630653090180761 0.0003453765972739659 0 -0.0043674068852225922 0.00033112889463615561 0 -0.0042546039558618663 0.00031944588190374666 0 -0.0041783347878731735 0.00036255170359760825 0 -0.0043630653090180761 0.0003453765972739659 0 -0.0043674068852225922 0.00033112889463615561 0 -0.00030007411429469258 0.00084702138798966914 0 -0.0001339104314670568 0.00062165954377948855 0 -0.0004266803045606455 0.00065307722138932252 0 -0.00011124911398923621 0.00039787326892675123 0 -0.0001339104314670568 0.00062165954377948855 0 -0.00037938740648062262 0.00038681913321494661 0 -0.0001339104314670568 0.00062165954377948855 0 -0.0004266803045606455 0.00065307722138932252 0 -0.00037938740648062262 0.00038681913321494661 0 -0.00011124911398923621 0.00039787326892675123 0 -0.0001339104314670568 0.00062165954377948855 0 7.0685181777307472e-05 0.00044314959272538629 0 -5.6933928808103805e-05 0.00079539593096209871 0 -0.0001339104314670568 0.00062165954377948855 0 3.60043307966593e-05 0.00063827347540516984 0 -0.0001339104314670568 0.00062165954377948855 0 3.60043307966593e-05 0.00063827347540516984 0 7.0685181777307472e-05 0.00044314959272538629 0 3.4339161975330783e-05 0.00034745265914785521 0 0.00039882853769560982 0.00063048665835843914 0 9.2342967259282372e-05 0.0003155985942765287 0 0.00022595049409047902 0.0004494603878663361 0 0.00028000484109700762 0.00031544588271088033 0 3.60043307966593e-05 0.00063827347540516984 0 7.0685181777307472e-05 0.00044314959272538629 0 0.00016353218290350683 0.00065565603379734579 0 0.0001175952178563648 0.00077055558639548916 0 3.60043307966593e-05 0.00063827347540516984 0 0.00016353218290350683 0.00065565603379734579 0 -0.0037710566815392253 0.00047717561575991375 0 -0.0034518791249889802 0.00085628268022129659 0 -0.0041005803946604323 0.00057532418654958188 0 -0.0023739973224003296 0.00091994197901929583 0 -0.0023803865881850367 0.00076331708499481003 0 -0.0034988738232133105 0.00043270405913017803 0 -0.0037710566815392253 0.00047717561575991375 0 -0.0034518791249889802 0.00085628268022129659 0 -0.0034988738232133105 0.00043270405913017803 0 -0.0037710566815392253 0.00047717561575991375 0 -0.0037212630697645989 0.00026409001481232658 0 -0.0034518791249889802 0.00085628268022129659 0 -0.0029551683451162214 0.00038648169374755283 0 -0.002406970958843172 0.00084715146051505717 0 -0.0034518791249889802 0.00085628268022129659 0 -0.002227607371805565 0.00092523365669043198 0 -0.002406970958843172 0.00084715146051505717 0 -0.0025995104679293335 0.00074842911570185652 0 -0.0024713990227612859 0.00081052309103315514 0 -0.0034988738232133105 0.00043270405913017803 0 -0.0034518791249889802 0.00085628268022129659 0 -0.0029551683451162214 0.00038648169374755283 0 -0.0029551683451162214 0.00038648169374755283 0 -0.0034234257945173576 8.9022238939456114e-05 0 -0.0034756949122309892 0.00024975866469895217 0 -0.0025995104679293335 0.00074842911570185652 0 -0.0036646296511541198 0.00014475263206842971 0 -0.0048145397520003427 -0.00018460867078352617 0 -0.0047795055123017035 -0.00022876656995355097 0 -0.0048319614947454287 -0.00010546523743255657 0 -0.0023762500633228941 0.00086030951105019399 0 -0.0023945971707205844 0.00084633808973190699 0 -0.0023663501676370723 0.00088625942927856444 0 -0.0034988738232133105 0.00043270405913017803 0 -0.0029551683451162214 0.00038648169374755283 0 -0.0034756949122309892 0.00024975866469895217 0 -0.0036646296511541198 0.00014475263206842971 0 -0.0035340841011060552 0.00041225578407085191 0 -0.0034234257945173576 8.9022238939456114e-05 0 -0.0035686817287851691 0.00012091747323722329 0 -0.0034756949122309892 0.00024975866469895217 0 -0.0036646296511541198 0.00014475263206842971 0 -0.0036085355019384651 0.00014438423653450756 0 -0.0035686817287851691 0.00012091747323722329 0 -0.0034756949122309892 0.00024975866469895217 0 -0.0037212630697645989 0.00026409001481232658 0 -0.0034988738232133105 0.00043270405913017803 0 -0.0034756949122309892 0.00024975866469895217 0 -0.0037212630697645989 0.00026409001481232658 0 -0.0037710566815392253 0.00047717561575991375 0 -0.0037212630697645989 0.00026409001481232658 0 -0.0039933907323528384 0.00030497428109112971 0 -0.0039492415932757654 8.1658130667776996e-05 0 -0.0035686817287851691 0.00012091747323722329 0 -0.0037212630697645989 0.00026409001481232658 0 -0.0039933907323528384 0.00030497428109112971 0 -0.004175237273013107 0.00014302040076172477 0 -0.0042546039558618663 0.00031944588190374666 0 -0.0039492415932757654 8.1658130667776996e-05 0 -0.0037212630697645989 0.00026409001481232658 0 -0.0039933907323528384 0.00030497428109112971 0 -0.0039492415932757654 8.1658130667776996e-05 0 -0.0039933907323528384 0.00030497428109112971 0 -0.004175237273013107 0.00014302040076172477 0 -0.0043630653090180761 0.0003453765972739659 0 -0.0042946923921439173 0.00017396016044678172 0 -0.0042546039558618663 0.00031944588190374666 0 -0.0042946923921439173 0.00017396016044678172 0 -0.004175237273013107 0.00014302040076172477 0 -0.0042546039558618663 0.00031944588190374666 0 -0.0043674068852225922 0.00033112889463615561 0 -0.0042546039558618663 0.00031944588190374666 0 -0.0041005803946604323 0.00057532418654958188 0 -0.00030007411429469258 0.00084702138798966914 0 -0.00066664610766561168 0.00094620937108548899 0 -0.0004266803045606455 0.00065307722138932252 0 -0.0023270358062477264 0.00059345225278632037 0 -0.0023803865881850367 0.00076331708499481003 0 -0.0039933907323528384 0.00030497428109112971 0 -0.0042546039558618663 0.00031944588190374666 0 -0.0041005803946604323 0.00057532418654958188 0 -0.0037710566815392253 0.00047717561575991375 0 -0.0039933907323528384 0.00030497428109112971 0 -0.0041005803946604323 0.00057532418654958188 0 -0.00066664610766561168 0.00094620937108548899 0 -0.0004266803045606455 0.00065307722138932252 0 -0.00080525618756014099 0.00036012482961619299 0 -0.00066664610766561168 0.00094620937108548899 0 -0.00080525618756014099 0.00036012482961619299 0 -0.0012010529279924357 0.00063486874999794485 0 -0.0004266803045606455 0.00065307722138932252 0 -0.00037938740648062262 0.00038681913321494661 0 -0.00080525618756014099 0.00036012482961619299 0 -0.00080525618756014099 0.00036012482961619299 0 -0.0012010529279924357 0.00063486874999794485 0 -0.0018359155006781023 0.00028701325901661726 0 -0.00074166141657118967 0.00033951439252614458 0 -0.0016369237349572903 0.00035441747052041993 0 -0.00080525618756014099 0.00036012482961619299 0 -0.0010040526930328334 0.00034224043605977976 0 -0.00092534980366687156 0.00023064435027269405 0 -0.0013129212952239138 0.001025534956979767 0 -0.00066664610766561168 0.00094620937108548899 0 -0.0012010529279924357 0.00063486874999794485 0 -0.0013129212952239138 0.001025534956979767 0 -0.0017267033662288558 0.00068960965042865635 0 -0.002227607371805565 0.00092523365669043198 0 -0.0023739973224003296 0.00091994197901929583 0 -0.002244320930265786 0.00093430380584052738 0 -0.0013129212952239138 0.001025534956979767 0 -0.0012010529279924357 0.00063486874999794485 0 -0.0017267033662288558 0.00068960965042865635 0 -0.0017267033662288558 0.00068960965042865635 0 -0.0018359155006781023 0.00028701325901661726 0 -0.0020909935220355829 0.00065584277902858059 0 -0.0012010529279924357 0.00063486874999794485 0 -0.0017267033662288558 0.00068960965042865635 0 -0.0018359155006781023 0.00028701325901661726 0 -0.0016369237349572903 0.00035441747052041993 0 -0.00092116224795628626 0.00022681149937405249 0 -0.0018359155006781023 0.00028701325901661726 0 -0.0020909935220355829 0.00065584277902858059 0 -0.0023171052674496448 0.00063083020291381984 0 -0.0018359155006781023 0.00028701325901661726 0 -0.0025018531088956777 0.00046014029163142669 0 -0.0023171052674496448 0.00063083020291381984 0 -0.0010040526930328334 0.00034224043605977976 0 -0.0012526937132970061 0.00034694475411157106 0 -0.0011375207468838561 0.00018726439830645428 0 -0.0025018531088956777 0.00046014029163142669 0 -0.0024206095748309548 0.00075296332855943654 0 -0.0023171052674496448 0.00063083020291381984 0 -0.0025018531088956777 0.00046014029163142669 0 -0.0024206095748309548 0.00075296332855943654 0 -0.0025862539851747323 0.00077594191562588505 0 -0.0024206095748309548 0.00075296332855943654 0 -0.0023171052674496448 0.00063083020291381984 0 -0.0022956510193233182 0.00077709826390484919 0 -0.0024206095748309548 0.00075296332855943654 0 -0.0022956510193233182 0.00077709826390484919 0 -0.0023326223242914348 0.00085274040464238985 0 -0.0020909935220355829 0.00065584277902858059 0 -0.0023171052674496448 0.00063083020291381984 0 -0.0022956510193233182 0.00077709826390484919 0 -0.0020909935220355829 0.00065584277902858059 0 -0.0022956510193233182 0.00077709826390484919 0 -0.002227607371805565 0.00092523365669043198 0 -0.0022956510193233182 0.00077709826390484919 0 -0.002227607371805565 0.00092523365669043198 0 -0.0023326223242914348 0.00085274040464238985 0 -0.0017267033662288558 0.00068960965042865635 0 -0.0020909935220355829 0.00065584277902858059 0 -0.002227607371805565 0.00092523365669043198 0 -0.0023762500633228941 0.00086030951105019399 0 -0.0023630570839050335 0.00085995645978551873 0 -0.0023474594305147394 0.0008463637946721054 0 -0.0023762500633228941 0.00086030951105019399 0 -0.002406970958843172 0.00084715146051505717 0 -0.0023474594305147394 0.0008463637946721054 0 -0.002227607371805565 0.00092523365669043198 0 -0.002406970958843172 0.00084715146051505717 0 -0.0023474594305147394 0.0008463637946721054 0 -0.0023630570839050335 0.00085995645978551873 0 -0.0024147996285563914 0.00086173702908639346 0 -0.0023663501676370723 0.00088625942927856444 0 -0.0023630570839050335 0.00085995645978551873 0 -0.0023474594305147394 0.0008463637946721054 0 -0.0023326223242914348 0.00085274040464238985 0 -0.002227607371805565 0.00092523365669043198 0 -0.0023474594305147394 0.0008463637946721054 0 -0.0023326223242914348 0.00085274040464238985 0 -0.0024206095748309548 0.00075296332855943654 0 -0.0024147996285563914 0.00086173702908639346 0 -0.0025862539851747323 0.00077594191562588505 0 -0.0024206095748309548 0.00075296332855943654 0 -0.0023326223242914348 0.00085274040464238985 0 -0.0024147996285563914 0.00086173702908639346 0 -0.0023630570839050335 0.00085995645978551873 0 -0.0023326223242914348 0.00085274040464238985 0 -0.0024147996285563914 0.00086173702908639346 0 -0.0035340841011060552 0.00041225578407085191 0 -0.0038052761064898575 0.00051973841035959402 0 -0.0048319614947454287 -0.00010546523743255657 0 -0.0047102490018866702 7.9323845828171418e-05 0 -0.0048061762686468154 -0.00013495900968312814 0 -0.0024147996285563914 0.00086173702908639346 0 -0.0023663501676370723 0.00088625942927856444 0 -0.0025029493268554277 0.00093762566932759431 0 -0.0023762500633228941 0.00086030951105019399 0 -0.0023630570839050335 0.00085995645978551873 0 -0.0023663501676370723 0.00088625942927856444 0 -0.0043642787123248598 0.00026413482499719053 0 -0.0047102490018866702 7.9323845828171418e-05 0 -0.0044939143489475929 4.980817823694969e-05 0 -0.0043642787123248598 0.00026413482499719053 0 -0.0042590391462460414 0.00020718531268865102 0 -0.0044939143489475929 4.980817823694969e-05 0 -0.0025437537065682355 0.00032947355737152247 0 -0.0038091982018542249 0.0006801570379522154 0 -0.0025437537065682355 0.00032947355737152247 0 -0.0038052761064898575 0.00051973841035959402 0 -0.0024147996285563914 0.00086173702908639346 0 -0.0025029493268554277 0.00093762566932759431 0 -0.0025862539851747323 0.00077594191562588505 0 -0.0026806496405894888 0.00091833631292197193 0 -0.0025029493268554277 0.00093762566932759431 0 -0.0025862539851747323 0.00077594191562588505 0 0.00023781312484288887 0.00024082377761637077 0 0.00023301417613599129 0.00011177184266624216 0 0.00015868763684994764 0.00017182161718154427 0 -0.0025437537065682355 0.00032947355737152247 0 -0.00097020383117609192 0.00040741124274419708 0 0.00023781312484288887 0.00024082377761637077 0 0.00023301417613599129 0.00011177184266624216 0 0.00031420688185230947 6.5105147278506699e-05 0 0.00024982604670464788 2.9540892724812925e-05 0 0.00031420688185230947 6.5105147278506699e-05 0 0.00026949962955119013 -3.3353169834591178e-05 0 0.00023301417613599129 0.00011177184266624216 0 0.00024982604670464788 2.9540892724812925e-05 0 0.0001730960276185916 5.3910758348011514e-05 0 0.00023301417613599129 0.00011177184266624216 0 0.00024982604670464788 2.9540892724812925e-05 0 0.00031420688185230947 6.5105147278506699e-05 0 -0.00092116224795628626 0.00022681149937405249 0 -0.00097020383117609192 0.00040741124274419708 0 -0.00092116224795628626 0.00022681149937405249 0 0.00042843307791587431 -0.00010719659661167641 0 -3.2919165170297606e-05 -0.00010288748279895809 0 9.5975376918469826e-05 -0.00010513234211557512 0 2.771439527363728e-05 -2.3525117040554937e-05 0 0.00035372370176875391 -2.3301327806153993e-05 0 0.00031420688185230947 6.5105147278506699e-05 0 0.00026949962955119013 -3.3353169834591178e-05 0 0.00024982604670464788 2.9540892724812925e-05 0 0.00026949962955119013 -3.3353169834591178e-05 0 0.0001761751668376971 -8.7931567644970724e-05 0 9.5975376918469826e-05 -0.00010513234211557512 0 0.0001761751668376971 -8.7931567644970724e-05 0 0.00014631959897480802 -4.2719773290954533e-05 0 0.00042843307791587431 -0.00010719659661167641 0 6.8276598720388949e-05 -7.4476730123761441e-05 0 0.0001761751668376971 -8.7931567644970724e-05 0 2.8503663787614098e-06 4.5825060904177374e-05 0 6.7508307514299457e-05 -0.00010733897112685442 0 0.0001761751668376971 -8.7931567644970724e-05 0 6.7508307514299457e-05 -0.00010733897112685442 0 0.00029472549747386735 -9.7714907479789142e-05 0 0.0001761751668376971 -8.7931567644970724e-05 0 2.8503663787614098e-06 4.5825060904177374e-05 0 0.0001730960276185916 5.3910758348011514e-05 0 0.00024982604670464788 2.9540892724812925e-05 0 0.0001761751668376971 -8.7931567644970724e-05 0 0.0001730960276185916 5.3910758348011514e-05 0 6.7508307514299457e-05 -0.00010733897112685442 0 -0.0005990627624969687 -4.4862648119212466e-07 0 0.00016049736835789356 -7.7489886732254449e-08 0 2.8503663787614098e-06 4.5825060904177374e-05 0 6.7508307514299457e-05 -0.00010733897112685442 0 -0.00041475944184198862 3.9222621954931543e-06 0 6.7508307514299457e-05 -0.00010733897112685442 0 -0.00041475944184198862 3.9222621954931543e-06 0 -0.0005990627624969687 -4.4862648119212466e-07 0 -0.00041475944184198862 3.9222621954931543e-06 0 -0.0013569363866514923 1.0861303398589872e-06 0 -0.00032985552629570493 0.00034195569268921346 0 -0.001358456554030647 1.9318893968254141e-07 0 -0.0015452267740229321 0.00035979425881494081 0 -0.00041475944184198862 3.9222621954931543e-06 0 -0.0005990627624969687 -4.4862648119212466e-07 0 -0.0013569363866514923 1.0861303398589872e-06 0 2.8503663787614098e-06 4.5825060904177374e-05 0 -0.00041475944184198862 3.9222621954931543e-06 0 -0.00032985552629570493 0.00034195569268921346 0 -0.0013603795672407551 1.9646720567117849e-06 0 -0.0026727015826683007 0.00046447027578246444 0 -0.0021075592466384008 -6.2443995965071391e-07 0 0.00023781312484288887 0.00024082377761637077 0 0.00015868763684994764 0.00017182161718154427 0 5.5032951074106613e-05 0.00029077688770943295 0 2.8503663787614098e-06 4.5825060904177374e-05 0 0.0001730960276185916 5.3910758348011514e-05 0 0.00015868763684994764 0.00017182161718154427 0 0.00023301417613599129 0.00011177184266624216 0 0.0001730960276185916 5.3910758348011514e-05 0 0.00015868763684994764 0.00017182161718154427 0 2.8503663787614098e-06 4.5825060904177374e-05 0 0.00015868763684994764 0.00017182161718154427 0 5.5032951074106613e-05 0.00029077688770943295 0 2.8503663787614098e-06 4.5825060904177374e-05 0 -0.00032985552629570493 0.00034195569268921346 0 5.5032951074106613e-05 0.00029077688770943295 0 -0.0026727015826683007 0.00046447027578246444 0 -0.003696521463366111 0.00057307810124560021 0 -0.0037447775095300947 0.00012259079988966492 0 -0.0026727015826683007 0.00046447027578246444 0 -0.0037447775095300947 0.00012259079988966492 0 -0.0031622905211123216 -8.0274410701380169e-05 0 -0.0015452267740229321 0.00035979425881494081 0 -0.0017327525013954362 0.00042816681396496553 0 -0.0044381195220262694 0.0004591879678986711 0 -0.003696521463366111 0.00057307810124560021 0 -0.0042590391462460414 0.00020718531268865102 0 -0.003696521463366111 0.00057307810124560021 0 -0.0042590391462460414 0.00020718531268865102 0 -0.0037447775095300947 0.00012259079988966492 0 -0.0025437537065682355 0.00032947355737152247 0 -0.0017327525013954362 0.00042816681396496553 0 -0.0037447775095300947 0.00012259079988966492 0 -0.0040294034749237921 -0.00027597689296098547 0 -0.0043223036344685866 -9.8618371885880011e-05 0 -0.0042590391462460414 0.00020718531268865102 0 -0.0037447775095300947 0.00012259079988966492 0 -0.0043223036344685866 -9.8618371885880011e-05 0 -0.0037447775095300947 0.00012259079988966492 0 -0.0040294034749237921 -0.00027597689296098547 0 -0.0031622905211123216 -8.0274410701380169e-05 0 -0.0040294034749237921 -0.00027597689296098547 0 -0.0031622905211123216 -8.0274410701380169e-05 0 -0.0039696185216155522 -0.00059401789438826491 0 -0.0040294034749237921 -0.00027597689296098547 0 -0.0043223036344685866 -9.8618371885880011e-05 0 -0.004452466698703794 -0.00039872788695115139 0 -0.0040294034749237921 -0.00027597689296098547 0 -0.0042725034422087986 -0.00052162166874559449 0 -0.004452466698703794 -0.00039872788695115139 0 -0.0026727015826683007 0.00046447027578246444 0 -0.0021075592466384008 -6.2443995965071391e-07 0 -0.0031622905211123216 -8.0274410701380169e-05 0 -0.0031622905211123216 -8.0274410701380169e-05 0 -0.0028571037680901758 -1.2889691354473265e-07 0 -0.0034931280943948663 -5.8070292306806525e-05 0 -0.0032491609362612865 -6.7022630462151096e-05 0 -0.003728983889268993 -0.00031006727257919915 0 -0.0021075592466384008 -6.2443995965071391e-07 0 -0.0031622905211123216 -8.0274410701380169e-05 0 -0.0028571037680901758 -1.2889691354473265e-07 0 -0.0028571037680901758 -1.2889691354473265e-07 0 -0.0034931280943948663 -5.8070292306806525e-05 0 -0.0035921734402116034 -4.9689149846579614e-05 0 -0.0040724155953844651 -0.00011416878407145321 0 -0.0039543358680220013 -7.0708843920237635e-05 0 -0.0035921734402116034 -4.9689149846579614e-05 0 -0.0044435950707434691 -0.00040188512718435429 0 -0.003728983889268993 -0.00031006727257919915 0 -0.0040724155953844651 -0.00011416878407145321 0 -0.0042163823035281421 -0.00010902021854057834 0 -0.0034931280943948663 -5.8070292306806525e-05 0 -0.0040724155953844651 -0.00011416878407145321 0 -0.0034931280943948663 -5.8070292306806525e-05 0 -0.0035921734402116034 -4.9689149846579614e-05 0 -0.0039543358680220013 -7.0708843920237635e-05 0 -0.0035921734402116034 -4.9689149846579614e-05 0 -0.0036060031381347393 -1.3667989366187465e-07 0 -0.0028571037680901758 -1.2889691354473265e-07 0 -0.0035921734402116034 -4.9689149846579614e-05 0 -0.0036060031381347393 -1.3667989366187465e-07 0 -0.0042725034422087986 -0.00052162166874559449 0 -0.0044948391206294496 -0.00059830277467316946 0 -0.004452466698703794 -0.00039872788695115139 0 -0.0039696185216155522 -0.00059401789438826491 0 -0.0042725034422087986 -0.00052162166874559449 0 -0.0044256211828519239 -0.00065043517246454133 0 -0.0040294034749237921 -0.00027597689296098547 0 -0.0039696185216155522 -0.00059401789438826491 0 -0.0042725034422087986 -0.00052162166874559449 0 -0.0046538238563362862 -0.00068229172149167794 0 -0.0039696185216155522 -0.00059401789438826491 0 -0.0044256211828519239 -0.00065043517246454133 0 -0.0046287762781168293 -0.00065864856382426295 0 -0.0046527111160090812 -0.00063999509842734882 0 -0.0044948391206294496 -0.00059830277467316946 0 -0.0046287762781168293 -0.00065864856382426295 0 -0.0044256211828519239 -0.00065043517246454133 0 -0.0044948391206294496 -0.00059830277467316946 0 -0.0042725034422087986 -0.00052162166874559449 0 -0.0044256211828519239 -0.00065043517246454133 0 -0.0044948391206294496 -0.00059830277467316946 0 -0.0046527111160090812 -0.00063999509842734882 0 -0.0044948391206294496 -0.00059830277467316946 0 -0.0046271664574290203 -0.00058283326942594341 0 -0.0044948391206294496 -0.00059830277467316946 0 -0.0046271664574290203 -0.00058283326942594341 0 -0.004452466698703794 -0.00039872788695115139 0 -0.0046271664574290203 -0.00058283326942594341 0 -0.0046887794414909468 -0.00036471628722161185 0 -0.004452466698703794 -0.00039872788695115139 0 -0.0046271664574290203 -0.00058283326942594341 0 -0.0046887794414909468 -0.00036471628722161185 0 -0.0047453920872210292 -0.00058976547123610148 0 -0.0049925231969014444 0.00016880526941408334 0 -0.0052171505582339359 2.4300545237989145e-05 0 -0.0048956855887427198 -3.2836016495186146e-05 0 -0.0048339028115633523 -0.00016770447034246646 0 -0.0048956855887427198 -3.2836016495186146e-05 0 -0.0049049660012024879 -0.00025821834743345104 0 -0.0049801661131766619 -0.00027223860850059871 0 -0.0049195856636659353 -0.00025849698801311749 0 -0.0046887794414909468 -0.00036471628722161185 0 -0.0047453920872210292 -0.00058976547123610148 0 -0.0049049660012024879 -0.00025821834743345104 0 -0.0052171505582339359 2.4300545237989145e-05 0 -0.0048956855887427198 -3.2836016495186146e-05 0 -0.0049049660012024879 -0.00025821834743345104 0 -0.0046887794414909468 -0.00036471628722161185 0 -0.0049049660012024879 -0.00025821834743345104 0 -0.0048061762686468154 -0.00013495900968312814 0 -0.0049049660012024879 -0.00025821834743345104 0 -0.0048451882015820213 -0.00019747323820845891 0 -0.0048061762686468154 -0.00013495900968312814 0 -0.0048339028115633523 -0.00016770447034246646 0 -0.0049049660012024879 -0.00025821834743345104 0 -0.0048451882015820213 -0.00019747323820845891 0 -0.0048451882015820213 -0.00019747323820845891 0 -0.004829301506744473 -0.00015492601001573431 0 -0.0048061762686468154 -0.00013495900968312814 0 -0.0048319614947454287 -0.00010546523743255657 0 -0.004829301506744473 -0.00015492601001573431 0 -0.0048061762686468154 -0.00013495900968312814 0 -0.0048145397520003427 -0.00018460867078352617 0 -0.0048451882015820213 -0.00019747323820845891 0 -0.004829301506744473 -0.00015492601001573431 0 -0.0048145397520003427 -0.00018460867078352617 0 -0.0048319614947454287 -0.00010546523743255657 0 -0.004829301506744473 -0.00015492601001573431 0 -0.0047102490018866702 7.9323845828171418e-05 0 -0.0048061762686468154 -0.00013495900968312814 0 -0.0046012196992693292 -0.00014419775907353603 0 -0.0047102490018866702 7.9323845828171418e-05 0 -0.0046012196992693292 -0.00014419775907353603 0 -0.0044939143489475929 4.980817823694969e-05 0 -0.0046012196992693292 -0.00014419775907353603 0 -0.0044939143489475929 4.980817823694969e-05 0 -0.0043223036344685866 -9.8618371885880011e-05 0 -0.0042590391462460414 0.00020718531268865102 0 -0.0044939143489475929 4.980817823694969e-05 0 -0.0043223036344685866 -9.8618371885880011e-05 0 -0.0046012196992693292 -0.00014419775907353603 0 -0.0043223036344685866 -9.8618371885880011e-05 0 -0.004452466698703794 -0.00039872788695115139 0 -0.0046887794414909468 -0.00036471628722161185 0 -0.0046012196992693292 -0.00014419775907353603 0 -0.004452466698703794 -0.00039872788695115139 0 -0.0046887794414909468 -0.00036471628722161185 0 -0.0048061762686468154 -0.00013495900968312814 0 -0.0046012196992693292 -0.00014419775907353603 0 0.0011949015816021245 -0.00055425428621147456 0 0.0013303357391724595 -0.00047512839145890865 0 0.0012889059981632462 -0.00063624824252394413 0 0.0010663559694241368 -0.00034015509905703772 0 0.0010191999919839892 -0.00053602849046336201 0 0.0011949015816021245 -0.00055425428621147456 0 0.0011397144463058772 -0.00046430932609796909 0 0.0010671937692458648 -0.00060612767639247418 0 0.0011949015816021245 -0.00055425428621147456 0 0.0012160200140325108 -0.00047555245879907676 0 0.0011397144463058772 -0.00046430932609796909 0 0.0012160200140325108 -0.00047555245879907676 0 0.0011397144463058772 -0.00046430932609796909 0 0.0012512767593735599 -0.00041056700252364788 0 0.0012160200140325108 -0.00047555245879907676 0 0.0013303357391724595 -0.00047512839145890865 0 0.0012512767593735599 -0.00041056700252364788 0 0.0011949015816021245 -0.00055425428621147456 0 0.0012160200140325108 -0.00047555245879907676 0 0.0013303357391724595 -0.00047512839145890865 0 0.0013991272706673392 -0.00046616333584871116 0 0.0015018849086040026 -0.0005223889207592419 0 0.0015752461538668307 -0.00039999199792857152 0 0.0013632924970495119 -0.00047574544481690767 0 0.0012976459796003132 -0.00063162174069111908 0 0.0015018849086040026 -0.0005223889207592419 0 0.0015130185966420794 -0.00065604424918060415 0 0.0012889059981632462 -0.00063624824252394413 0 0.0013991272706673392 -0.00046616333584871116 0 0.0015018849086040026 -0.0005223889207592419 0 0.0012889059981632462 -0.00063624824252394413 0 0.0015130185966420794 -0.00065604424918060415 0 0.0013899216396737286 -0.00079472524005708871 0 0.0012889059981632462 -0.00063624824252394413 0 0.0013899216396737286 -0.00079472524005708871 0 0.0015469552244554918 -0.00076832185604647305 0 0.0014866731735126092 -0.00088021903965371099 0 0.0015130185966420794 -0.00065604424918060415 0 0.0013899216396737286 -0.00079472524005708871 0 0.0015469552244554918 -0.00076832185604647305 0 0.0013899216396737286 -0.00079472524005708871 0 0.0012889059981632462 -0.00063624824252394413 0 0.0011853221074879269 -0.00084160408091423617 0 0.0012889059981632462 -0.00063624824252394413 0 0.0011260965629728004 -0.00069410565752088906 0 0.0011853221074879269 -0.00084160408091423617 0 0.0011949015816021245 -0.00055425428621147456 0 0.0012889059981632462 -0.00063624824252394413 0 0.0011260965629728004 -0.00069410565752088906 0 0.0011260965629728004 -0.00069410565752088906 0 0.00095967385763655766 -0.000764623307941561 0 0.0010671937692458648 -0.00060612767639247418 0 0.0011949015816021245 -0.00055425428621147456 0 0.0011260965629728004 -0.00069410565752088906 0 0.0010671937692458648 -0.00060612767639247418 0 0.0011260965629728004 -0.00069410565752088906 0 0.00095967385763655766 -0.000764623307941561 0 0.0011853221074879269 -0.00084160408091423617 0 0.00075828774008161834 -0.00056962081511457345 0 0.00052656213181587013 -0.00068934397773266873 0 0.0007108669749400614 -0.00085470877624356371 0 0.00095967385763655766 -0.000764623307941561 0 0.00075828774008161834 -0.00056962081511457345 0 0.0007108669749400614 -0.00085470877624356371 0 0.00096741028198804309 -0.0007561268531221893 0 0.0010191999919839892 -0.00053602849046336201 0 0.00075828774008161834 -0.00056962081511457345 0 0.00097912554729339221 -0.0004487644611776618 0 0.00080010337955729188 -0.00032537948520850634 0 0.00095967385763655766 -0.000764623307941561 0 0.00075828774008161834 -0.00056962081511457345 0 0.00097912554729339221 -0.0004487644611776618 0 0.00025075147799347072 -0.00044736611067792449 0 0.00036677232723908014 -0.0004382161960192436 0 0.00034863516339176141 -0.00038342108248445118 0 0.00025075147799347072 -0.00044736611067792449 0 0.00034863516339176141 -0.00038342108248445118 0 0.00024898581335164045 -0.00040462427465625268 0 0.00045444342246266344 -0.00054987023466705374 0 0.00052795130330935986 -0.00036986224644247048 0 0.00075828774008161834 -0.00056962081511457345 0 0.00052656213181587013 -0.00068934397773266873 0 0.00054419110308629294 -0.00036708719336253322 0 0.00036677232723908014 -0.0004382161960192436 0 0.00034863516339176141 -0.00038342108248445118 0 0.00054419110308629294 -0.00036708719336253322 0 0.00034863516339176141 -0.00038342108248445118 0 0.00054419110308629294 -0.00036708719336253322 0 0.00045215214080856543 -0.00022984110467077321 0 0.00034863516339176141 -0.00038342108248445118 0 0.00028454160231710198 -0.00036457729945355098 0 0.00029299445675102956 -0.00036155839375799257 0 0.00035545789213681142 -0.00038667663178801917 0 0.00036793175945528186 -0.00030710655362585287 0 0.00058438314262585932 -0.00017664353526001511 0 0.00066803416908325442 -0.00025561999251597225 0 0.00070129200669350519 -0.00013986278447247221 0 0.00054419110308629294 -0.00036708719336253322 0 0.00058438314262585932 -0.00017664353526001511 0 0.00066803416908325442 -0.00025561999251597225 0 0.00054419110308629294 -0.00036708719336253322 0 0.00058438314262585932 -0.00017664353526001511 0 0.00045215214080856543 -0.00022984110467077321 0 0.00097912554729339221 -0.0004487644611776618 0 0.00080010337955729188 -0.00032537948520850634 0 0.00090730050789149545 -0.00026749445420342109 0 0.00098588628587279619 -0.00020848317975079775 0 0.00097912554729339221 -0.0004487644611776618 0 0.00090730050789149545 -0.00026749445420342109 0 0.00075828774008161834 -0.00056962081511457345 0 0.00054419110308629294 -0.00036708719336253322 0 0.00080010337955729188 -0.00032537948520850634 0 0.00054419110308629294 -0.00036708719336253322 0 0.00080010337955729188 -0.00032537948520850634 0 0.00066803416908325442 -0.00025561999251597225 0 0.00066803416908325442 -0.00025561999251597225 0 0.00081180246620681342 -0.00020630523423476212 0 0.00070129200669350519 -0.00013986278447247221 0 0.00080010337955729188 -0.00032537948520850634 0 0.00066803416908325442 -0.00025561999251597225 0 0.00081180246620681342 -0.00020630523423476212 0 0.00081180246620681342 -0.00020630523423476212 0 0.00090730050789149545 -0.00026749445420342109 0 0.000968970083896629 -0.00018903005956227742 0 0.00080010337955729188 -0.00032537948520850634 0 0.00081180246620681342 -0.00020630523423476212 0 0.00090730050789149545 -0.00026749445420342109 0 0.00098588628587279619 -0.00020848317975079775 0 0.00090730050789149545 -0.00026749445420342109 0 0.000968970083896629 -0.00018903005956227742 0 0.000968970083896629 -0.00018903005956227742 0 0.0010670584367355579 -0.00018086774512794305 0 0.0010760005208053326 -0.00017737811841439204 0 0.00097242751541016495 -0.00019226983420198051 0 0.00095315842018831932 -9.9790742255588473e-05 0 0.000968970083896629 -0.00018903005956227742 0 0.00081098658660960646 -0.00010795300606127994 0 0.00083884332624462542 -6.9730469576179893e-06 0 0.00081180246620681342 -0.00020630523423476212 0 0.000968970083896629 -0.00018903005956227742 0 0.00081098658660960646 -0.00010795300606127994 0 0.00081180246620681342 -0.00020630523423476212 0 0.00070129200669350519 -0.00013986278447247221 0 0.00081098658660960646 -0.00010795300606127994 0 0.00070129200669350519 -0.00013986278447247221 0 0.00081098658660960646 -0.00010795300606127994 0 0.00074905180169217058 -1.9823259107494862e-05 0 0.00081098658660960646 -0.00010795300606127994 0 0.00074905180169217058 -1.9823259107494862e-05 0 0.00083884332624462542 -6.9730469576179893e-06 0 0.00036793175945528186 -0.00030710655362585287 0 0.0004015752256722201 -0.00027129107014223192 0 0.00058438314262585932 -0.00017664353526001511 0 0.00064668534700868495 -5.0541854636485025e-05 0 0.00052325849220464615 -6.9419821448707674e-05 0 0.00058438314262585932 -0.00017664353526001511 0 0.00045215214080856543 -0.00022984110467077321 0 0.00052325849220464615 -6.9419821448707674e-05 0 0.00070129200669350519 -0.00013986278447247221 0 0.00074905180169217058 -1.9823259107494862e-05 0 0.00064668534700868495 -5.0541854636485025e-05 0 0.00058438314262585932 -0.00017664353526001511 0 0.00070129200669350519 -0.00013986278447247221 0 0.00064668534700868495 -5.0541854636485025e-05 0 0.00074905180169217058 -1.9823259107494862e-05 0 0.00064668534700868495 -5.0541854636485025e-05 0 0.00071443465363697062 3.8242765358364729e-05 0 0.00064668534700868495 -5.0541854636485025e-05 0 0.00064136627656767153 4.1315154958397974e-05 0 0.00052325849220464615 -6.9419821448707674e-05 0 0.00064136627656767153 4.1315154958397974e-05 0 0.00052325849220464615 -6.9419821448707674e-05 0 0.00057674651790523405 4.4652834682675359e-05 0 0.00064136627656767153 4.1315154958397974e-05 0 0.00067152883916680312 0.00010161472046746584 0 0.00057674651790523405 4.4652834682675359e-05 0 0.00064136627656767153 4.1315154958397974e-05 0 0.00071443465363697062 3.8242765358364729e-05 0 0.00075042385937287121 0.00012614955460159711 0 0.00064668534700868495 -5.0541854636485025e-05 0 0.00064136627656767153 4.1315154958397974e-05 0 0.00071443465363697062 3.8242765358364729e-05 0 0.00064136627656767153 4.1315154958397974e-05 0 0.00075042385937287121 0.00012614955460159711 0 0.00067152883916680312 0.00010161472046746584 0 0.00067152883916680312 0.00010161472046746584 0 0.00062926604044960511 0.00011385595158518845 0 0.00057674651790523405 4.4652834682675359e-05 0 0.00067152883916680312 0.00010161472046746584 0 0.00062926604044960511 0.00011385595158518845 0 0.00065616332099321787 0.00014506876651395803 0 0.0010670584367355579 -0.00018086774512794305 0 0.0010503667119790585 -9.246140748373242e-05 0 0.0011927943774655107 -0.0001345850894954764 0 0.00095315842018831932 -9.9790742255588473e-05 0 0.00092415862171542872 -6.670521823467432e-09 0 0.00074905180169217058 -1.9823259107494862e-05 0 0.00083884332624462542 -6.9730469576179893e-06 0 0.0007977430637416521 8.9992793733974355e-05 0 0.00074905180169217058 -1.9823259107494862e-05 0 0.00071443465363697062 3.8242765358364729e-05 0 0.0007977430637416521 8.9992793733974355e-05 0 0.00071443465363697062 3.8242765358364729e-05 0 0.00075042385937287121 0.00012614955460159711 0 0.0007977430637416521 8.9992793733974355e-05 0 0.00075042385937287121 0.00012614955460159711 0 0.0007977430637416521 8.9992793733974355e-05 0 0.00080596221723378447 0.00017460233683312839 0 0.0010503667119790585 -9.246140748373242e-05 0 0.0011927943774655107 -0.0001345850894954764 0 0.0011100940329123064 1.0204299844436998e-05 0 0.0011927943774655107 -0.0001345850894954764 0 0.0012384341982561988 6.6175250577944579e-05 0 0.0011100940329123064 1.0204299844436998e-05 0 0.0013315254612621518 -6.0595415998086061e-05 0 0.0011927943774655107 -0.0001345850894954764 0 0.0012384341982561988 6.6175250577944579e-05 0 0.0013150366380128631 -0.00017459136404832115 0 0.0011927943774655107 -0.0001345850894954764 0 0.0013023113636660998 -0.00028674613764879606 0 0.0013315254612621518 -6.0595415998086061e-05 0 0.0013150366380128631 -0.00017459136404832115 0 0.0014397506733819483 -0.0002116081364612696 0 0.0013315254612621518 -6.0595415998086061e-05 0 0.0013150366380128631 -0.00017459136404832115 0 0.0011927943774655107 -0.0001345850894954764 0 0.0013150366380128631 -0.00017459136404832115 0 0.0013023113636660998 -0.00028674613764879606 0 0.0014397506733819483 -0.0002116081364612696 0 0.0011836992896552697 -0.00013524372695997733 0 0.0011294929542330059 -0.0002459727673589546 0 0.0011927943774655107 -0.0001345850894954764 0 0.0011808185983002456 -0.00033141213457054286 0 0.0013023113636660998 -0.00028674613764879606 0 0.0010670584367355579 -0.00018086774512794305 0 0.0011927943774655107 -0.0001345850894954764 0 0.0010760005208053326 -0.00017737811841439204 0 0.0011808185983002456 -0.00033141213457054286 0 0.0013023113636660998 -0.00028674613764879606 0 0.0012512767593735599 -0.00041056700252364788 0 0.0013023113636660998 -0.00028674613764879606 0 0.0012512767593735599 -0.00041056700252364788 0 0.0014066735577790352 -0.00032504053124126893 0 0.0013303357391724595 -0.00047512839145890865 0 0.0012512767593735599 -0.00041056700252364788 0 0.0014066735577790352 -0.00032504053124126893 0 0.0010663559694241368 -0.00034015509905703772 0 0.0011294929542330059 -0.0002459727673589546 0 0.00098588628587279619 -0.00020848317975079775 0 0.000968970083896629 -0.00018903005956227742 0 0.0010760005208053326 -0.00017737811841439204 0 0.0011397144463058772 -0.00046430932609796909 0 0.0011808185983002456 -0.00033141213457054286 0 0.0012512767593735599 -0.00041056700252364788 0 0.0013632924970495119 -0.00047574544481690767 0 0.0014528534598941688 -0.00032136647056563064 0 0.0013991272706673392 -0.00046616333584871116 0 0.0015752461538668307 -0.00039999199792857152 0 0.0014906584055292039 -0.00032507350689245558 0 0.0013023113636660998 -0.00028674613764879606 0 0.0014066735577790352 -0.00032504053124126893 0 0.0014397506733819483 -0.0002116081364612696 0 0.0015752461538668307 -0.00039999199792857152 0 0.0014906584055292039 -0.00032507350689245558 0 0.0016346752230881614 -0.00029494983116832668 0 0.0014906584055292039 -0.00032507350689245558 0 0.0016346752230881614 -0.00029494983116832668 0 0.0016286177017076817 -0.00022694669071849781 0 0.0016286177017076817 -0.00022694669071849781 0 0.0016972002701931817 -0.00015851847891492078 0 0.0017839395042696232 -0.00017664150721888536 0 0.0016346752230881614 -0.00029494983116832668 0 0.0016286177017076817 -0.00022694669071849781 0 0.0017839395042696232 -0.00017664150721888536 0 0.0014906584055292039 -0.00032507350689245558 0 0.0016286177017076817 -0.00022694669071849781 0 0.0015546738531456083 -0.00017468331795986335 0 0.0014528534598941688 -0.00032136647056563064 0 0.0015404369309692189 -0.00017649175446895584 0 0.0014066735577790352 -0.00032504053124126893 0 0.0014397506733819483 -0.0002116081364612696 0 0.0015546738531456083 -0.00017468331795986335 0 0.0015546738531456083 -0.00017468331795986335 0 0.0016692116621909851 -0.00011741425902793466 0 0.0015884743304681137 -0.00010101812816709955 0 0.0014488558145779873 -0.0002131585189785366 0 0.0015110334851173208 -4.1679377264871719e-05 0 0.0013315254612621518 -6.0595415998086061e-05 0 0.0014397506733819483 -0.0002116081364612696 0 0.0014374684587712895 2.4758217902451026e-05 0 0.0014397506733819483 -0.0002116081364612696 0 0.0015546738531456083 -0.00017468331795986335 0 0.0015884743304681137 -0.00010101812816709955 0 0.0015546738531456083 -0.00017468331795986335 0 0.0016972002701931817 -0.00015851847891492078 0 0.0016692116621909851 -0.00011741425902793466 0 0.0016286177017076817 -0.00022694669071849781 0 0.0015546738531456083 -0.00017468331795986335 0 0.0016972002701931817 -0.00015851847891492078 0 0.0016972002701931817 -0.00015851847891492078 0 0.0017619637360606233 -0.00011316690317705331 0 0.0016692116621909851 -0.00011741425902793466 0 0.0016972002701931817 -0.00015851847891492078 0 0.0017932137905234615 -0.0001622239431529291 0 0.0017619637360606233 -0.00011316690317705331 0 0.0017932137905234615 -0.0001622239431529291 0 0.0017839395042696232 -0.00017664150721888536 0 0.0018473967760304656 -0.00021126881843256705 0 0.0016972002701931817 -0.00015851847891492078 0 0.0017932137905234615 -0.0001622239431529291 0 0.0017839395042696232 -0.00017664150721888536 0 0.0017763000245905462 -0.00016955551641578933 0 0.0017469572644964139 -0.00015167515492901787 0 0.001739902695800226 -0.00014773512250075584 0 0.0016289095419023635 -9.6536609217053105e-05 0 0.0017750362532460834 2.4520893387844039e-05 0 0.0017839395042696232 -0.00017664150721888536 0 0.001739902695800226 -0.00014773512250075584 0 0.0017750362532460834 2.4520893387844039e-05 0 0.001739902695800226 -0.00014773512250075584 0 0.0018473967760304656 -0.00021126881843256705 0 0.0016538152983964184 -0.00018954167823065921 0 0.0017839395042696232 -0.00017664150721888536 0 0.001739902695800226 -0.00014773512250075584 0 0.0018473967760304656 -0.00021126881843256705 0 0.0018473967760304656 -0.00021126881843256705 0 0.0016538152983964184 -0.00018954167823065921 0 0.001626825777992204 -0.00031263965130478438 0 0.0016538152983964184 -0.00018954167823065921 0 0.0015344606061572258 -0.00027444424733195227 0 0.001626825777992204 -0.00031263965130478438 0 0.0016538152983964184 -0.00018954167823065921 0 0.0015344606061572258 -0.00027444424733195227 0 0.0015253293290179218 -0.00016168513170496075 0 0.001458208262364533 -0.00022703502568828898 0 0.0015344606061572258 -0.00027444424733195227 0 0.0014763002547007883 -0.00028773098005689625 0 0.001458208262364533 -0.00022703502568828898 0 0.0014763002547007883 -0.00028773098005689625 0 0.0014504795236204382 -0.00031837774395700375 0 0.001458208262364533 -0.00022703502568828898 0 0.0015344606061572258 -0.00027444424733195227 0 0.0015253293290179218 -0.00016168513170496075 0 0.001458208262364533 -0.00022703502568828898 0 0.0015253293290179218 -0.00016168513170496075 0 0.0014354854247034662 -0.00014153107920802672 0 0.0015253293290179218 -0.00016168513170496075 0 0.0014363575848108741 -5.1022119657456097e-05 0 0.0016289095419023635 -9.6536609217053105e-05 0 0.0015253293290179218 -0.00016168513170496075 0 0.0014363575848108741 -5.1022119657456097e-05 0 0.0014354854247034662 -0.00014153107920802672 0 0.001739902695800226 -0.00014773512250075584 0 0.0016538152983964184 -0.00018954167823065921 0 0.0016289095419023635 -9.6536609217053105e-05 0 0.0016538152983964184 -0.00018954167823065921 0 0.0015253293290179218 -0.00016168513170496075 0 0.0016289095419023635 -9.6536609217053105e-05 0 0.0014363575848108741 -5.1022119657456097e-05 0 0.0016289095419023635 -9.6536609217053105e-05 0 0.0015881971963063314 2.0356641154766841e-05 0 0.0014363575848108741 -5.1022119657456097e-05 0 0.0015881971963063314 2.0356641154766841e-05 0 0.0014626596398185181 0.00010187727367532478 0 0.0015881971963063314 2.0356641154766841e-05 0 0.0014626596398185181 0.00010187727367532478 0 0.0016201793744256073 0.00011654009893155821 0 0.0014626596398185181 0.00010187727367532478 0 0.0016201793744256073 0.00011654009893155821 0 0.0015192153420490267 0.00024664509790558721 0 0.0015881971963063314 2.0356641154766841e-05 0 0.0016201793744256073 0.00011654009893155821 0 0.0017750362532460834 2.4520893387844039e-05 0 0.0017469572644964139 -0.00015167515492901787 0 0.0016935032083676689 -0.00011577941584348174 0 0.0016201793744256073 0.00011654009893155821 0 0.0017750362532460834 2.4520893387844039e-05 0 0.0017198788033146804 0.00023446698826130733 0 0.0015752461538668307 -0.00039999199792857152 0 0.001712457036328984 -0.00033077181351529776 0 0.0016985570225889197 -0.00047581555963329591 0 0.0015752461538668307 -0.00039999199792857152 0 0.0016346752230881614 -0.00029494983116832668 0 0.001712457036328984 -0.00033077181351529776 0 0.0016346752230881614 -0.00029494983116832668 0 0.0017839395042696232 -0.00017664150721888536 0 0.001712457036328984 -0.00033077181351529776 0 0.0016289095419023635 -9.6536609217053105e-05 0 0.0015881971963063314 2.0356641154766841e-05 0 0.0017750362532460834 2.4520893387844039e-05 0 0.00022595049409047902 0.0004494603878663361 0 0.00036670155928926446 0.00042388129194748905 0 0.00035908033181675307 0.00052087837958957473 0 0.00022595049409047902 0.0004494603878663361 0 0.00028000484109700762 0.00031544588271088033 0 0.00036670155928926446 0.00042388129194748905 0 0.00028000484109700762 0.00031544588271088033 0 0.00036670155928926446 0.00042388129194748905 0 0.00045207394658873843 0.00032326978235409768 0 0.00036670155928926446 0.00042388129194748905 0 0.00049290011588103253 0.00051299684930837563 0 0.00035908033181675307 0.00052087837958957473 0 0.00036670155928926446 0.00042388129194748905 0 0.00045207394658873843 0.00032326978235409768 0 0.00049290011588103253 0.00051299684930837563 0 0.00045207394658873843 0.00032326978235409768 0 0.00058956548941566588 0.00037826955345912302 0 0.00049290011588103253 0.00051299684930837563 0 0.00089333826959898694 0.00012907717721156404 0 0.0010538266956574406 0.00017692126739367474 0 0.00045207394658873843 0.00032326978235409768 0 0.00058956548941566588 0.00037826955345912302 0 0.0005878521715878812 0.00027825298156181598 0 0.001458208262364533 -0.00022703502568828898 0 0.0013355204354874369 -0.00017136029213021738 0 0.0014504795236204382 -0.00031837774395700375 0 0.00089333826959898694 0.00012907717721156404 0 0.0014158081862618323 2.4703704307610294e-05 0 0.00058956548941566588 0.00037826955345912302 0 0.0005878521715878812 0.00027825298156181598 0 0.00068736598904885736 0.00023687212743535164 0 0.0013355204354874369 -0.00017136029213021738 0 0.0014439978854186445 -0.00032961016269196633 0 0.0014504795236204382 -0.00031837774395700375 0 0.001458208262364533 -0.00022703502568828898 0 0.0014354854247034662 -0.00014153107920802672 0 0.0013355204354874369 -0.00017136029213021738 0 0.0014363575848108741 -5.1022119657456097e-05 0 0.0013355204354874369 -0.00017136029213021738 0 0.0012247818153936841 -2.7263771308610913e-05 0 0.0014363575848108741 -5.1022119657456097e-05 0 0.0014354854247034662 -0.00014153107920802672 0 0.0013355204354874369 -0.00017136029213021738 0 0.0014363575848108741 -5.1022119657456097e-05 0 0.0014626596398185181 0.00010187727367532478 0 0.001306163253955072 0.00010533143994784328 0 0.0014363575848108741 -5.1022119657456097e-05 0 0.001306163253955072 0.00010533143994784328 0 0.0012247818153936841 -2.7263771308610913e-05 0 0.0014626596398185181 0.00010187727367532478 0 0.001306163253955072 0.00010533143994784328 0 0.0013793466050814813 0.00021840267577321378 0 0.001306163253955072 0.00010533143994784328 0 0.0012247818153936841 -2.7263771308610913e-05 0 0.0011116137083962065 0.00012164986581848341 0 0.001306163253955072 0.00010533143994784328 0 0.0011116137083962065 0.00012164986581848341 0 0.0012413019579795082 0.00025439750258034806 0 0.0010538266956574406 0.00017692126739367474 0 -0.00074646468362623707 0.00029203716411070835 0 0.00049290011588103253 0.00051299684930837563 0 0.00035908033181675307 0.00052087837958957473 0 0.00034636037404839353 0.00058509006988202435 0 0.00049290011588103253 0.00051299684930837563 0 0.00034636037404839353 0.00058509006988202435 0 0.0003959399453639991 0.00064211921146485054 0 -0.0027509639663644168 0.00041892905181327417 0 -0.0028093413525301534 0.00050634854184526137 0 -0.0027364970555206407 0.00076481765209350364 0 -0.00074646468362623707 0.00029203716411070835 0 -0.0014190804721461087 0.000728463397079011 0 -0.0029524566027880183 0.00054693129399548742 0 -0.0028093413525301534 0.00050634854184526137 0 -0.0028673113681342084 0.0006713134289521997 0 -0.0027502462421878739 0.00042205417415267275 0 -0.0028093413525301534 0.00050634854184526137 0 -0.0029120274867101888 0.0004156468510395556 0 -0.0029524566027880183 0.00054693129399548742 0 -0.0028093413525301534 0.00050634854184526137 0 -0.0029120274867101888 0.0004156468510395556 0 -0.0029174318879204146 0.00023377207145600383 0 -0.0029120274867101888 0.0004156468510395556 0 -0.003017208629186344 0.00036036981524347514 0 -0.0029174318879204146 0.00023377207145600383 0 -0.0027502462421878739 0.00042205417415267275 0 -0.0029120274867101888 0.0004156468510395556 0 -0.0008146167775497712 0.00051532343750338978 0 -0.00074646468362623707 0.00029203716411070835 0 -0.0034596990807185266 0.00019134136852900778 0 -0.0029174318879204146 0.00023377207145600383 0 -0.0031827114207952211 0.00036155591420815005 0 -0.0029174318879204146 0.00023377207145600383 0 -0.003017208629186344 0.00036036981524347514 0 -0.0031827114207952211 0.00036155591420815005 0 -0.003017208629186344 0.00036036981524347514 0 -0.0030580361911448036 0.00044899268115963374 0 -0.0031827114207952211 0.00036155591420815005 0 -0.0029120274867101888 0.0004156468510395556 0 -0.003017208629186344 0.00036036981524347514 0 -0.0030580361911448036 0.00044899268115963374 0 -0.0029524566027880183 0.00054693129399548742 0 -0.0029120274867101888 0.0004156468510395556 0 -0.0030580361911448036 0.00044899268115963374 0 -0.0030580361911448036 0.00044899268115963374 0 -0.0032482031211529395 0.00054082886387244486 0 -0.0030877902933546678 0.00059231833274241163 0 -0.0029524566027880183 0.00054693129399548742 0 -0.0030580361911448036 0.00044899268115963374 0 -0.0030877902933546678 0.00059231833274241163 0 -0.0034128610868805354 0.00040106961532726147 0 -0.0032482031211529395 0.00054082886387244486 0 -0.0031827114207952211 0.00036155591420815005 0 -0.0030580361911448036 0.00044899268115963374 0 -0.0032482031211529395 0.00054082886387244486 0 -0.0031827114207952211 0.00036155591420815005 0 0.00022595049409047902 0.0004494603878663361 0 0.00035908033181675307 0.00052087837958957473 0 0.00034636037404839353 0.00058509006988202435 0 -0.0017866897252256648 0.00047602387728122548 0 -0.0008146167775497712 0.00051532343750338978 0 0.00039882853769560982 0.00063048665835843914 0 -0.0008146167775497712 0.00051532343750338978 0 0.0001175952178563648 0.00077055558639548916 0 0.00016353218290350683 0.00065565603379734579 0 0.0002290486812432883 0.00077251134961042755 0 -0.0030452099895931202 0.0011229796326113763 0 -0.0032834734706534575 0.0010029195551917076 0 -0.0032335936774768453 0.0012549112598335211 0 -0.0030452099895931202 0.0011229796326113763 0 -0.0030470353709046408 0.0013147594445485121 0 -0.0032335936774768453 0.0012549112598335211 0 -0.0030452099895931202 0.0011229796326113763 0 -0.0032834734706534575 0.0010029195551917076 0 -0.0029863705426440459 0.00087100264926407973 0 -0.0034282715977567556 0.00077433742598241779 0 -0.0032834734706534575 0.0010029195551917076 0 -0.0031746699587519005 0.00073854395304439441 0 -0.0032834734706534575 0.0010029195551917076 0 -0.0031746699587519005 0.00073854395304439441 0 -0.0029863705426440459 0.00087100264926407973 0 -0.0034282715977567556 0.00077433742598241779 0 -0.0032482031211529395 0.00054082886387244486 0 -0.0031746699587519005 0.00073854395304439441 0 -0.0032482031211529395 0.00054082886387244486 0 -0.0031746699587519005 0.00073854395304439441 0 -0.0030877902933546678 0.00059231833274241163 0 -0.0029524566027880183 0.00054693129399548742 0 -0.0030877902933546678 0.00059231833274241163 0 -0.0030049770398140065 0.00068553428170250172 0 -0.0031746699587519005 0.00073854395304439441 0 -0.0030877902933546678 0.00059231833274241163 0 -0.0030049770398140065 0.00068553428170250172 0 -0.0031746699587519005 0.00073854395304439441 0 -0.0030049770398140065 0.00068553428170250172 0 -0.0029863705426440459 0.00087100264926407973 0 -0.0029863705426440459 0.00087100264926407973 0 -0.0028673113681342084 0.0006713134289521997 0 -0.0027364970555206407 0.00076481765209350364 0 -0.0030049770398140065 0.00068553428170250172 0 -0.0029863705426440459 0.00087100264926407973 0 -0.0028673113681342084 0.0006713134289521997 0 -0.0029863705426440459 0.00087100264926407973 0 -0.0027364970555206407 0.00076481765209350364 0 -0.0028312385152113964 0.0010201789260433688 0 -0.0027509639663644168 0.00041892905181327417 0 -0.0027364970555206407 0.00076481765209350364 0 -0.0023966537977422949 0.00079930072377845706 0 -0.0028093413525301534 0.00050634854184526137 0 -0.0028673113681342084 0.0006713134289521997 0 -0.0027364970555206407 0.00076481765209350364 0 -0.0029524566027880183 0.00054693129399548742 0 -0.0030049770398140065 0.00068553428170250172 0 -0.0028673113681342084 0.0006713134289521997 0 -0.0027364970555206407 0.00076481765209350364 0 -0.0028312385152113964 0.0010201789260433688 0 -0.0025700518103668754 0.001092430928897844 0 -0.0030452099895931202 0.0011229796326113763 0 -0.0029863705426440459 0.00087100264926407973 0 -0.0028312385152113964 0.0010201789260433688 0 -0.0030452099895931202 0.0011229796326113763 0 -0.0028312385152113964 0.0010201789260433688 0 -0.00286062521721544 0.0012423437084109897 0 -0.0030452099895931202 0.0011229796326113763 0 -0.00286062521721544 0.0012423437084109897 0 -0.0030470353709046408 0.0013147594445485121 0 -0.0028312385152113964 0.0010201789260433688 0 -0.0025700518103668754 0.001092430928897844 0 -0.00286062521721544 0.0012423437084109897 0 -0.0025700518103668754 0.001092430928897844 0 -0.002009519310883012 0.0011972263168809232 0 -0.0024214801446202621 0.0013761851206087843 0 -0.0025700518103668754 0.001092430928897844 0 -0.0023966537977422949 0.00079930072377845706 0 -0.002009519310883012 0.0011972263168809232 0 -0.0027364970555206407 0.00076481765209350364 0 -0.0025700518103668754 0.001092430928897844 0 -0.0023966537977422949 0.00079930072377845706 0 -0.00074646468362623707 0.00029203716411070835 0 -0.00058529229723937998 0.00052320816381052585 0 0.001306163253955072 0.00010533143994784328 0 0.0012413019579795082 0.00025439750258034806 0 0.0013793466050814813 0.00021840267577321378 0 -0.00058529229723937998 0.00052320816381052585 0 -0.00033977473008485248 0.00077305095215235149 0 0.0012413019579795082 0.00025439750258034806 0 0.0013793466050814813 0.00021840267577321378 0 0.0013637637357666443 0.00037874249764280007 0 -0.002009519310883012 0.0011972263168809232 0 -0.0022035269809212252 0.001577577987001402 0 -0.0016082453791227335 0.0016225974379086307 0 -0.002009519310883012 0.0011972263168809232 0 -0.0022035269809212252 0.001577577987001402 0 -0.0024214801446202621 0.0013761851206087843 0 -0.0022035269809212252 0.001577577987001402 0 -0.0021136792158073054 0.0019334085810762665 0 -0.0025273287006997484 0.0017882035021140139 0 -0.0029025178191112496 0.0017913059664102894 0 -0.0026466404293089088 0.001886538765513305 0 -0.0029434370867714231 0.0016925310994214998 0 -0.0022035269809212252 0.001577577987001402 0 -0.0021136792158073054 0.0019334085810762665 0 -0.0016082453791227335 0.0016225974379086307 0 -0.0022035269809212252 0.001577577987001402 0 -0.0025273287006997484 0.0017882035021140139 0 -0.0025204382852072999 0.0015505946393455086 0 -0.0024506511892761701 0.0018853852068859112 0 -0.0024685913463829688 0.0018650802417627208 0 -0.0024685913463829688 0.0018650802417627208 0 -0.0038140017516533958 0.0017525397153009118 0 -0.0025273287006997484 0.0017882035021140139 0 -0.0025204382852072999 0.0015505946393455086 0 -0.0027721861500845778 0.0016297002652989113 0 -0.0024685913463829688 0.0018650802417627208 0 -0.0027627362914970127 0.0016532723614245952 0 -0.0025204382852072999 0.0015505946393455086 0 -0.0024214801446202621 0.0013761851206087843 0 -0.0026858523178659721 0.0013911574602478226 0 -0.0025204382852072999 0.0015505946393455086 0 -0.0026858523178659721 0.0013911574602478226 0 -0.0027721861500845778 0.0016297002652989113 0 -0.0022035269809212252 0.001577577987001402 0 -0.0025204382852072999 0.0015505946393455086 0 -0.0024214801446202621 0.0013761851206087843 0 -0.0025700518103668754 0.001092430928897844 0 -0.0024214801446202621 0.0013761851206087843 0 -0.0026858523178659721 0.0013911574602478226 0 -0.0026858523178659721 0.0013911574602478226 0 -0.00286062521721544 0.0012423437084109897 0 -0.002934860060151603 0.0014663793221298843 0 -0.0025700518103668754 0.001092430928897844 0 -0.0026858523178659721 0.0013911574602478226 0 -0.00286062521721544 0.0012423437084109897 0 -0.00286062521721544 0.0012423437084109897 0 -0.002934860060151603 0.0014663793221298843 0 -0.0030470353709046408 0.0013147594445485121 0 -0.0026858523178659721 0.0013911574602478226 0 -0.002934860060151603 0.0014663793221298843 0 -0.0027721861500845778 0.0016297002652989113 0 -0.0026533392386703385 0.0017551657999256298 0 -0.0027721861500845778 0.0016297002652989113 0 -0.0028056030465124695 0.0018062993827532919 0 -0.0026533392386703385 0.0017551657999256298 0 -0.0028056030465124695 0.0018062993827532919 0 -0.0027771558875855926 0.0019692133603005802 0 -0.0028056030465124695 0.0018062993827532919 0 -0.0029900717500772399 0.0016647729573698498 0 -0.0030665812793471072 0.0019222863243619093 0 -0.002934860060151603 0.0014663793221298843 0 -0.0027721861500845778 0.0016297002652989113 0 -0.0029900717500772399 0.0016647729573698498 0 -0.0027721861500845778 0.0016297002652989113 0 -0.0028056030465124695 0.0018062993827532919 0 -0.0029900717500772399 0.0016647729573698498 0 -0.0029900717500772399 0.0016647729573698498 0 -0.0031834205045015666 0.0016902810145356243 0 -0.0031618562167053006 0.0014705668591650507 0 -0.0029900717500772399 0.0016647729573698498 0 -0.0031834205045015666 0.0016902810145356243 0 -0.0030665812793471072 0.0019222863243619093 0 -0.0033323678062041578 0.0017815357248112266 0 -0.0031834205045015666 0.0016902810145356243 0 -0.0030665812793471072 0.0019222863243619093 0 -0.0033736335960986522 0.001594036405192401 0 -0.0033323678062041578 0.0017815357248112266 0 -0.0031834205045015666 0.0016902810145356243 0 -0.0033736335960986522 0.001594036405192401 0 -0.0031834205045015666 0.0016902810145356243 0 -0.0031618562167053006 0.0014705668591650507 0 -0.0033912569981546089 0.0014098631064158249 0 -0.0033736335960986522 0.001594036405192401 0 -0.0031618562167053006 0.0014705668591650507 0 -0.002934860060151603 0.0014663793221298843 0 -0.0031618562167053006 0.0014705668591650507 0 -0.0030470353709046408 0.0013147594445485121 0 -0.002934860060151603 0.0014663793221298843 0 -0.0029900717500772399 0.0016647729573698498 0 -0.0031618562167053006 0.0014705668591650507 0 -0.0031618562167053006 0.0014705668591650507 0 -0.0030470353709046408 0.0013147594445485121 0 -0.0032335936774768453 0.0012549112598335211 0 -0.0033912569981546089 0.0014098631064158249 0 -0.0031618562167053006 0.0014705668591650507 0 -0.0032335936774768453 0.0012549112598335211 0 0.0017198788033146804 0.00023446698826130733 0 0.0015468124846064405 0.00037148512047526297 0 0.0016622114900700562 0.00042691070202130563 0 0.0016935032083676689 -0.00011577941584348174 0 0.0017997370786942116 -0.00013506861026292349 0 0.0015018849086040026 -0.0005223889207592419 0 0.0015130185966420794 -0.00065604424918060415 0 0.0016985570225889197 -0.00047581555963329591 0 0.0015130185966420794 -0.00065604424918060415 0 0.0016985570225889197 -0.00047581555963329591 0 0.0017094829751885155 -0.00065931183604893179 0 0.0015018849086040026 -0.0005223889207592419 0 0.0015752461538668307 -0.00039999199792857152 0 0.0016985570225889197 -0.00047581555963329591 0 0.0016201793744256073 0.00011654009893155821 0 0.0017198788033146804 0.00023446698826130733 0 0.0015192153420490267 0.00024664509790558721 0 0.0014626596398185181 0.00010187727367532478 0 0.0013793466050814813 0.00021840267577321378 0 0.0015192153420490267 0.00024664509790558721 0 0.0013793466050814813 0.00021840267577321378 0 0.0013637637357666443 0.00037874249764280007 0 0.0015192153420490267 0.00024664509790558721 0 0.0013637637357666443 0.00037874249764280007 0 0.0015192153420490267 0.00024664509790558721 0 0.0015468124846064405 0.00037148512047526297 0 0.0017198788033146804 0.00023446698826130733 0 0.0015192153420490267 0.00024664509790558721 0 0.0015468124846064405 0.00037148512047526297 0 0.0015468124846064405 0.00037148512047526297 0 0.0014765949269307723 0.00049656393937981373 0 0.0016622114900700562 0.00042691070202130563 0 0.0013637637357666443 0.00037874249764280007 0 0.0015468124846064405 0.00037148512047526297 0 0.0014765949269307723 0.00049656393937981373 0 -0.00033977473008485248 0.00077305095215235149 0 3.3272762164916976e-05 0.0011343806637379617 0 -0.0021136792158073054 0.0019334085810762665 0 -0.0016082453791227335 0.0016225974379086307 0 -0.0016989258358057042 0.0020767784269171024 0 3.3272762164916976e-05 0.0011343806637379617 0 -0.00036405750608363441 0.0010694588687343472 0 -0.0016082453791227335 0.0016225974379086307 0 -0.0012052548840367045 0.002055349720345781 0 -0.0016989258358057042 0.0020767784269171024 0 0.0014765949269307723 0.00049656393937981373 0 0.0016622114900700562 0.00042691070202130563 0 0.00157572240182021 0.00060850696544446621 0 0.0016622114900700562 0.00042691070202130563 0 0.0016106991092272921 0.00060615182342062192 0 0.00157572240182021 0.00060850696544446621 0 0.0017094829751885155 -0.00065931183604893179 0 0.0016243121628495864 -0.00087075798025626125 0 0.0017335814821395005 -0.00086796689833857211 0 0.0017997370786942116 -0.00013506861026292349 0 0.00086563513511665312 -0.0001018823086801725 0 0.0015130185966420794 -0.00065604424918060415 0 0.0017094829751885155 -0.00065931183604893179 0 0.0015469552244554918 -0.00076832185604647305 0 0.0017094829751885155 -0.00065931183604893179 0 0.0015469552244554918 -0.00076832185604647305 0 0.0016243121628495864 -0.00087075798025626125 0 0.0015469552244554918 -0.00076832185604647305 0 0.0016243121628495864 -0.00087075798025626125 0 0.0014866731735126092 -0.00088021903965371099 0 0.0016957681231307888 -0.00085347714485759765 0 0.0014614791356090712 -0.00087646614155728858 0 0.0015282123731274278 -0.00089163248070933318 0 0.0014866731735126092 -0.00088021903965371099 0 0.0014717718407335442 -0.0010122523909242122 0 0.0015282123731274278 -0.00089163248070933318 0 0.0015459523722869328 -0.0009306492164446301 0 0.0014717718407335442 -0.0010122523909242122 0 -0.0013788753852954189 0.00027940546834485545 0 -0.0032201409863066408 0.00015617524400355997 0 -0.0017762425175555483 -2.6251174301470375e-05 0 -0.0020240561130877681 -0.00028748818259506713 0 -0.002098881768341514 -0.0001539291319546081 0 -0.0013788753852954189 0.00027940546834485545 0 -6.2809142207065e-05 -0.00065817167177550408 0 -0.0037315672330257227 0.0014193157550232696 0 -0.0034097469152143344 0.00094243783249969208 0 -0.0041322423014327446 0.00048063301968146642 0 -0.0023775170151441958 0.00096260512705931874 0 -0.0049598465504818775 0.0014678436914686089 0 -0.0037315672330257227 0.0014193157550232696 0 -0.0034898734072069965 0.00150608396670928 0 -0.0034097469152143344 0.00094243783249969208 0 0.0015459523722869328 -0.0009306492164446301 0 0.0015565838251634997 -0.00090861302305507115 0 0.0015556817844004265 -0.00089428136307321171 0 -0.0023775170151441958 0.00096260512705931874 0 -0.00080804334954272911 0.00049247428322675576 0 -0.0015858290947510165 0.0014630499740698837 0 -0.0015615299539843714 0.0013157095069682983 0 -0.0017221234592666198 0.0011363236337008117 0 -0.0013788753852954189 0.00027940546834485545 0 -0.00080804334954272911 0.00049247428322675576 0 -0.0013788753852954189 0.00027940546834485545 0 -0.0023775170151441958 0.00096260512705931874 0 -0.0014492572010723665 0.00022219409279677059 0 -0.0011070009749942831 0.00034754045277384985 0 -0.0011412657144217549 0.0005690114627108859 0 0.0015282123731274278 -0.00089163248070933318 0 0.0015459523722869328 -0.0009306492164446301 0 0.0015556817844004265 -0.00089428136307321171 0 0.0016957681231307888 -0.00085347714485759765 0 0.00086563513511665312 -0.0001018823086801725 0 0.00086563513511665312 -0.0001018823086801725 0 -0.00036405750608363441 0.0010694588687343472 0 -0.00080804334954272911 0.00049247428322675576 0 -0.00036405750608363441 0.0010694588687343472 0 -0.00080804334954272911 0.00049247428322675576 0 0.00086563513511665312 -0.0001018823086801725 0 -0.00043588438279967969 0.00054630600895870236 0 -0.00048482701758650941 0.00086557521832299536 0 -0.00015901698665729091 0.00085830080906484322 0 -0.00036405750608363441 0.0010694588687343472 0 -0.0028324741010718928 0.0016205131475077082 0 -0.003854189662464843 0.001461980601895257 0 -0.0037410284449515769 0.0015087965548237329 0 -0.0037614477071743098 0.001448979230644031 0 -0.0015858290947510165 0.0014630499740698837 0 -0.0017221234592666198 0.0011363236337008117 0 -0.0024448286578940361 0.0011646717190099492 0 -0.0023775170151441958 0.00096260512705931874 0 -0.0028324741010718928 0.0016205131475077082 0 -0.0049153399474160296 0.0015671662945110744 0 -0.0038140017516533958 0.0017525397153009118 0 -0.0037410284449515769 0.0015087965548237329 0 -0.0037614477071743098 0.001448979230644031 0 -0.0036733929145441237 0.0015104535985531091 0 -0.0024506511892761701 0.0018853852068859112 0 -0.0028324741010718928 0.0016205131475077082 0 -0.0028324741010718928 0.0016205131475077082 0 -0.0038140017516533958 0.0017525397153009118 0 -0.005817055908022656 0.0017780410922162322 0 -0.0056130258525921911 0.0019002655675927865 0 -0.0056593736920833755 0.001676613634504043 0 -0.005817055908022656 0.0017780410922162322 0 -0.0058426916909097553 0.0016010904708081066 0 -0.0056593736920833755 0.001676613634504043 0 -0.0049153399474160296 0.0015671662945110744 0 -0.0049598465504818775 0.0014678436914686089 0 -0.005817055908022656 0.0017780410922162322 0 -0.0060180701156625147 0.00165096452811418 0 -0.0058426916909097553 0.0016010904708081066 0 -0.003854189662464843 0.001461980601895257 0 -0.0037614477071743098 0.001448979230644031 0 -0.0038505537525232261 0.0013902273506262695 0 -0.0049598465504818775 0.0014678436914686089 0 -0.0061482981168539935 0.0013936713899157941 0 -0.0060180701156625147 0.00165096452811418 0 -0.0059980187329300308 0.0014612061912002764 0 -0.0058426916909097553 0.0016010904708081066 0 -0.0059980187329300308 0.0014612061912002764 0 -0.0058426916909097553 0.0016010904708081066 0 -0.0057317836984571383 0.0014266271052567573 0 -0.0058426916909097553 0.0016010904708081066 0 -0.0057317836984571383 0.0014266271052567573 0 -0.0056593736920833755 0.001676613634504043 0 -0.0071368583080220508 0.0016585229570292921 0 -0.007124942139251321 0.0012656299645669336 0 -0.0084735526549218256 0.0018526435205338506 0 -0.0087052444754341547 0.0016349678821198548 0 -0.008527895474771327 0.001522358647690653 0 -0.0061482981168539935 0.0013936713899157941 0 -0.007124942139251321 0.0012656299645669336 0 -0.0059980187329300308 0.0014612061912002764 0 -0.0057317836984571383 0.0014266271052567573 0 -0.0059779081997078159 0.0012693599946816637 0 -0.0062923411355719832 0.0013048259368410964 0 -0.0066389012264050301 0.0011890817790867862 0 -0.0065009267332521983 0.0010617587562694623 0 -0.0062923411355719832 0.0013048259368410964 0 -0.0065009267332521983 0.0010617587562694623 0 -0.0062630961104801434 0.0010574668209047831 0 -0.0062923411355719832 0.0013048259368410964 0 -0.0066389012264050301 0.0011890817790867862 0 -0.0065994900149377147 0.0013783129802269836 0 -0.0066389012264050301 0.0011890817790867862 0 -0.0067375103912471479 0.0010233453747739152 0 -0.0065009267332521983 0.0010617587562694623 0 -0.0052064579626218558 0.00093909231523121612 0 -0.0068981273700168075 0.00083236128043028294 0 -0.0066389012264050301 0.0011890817790867862 0 -0.0065994900149377147 0.0013783129802269836 0 -0.0068759716612469051 0.0012015635609512122 0 -0.0066389012264050301 0.0011890817790867862 0 -0.0067375103912471479 0.0010233453747739152 0 -0.0068759716612469051 0.0012015635609512122 0 -0.0044789444273105631 0.00060674138092243644 0 -0.0041322423014327446 0.00048063301968146642 0 -0.0048706957445937222 1.3929915282289633e-05 0 -0.0037315672330257227 0.0014193157550232696 0 -0.0044789444273105631 0.00060674138092243644 0 -0.0041322423014327446 0.00048063301968146642 0 -0.0049598465504818775 0.0014678436914686089 0 -0.0052064579626218558 0.00093909231523121612 0 -0.0063206516392688688 0.0015545749053962818 0 -0.0062923411355719832 0.0013048259368410964 0 -0.0065994900149377147 0.0013783129802269836 0 -0.0071684311946987236 0.0024989487138475696 0 -0.0077538344034269345 0.002494308082581278 0 -0.0073979438076979698 0.0022033916301229476 0 -0.0072455841093716248 0.0028740930428318534 0 -0.0071684311946987236 0.0024989487138475696 0 -0.0077538344034269345 0.002494308082581278 0 -0.0054029000826010306 0.0022744492632060151 0 -0.0038395253667825621 0.0019072294688940875 0 -0.0033693714767166578 0.0020329460054126559 0 -0.0030665812793471072 0.0019222863243619093 0 -0.0027771558875855926 0.0019692133603005802 0 -0.0046921021573532954 0.002098737325705158 0 -0.0026713427858128199 0.0018969949961274264 0 -0.0034498698963940201 0.001968797676546031 0 -0.0033693714767166578 0.0020329460054126559 0 -0.0030665812793471072 0.0019222863243619093 0 -0.0054029000826010306 0.0022744492632060151 0 -0.0066461584447505681 0.0020991791885420184 0 -0.0034196091583107366 0.0019609500514048707 0 -0.0033323678062041578 0.0017815357248112266 0 -0.0030665812793471072 0.0019222863243619093 0 -0.005061361987516195 0.0018858761053840035 0 -0.0053237137055858136 0.0018878921601224096 0 -0.0052667839190207177 0.0017425111179221609 0 -0.0053237137055858136 0.0018878921601224096 0 -0.0052667839190207177 0.0017425111179221609 0 -0.0054667162431657349 0.0017612229313465465 0 -0.0028056030465124695 0.0018062993827532919 0 -0.0030665812793471072 0.0019222863243619093 0 -0.0027771558875855926 0.0019692133603005802 0 -0.0066461584447505681 0.0020991791885420184 0 -0.0067912469014010275 0.0018800585074021754 0 -0.0052667839190207177 0.0017425111179221609 0 -0.0054667162431657349 0.0017612229313465465 0 -0.0054918777808332635 0.0015856946375410179 0 -0.0053237137055858136 0.0018878921601224096 0 -0.0054667162431657349 0.0017612229313465465 0 -0.0056130258525921911 0.0019002655675927865 0 -0.0026533392386703385 0.0017551657999256298 0 -0.0027771558875855926 0.0019692133603005802 0 -0.00240439289619693 0.0019311984926128009 0 -0.0038395253667825621 0.0019072294688940875 0 -0.0038140017516533958 0.0017525397153009118 0 -0.0029025178191112496 0.0017913059664102894 0 -0.0031512550862422646 0.0016946041115469125 0 -0.0029434370867714231 0.0016925310994214998 0 -0.0054667162431657349 0.0017612229313465465 0 -0.0056593736920833755 0.001676613634504043 0 -0.0054918777808332635 0.0015856946375410179 0 -0.0054667162431657349 0.0017612229313465465 0 -0.0056130258525921911 0.0019002655675927865 0 -0.0056593736920833755 0.001676613634504043 0 -0.0057317836984571383 0.0014266271052567573 0 -0.0056593736920833755 0.001676613634504043 0 -0.0054918777808332635 0.0015856946375410179 0 -0.0071368583080220508 0.0016585229570292921 0 -0.0067912469014010275 0.0018800585074021754 0 -0.0084735526549218256 0.0018526435205338506 0 -0.0082057079063109755 0.0017919681563518472 0 -0.0081632720216865112 0.0021544026555008018 0 -0.0084735526549218256 0.0018526435205338506 0 -0.0082057079063109755 0.0017919681563518472 0 -0.0083397340306341234 0.0015012046478997023 0 -0.0082057079063109755 0.0017919681563518472 0 -0.0079473769770601835 0.0019834920906492055 0 -0.0079526067005402292 0.001618607139415851 0 -0.0077538344034269345 0.002494308082581278 0 -0.0079473769770601835 0.0019834920906492055 0 -0.0081632720216865112 0.0021544026555008018 0 -0.0082057079063109755 0.0017919681563518472 0 -0.0079473769770601835 0.0019834920906492055 0 -0.0081632720216865112 0.0021544026555008018 0 -0.0077538344034269345 0.002494308082581278 0 -0.0079473769770601835 0.0019834920906492055 0 -0.0076342055805832124 0.0019362355392895552 0 -0.0076342055805832124 0.0019362355392895552 0 -0.0075109884617528006 0.0015909759278679391 0 -0.0079526067005402292 0.001618607139415851 0 -0.0079473769770601835 0.0019834920906492055 0 -0.0076342055805832124 0.0019362355392895552 0 -0.0079526067005402292 0.001618607139415851 0 -0.007185672432936799 0.0018819507633689981 0 -0.0076342055805832124 0.0019362355392895552 0 -0.0075109884617528006 0.0015909759278679391 0 -0.0077538344034269345 0.002494308082581278 0 -0.0076342055805832124 0.0019362355392895552 0 -0.0073979438076979698 0.0022033916301229476 0 -0.007185672432936799 0.0018819507633689981 0 -0.0076342055805832124 0.0019362355392895552 0 -0.0073979438076979698 0.0022033916301229476 0 -0.0072011661288279467 0.00112250806509646 0 -0.0074644380942791898 0.0013448441736597769 0 -0.0077200778766653268 0.0011055348384405327 0 -0.0082289762814236646 0.0011416343672991888 0 -0.008325554845967845 0.0011203541400849966 0 -0.0074644380942791898 0.0013448441736597769 0 -0.0077229821738824091 0.0013771384045077255 0 -0.0077200778766653268 0.0011055348384405327 0 -0.0071719291459012274 0.0015138399446551448 0 -0.0074644380942791898 0.0013448441736597769 0 -0.0075109884617528006 0.0015909759278679391 0 -0.0074644380942791898 0.0013448441736597769 0 -0.0075109884617528006 0.0015909759278679391 0 -0.0077229821738824091 0.0013771384045077255 0 -0.0075109884617528006 0.0015909759278679391 0 -0.0079526067005402292 0.001618607139415851 0 -0.0077229821738824091 0.0013771384045077255 0 -0.0079526067005402292 0.001618607139415851 0 -0.008015393203819797 0.0013529950396966083 0 -0.0077229821738824091 0.0013771384045077255 0 -0.008015393203819797 0.0013529950396966083 0 -0.0083151323341103082 0.0011896703358250159 0 -0.0077200778766653268 0.0011055348384405327 0 -0.008015393203819797 0.0013529950396966083 0 -0.0077229821738824091 0.0013771384045077255 0 -0.0077200778766653268 0.0011055348384405327 0 -0.008015393203819797 0.0013529950396966083 0 -0.0083397340306341234 0.0015012046478997023 0 -0.0083151323341103082 0.0011896703358250159 0 -0.0082057079063109755 0.0017919681563518472 0 -0.0079526067005402292 0.001618607139415851 0 -0.0083397340306341234 0.0015012046478997023 0 -0.0079526067005402292 0.001618607139415851 0 -0.008015393203819797 0.0013529950396966083 0 -0.0083397340306341234 0.0015012046478997023 0 -0.0083397340306341234 0.0015012046478997023 0 -0.0083151323341103082 0.0011896703358250159 0 -0.0084431486835075831 0.0013092099883877403 0 -0.0083438220785254143 0.001238915282759958 0 -0.0083151323341103082 0.0011896703358250159 0 -0.0084431486835075831 0.0013092099883877403 0 -0.0086056071222282843 0.0012831907605155219 0 -0.008645067613914318 0.0013521693236181356 0 -0.0085892843311178007 0.0013399183097012966 0 -0.0083438220785254143 0.001238915282759958 0 -0.0085546384112539578 0.0014386342167018601 0 -0.0085142946720324752 0.0013018797694024135 0 -0.0084939352048269672 0.0012722672172903898 0 -0.0087025090024498517 0.0013879633044235171 0 -0.0086056071222282843 0.0012831907605155219 0 -0.0087011489124177929 0.0012970092788084694 0 -0.008645067613914318 0.0013521693236181356 0 -0.0087025090024498517 0.0013879633044235171 0 -0.0086893472945889193 0.0014852740074561685 0 -0.0088292230777991913 0.0014803232548761625 0 -0.0087418366453012458 0.001614268495507475 0 -0.0088522608750802693 0.0015839379113457026 0 -0.0083151323341103082 0.0011896703358250159 0 -0.0085142946720324752 0.0013018797694024135 0 -0.0089256767031149053 0.0011112190137681859 0 -0.0083438220785254143 0.001238915282759958 0 -0.0083151323341103082 0.0011896703358250159 0 -0.0085142946720324752 0.0013018797694024135 0 -0.0085142946720324752 0.0013018797694024135 0 -0.0089256767031149053 0.0011112190137681859 0 -0.0088122500604809594 0.0013447805181883712 0 -0.0083082248471212199 0.0011730185789459262 0 -0.008325554845967845 0.0011203541400849966 0 -0.0089256767031149053 0.0011112190137681859 0 -0.0088122500604809594 0.0013447805181883712 0 -0.0090775064659907659 0.0013084048314895708 0 -0.0085546384112539578 0.0014386342167018601 0 -0.0085142946720324752 0.0013018797694024135 0 -0.0088122500604809594 0.0013447805181883712 0 -0.0088122500604809594 0.0013447805181883712 0 -0.00884197548610215 0.0014789356195751705 0 -0.0089029940246570689 0.0014575525630380422 0 -0.0087025090024498517 0.0013879633044235171 0 -0.008789700311477501 0.0013505015751165133 0 -0.0088162606020926546 0.0014801158439476118 0 -0.0088122500604809594 0.0013447805181883712 0 -0.00884197548610215 0.0014789356195751705 0 -0.00884197548610215 0.0014789356195751705 0 -0.0088995689466021266 0.0015085141379172081 0 -0.0089029940246570689 0.0014575525630380422 0 -0.0088292230777991913 0.0014803232548761625 0 -0.00884197548610215 0.0014789356195751705 0 -0.0088660530478377776 0.001520218247606626 0 -0.0087025090024498517 0.0013879633044235171 0 -0.0087620754769044181 0.0014057092798834877 0 -0.0088292230777991913 0.0014803232548761625 0 -0.0088660530478377776 0.001520218247606626 0 -0.0088522608750802693 0.0015839379113457026 0 -0.0088660530478377776 0.001520218247606626 0 -0.0089276158205979783 0.0015617755987403711 0 -0.0088522608750802693 0.0015839379113457026 0 -0.00884197548610215 0.0014789356195751705 0 -0.0088660530478377776 0.001520218247606626 0 -0.0088995689466021266 0.0015085141379172081 0 -0.0088660530478377776 0.001520218247606626 0 -0.0088995689466021266 0.0015085141379172081 0 -0.0089276158205979783 0.0015617755987403711 0 -0.0089276158205979783 0.0015617755987403711 0 -0.0089797708524490816 0.0015190560833841403 0 -0.0090202958351381854 0.0015833220476267206 0 -0.0088995689466021266 0.0015085141379172081 0 -0.0089797708524490816 0.0015190560833841403 0 -0.0089029940246570689 0.0014575525630380422 0 -0.0088995689466021266 0.0015085141379172081 0 -0.0089276158205979783 0.0015617755987403711 0 -0.0089797708524490816 0.0015190560833841403 0 -0.0088122500604809594 0.0013447805181883712 0 -0.0089029940246570689 0.0014575525630380422 0 -0.0090434633608224933 0.0014399327008813329 0 -0.0089797708524490816 0.0015190560833841403 0 -0.0089029940246570689 0.0014575525630380422 0 -0.0090434633608224933 0.0014399327008813329 0 -0.0090715933469021886 0.0015271574692235228 0 -0.0090202958351381854 0.0015833220476267206 0 -0.0091240834815900958 0.001589964679266784 0 -0.0090434633608224933 0.0014399327008813329 0 -0.0090715933469021886 0.0015271574692235228 0 -0.0091811240778676868 0.0015083460034248551 0 -0.0089797708524490816 0.0015190560833841403 0 -0.0090434633608224933 0.0014399327008813329 0 -0.0090715933469021886 0.0015271574692235228 0 -0.0089797708524490816 0.0015190560833841403 0 -0.0090715933469021886 0.0015271574692235228 0 -0.0090202958351381854 0.0015833220476267206 0 -0.0090715933469021886 0.0015271574692235228 0 -0.0091811240778676868 0.0015083460034248551 0 -0.0091240834815900958 0.001589964679266784 0 -0.0091879212096980575 0.001573525999419611 0 -0.0091811240778676868 0.0015083460034248551 0 -0.0091240834815900958 0.001589964679266784 0 -0.0092452715036712412 0.0015779840091659284 0 -0.0091879212096980575 0.001573525999419611 0 -0.0091811240778676868 0.0015083460034248551 0 -0.0092309656723189443 0.001375792264043776 0 -0.0090434633608224933 0.0014399327008813329 0 -0.0091811240778676868 0.0015083460034248551 0 -0.0092309656723189443 0.001375792264043776 0 -0.0090434633608224933 0.0014399327008813329 0 -0.0090775064659907659 0.0013084048314895708 0 -0.0093363947292177361 0.0011616485638645492 0 -0.0089256767031149053 0.0011112190137681859 0 -0.0090775064659907659 0.0013084048314895708 0 -0.0088122500604809594 0.0013447805181883712 0 -0.0090434633608224933 0.0014399327008813329 0 -0.0090775064659907659 0.0013084048314895708 0 -0.0079277824990236657 0.0011269832629373184 0 -0.0079153516947538406 0.0011716026595972959 0 -0.0078736124704285541 0.0011202547789751854 0 -0.0084958669805680065 0.00064075121637458367 0 -0.0086339976750604494 0.00064123275624386954 0 -0.0085951857853904662 0.00077372914203417307 0 -0.0082199344936648294 0.00092424500023377944 0 -0.0077483253243393621 0.00089894849721461616 0 -0.0086339976750604494 0.00064123275624386954 0 -0.0087078494222374986 0.00070350676083362647 0 -0.0085951857853904662 0.00077372914203417307 0 -0.0088283807610117209 0.00056054390836125063 0 -0.0077483253243393621 0.00089894849721461616 0 -0.0066012572891404548 0.00084312406900410365 0 -0.0067375103912471479 0.0010233453747739152 0 -0.0065009267332521983 0.0010617587562694623 0 -0.0087078494222374986 0.00070350676083362647 0 -0.0085868076428877275 0.00077485655655246057 0 -0.0086805915221632949 0.00089427421984730369 0 -0.0077483253243393621 0.00089894849721461616 0 -0.0077606477476306049 0.0010418690646506201 0 -0.0066012572891404548 0.00084312406900410365 0 -0.0065009267332521983 0.0010617587562694623 0 -0.0062630961104801434 0.0010574668209047831 0 -0.0079277824990236657 0.0011269832629373184 0 -0.0078736124704285541 0.0011202547789751854 0 -0.0079505703820306039 0.0010707439352391805 0 -0.0077483253243393621 0.00089894849721461616 0 -0.007124942139251321 0.0012656299645669336 0 -0.0079277824990236657 0.0011269832629373184 0 -0.0079505703820306039 0.0010707439352391805 0 -0.0079719597962853977 0.0011471467717142259 0 -0.0087052444754341547 0.0016349678821198548 0 -0.008527895474771327 0.001522358647690653 0 -0.0086319587458037958 0.0013725342007311892 0 -0.007124942139251321 0.0012656299645669336 0 -0.008392394859316395 0.0013088696717552099 0 -0.0084735526549218256 0.0018526435205338506 0 -0.0083397340306341234 0.0015012046478997023 0 -0.008527895474771327 0.001522358647690653 0 -0.0083397340306341234 0.0015012046478997023 0 -0.008527895474771327 0.001522358647690653 0 -0.0084431486835075831 0.0013092099883877403 0 -0.008527895474771327 0.001522358647690653 0 -0.0084431486835075831 0.0013092099883877403 0 -0.0086319587458037958 0.0013725342007311892 0 -0.0079277824990236657 0.0011269832629373184 0 -0.0079153516947538406 0.0011716026595972959 0 -0.0079719597962853977 0.0011471467717142259 0 -0.0079153516947538406 0.0011716026595972959 0 -0.0079719597962853977 0.0011471467717142259 0 -0.0079594815195021748 0.0011905323755838988 0 -0.0079153516947538406 0.0011716026595972959 0 -0.0079594815195021748 0.0011905323755838988 0 -0.0079616809310875461 0.0012254116276309878 0 -0.008392394859316395 0.0013088696717552099 0 -0.0084339785170631752 0.0011768893192583923 0 -0.0079719597962853977 0.0011471467717142259 0 -0.0079594815195021748 0.0011905323755838988 0 -0.0079934127093164425 0.0012291353190504299 0 -0.0079594815195021748 0.0011905323755838988 0 -0.0079934127093164425 0.0012291353190504299 0 -0.0079616809310875461 0.0012254116276309878 0 -0.0084339785170631752 0.0011768893192583923 0 -0.0085777275654864843 0.00082216204744204962 0 -0.0084431486835075831 0.0013092099883877403 0 -0.0086319587458037958 0.0013725342007311892 0 -0.0085518962958284969 0.001199559267975721 0 -0.0083438220785254143 0.001238915282759958 0 -0.0084431486835075831 0.0013092099883877403 0 -0.0085518962958284969 0.001199559267975721 0 -0.0086056071222282843 0.0012831907605155219 0 -0.0085170272359325633 0.001315755487591703 0 -0.0085892843311178007 0.0013399183097012966 0 -0.0086056071222282843 0.0012831907605155219 0 -0.0085090717188133682 0.0012687809072697992 0 -0.0085170272359325633 0.001315755487591703 0 -0.0084939352048269672 0.0012722672172903898 0 -0.0084339785170631752 0.0011768893192583923 0 -0.0091866228284261352 0.0006259028604330459 0 -0.0091775948746615332 0.00063199778880659667 0 -0.0091872864416988019 0.00064585341936062852 0 -0.0091866228284261352 0.0006259028604330459 0 -0.009195380798533553 0.00064104364096426647 0 -0.0091872864416988019 0.00064585341936062852 0 -0.0084339785170631752 0.0011768893192583923 0 -0.0087807144502681112 0.0010092126454420212 0 -0.0086592456756375592 0.00093059451402479731 0 -0.0085774095278670585 0.000919783276533722 0 -0.0086787250720628227 0.0010480746990117445 0 -0.0085777275654864843 0.00082216204744204962 0 -0.0087807144502681112 0.0010092126454420212 0 -0.0091775948746615332 0.00063199778880659667 0 -0.0091872864416988019 0.00064585341936062852 0 -0.009175887708597787 0.00064489983699270983 0 -0.0091866228284261352 0.0006259028604330459 0 -0.0091775948746615332 0.00063199778880659667 0 -0.0091673438628458604 0.00061417088090285428 0 -0.0091775948746615332 0.00063199778880659667 0 -0.0091631614796249747 0.0006285991474399837 0 -0.009175887708597787 0.00064489983699270983 0 -0.0091775948746615332 0.00063199778880659667 0 -0.0091673438628458604 0.00061417088090285428 0 -0.0091631614796249747 0.0006285991474399837 0 -0.0084958669805680065 0.00064075121637458367 0 -0.0083984822561486948 0.00051511855037603583 0 -0.0085870372787855993 0.00053286216384297938 0 -0.0085777275654864843 0.00082216204744204962 0 -0.008915447913009876 0.00055963391299357649 0 -0.0084958669805680065 0.00064075121637458367 0 -0.0086339976750604494 0.00064123275624386954 0 -0.0085870372787855993 0.00053286216384297938 0 -0.0082199344936648294 0.00092424500023377944 0 -0.0085777275654864843 0.00082216204744204962 0 -0.008915447913009876 0.00055963391299357649 0 -0.0089538155332223677 0.00057929770416572561 0 -0.0086339976750604494 0.00064123275624386954 0 -0.0087078494222374986 0.00070350676083362647 0 -0.0087937069878194687 0.00055073388271887616 0 -0.0086339976750604494 0.00064123275624386954 0 -0.0085870372787855993 0.00053286216384297938 0 -0.0087937069878194687 0.00055073388271887616 0 -0.0091673438628458604 0.00061417088090285428 0 -0.0091631614796249747 0.0006285991474399837 0 -0.0091286829505291267 0.00059974515068873129 0 -0.0091631614796249747 0.0006285991474399837 0 -0.0091286829505291267 0.00059974515068873129 0 -0.0091531925023142658 0.00064369678670714487 0 -0.0091631614796249747 0.0006285991474399837 0 -0.009175887708597787 0.00064489983699270983 0 -0.0091531925023142658 0.00064369678670714487 0 -0.0091061372353450458 0.00063142541753358845 0 -0.0091286829505291267 0.00059974515068873129 0 -0.0091531925023142658 0.00064369678670714487 0 -0.0091061372353450458 0.00063142541753358845 0 -0.0090356755141096454 0.00060358092948579849 0 -0.0090744253595752989 0.00061647249882537116 0 -0.0091061372353450458 0.00063142541753358845 0 -0.0090744253595752989 0.00061647249882537116 0 -0.0091078937128390245 0.00064248261526423051 0 -0.0090356755141096454 0.00060358092948579849 0 -0.0087937069878194687 0.00055073388271887616 0 -0.0088850787963966234 0.00069055617506151763 0 -0.0091061372353450458 0.00063142541753358845 0 -0.0090356755141096454 0.00060358092948579849 0 -0.0091286829505291267 0.00059974515068873129 0 -0.0090326551759272282 0.00059790490732340739 0 -0.0089538155332223677 0.00057929770416572561 0 -0.0090744253595752989 0.00061647249882537116 0 -0.0090766533700992955 0.00061750200642555597 0 -0.009037704038548873 0.00061468837623236043 0 -0.0090744253595752989 0.00061647249882537116 0 -0.009037704038548873 0.00061468837623236043 0 -0.0090810216700024596 0.00064680480173755217 0 -0.0090356755141096454 0.00060358092948579849 0 -0.0090744253595752989 0.00061647249882537116 0 -0.0090766533700992955 0.00061750200642555597 0 -0.0074057201901837491 0.00035042459095968831 0 -0.0074188673922291259 0.00032701133879019939 0 -0.0058283241031282752 3.2619962129832701e-05 0 -0.0058238076739471362 4.2640114279540243e-05 0 -0.005822004081279991 2.9386092750723405e-05 0 -0.0042455802611820366 -0.00031746039745281273 0 -0.0038753279340496606 -0.00021370820019749506 0 -0.0090356755141096454 0.00060358092948579849 0 -0.0090766533700992955 0.00061750200642555597 0 -0.0090352956762535866 0.00075042626406782165 0 -0.0058283241031282752 3.2619962129832701e-05 0 -0.0058238076739471362 4.2640114279540243e-05 0 -0.0057825202918767877 6.000193812571687e-05 0 -0.0058238076739471362 4.2640114279540243e-05 0 -0.0057825202918767877 6.000193812571687e-05 0 -0.0057869214311995409 7.7511349814584414e-05 0 -0.0074057201901837491 0.00035042459095968831 0 -0.0076967320306405356 0.00037280550296112168 0 -0.0024214000741217554 -0.00056774630296363123 0 -0.0025603680389278843 -0.00051475265379188613 0 -0.0023895924416923696 -0.00043219934630764773 0 -0.002571351492231221 -0.00063858254299869056 0 -0.0025603680389278843 -0.00051475265379188613 0 -0.0026661115619545442 -0.00058823565910092 0 -0.002571351492231221 -0.00063858254299869056 0 -0.0024214000741217554 -0.00056774630296363123 0 -0.0025603680389278843 -0.00051475265379188613 0 -0.0087078494222374986 0.00070350676083362647 0 -0.0088850787963966234 0.00069055617506151763 0 -0.0088214274697589745 0.00081463976319893822 0 -0.0087078494222374986 0.00070350676083362647 0 -0.0087937069878194687 0.00055073388271887616 0 -0.0088850787963966234 0.00069055617506151763 0 -0.0090356755141096454 0.00060358092948579849 0 -0.0090352956762535866 0.00075042626406782165 0 -0.0088850787963966234 0.00069055617506151763 0 -0.0090352956762535866 0.00075042626406782165 0 -0.0088850787963966234 0.00069055617506151763 0 -0.0088214274697589745 0.00081463976319893822 0 -0.0076967320306405356 0.00037280550296112168 0 -0.0053171870853539263 0.00013745046523948599 0 -0.0057825202918767877 6.000193812571687e-05 0 -0.0057869214311995409 7.7511349814584414e-05 0 -0.0057101333832418489 0.00012949739580887874 0 -0.0038753279340496606 -0.00021370820019749506 0 -0.0053171870853539263 0.00013745046523948599 0 -0.0090352956762535866 0.00075042626406782165 0 -0.0088214274697589745 0.00081463976319893822 0 -0.0088575571025274712 0.00095633016341399384 0 -0.0087078494222374986 0.00070350676083362647 0 -0.0086805915221632949 0.00089427421984730369 0 -0.0088214274697589745 0.00081463976319893822 0 -0.0088214274697589745 0.00081463976319893822 0 -0.0087740748513591201 0.00091651673298288601 0 -0.0088575571025274712 0.00095633016341399384 0 -0.0086805915221632949 0.00089427421984730369 0 -0.0088214274697589745 0.00081463976319893822 0 -0.0087740748513591201 0.00091651673298288601 0 -0.0032201409863066408 0.00015617524400355997 0 -0.0053171870853539263 0.00013745046523948599 0 -0.0044789444273105631 0.00060674138092243644 0 -0.0052402256308599279 -0.00021691504105625831 0 -0.0048706957445937222 1.3929915282289633e-05 0 -0.0077606477476306049 0.0010418690646506201 0 -0.0068981273700168075 0.00083236128043028294 0 -0.0086805915221632949 0.00089427421984730369 0 -0.0087740748513591201 0.00091651673298288601 0 -0.0087654559782084016 0.0010130757477731088 0 -0.0087740748513591201 0.00091651673298288601 0 -0.0088575571025274712 0.00095633016341399384 0 -0.0087654559782084016 0.0010130757477731088 0 -0.0053171870853539263 0.00013745046523948599 0 -0.0068981273700168075 0.00083236128043028294 0 -0.0020240561130877681 -0.00028748818259506713 0 -0.0022453337062529849 -0.00048216756064477359 0 -0.0022040725365106814 -0.00030773812555017529 0 -0.0020240561130877681 -0.00028748818259506713 0 -0.0022040725365106814 -0.00030773812555017529 0 -0.002098881768341514 -0.0001539291319546081 0 -0.0022040725365106814 -0.00030773812555017529 0 -0.0023518836054668871 -0.00027587896541500685 0 -0.0023895924416923696 -0.00043219934630764773 0 -0.0022040725365106814 -0.00030773812555017529 0 -0.0023518836054668871 -0.00027587896541500685 0 -0.002098881768341514 -0.0001539291319546081 0 -0.0022453337062529849 -0.00048216756064477359 0 -0.0022040725365106814 -0.00030773812555017529 0 -0.0023895924416923696 -0.00043219934630764773 0 -0.0024214000741217554 -0.00056774630296363123 0 -0.0022453337062529849 -0.00048216756064477359 0 -0.0023895924416923696 -0.00043219934630764773 0 -0.0025603680389278843 -0.00051475265379188613 0 -0.0023895924416923696 -0.00043219934630764773 0 -0.0025514714117041582 -0.00037646370991077269 0 0.000841060661271202 -0.0013861977930672727 0 0.0011033392626881187 -0.0010329411264472538 0 0.00061007783301221356 -0.0012156932082825239 0 -0.00060080901532057261 -0.00071984531901824172 0 -0.00082339154800383321 -0.00087498556433422215 0 -0.0023518836054668871 -0.00027587896541500685 0 -0.0023895924416923696 -0.00043219934630764773 0 -0.0025514714117041582 -0.00037646370991077269 0 0.0012726533445947905 -0.0011663906118085721 0 0.000841060661271202 -0.0013861977930672727 0 0.0011033392626881187 -0.0010329411264472538 0 0.0012726533445947905 -0.0011663906118085721 0 0.0011033392626881187 -0.0010329411264472538 0 0.0012763013945513496 -0.0010019504857302828 0 0.0011033392626881187 -0.0010329411264472538 0 0.00096635502362359365 -0.0010462821148692367 0 0.00092744298719443482 -0.0011918303406709819 0 0.0011033392626881187 -0.0010329411264472538 0 0.00096635502362359365 -0.0010462821148692367 0 0.0010346340849717137 -0.00093927914987882929 0 0.0010903509505393321 -0.0010372828649163981 0 0.00072890882516389414 -0.0012159297610780391 0 0.00095967385763655766 -0.000764623307941561 0 0.0010346340849717137 -0.00093927914987882929 0 0.0011853221074879269 -0.00084160408091423617 0 0.0011033392626881187 -0.0010329411264472538 0 0.0010346340849717137 -0.00093927914987882929 0 0.0011853221074879269 -0.00084160408091423617 0 0.0011033392626881187 -0.0010329411264472538 0 0.0011853221074879269 -0.00084160408091423617 0 0.0012763013945513496 -0.0010019504857302828 0 0.0011853221074879269 -0.00084160408091423617 0 0.0013033046269252499 -0.00089646106113467532 0 0.0012763013945513496 -0.0010019504857302828 0 0.0013899216396737286 -0.00079472524005708871 0 0.0013033046269252499 -0.00089646106113467532 0 0.0013966814427140333 -0.00092955553053814324 0 0.0013899216396737286 -0.00079472524005708871 0 0.0011853221074879269 -0.00084160408091423617 0 0.0013033046269252499 -0.00089646106113467532 0 0.0013033046269252499 -0.00089646106113467532 0 0.0013966814427140333 -0.00092955553053814324 0 0.0012763013945513496 -0.0010019504857302828 0 0.0013899216396737286 -0.00079472524005708871 0 0.0014866731735126092 -0.00088021903965371099 0 0.0013966814427140333 -0.00092955553053814324 0 0.0014866731735126092 -0.00088021903965371099 0 0.0013966814427140333 -0.00092955553053814324 0 0.0014717718407335442 -0.0010122523909242122 0 -0.00060080901532057261 -0.00071984531901824172 0 -6.2809142207065e-05 -0.00065817167177550408 0 0.0012726533445947905 -0.0011663906118085721 0 0.0014717718407335442 -0.0010122523909242122 0 0.0012763013945513496 -0.0010019504857302828 0 0.0013966814427140333 -0.00092955553053814324 0 0.0014717718407335442 -0.0010122523909242122 0 0.0012763013945513496 -0.0010019504857302828 0 0.00050688687765686137 -0.00096158452768169015 0 0.00046345337615202631 -0.0012239014342535421 0 0.00060982177848306846 -0.001192632655107682 0 0.00036391377116957698 -0.00073583053634366472 0 0.00049339015966984908 -0.0008666781159563622 0 0.00050688687765686137 -0.00096158452768169015 0 0.00072039064582345126 -0.0010598561327596152 0 0.00060982177848306846 -0.001192632655107682 0 0.00016767811739012766 -0.00050598224075972345 0 0.00025633020367716555 -0.00049410149300121845 0 0.00018670445299860005 -0.00058914943110723093 0 0.00016767811739012766 -0.00050598224075972345 0 9.1705269152010904e-05 -0.00056144306966763951 0 9.8994757941641518e-05 -0.00051306648625772664 0 0.00025075147799347072 -0.00044736611067792449 0 0.00016767811739012766 -0.00050598224075972345 0 0.00025633020367716555 -0.00049410149300121845 0 0.00025075147799347072 -0.00044736611067792449 0 0.00016767811739012766 -0.00050598224075972345 0 0.00014531712941814656 -0.0004781612268282283 0 0.00045444342246266344 -0.00054987023466705374 0 0.00036391377116957698 -0.00073583053634366472 0 0.00025075147799347072 -0.00044736611067792449 0 0.00036677232723908014 -0.0004382161960192436 0 0.00025633020367716555 -0.00049410149300121845 0 0.00052656213181587013 -0.00068934397773266873 0 0.00050688687765686137 -0.00096158452768169015 0 0.0007108669749400614 -0.00085470877624356371 0 0.0007108669749400614 -0.00085470877624356371 0 0.00088174553331247098 -0.00096937712023465903 0 0.00072039064582345126 -0.0010598561327596152 0 0.00050688687765686137 -0.00096158452768169015 0 0.0007108669749400614 -0.00085470877624356371 0 0.00072039064582345126 -0.0010598561327596152 0 0.00095967385763655766 -0.000764623307941561 0 0.0010346340849717137 -0.00093927914987882929 0 0.00088174553331247098 -0.00096937712023465903 0 0.00095967385763655766 -0.000764623307941561 0 0.0007108669749400614 -0.00085470877624356371 0 0.00088174553331247098 -0.00096937712023465903 0 0.00096635502362359365 -0.0010462821148692367 0 0.00088174553331247098 -0.00096937712023465903 0 0.00085882058947195404 -0.0010957544265711341 0 0.00096635502362359365 -0.0010462821148692367 0 0.0010346340849717137 -0.00093927914987882929 0 0.00088174553331247098 -0.00096937712023465903 0 0.00088174553331247098 -0.00096937712023465903 0 0.00085882058947195404 -0.0010957544265711341 0 0.00072039064582345126 -0.0010598561327596152 0 0.00096635502362359365 -0.0010462821148692367 0 0.00085882058947195404 -0.0010957544265711341 0 0.00092744298719443482 -0.0011918303406709819 0 0.00085882058947195404 -0.0010957544265711341 0 0.00072039064582345126 -0.0010598561327596152 0 0.00075521726784240914 -0.0011965207856622678 0 0.00075521726784240914 -0.0011965207856622678 0 0.00092744298719443482 -0.0011918303406709819 0 0.00068101896329274183 -0.0013571377432443016 0 0.00072039064582345126 -0.0010598561327596152 0 0.00075521726784240914 -0.0011965207856622678 0 0.00060982177848306846 -0.001192632655107682 0 0.00075521726784240914 -0.0011965207856622678 0 0.00068101896329274183 -0.0013571377432443016 0 0.00060982177848306846 -0.001192632655107682 0 0.000841060661271202 -0.0013861977930672727 0 0.00061007783301221356 -0.0012156932082825239 0 0.0001289758799344662 -0.0016524274231525099 0 0.00072890882516389414 -0.0012159297610780391 0 0.00052375381398117571 -0.0014601893200211951 0 0.00085882058947195404 -0.0010957544265711341 0 0.00075521726784240914 -0.0011965207856622678 0 0.00092744298719443482 -0.0011918303406709819 0 -0.0025603680389278843 -0.00051475265379188613 0 -0.0025514714117041582 -0.00037646370991077269 0 -0.0027152390493758692 -0.00045680384476132977 0 -0.00082339154800383321 -0.00087498556433422215 0 -0.001403896529683635 -0.0010605194098183264 0 0.00061007783301221356 -0.0012156932082825239 0 0.0001289758799344662 -0.0016524274231525099 0 -1.2308657904968209e-05 -0.0015429798780737542 0 0.00049339015966984908 -0.0008666781159563622 0 -0.0012596220615327498 -0.0012785164790907726 0 0.00052375381398117571 -0.0014601893200211951 0 -0.0012596220615327498 -0.0012785164790907726 0 0.00053737251311614088 -0.0013332034250363512 0 0.00046345337615202631 -0.0012239014342535421 0 0.00040908693907274043 -0.0015140167877731722 0 0.00068101896329274183 -0.0013571377432443016 0 0.00053737251311614088 -0.0013332034250363512 0 0.00040908693907274043 -0.0015140167877731722 0 -0.001403896529683635 -0.0010605194098183264 0 -0.0012596220615327498 -0.0012785164790907726 0 0.0001289758799344662 -0.0016524274231525099 0 -1.2308657904968209e-05 -0.0015429798780737542 0 -0.00068863215988951569 -0.0019267260945953677 0 0.00053737251311614088 -0.0013332034250363512 0 0.00046345337615202631 -0.0012239014342535421 0 0.00060982177848306846 -0.001192632655107682 0 0.00068101896329274183 -0.0013571377432443016 0 0.00053737251311614088 -0.0013332034250363512 0 0.00060982177848306846 -0.001192632655107682 0 0.00016767811739012766 -0.00050598224075972345 0 0.00018670445299860005 -0.00058914943110723093 0 9.1705269152010904e-05 -0.00056144306966763951 0 0.00018670445299860005 -0.00058914943110723093 0 9.1705269152010904e-05 -0.00056144306966763951 0 3.4456665310571477e-05 -0.0007020257223405267 0 0.00018670445299860005 -0.00058914943110723093 0 3.4456665310571477e-05 -0.0007020257223405267 0 0.00015360297457023755 -0.00082937279460370465 0 3.4456665310571477e-05 -0.0007020257223405267 0 0.00015360297457023755 -0.00082937279460370465 0 -0.00010809347577725448 -0.0009335482159152608 0 -0.0027152944784967874 -0.0015441065385285748 0 -0.0029847789058458528 -0.0016793451684572148 0 -0.0019923014013163128 -0.0014118427531441566 0 -0.0027152944784967874 -0.0015441065385285748 0 -0.0029950353571893381 -0.0017136561250274411 0 -0.0028224783301700539 -0.00055436831694778699 0 -0.0012596220615327498 -0.0012785164790907726 0 -0.0029251696396425256 -0.00059341927605788779 0 -0.0023888840753186914 -0.00098118850098026554 0 -0.0027152944784967874 -0.0015441065385285748 0 -0.0028224783301700539 -0.00055436831694778699 0 -0.0012596220615327498 -0.0012785164790907726 0 -0.0010615254441699354 -0.0011579483077411767 0 -0.0023888840753186914 -0.00098118850098026554 0 -0.0027152944784967874 -0.0015441065385285748 0 -0.0019923014013163128 -0.0014118427531441566 0 -0.0022302465241748272 -0.0016995976883186126 0 -0.0012596220615327498 -0.0012785164790907726 0 -0.0028518594277886452 -0.00051935832424829763 0 -0.0028705354568402761 -0.00062075336954382071 0 -0.0027654207956963558 -0.00058836194293373741 0 -0.0027152390493758692 -0.00045680384476132977 0 -0.0028518594277886452 -0.00051935832424829763 0 -0.0027654207956963558 -0.00058836194293373741 0 -0.0028705354568402761 -0.00062075336954382071 0 -0.0027654207956963558 -0.00058836194293373741 0 -0.0028045179223279773 -0.00067015617485198813 0 -0.002259352262432646 -0.00035095790189869862 0 -0.0028224783301700539 -0.00055436831694778699 0 -0.0025427485363498092 0.00026264317924531153 0 -0.0023888840753186914 -0.00098118850098026554 0 -0.002259352262432646 -0.00035095790189869862 0 -0.0028224783301700539 -0.00055436831694778699 0 -0.0025603680389278843 -0.00051475265379188613 0 -0.0027152390493758692 -0.00045680384476132977 0 -0.0026661115619545442 -0.00058823565910092 0 -0.0027152390493758692 -0.00045680384476132977 0 -0.0027654207956963558 -0.00058836194293373741 0 -0.0026661115619545442 -0.00058823565910092 0 -0.0027654207956963558 -0.00058836194293373741 0 -0.0026999584254394108 -0.00069707940216814967 0 -0.0028045179223279773 -0.00067015617485198813 0 -0.0027654207956963558 -0.00058836194293373741 0 -0.0026661115619545442 -0.00058823565910092 0 -0.0026999584254394108 -0.00069707940216814967 0 -0.0042455802611820366 -0.00031746039745281273 0 -0.0042123039671482379 -0.00030696861142108316 0 -0.002571351492231221 -0.00063858254299869056 0 -0.0026661115619545442 -0.00058823565910092 0 -0.0026999584254394108 -0.00069707940216814967 0 -0.0058283241031282752 3.2619962129832701e-05 0 -0.005822004081279991 2.9386092750723405e-05 0 -0.005841413902577584 4.8081753720294812e-05 0 -0.0042123039671482379 -0.00030696861142108316 0 -0.0044795325466630018 -0.00044603516519302078 0 -0.0026999584254394108 -0.00069707940216814967 0 -0.0028045179223279773 -0.00067015617485198813 0 -0.0028103302524477812 -0.00074681359702423943 0 -0.0058155350743587849 5.9124595056671925e-05 0 -0.005841413902577584 4.8081753720294812e-05 0 -0.0058269404935704511 9.6768247072615262e-05 0 -0.005822004081279991 2.9386092750723405e-05 0 -0.0058155350743587849 5.9124595056671925e-05 0 -0.005781122842096237 3.3022664539616786e-05 0 -0.0058155350743587849 5.9124595056671925e-05 0 -0.005781122842096237 3.3022664539616786e-05 0 -0.0057810751475828644 8.7113998752271496e-05 0 -0.005822004081279991 2.9386092750723405e-05 0 -0.0058155350743587849 5.9124595056671925e-05 0 -0.005841413902577584 4.8081753720294812e-05 0 -0.0029251696396425256 -0.00059341927605788779 0 -0.0026816246431502939 -0.00026439230744517236 0 -0.0025427485363498092 0.00026264317924531153 0 -0.0020485596769835362 0.00016345458463708958 0 -0.0023343226290174677 0.00034872218493233218 0 -0.002259352262432646 -0.00035095790189869862 0 -0.0025427485363498092 0.00026264317924531153 0 -0.0020485596769835362 0.00016345458463708958 0 -0.0028705354568402761 -0.00062075336954382071 0 -0.002884767040648752 -0.000712141791863344 0 -0.0028045179223279773 -0.00067015617485198813 0 -0.002884767040648752 -0.000712141791863344 0 -0.0028045179223279773 -0.00067015617485198813 0 -0.0028103302524477812 -0.00074681359702423943 0 -0.0044795325466630018 -0.00044603516519302078 0 -0.0033390874115769354 -5.5123373697469373e-05 0 -0.005781122842096237 3.3022664539616786e-05 0 -0.0056640437136958911 7.748253455615245e-05 0 -0.0057810751475828644 8.7113998752271496e-05 0 -0.002884767040648752 -0.000712141791863344 0 -0.0028103302524477812 -0.00074681359702423943 0 -0.002899550835913325 -0.00078973134637488028 0 -0.0026816246431502939 -0.00026439230744517236 0 -0.0033390874115769354 -5.5123373697469373e-05 0 -0.0023913523957043155 0.00040834209788789399 0 -0.0023420756554205511 0.00039783064127258815 0 -0.0023343226290174677 0.00034872218493233218 0 -0.0025427485363498092 0.00026264317924531153 0 -0.0023913523957043155 0.00040834209788789399 0 -0.0023343226290174677 0.00034872218493233218 0 -0.0022434893885433672 0.00053134778339502273 0 -0.0022104279824503698 0.00037131560487465475 0 -0.0023108913041113757 0.00048546082937732659 0 -0.0056640437136958911 7.748253455615245e-05 0 -0.0057336462044168769 0.00018445515299888847 0 -0.005649209307038148 0.00025821837824047448 0 -0.0033390874115769354 -5.5123373697469373e-05 0 -0.0021898472420715607 0.00054144909211701502 0 -0.0033390874115769354 -5.5123373697469373e-05 0 -0.0036557745834316143 0.00036389056954653571 0 -0.0056640437136958911 7.748253455615245e-05 0 -0.0057810751475828644 8.7113998752271496e-05 0 -0.0057336462044168769 0.00018445515299888847 0 -0.0057810751475828644 8.7113998752271496e-05 0 -0.0057962242292776689 0.00017917123620203471 0 -0.0057336462044168769 0.00018445515299888847 0 -0.0077139968266295529 0.00045979816508933221 0 -0.0076038568492317387 0.00044047983967784025 0 -0.0057962242292776689 0.00017917123620203471 0 -0.0057655349541483698 0.00029493743274142781 0 -0.0059046651884754721 0.00014956545829166966 0 -0.0057962242292776689 0.00017917123620203471 0 -0.0057336462044168769 0.00018445515299888847 0 -0.0057655349541483698 0.00029493743274142781 0 -0.0057336462044168769 0.00018445515299888847 0 -0.005649209307038148 0.00025821837824047448 0 -0.0057655349541483698 0.00029493743274142781 0 -0.005649209307038148 0.00025821837824047448 0 -0.0057655349541483698 0.00029493743274142781 0 -0.0056459436882259012 0.00043355078513887698 0 -0.0036557745834316143 0.00036389056954653571 0 -0.006538469748643797 0.00035576267300962234 0 -0.0077139968266295529 0.00045979816508933221 0 -0.006538469748643797 0.00035576267300962234 0 -0.0093368668601479278 0.00064489550079834261 0 -0.0093521573774870571 0.00065936596480359669 0 -0.0093001103975563753 0.00065305560941719101 0 -0.0093368668601479278 0.00064489550079834261 0 -0.0093521573774870571 0.00065936596480359669 0 -0.0093725736076686796 0.00065876449243248796 0 -0.0093521573774870571 0.00065936596480359669 0 -0.0093001103975563753 0.00065305560941719101 0 -0.0093309187259909467 0.0006648153265520169 0 -0.0093928628708085521 0.00066209030482267117 0 -0.0093725736076686796 0.00065876449243248796 0 -0.0094056125935652393 0.00066928184378555659 0 -0.0093521573774870571 0.00065936596480359669 0 -0.0093725736076686796 0.00065876449243248796 0 -0.009382088735495904 0.0006703241032908645 0 -0.0093368668601479278 0.00064489550079834261 0 -0.0093725736076686796 0.00065876449243248796 0 -0.0093659502478986422 0.00065493523823510486 0 -0.0093928628708085521 0.00066209030482267117 0 -0.0093725736076686796 0.00065876449243248796 0 -0.0093659502478986422 0.00065493523823510486 0 -0.0093928628708085521 0.00066209030482267117 0 -0.0093659502478986422 0.00065493523823510486 0 -0.0093760147929067509 0.00066600424804632479 0 -0.0093659502478986422 0.00065493523823510486 0 -0.0093760147929067509 0.00066600424804632479 0 -0.0093514330207513166 0.00064157553144969829 0 -0.0094880246949060835 0.00078364422700466247 0 -0.0076038568492317387 0.00044047983967784025 0 -0.0093368668601479278 0.00064489550079834261 0 -0.0093659502478986422 0.00065493523823510486 0 -0.0093514330207513166 0.00064157553144969829 0 -0.0058155350743587849 5.9124595056671925e-05 0 -0.0057810751475828644 8.7113998752271496e-05 0 -0.0058269404935704511 9.6768247072615262e-05 0 -0.0057810751475828644 8.7113998752271496e-05 0 -0.0057962242292776689 0.00017917123620203471 0 -0.0059046651884754721 0.00014956545829166966 0 -0.0053249264172965053 -0.00019943882427450864 0 -0.0076038568492317387 0.00044047983967784025 0 -0.009037704038548873 0.00061468837623236043 0 -0.0090435335645933593 0.00067409243679149885 0 -0.0089877838719494407 0.00065104030607786864 0 -0.0074188673922291259 0.00032701133879019939 0 -0.0076038568492317387 0.00044047983967784025 0 -0.009037704038548873 0.00061468837623236043 0 -0.0090435335645933593 0.00067409243679149885 0 -0.0090810216700024596 0.00064680480173755217 0 -0.0090810216700024596 0.00064680480173755217 0 -0.0091194855392975321 0.00066425964973989822 0 -0.0091078937128390245 0.00064248261526423051 0 -0.0090744253595752989 0.00061647249882537116 0 -0.0090810216700024596 0.00064680480173755217 0 -0.0091078937128390245 0.00064248261526423051 0 -0.0090810216700024596 0.00064680480173755217 0 -0.0091194855392975321 0.00066425964973989822 0 -0.0091011453683361773 0.00069309146435389188 0 -0.0090435335645933593 0.00067409243679149885 0 -0.0090810216700024596 0.00064680480173755217 0 -0.0091011453683361773 0.00069309146435389188 0 -0.0094880246949060835 0.00078364422700466247 0 -0.0091682057923030587 0.00066392315716704605 0 -0.0091355723400311159 0.00065079452865906759 0 -0.0091609575679497072 0.00066094776419354227 0 -0.0091531925023142658 0.00064369678670714487 0 -0.0091061372353450458 0.00063142541753358845 0 -0.0091355723400311159 0.00065079452865906759 0 -0.0091531925023142658 0.00064369678670714487 0 -0.0091061372353450458 0.00063142541753358845 0 -0.0091355723400311159 0.00065079452865906759 0 -0.0091078937128390245 0.00064248261526423051 0 -0.0091355723400311159 0.00065079452865906759 0 -0.0091078937128390245 0.00064248261526423051 0 -0.0091498219345176827 0.00066698074861972476 0 -0.0091194855392975321 0.00066425964973989822 0 -0.0091078937128390245 0.00064248261526423051 0 -0.0091498219345176827 0.00066698074861972476 0 -0.0091194855392975321 0.00066425964973989822 0 -0.0091498219345176827 0.00066698074861972476 0 -0.0092049717473693567 0.0006933803029252571 0 -0.0091498219345176827 0.00066698074861972476 0 -0.0091609575679497072 0.00066094776419354227 0 -0.0091721239424199397 0.00067586229445490919 0 -0.0091355723400311159 0.00065079452865906759 0 -0.0091498219345176827 0.00066698074861972476 0 -0.0091609575679497072 0.00066094776419354227 0 -0.0091609575679497072 0.00066094776419354227 0 -0.0091721239424199397 0.00067586229445490919 0 -0.0091769090826859748 0.00066837257619702225 0 -0.0091721239424199397 0.00067586229445490919 0 -0.0092049717473693567 0.0006933803029252571 0 -0.0091824609714955575 0.00067198938080863095 0 -0.0091721239424199397 0.00067586229445490919 0 -0.0091824609714955575 0.00067198938080863095 0 -0.0091795903159077891 0.00067030806831330466 0 -0.0091498219345176827 0.00066698074861972476 0 -0.0091721239424199397 0.00067586229445490919 0 -0.0092049717473693567 0.0006933803029252571 0 -0.0092049717473693567 0.0006933803029252571 0 -0.0091824609714955575 0.00067198938080863095 0 -0.009200207216484747 0.00062688605999804841 0 -0.0091824609714955575 0.00067198938080863095 0 -0.009200207216484747 0.00062688605999804841 0 -0.0091825684203543818 0.00066224738145933702 0 -0.0091824609714955575 0.00067198938080863095 0 -0.0091795903159077891 0.00067030806831330466 0 -0.0091825684203543818 0.00066224738145933702 0 -0.0093928628708085521 0.00066209030482267117 0 -0.0093760147929067509 0.00066600424804632479 0 -0.0093614095154911248 0.00070381119274112844 0 -0.0092049717473693567 0.0006933803029252571 0 -0.0093614095154911248 0.00070381119274112844 0 -0.0093841622655691913 0.00064392808674963373 0 -0.009223691560068607 0.00070168274503529162 0 -0.0091682057923030587 0.00066392315716704605 0 -0.0091194855392975321 0.00066425964973989822 0 -0.0092049717473693567 0.0006933803029252571 0 -0.0091011453683361773 0.00069309146435389188 0 -0.0092049717473693567 0.0006933803029252571 0 -0.0093841622655691913 0.00064392808674963373 0 -0.009200207216484747 0.00062688605999804841 0 -0.0093789461250492253 0.00064494557451942602 0 -0.0093642382496760667 0.00064516382458919979 0 -0.0093928628708085521 0.00066209030482267117 0 -0.0093841622655691913 0.00064392808674963373 0 -0.0094128459948098642 0.00066174709212046476 0 -0.0093928628708085521 0.00066209030482267117 0 -0.0093614095154911248 0.00070381119274112844 0 -0.0093841622655691913 0.00064392808674963373 0 -0.0093841622655691913 0.00064392808674963373 0 -0.0094128459948098642 0.00066174709212046476 0 -0.0094326487764940115 0.00067042653581704319 0 -0.0094128459948098642 0.00066174709212046476 0 -0.0094326487764940115 0.00067042653581704319 0 -0.0094480771087764228 0.00068713215722529715 0 -0.0093841622655691913 0.00064392808674963373 0 -0.0094326487764940115 0.00067042653581704319 0 -0.0094876467844408532 0.0006526227996473871 0 -0.0094326487764940115 0.00067042653581704319 0 -0.0094690987037121983 0.00069374801302219649 0 -0.0094876467844408532 0.0006526227996473871 0 -0.0094326487764940115 0.00067042653581704319 0 -0.0094690987037121983 0.00069374801302219649 0 -0.0094480771087764228 0.00068713215722529715 0 -0.0094690987037121983 0.00069374801302219649 0 -0.0094480771087764228 0.00068713215722529715 0 -0.0094733041488384191 0.00070308101323791265 0 -0.0095421725818297456 0.000666307513650377 0 -0.0094876467844408532 0.0006526227996473871 0 -0.0095043696444210828 0.0006827575414542588 0 -0.0091809738151584306 0.00067793214415243089 0 -0.009200207216484747 0.00062688605999804841 0 -0.0091825684203543818 0.00066224738145933702 0 -0.0092923618725426118 0.00068000249006932656 0 -0.0093642382496760667 0.00064516382458919979 0 -0.0094690987037121983 0.00069374801302219649 0 -0.0094876467844408532 0.0006526227996473871 0 -0.0095043696444210828 0.0006827575414542588 0 -0.0094690987037121983 0.00069374801302219649 0 -0.0095043696444210828 0.0006827575414542588 0 -0.0095095793903000846 0.00071284185926705191 0 -0.0095421725818297456 0.000666307513650377 0 -0.0095043696444210828 0.0006827575414542588 0 -0.0095667954015696485 0.00070002548180001065 0 -0.0095043696444210828 0.0006827575414542588 0 -0.0095095793903000846 0.00071284185926705191 0 -0.0095667954015696485 0.00070002548180001065 0 -0.010395175071436509 0.0004871902083296963 0 -0.010660509804323126 0.00039137125529367238 0 -0.010605571618239797 0.00060172522022488184 0 -0.0099439771215809099 0.00060093888661100941 0 -0.010155894508283378 0.00052640331352545803 0 -0.0099439771215809099 0.00060093888661100941 0 -0.0097947586891090985 0.00063473173606195155 0 -0.0094690987037121983 0.00069374801302219649 0 -0.0095095793903000846 0.00071284185926705191 0 -0.0094799174492619948 0.00070883374218094341 0 -0.010395175071436509 0.0004871902083296963 0 -0.01021245016980961 0.00077262554590146811 0 -0.01037855238057001 0.00080150656376726291 0 -0.010395175071436509 0.0004871902083296963 0 -0.010118153015973332 0.00055035943786366454 0 -0.01021245016980961 0.00077262554590146811 0 -0.010395175071436509 0.0004871902083296963 0 -0.010605571618239797 0.00060172522022488184 0 -0.01037855238057001 0.00080150656376726291 0 -0.0094480771087764228 0.00068713215722529715 0 -0.0094733041488384191 0.00070308101323791265 0 -0.0095016909666716873 0.00070878280691574042 0 -0.0094733041488384191 0.00070308101323791265 0 -0.0095016909666716873 0.00070878280691574042 0 -0.0094799174492619948 0.00070883374218094341 0 -0.0094690987037121983 0.00069374801302219649 0 -0.0094733041488384191 0.00070308101323791265 0 -0.0094799174492619948 0.00070883374218094341 0 -0.010118153015973332 0.00055035943786366454 0 -0.01021245016980961 0.00077262554590146811 0 -0.0099475406186557789 0.0007862775273324075 0 -0.0097947586891090985 0.00063473173606195155 0 -0.0095849398573872504 0.00071072213690464268 0 -0.010118153015973332 0.00055035943786366454 0 -0.0099475406186557789 0.0007862775273324075 0 -0.0095747857560326485 0.00071690759277772743 0 -0.0099475406186557789 0.0007862775273324075 0 -0.0095747857560326485 0.00071690759277772743 0 -0.0095790280681464432 0.00090393934214631831 0 -0.0095016909666716873 0.00070878280691574042 0 -0.0094799174492619948 0.00070883374218094341 0 -0.0095747857560326485 0.00071690759277772743 0 -0.0095747857560326485 0.00071690759277772743 0 -0.0094759534875093338 0.00073338771155538206 0 -0.0095790280681464432 0.00090393934214631831 0 -0.0094759534875093338 0.00073338771155538206 0 -0.0093912437829294284 0.00080022969472814866 0 -0.0095790280681464432 0.00090393934214631831 0 -0.0095016909666716873 0.00070878280691574042 0 -0.0095747857560326485 0.00071690759277772743 0 -0.0094759534875093338 0.00073338771155538206 0 -0.0095016909666716873 0.00070878280691574042 0 -0.0094759534875093338 0.00073338771155538206 0 -0.0094434249393834779 0.00071382774716932814 0 -0.0095016909666716873 0.00070878280691574042 0 -0.0094434249393834779 0.00071382774716932814 0 -0.0094248068480567038 0.00068870159491940812 0 -0.0094027282092274973 0.0007082861476516468 0 -0.0094070608904325004 0.00073643399667468483 0 -0.0093701380723171506 0.00073120754118659705 0 -0.0094434249393834779 0.00071382774716932814 0 -0.0094027282092274973 0.0007082861476516468 0 -0.0094248068480567038 0.00068870159491940812 0 -0.0094434249393834779 0.00071382774716932814 0 -0.0094027282092274973 0.0007082861476516468 0 -0.0094070608904325004 0.00073643399667468483 0 -0.0094759534875093338 0.00073338771155538206 0 -0.0094434249393834779 0.00071382774716932814 0 -0.0094070608904325004 0.00073643399667468483 0 -0.0094070608904325004 0.00073643399667468483 0 -0.0093912437829294284 0.00080022969472814866 0 -0.0093676539015112598 0.00076070310455682646 0 -0.0094759534875093338 0.00073338771155538206 0 -0.0094070608904325004 0.00073643399667468483 0 -0.0093912437829294284 0.00080022969472814866 0 -0.0098684943971664926 0.00091858572080968167 0 -0.010184777497229318 0.0010329131422014493 0 -0.0093912437829294284 0.00080022969472814866 0 -0.0093676539015112598 0.00076070310455682646 0 -0.009330389492524167 0.00077875475655584715 0 -0.0093676539015112598 0.00076070310455682646 0 -0.009330389492524167 0.00077875475655584715 0 -0.0093421273495543113 0.00075776878417235403 0 -0.011286554533947108 0.0012203677987135423 0 -0.011438963907432242 0.0010633079280307862 0 -0.011512178142444113 0.0012924210367274722 0 -0.009330389492524167 0.00077875475655584715 0 -0.009325802679898668 0.00076712033201079455 0 -0.0093421273495543113 0.00075776878417235403 0 -0.0093309863354274838 0.00078753978664761822 0 -0.0093067543830219045 0.00076636068286359499 0 -0.009325802679898668 0.00076712033201079455 0 -0.010184777497229318 0.0010329131422014493 0 -0.0098459108265973542 0.00074714529586959082 0 -0.010184777497229318 0.0010329131422014493 0 -0.010597422530542633 0.0012192268182580396 0 -0.0093309863354274838 0.00078753978664761822 0 -0.0093067543830219045 0.00076636068286359499 0 -0.0092923441373185308 0.00077595469814874122 0 -0.0093067543830219045 0.00076636068286359499 0 -0.009293249323527035 0.00076721620798453534 0 -0.0092899918808389201 0.00075590360912371939 0 -0.0093067543830219045 0.00076636068286359499 0 -0.0093097802324823564 0.0007541640471159601 0 -0.0092899918808389201 0.00075590360912371939 0 -0.0093067543830219045 0.00076636068286359499 0 -0.0093097802324823564 0.0007541640471159601 0 -0.009325802679898668 0.00076712033201079455 0 -0.0093097802324823564 0.0007541640471159601 0 -0.009325802679898668 0.00076712033201079455 0 -0.0093279818352043631 0.00074730840704271141 0 -0.009325802679898668 0.00076712033201079455 0 -0.0093279818352043631 0.00074730840704271141 0 -0.0093421273495543113 0.00075776878417235403 0 -0.0093279818352043631 0.00074730840704271141 0 -0.0093421273495543113 0.00075776878417235403 0 -0.0093454592251036341 0.00073772909943186401 0 -0.0093279818352043631 0.00074730840704271141 0 -0.0093339487477682639 0.00072914296482222266 0 -0.0093454592251036341 0.00073772909943186401 0 -0.0093279818352043631 0.00074730840704271141 0 -0.0093339487477682639 0.00072914296482222266 0 -0.0093117279957384176 0.00073387704941362984 0 -0.0093097802324823564 0.0007541640471159601 0 -0.0093279818352043631 0.00074730840704271141 0 -0.0093117279957384176 0.00073387704941362984 0 -0.0093097802324823564 0.0007541640471159601 0 -0.0093117279957384176 0.00073387704941362984 0 -0.0092988498873981112 0.00074692675924923051 0 -0.0093117279957384176 0.00073387704941362984 0 -0.0092894981997845068 0.0007392289152593493 0 -0.0092988498873981112 0.00074692675924923051 0 -0.0093097802324823564 0.0007541640471159601 0 -0.0092988498873981112 0.00074692675924923051 0 -0.0092899918808389201 0.00075590360912371939 0 -0.0092894981997845068 0.0007392289152593493 0 -0.0092988498873981112 0.00074692675924923051 0 -0.0092899918808389201 0.00075590360912371939 0 -0.0094070608904325004 0.00073643399667468483 0 -0.0093676539015112598 0.00076070310455682646 0 -0.0093701380723171506 0.00073120754118659705 0 -0.0093676539015112598 0.00076070310455682646 0 -0.0093421273495543113 0.00075776878417235403 0 -0.0093701380723171506 0.00073120754118659705 0 -0.0093421273495543113 0.00075776878417235403 0 -0.0093454592251036341 0.00073772909943186401 0 -0.0093701380723171506 0.00073120754118659705 0 -0.0093454592251036341 0.00073772909943186401 0 -0.0093701380723171506 0.00073120754118659705 0 -0.0093536139784161018 0.00071751532763741075 0 -0.0093339487477682639 0.00072914296482222266 0 -0.0093454592251036341 0.00073772909943186401 0 -0.0093536139784161018 0.00071751532763741075 0 -0.0093701380723171506 0.00073120754118659705 0 -0.009374165161093892 0.00070744732163928589 0 -0.0093536139784161018 0.00071751532763741075 0 -0.0094027282092274973 0.0007082861476516468 0 -0.0093701380723171506 0.00073120754118659705 0 -0.009374165161093892 0.00070744732163928589 0 -0.009374165161093892 0.00070744732163928589 0 -0.0093536139784161018 0.00071751532763741075 0 -0.0093582821999486279 0.00069511437910927223 0 -0.009374165161093892 0.00070744732163928589 0 -0.0093582821999486279 0.00069511437910927223 0 -0.0093843367530525735 0.00068926820243308097 0 -0.0093536139784161018 0.00071751532763741075 0 -0.0093582821999486279 0.00069511437910927223 0 -0.0093333126285140532 0.00070862276609670518 0 -0.0093339487477682639 0.00072914296482222266 0 -0.0093536139784161018 0.00071751532763741075 0 -0.0093333126285140532 0.00070862276609670518 0 -0.0093377175646985455 0.00068638274733882898 0 -0.0093582821999486279 0.00069511437910927223 0 -0.0093333126285140532 0.00070862276609670518 0 -0.0093377175646985455 0.00068638274733882898 0 -0.0093582821999486279 0.00069511437910927223 0 -0.0093557800593035804 0.00067285662714229111 0 -0.0093582821999486279 0.00069511437910927223 0 -0.0093557800593035804 0.00067285662714229111 0 -0.0093843367530525735 0.00068926820243308097 0 -0.0093117279957384176 0.00073387704941362984 0 -0.0092894981997845068 0.0007392289152593493 0 -0.0092887044557535253 0.0007180149156036787 0 -0.0093117279957384176 0.00073387704941362984 0 -0.0092887044557535253 0.0007180149156036787 0 -0.0093091904891672017 0.00071067353030991728 0 -0.0092887044557535253 0.0007180149156036787 0 -0.0093091904891672017 0.00071067353030991728 0 -0.0092937122234429421 0.00068540232426829353 0 -0.0093091904891672017 0.00071067353030991728 0 -0.0093333126285140532 0.00070862276609670518 0 -0.009317560394407948 0.00069315302255045506 0 -0.0093117279957384176 0.00073387704941362984 0 -0.0093091904891672017 0.00071067353030991728 0 -0.0093333126285140532 0.00070862276609670518 0 -0.0093339487477682639 0.00072914296482222266 0 -0.0093117279957384176 0.00073387704941362984 0 -0.0093333126285140532 0.00070862276609670518 0 -0.0093377175646985455 0.00068638274733882898 0 -0.0093333126285140532 0.00070862276609670518 0 -0.009317560394407948 0.00069315302255045506 0 -0.0093377175646985455 0.00068638274733882898 0 -0.009317560394407948 0.00069315302255045506 0 -0.0093186489056579485 0.00067940597026609284 0 -0.009317560394407948 0.00069315302255045506 0 -0.0093058146843211752 0.00068269945189672993 0 -0.0093186489056579485 0.00067940597026609284 0 -0.0092937122234429421 0.00068540232426829353 0 -0.0092957962400735776 0.00066644807793170161 0 -0.0092564085000257611 0.00069254466195349193 0 -0.0093091904891672017 0.00071067353030991728 0 -0.009317560394407948 0.00069315302255045506 0 -0.0092937122234429421 0.00068540232426829353 0 -0.0093058146843211752 0.00068269945189672993 0 -0.0092937122234429421 0.00068540232426829353 0 -0.0093033553015292487 0.0006742785053200196 0 -0.009317560394407948 0.00069315302255045506 0 -0.0093058146843211752 0.00068269945189672993 0 -0.0092937122234429421 0.00068540232426829353 0 -0.0092887044557535253 0.0007180149156036787 0 -0.0092937122234429421 0.00068540232426829353 0 -0.0092564085000257611 0.00069254466195349193 0 -0.0093033553015292487 0.0006742785053200196 0 -0.0093131135973979293 0.00066892471661547388 0 -0.0092957962400735776 0.00066644807793170161 0 -0.0092937122234429421 0.00068540232426829353 0 -0.0093033553015292487 0.0006742785053200196 0 -0.0092957962400735776 0.00066644807793170161 0 -0.0093058146843211752 0.00068269945189672993 0 -0.0093033553015292487 0.0006742785053200196 0 -0.0093186489056579485 0.00067940597026609284 0 -0.0093131135973979293 0.00066892471661547388 0 -0.0093186489056579485 0.00067940597026609284 0 -0.009333979968590091 0.00067361485665677785 0 -0.0093033553015292487 0.0006742785053200196 0 -0.0093131135973979293 0.00066892471661547388 0 -0.0093186489056579485 0.00067940597026609284 0 -0.0093377175646985455 0.00068638274733882898 0 -0.0093186489056579485 0.00067940597026609284 0 -0.009333979968590091 0.00067361485665677785 0 -0.0093131135973979293 0.00066892471661547388 0 -0.009333979968590091 0.00067361485665677785 0 -0.0093309187259909467 0.0006648153265520169 0 -0.0093001103975563753 0.00065305560941719101 0 -0.0093131135973979293 0.00066892471661547388 0 -0.0093309187259909467 0.0006648153265520169 0 -0.0093001103975563753 0.00065305560941719101 0 -0.0093131135973979293 0.00066892471661547388 0 -0.0092957962400735776 0.00066644807793170161 0 -0.006538469748643797 0.00035576267300962234 0 -0.0091131567389030992 0.0005514802945482105 0 -0.0093557800593035804 0.00067285662714229111 0 -0.009333979968590091 0.00067361485665677785 0 -0.0093309187259909467 0.0006648153265520169 0 -0.0093377175646985455 0.00068638274733882898 0 -0.0093557800593035804 0.00067285662714229111 0 -0.009333979968590091 0.00067361485665677785 0 -0.0093521573774870571 0.00065936596480359669 0 -0.0093557800593035804 0.00067285662714229111 0 -0.0093309187259909467 0.0006648153265520169 0 -0.0093521573774870571 0.00065936596480359669 0 -0.0093557800593035804 0.00067285662714229111 0 -0.009382088735495904 0.0006703241032908645 0 -0.009382088735495904 0.0006703241032908645 0 -0.0094056125935652393 0.00066928184378555659 0 -0.0094248068480567038 0.00068870159491940812 0 -0.0093725736076686796 0.00065876449243248796 0 -0.009382088735495904 0.0006703241032908645 0 -0.0094056125935652393 0.00066928184378555659 0 -0.0093557800593035804 0.00067285662714229111 0 -0.009382088735495904 0.0006703241032908645 0 -0.0093843367530525735 0.00068926820243308097 0 -0.0094128459948098642 0.00066174709212046476 0 -0.0094480771087764228 0.00068713215722529715 0 -0.0094056125935652393 0.00066928184378555659 0 -0.0093928628708085521 0.00066209030482267117 0 -0.0094128459948098642 0.00066174709212046476 0 -0.0094056125935652393 0.00066928184378555659 0 -0.0094480771087764228 0.00068713215722529715 0 -0.0094056125935652393 0.00066928184378555659 0 -0.0094248068480567038 0.00068870159491940812 0 -0.0094480771087764228 0.00068713215722529715 0 -0.0095016909666716873 0.00070878280691574042 0 -0.0094248068480567038 0.00068870159491940812 0 -0.0094027282092274973 0.0007082861476516468 0 -0.0094248068480567038 0.00068870159491940812 0 -0.0093843367530525735 0.00068926820243308097 0 -0.009382088735495904 0.0006703241032908645 0 -0.0094248068480567038 0.00068870159491940812 0 -0.0093843367530525735 0.00068926820243308097 0 -0.0094027282092274973 0.0007082861476516468 0 -0.009374165161093892 0.00070744732163928589 0 -0.0093843367530525735 0.00068926820243308097 0 -0.014003285781037395 0.00027045576737254876 0 -0.012848779210975634 0.00069725946519775747 0 -0.013472832760597424 0.00035580267351684967 0 -0.012848779210975634 0.00069725946519775747 0 -0.0093029158214773984 0.0019938164526948862 0 -0.0090748123333334978 0.0021102012138871839 0 -0.0091761497765215569 0.0020078142944371848 0 -0.013219574332040216 0.00038637589856239127 0 -0.012984106693966853 0.00052097355625828302 0 -0.012966568189170408 0.00051907952773951917 0 -0.013219574332040216 0.00038637589856239127 0 -0.01319749830782152 0.00044601199947536522 0 -0.012984106693966853 0.00052097355625828302 0 -0.011171573231284549 0.0012582459295678249 0 -0.011399796816786243 0.00097391573802747605 0 -0.013563306042163771 0.00034087088073910329 0 -0.014048919330565329 0.0004086376910074978 0 -0.013898396069187455 0.0003163166563445349 0 -0.0090748123333334978 0.0021102012138871839 0 -0.0091216968461668175 0.0019972541310572735 0 -0.0091761497765215569 0.0020078142944371848 0 -0.011405125415927881 0.00065418145535588255 0 -0.011343054157611838 0.00070190119917213885 0 -0.010856191270857723 0.00063631739805041594 0 -0.011399796816786243 0.00097391573802747605 0 -0.0096256465389584472 0.0014378898732795981 0 -0.012848779210975634 0.00069725946519775747 0 -0.012439027600658686 0.000585131323419163 0 -0.0090748123333334978 0.0021102012138871839 0 -0.0089637302470193126 0.0020680254417926383 0 -0.0088965559321422666 0.0020737489655900504 0 -0.011814663516557543 0.00093411477126268457 0 -0.01201569837013465 0.00093745388193553088 0 -0.012392619625891207 0.00063334548382397763 0 -0.012848779210975634 0.00069725946519775747 0 -0.011399796816786243 0.00097391573802747605 0 -0.011399796816786243 0.00097391573802747605 0 -0.012439027600658686 0.000585131323419163 0 -0.0090283610767280496 0.002024835179450268 0 -0.0089341243947142872 0.0019847172087218076 0 -0.0089637302470193126 0.0020680254417926383 0 -0.0090748123333334978 0.0021102012138871839 0 -0.0090283610767280496 0.002024835179450268 0 -0.0091216968461668175 0.0019972541310572735 0 -0.0090748123333334978 0.0021102012138871839 0 -0.0090283610767280496 0.002024835179450268 0 -0.0089637302470193126 0.0020680254417926383 0 -0.0090283610767280496 0.002024835179450268 0 -0.009066453356232046 0.0019144614908789478 0 -0.0091216968461668175 0.0019972541310572735 0 -0.0090283610767280496 0.002024835179450268 0 -0.0089641968514904118 0.0019133418437439235 0 -0.009066453356232046 0.0019144614908789478 0 -0.0090283610767280496 0.002024835179450268 0 -0.0089641968514904118 0.0019133418437439235 0 -0.0089341243947142872 0.0019847172087218076 0 -0.009066453356232046 0.0019144614908789478 0 -0.0091216968461668175 0.0019972541310572735 0 -0.0092046049402571446 0.0019237453766195497 0 -0.009066453356232046 0.0019144614908789478 0 -0.0092046049402571446 0.0019237453766195497 0 -0.009133860885037523 0.0018561809806000007 0 -0.0091216968461668175 0.0019972541310572735 0 -0.0091761497765215569 0.0020078142944371848 0 -0.0092046049402571446 0.0019237453766195497 0 -0.0093029158214773984 0.0019938164526948862 0 -0.0091761497765215569 0.0020078142944371848 0 -0.0092046049402571446 0.0019237453766195497 0 -0.0092891180478927478 0.0018484225688829038 0 -0.0092046049402571446 0.0019237453766195497 0 -0.0091984418878459425 0.0018264799906314397 0 -0.0092046049402571446 0.0019237453766195497 0 -0.0091984418878459425 0.0018264799906314397 0 -0.009133860885037523 0.0018561809806000007 0 -0.0091984418878459425 0.0018264799906314397 0 -0.009133860885037523 0.0018561809806000007 0 -0.0091240864528874099 0.0017774269945847797 0 -0.009066453356232046 0.0019144614908789478 0 -0.009133860885037523 0.0018561809806000007 0 -0.0090513056719288762 0.0017846721513420406 0 -0.009133860885037523 0.0018561809806000007 0 -0.0091240864528874099 0.0017774269945847797 0 -0.0090513056719288762 0.0017846721513420406 0 -0.0091240864528874099 0.0017774269945847797 0 -0.009048723434161219 0.0017130994723961064 0 -0.0090513056719288762 0.0017846721513420406 0 -0.0092562426699694094 0.0017831661707165319 0 -0.0091984418878459425 0.0018264799906314397 0 -0.0091866895208746208 0.0017659315689244662 0 -0.0091984418878459425 0.0018264799906314397 0 -0.0091240864528874099 0.0017774269945847797 0 -0.0091866895208746208 0.0017659315689244662 0 -0.0091240864528874099 0.0017774269945847797 0 -0.0091866895208746208 0.0017659315689244662 0 -0.0091234954750458279 0.0017126384580456637 0 -0.0092562426699694094 0.0017831661707165319 0 -0.0091866895208746208 0.0017659315689244662 0 -0.0092179214602584811 0.0017337465465230588 0 -0.0092179214602584811 0.0017337465465230588 0 -0.0092108504837882695 0.0016780267412751329 0 -0.009177087978140255 0.0017105142930653853 0 -0.0091866895208746208 0.0017659315689244662 0 -0.0092179214602584811 0.0017337465465230588 0 -0.009177087978140255 0.0017105142930653853 0 -0.0092108504837882695 0.0016780267412751329 0 -0.009177087978140255 0.0017105142930653853 0 -0.0091468885589970263 0.0016602888058645387 0 -0.009177087978140255 0.0017105142930653853 0 -0.0091234954750458279 0.0017126384580456637 0 -0.0091468885589970263 0.0016602888058645387 0 -0.0091866895208746208 0.0017659315689244662 0 -0.009177087978140255 0.0017105142930653853 0 -0.0091234954750458279 0.0017126384580456637 0 -0.0091240864528874099 0.0017774269945847797 0 -0.0091234954750458279 0.0017126384580456637 0 -0.009048723434161219 0.0017130994723961064 0 -0.0091234954750458279 0.0017126384580456637 0 -0.009048723434161219 0.0017130994723961064 0 -0.0090675424104969173 0.0016508532763306978 0 -0.0091234954750458279 0.0017126384580456637 0 -0.0090675424104969173 0.0016508532763306978 0 -0.0091468885589970263 0.0016602888058645387 0 -0.0090675424104969173 0.0016508532763306978 0 -0.0091240834815900958 0.001589964679266784 0 -0.0091468885589970263 0.0016602888058645387 0 -0.0090675424104969173 0.0016508532763306978 0 -0.0090202958351381854 0.0015833220476267206 0 -0.0091240834815900958 0.001589964679266784 0 -0.0091879212096980575 0.001573525999419611 0 -0.0091240834815900958 0.001589964679266784 0 -0.0091975157859491893 0.0016225004239657347 0 -0.0092452715036712412 0.0015779840091659284 0 -0.0091879212096980575 0.001573525999419611 0 -0.0091975157859491893 0.0016225004239657347 0 -0.0092108504837882695 0.0016780267412751329 0 -0.0091975157859491893 0.0016225004239657347 0 -0.0091468885589970263 0.0016602888058645387 0 -0.0091240834815900958 0.001589964679266784 0 -0.0091975157859491893 0.0016225004239657347 0 -0.0091468885589970263 0.0016602888058645387 0 -0.0089276158205979783 0.0015617755987403711 0 -0.0089752262950163839 0.0016346170477606386 0 -0.0088522608750802693 0.0015839379113457026 0 -0.0089752262950163839 0.0016346170477606386 0 -0.0089546993804546487 0.0017131465035801854 0 -0.0088522608750802693 0.0015839379113457026 0 -0.0090675424104969173 0.0016508532763306978 0 -0.0090202958351381854 0.0015833220476267206 0 -0.0089752262950163839 0.0016346170477606386 0 -0.0089276158205979783 0.0015617755987403711 0 -0.0090202958351381854 0.0015833220476267206 0 -0.0089752262950163839 0.0016346170477606386 0 -0.009048723434161219 0.0017130994723961064 0 -0.0090675424104969173 0.0016508532763306978 0 -0.0089752262950163839 0.0016346170477606386 0 -0.009048723434161219 0.0017130994723961064 0 -0.0089752262950163839 0.0016346170477606386 0 -0.0089546993804546487 0.0017131465035801854 0 -0.0089546993804546487 0.0017131465035801854 0 -0.0088591537395040047 0.0016975202441088064 0 -0.0088522608750802693 0.0015839379113457026 0 -0.0089546993804546487 0.0017131465035801854 0 -0.0089489683981443281 0.0018006633601117966 0 -0.0088591537395040047 0.0016975202441088064 0 -0.009048723434161219 0.0017130994723961064 0 -0.0089546993804546487 0.0017131465035801854 0 -0.0090513056719288762 0.0017846721513420406 0 -0.0089546993804546487 0.0017131465035801854 0 -0.0089489683981443281 0.0018006633601117966 0 -0.0090513056719288762 0.0017846721513420406 0 -0.009066453356232046 0.0019144614908789478 0 -0.0089489683981443281 0.0018006633601117966 0 -0.0090513056719288762 0.0017846721513420406 0 -0.0089641968514904118 0.0019133418437439235 0 -0.009066453356232046 0.0019144614908789478 0 -0.0089489683981443281 0.0018006633601117966 0 -0.0089641968514904118 0.0019133418437439235 0 -0.0089489683981443281 0.0018006633601117966 0 -0.0088147922101520556 0.0017827270227143896 0 -0.0089641968514904118 0.0019133418437439235 0 -0.0088147922101520556 0.0017827270227143896 0 -0.0087723017511973818 0.0019274477283419361 0 -0.0089489683981443281 0.0018006633601117966 0 -0.0088147922101520556 0.0017827270227143896 0 -0.0088591537395040047 0.0016975202441088064 0 -0.0088147922101520556 0.0017827270227143896 0 -0.0088591537395040047 0.0016975202441088064 0 -0.0087418366453012458 0.001614268495507475 0 -0.0088591537395040047 0.0016975202441088064 0 -0.0087418366453012458 0.001614268495507475 0 -0.0088522608750802693 0.0015839379113457026 0 -0.008645067613914318 0.0013521693236181356 0 -0.0085892843311178007 0.0013399183097012966 0 -0.0085890416485929402 0.0014088713902695189 0 -0.0088147922101520556 0.0017827270227143896 0 -0.0087418366453012458 0.001614268495507475 0 -0.0086169867293445345 0.001746879889856988 0 -0.0086893472945889193 0.0014852740074561685 0 -0.0086809331712641036 0.0015517663938301792 0 -0.0087915040621738185 0.0018024412246703983 0 -0.008879854372732067 0.0019254428957292402 0 -0.0087171119849409218 0.001877615543109465 0 -0.0088147922101520556 0.0017827270227143896 0 -0.0086169867293445345 0.001746879889856988 0 -0.0087723017511973818 0.0019274477283419361 0 -0.0086809331712641036 0.0015517663938301792 0 -0.0088452028772801356 0.0019647475598409412 0 -0.008879854372732067 0.0019254428957292402 0 -0.0088233829915223636 0.0020050575521625771 0 -0.0087171119849409218 0.001877615543109465 0 -0.0087723017511973818 0.0019274477283419361 0 -0.0089341243947142872 0.0019847172087218076 0 -0.0089637302470193126 0.0020680254417926383 0 -0.0089641968514904118 0.0019133418437439235 0 -0.0087723017511973818 0.0019274477283419361 0 -0.0089341243947142872 0.0019847172087218076 0 -0.0088452028772801356 0.0019647475598409412 0 -0.0089393940143225673 0.002041653568278502 0 -0.008879854372732067 0.0019254428957292402 0 -0.0089637302470193126 0.0020680254417926383 0 -0.0088965559321422666 0.0020737489655900504 0 -0.008879854372732067 0.0019254428957292402 0 -0.0088965559321422666 0.0020737489655900504 0 -0.0088233829915223636 0.0020050575521625771 0 -0.0088965559321422666 0.0020737489655900504 0 -0.0088233829915223636 0.0020050575521625771 0 -0.0087492322753684997 0.0020459486307782978 0 -0.0096256465389584472 0.0014378898732795981 0 -0.0095731562473378769 0.00099075619749605052 0 -0.010856191270857723 0.00063631739805041594 0 -0.01030145882914545 0.00061478968272246312 0 -0.010573945827778515 0.00077970462075536572 0 -0.0093548173476139512 0.00059918362927086706 0 -0.0093892868783065631 0.00062741259465776177 0 -0.0093730953597102023 0.0006264025517257421 0 -0.0093998663348928597 0.00062684609050360929 0 -0.0093730953597102023 0.0006264025517257421 0 -0.0093889531079706899 0.00066948428734361182 0 -0.0095731562473378769 0.00099075619749605052 0 -0.0094477700014337189 0.00090471749265103377 0 -0.0093367326739377671 0.00062068584216838185 0 -0.0093023007326739331 0.00063851406747982226 0 -0.0093449138062139669 0.00065495522806054401 0 -0.0093730953597102023 0.0006264025517257421 0 -0.0093367326739377671 0.00062068584216838185 0 -0.0093449138062139669 0.00065495522806054401 0 -0.0093367326739377671 0.00062068584216838185 0 -0.0093023007326739331 0.00063851406747982226 0 -0.009306695434312541 0.00058707920747039872 0 -0.0093548173476139512 0.00059918362927086706 0 -0.0093367326739377671 0.00062068584216838185 0 -0.009306695434312541 0.00058707920747039872 0 -0.0093548173476139512 0.00059918362927086706 0 -0.0093730953597102023 0.0006264025517257421 0 -0.0093367326739377671 0.00062068584216838185 0 -0.0093548173476139512 0.00059918362927086706 0 -0.009306695434312541 0.00058707920747039872 0 -0.0093679864006670083 0.00053977996265017268 0 -0.0091879137863594956 0.00066828274249972498 0 -0.0091886933552363798 0.00066700983256845036 0 -0.0091947325150201868 0.00066818822745762685 0 -0.0093195298887799906 0.0005257107446557369 0 -0.0090370363097916472 0.0011385138910426939 0 -0.0091879137863594956 0.00066828274249972498 0 -0.0091886933552363798 0.00066700983256845036 0 -0.0091845019721378818 0.00066735520058412267 0 -0.0093548173476139512 0.00059918362927086706 0 -0.0093892868783065631 0.00062741259465776177 0 -0.0093679864006670083 0.00053977996265017268 0 -0.0088233829915223636 0.0020050575521625771 0 -0.0087492322753684997 0.0020459486307782978 0 -0.0087171119849409218 0.001877615543109465 0 -0.0095731562473378769 0.00099075619749605052 0 -0.0090370363097916472 0.0011385138910426939 0 -0.0089052665305710422 0.0011763243988792832 0 -0.0088493544080459671 0.0012313777460630506 0 -0.0088349961183646856 0.0011498110392899736 0 -0.0086809331712641036 0.0015517663938301792 0 -0.0090370363097916472 0.0011385138910426939 0 -0.0090370363097916472 0.0011385138910426939 0 -0.0090081601584740805 0.00085213512789147124 0 -0.0087807144502681112 0.0010092126454420212 0 -0.0090081601584740805 0.00085213512789147124 0 -0.0087807144502681112 0.0010092126454420212 0 -0.0086809331712641036 0.0015517663938301792 0 -0.0085170272359325633 0.001315755487591703 0 -0.0085892843311178007 0.0013399183097012966 0 -0.0085890416485929402 0.0014088713902695189 0 -0.0088213086360263478 0.0010669924536371241 0 -0.0089052665305710422 0.0011763243988792832 0 -0.0088349961183646856 0.0011498110392899736 0 -0.0091958561075335156 0.000657505205746074 0 -0.0091872864416988019 0.00064585341936062852 0 -0.0091854876381902168 0.00065835882468018336 0 -0.009195380798533553 0.00064104364096426647 0 -0.0091958561075335156 0.000657505205746074 0 -0.0091872864416988019 0.00064585341936062852 0 -0.0091886933552363798 0.00066700983256845036 0 -0.0091958561075335156 0.000657505205746074 0 -0.0091854876381902168 0.00065835882468018336 0 -0.0091886933552363798 0.00066700983256845036 0 -0.0091947325150201868 0.00066818822745762685 0 -0.0091958561075335156 0.000657505205746074 0 -0.0091886933552363798 0.00066700983256845036 0 -0.0091854876381902168 0.00065835882468018336 0 -0.0091845019721378818 0.00066735520058412267 0 -0.0091854876381902168 0.00065835882468018336 0 -0.0091739168800351115 0.00065925572903416645 0 -0.0091845019721378818 0.00066735520058412267 0 -0.0091854876381902168 0.00065835882468018336 0 -0.009175887708597787 0.00064489983699270983 0 -0.0091739168800351115 0.00065925572903416645 0 -0.0091872864416988019 0.00064585341936062852 0 -0.0091854876381902168 0.00065835882468018336 0 -0.009175887708597787 0.00064489983699270983 0 -0.0091609575679497072 0.00066094776419354227 0 -0.0091531925023142658 0.00064369678670714487 0 -0.0091739168800351115 0.00065925572903416645 0 -0.009175887708597787 0.00064489983699270983 0 -0.0091531925023142658 0.00064369678670714487 0 -0.0091739168800351115 0.00065925572903416645 0 -0.0091609575679497072 0.00066094776419354227 0 -0.0091739168800351115 0.00065925572903416645 0 -0.0091769090826859748 0.00066837257619702225 0 -0.0091739168800351115 0.00065925572903416645 0 -0.0091769090826859748 0.00066837257619702225 0 -0.0091845019721378818 0.00066735520058412267 0 -0.0091769090826859748 0.00066837257619702225 0 -0.0091845019721378818 0.00066735520058412267 0 -0.009190763126117182 0.00066670432717989912 0 -0.0091721239424199397 0.00067586229445490919 0 -0.0091769090826859748 0.00066837257619702225 0 -0.0091795903159077891 0.00067030806831330466 0 -0.0091769090826859748 0.00066837257619702225 0 -0.0091795903159077891 0.00067030806831330466 0 -0.009190763126117182 0.00066670432717989912 0 -0.0091879137863594956 0.00066828274249972498 0 -0.0091845019721378818 0.00066735520058412267 0 -0.009190763126117182 0.00066670432717989912 0 -0.0091879137863594956 0.00066828274249972498 0 -0.009190763126117182 0.00066670432717989912 0 -0.0092102540638237251 0.00066204731080942813 0 -0.0093023007326739331 0.00063851406747982226 0 -0.009306695434312541 0.00058707920747039872 0 -0.0092102540638237251 0.00066204731080942813 0 -0.0093195298887799906 0.0005257107446557369 0 -0.0091780803610407424 0.00070064803101236987 0 -0.0091795903159077891 0.00067030806831330466 0 -0.009190763126117182 0.00066670432717989912 0 -0.0091825684203543818 0.00066224738145933702 0 -0.009190763126117182 0.00066670432717989912 0 -0.0091825684203543818 0.00066224738145933702 0 -0.0092102540638237251 0.00066204731080942813 0 -0.0091809738151584306 0.00067793214415243089 0 -0.0092102540638237251 0.00066204731080942813 0 -0.009237100214407757 0.00070166680785019872 0 -0.0091809738151584306 0.00067793214415243089 0 -0.0091825684203543818 0.00066224738145933702 0 -0.0092102540638237251 0.00066204731080942813 0 -0.009237100214407757 0.00070166680785019872 0 -0.0093007197966808938 0.0007449814548943065 0 -0.0092881794728872126 0.0006704874595394011 0 -0.0093023007326739331 0.00063851406747982226 0 -0.0092102540638237251 0.00066204731080942813 0 -0.0092881794728872126 0.0006704874595394011 0 -0.0092102540638237251 0.00066204731080942813 0 -0.009237100214407757 0.00070166680785019872 0 -0.0092881794728872126 0.0006704874595394011 0 -0.010825939728050328 0.00033045828063882956 0 -0.01084176810282148 0.00051085936406622097 0 -0.010944017451482522 0.00028898816527316061 0 -0.009237100214407757 0.00070166680785019872 0 -0.0092500650554485451 0.00074925791962816184 0 -0.0093007197966808938 0.0007449814548943065 0 -0.009821382456603394 0.00054564101885600891 0 -0.010164165595449231 0.00048144760508094534 0 -0.009821382456603394 0.00054564101885600891 0 -0.010155894508283378 0.00052640331352545803 0 -0.0095421725818297456 0.000666307513650377 0 -0.0096031987794737619 0.00068714743095246744 0 -0.0095667954015696485 0.00070002548180001065 0 -0.0092923618725426118 0.00068000249006932656 0 -0.009821382456603394 0.00054564101885600891 0 -0.0091809738151584306 0.00067793214415243089 0 -0.009237100214407757 0.00070166680785019872 0 -0.0092500650554485451 0.00074925791962816184 0 -0.010660509804323126 0.00039137125529367238 0 -0.010605571618239797 0.00060172522022488184 0 -0.01084176810282148 0.00051085936406622097 0 -0.010605571618239797 0.00060172522022488184 0 -0.010752592460135551 0.00082117744005717741 0 -0.01037855238057001 0.00080150656376726291 0 -0.010605571618239797 0.00060172522022488184 0 -0.01084176810282148 0.00051085936406622097 0 -0.010752592460135551 0.00082117744005717741 0 -0.012330100629982011 0.00065472591350980956 0 -0.012379174898841157 0.00067620482289370979 0 -0.01084176810282148 0.00051085936406622097 0 -0.011035712859757263 0.00062143704029810293 0 -0.010752592460135551 0.00082117744005717741 0 -0.01084176810282148 0.00051085936406622097 0 -0.010987771896707852 0.00044135517431093108 0 -0.010944017451482522 0.00028898816527316061 0 -0.010825939728050328 0.00033045828063882956 0 -0.010660509804323126 0.00039137125529367238 0 -0.01084176810282148 0.00051085936406622097 0 -0.010987771896707852 0.00044135517431093108 0 -0.011035712859757263 0.00062143704029810293 0 -0.011129453254377843 0.00034398758799550344 0 -0.01084176810282148 0.00051085936406622097 0 -0.010987771896707852 0.00044135517431093108 0 -0.011035712859757263 0.00062143704029810293 0 -0.013831636854384623 0.00065255705022008461 0 -0.013772503409929832 0.00058980487402390358 0 -0.013830173106178803 0.00054105442004015328 0 -0.013831636854384623 0.00065255705022008461 0 -0.01371066502884501 0.00074199951103533137 0 -0.013772503409929832 0.00058980487402390358 0 -0.01371066502884501 0.00074199951103533137 0 -0.013700123816242653 0.00060573013471723863 0 -0.013772503409929832 0.00058980487402390358 0 -0.011035712859757263 0.00062143704029810293 0 -0.011313867219570131 0.00041148277034812781 0 -0.011129453254377843 0.00034398758799550344 0 -0.012330100629982011 0.00065472591350980956 0 -0.01305175357623109 0.00060745009886153706 0 -0.011313867219570131 0.00041148277034812781 0 -0.011233768273333368 0.00028932249022733551 0 -0.011129453254377843 0.00034398758799550344 0 -0.01305175357623109 0.00060745009886153706 0 -0.010819857217337367 0.00051921415597053374 0 -0.011313867219570131 0.00041148277034812781 0 -0.011233768273333368 0.00028932249022733551 0 -0.011270895490376617 0.0002017186507076514 0 -0.011233768273333368 0.00028932249022733551 0 -0.011270895490376617 0.0002017186507076514 0 -0.011235083324115991 0.00019061372576028302 0 -0.010449973662864955 0.00097636961939077287 0 -0.010455342118992836 0.0010072492378228038 0 -0.01059675826060166 0.0010534440978589457 0 -0.011233768273333368 0.00028932249022733551 0 -0.011129453254377843 0.00034398758799550344 0 -0.011235083324115991 0.00019061372576028302 0 -0.010164165595449231 0.00048144760508094534 0 -0.010217834355185815 0.00056071314367708771 0 -0.011129453254377843 0.00034398758799550344 0 -0.010944017451482522 0.00028898816527316061 0 -0.011235083324115991 0.00019061372576028302 0 -0.010987771896707852 0.00044135517431093108 0 -0.011129453254377843 0.00034398758799550344 0 -0.010944017451482522 0.00028898816527316061 0 -0.0089809082439273914 0.0006679760574069591 0 -0.010217834355185815 0.00056071314367708771 0 -0.0092881794728872126 0.0006704874595394011 0 -0.0093449138062139669 0.00065495522806054401 0 -0.0094060365814096492 0.00071291916247308296 0 -0.0093007197966808938 0.0007449814548943065 0 -0.0092881794728872126 0.0006704874595394011 0 -0.0094453687178193222 0.00070343454180711281 0 -0.0093023007326739331 0.00063851406747982226 0 -0.0092881794728872126 0.0006704874595394011 0 -0.0093449138062139669 0.00065495522806054401 0 -0.0093449138062139669 0.00065495522806054401 0 -0.0093889531079706899 0.00066948428734361182 0 -0.0094060365814096492 0.00071291916247308296 0 -0.0093730953597102023 0.0006264025517257421 0 -0.0093449138062139669 0.00065495522806054401 0 -0.0093889531079706899 0.00066948428734361182 0 -0.0095731562473378769 0.00099075619749605052 0 -0.010485530329194057 0.00068160210897538038 0 -0.01030145882914545 0.00061478968272246312 0 -0.010363697100965366 0.0010087792390447818 0 -0.010573945827778515 0.00077970462075536572 0 -0.0093998663348928597 0.00062684609050360929 0 -0.0093889531079706899 0.00066948428734361182 0 -0.0094190661191577742 0.00070864342251684954 0 -0.0093889531079706899 0.00066948428734361182 0 -0.0094190661191577742 0.00070864342251684954 0 -0.0094060365814096492 0.00071291916247308296 0 -0.010485530329194057 0.00068160210897538038 0 -0.010819857217337367 0.00051921415597053374 0 -0.010819857217337367 0.00051921415597053374 0 -0.010217834355185815 0.00056071314367708771 0 -0.010485530329194057 0.00068160210897538038 0 -0.010217834355185815 0.00056071314367708771 0 -0.010618597418179224 0.00040959225876309241 0 -0.010623977293927165 0.00044200212380871902 0 -0.010570790121451954 0.00042568983943007789 0 -0.010449973662864955 0.00097636961939077287 0 -0.010768015899537138 0.00086827998747572219 0 -0.01059675826060166 0.0010534440978589457 0 -0.011620755368819733 0.00077088320829213515 0 -0.011706029990195729 0.00061178401174265663 0 -0.010363697100965366 0.0010087792390447818 0 -0.010573945827778515 0.00077970462075536572 0 -0.010768015899537138 0.00086827998747572219 0 -0.010768015899537138 0.00086827998747572219 0 -0.010942939143485446 0.00089416845871687805 0 -0.01059675826060166 0.0010534440978589457 0 -0.010485530329194057 0.00068160210897538038 0 -0.010681113511164918 0.00091924778055829496 0 -0.010856191270857723 0.00063631739805041594 0 -0.010573945827778515 0.00077970462075536572 0 -0.010768015899537138 0.00086827998747572219 0 -0.011343054157611838 0.00070190119917213885 0 -0.010856191270857723 0.00063631739805041594 0 -0.010942939143485446 0.00089416845871687805 0 -0.010856191270857723 0.00063631739805041594 0 -0.010768015899537138 0.00086827998747572219 0 -0.010942939143485446 0.00089416845871687805 0 -0.013436179592846815 0.00033942498473452505 0 -0.013710602642342907 0.00050443715530864674 0 -0.012533821412026235 0.00054157923908176105 0 -0.01254172495988656 0.00054426390048940138 0 -0.012519596153702777 0.00055849073671619459 0 -0.014173909003585838 0.00024618924572090164 0 -0.014212664744963728 0.00021077841916439547 0 -0.014158649325939143 0.00021837349051882484 0 -0.013710602642342907 0.00050443715530864674 0 -0.014343223893072863 0.00024782537673216187 0 -0.014212664744963728 0.00021077841916439547 0 -0.014129684672404597 0.00017726779192675155 0 -0.014158649325939143 0.00021837349051882484 0 -0.014617818805633445 0.00059486776649834538 0 -0.014560674621981849 0.00046613526249275269 0 -0.014420330844023875 0.00053093236588163328 0 -0.012270275193624622 0.00098085145823582388 0 -0.012136529343475673 0.00019028561165844034 0 -0.012514248460276659 0.0003059675764874862 0 -0.014740366109127745 0.00050217576342340966 0 -0.014617818805633445 0.00059486776649834538 0 -0.014560674621981849 0.00046613526249275269 0 -0.012533821412026235 0.00054157923908176105 0 -0.012519596153702777 0.00055849073671619459 0 -0.012498812032823173 0.00055211568828437193 0 -0.013710602642342907 0.00050443715530864674 0 -0.011706029990195729 0.00061178401174265663 0 -0.010819857217337367 0.00051921415597053374 0 -0.011706029990195729 0.00061178401174265663 0 -0.012270275193624622 0.00098085145823582388 0 -0.012958267681731467 0.00044274501002770754 0 -0.012514248460276659 0.0003059675764874862 0 -0.01305175357623109 0.00060745009886153706 0 -0.013710602642342907 0.00050443715530864674 0 -0.01305175357623109 0.00060745009886153706 0 -0.014322758325217786 0.00047421701656800579 0 -0.014740366109127745 0.00050217576342340966 0 -0.014605596922408188 0.0003440287132864796 0 -0.014560674621981849 0.00046613526249275269 0 -0.014740366109127745 0.00050217576342340966 0 -0.014727733684883691 0.00028347383926523333 0 -0.014605596922408188 0.0003440287132864796 0 -0.014727733684883691 0.00028347383926523333 0 -0.014605596922408188 0.0003440287132864796 0 -0.014541795396468965 0.00024351922603026426 0 -0.014605596922408188 0.0003440287132864796 0 -0.014408068087982832 0.00037170520269781725 0 -0.014541795396468965 0.00024351922603026426 0 -0.014605596922408188 0.0003440287132864796 0 -0.014560674621981849 0.00046613526249275269 0 -0.014408068087982832 0.00037170520269781725 0 -0.014113019746929993 -6.4047144268775615e-05 0 -0.014072268526017491 -1.8288865918523895e-05 0 -0.014108656472419833 3.557483406376362e-05 0 -0.014259810195403851 0.00016021317614464713 0 -0.014343223893072863 0.00024782537673216187 0 -0.014560674621981849 0.00046613526249275269 0 -0.014408068087982832 0.00037170520269781725 0 -0.014420330844023875 0.00053093236588163328 0 -0.014072268526017491 -1.8288865918523895e-05 0 -0.014062836297866473 2.6595152781752146e-05 0 -0.014108656472419833 3.557483406376362e-05 0 -0.014259810195403851 0.00016021317614464713 0 -0.014287758718514169 6.4247551842497435e-05 0 -0.014408068087982832 0.00037170520269781725 0 -0.014388666072332485 0.00020537281174204909 0 -0.014541795396468965 0.00024351922603026426 0 -0.014113019746929993 -6.4047144268775615e-05 0 -0.014106313370597316 -8.220555621103249e-05 0 -0.014061931833367472 -5.5565645554997365e-05 0 -0.014113019746929993 -6.4047144268775615e-05 0 -0.014106313370597316 -8.220555621103249e-05 0 -0.014175882685713638 -5.404165900797313e-05 0 -0.014005582954175892 -6.1970847886211983e-05 0 -0.014106313370597316 -8.220555621103249e-05 0 -0.014061931833367472 -5.5565645554997365e-05 0 -0.014005582954175892 -6.1970847886211983e-05 0 -0.014061931833367472 -5.5565645554997365e-05 0 -0.014005824194074762 4.6382632843280604e-06 0 -0.014113019746929993 -6.4047144268775615e-05 0 -0.014061931833367472 -5.5565645554997365e-05 0 -0.014072268526017491 -1.8288865918523895e-05 0 -0.014061931833367472 -5.5565645554997365e-05 0 -0.014072268526017491 -1.8288865918523895e-05 0 -0.014005824194074762 4.6382632843280604e-06 0 -0.014072268526017491 -1.8288865918523895e-05 0 -0.014005824194074762 4.6382632843280604e-06 0 -0.014062836297866473 2.6595152781752146e-05 0 -0.013901647752177306 3.0336761355708519e-05 0 -0.014005824194074762 4.6382632843280604e-06 0 -0.013939200193353986 8.9495162740376767e-05 0 -0.014005824194074762 4.6382632843280604e-06 0 -0.013939200193353986 8.9495162740376767e-05 0 -0.014014745944863094 7.5780416499954395e-05 0 -0.013833002702439482 0.00012755409591461367 0 -0.013939200193353986 8.9495162740376767e-05 0 -0.013896353233967242 0.00018482506619047412 0 -0.013939200193353986 8.9495162740376767e-05 0 -0.013983841605808064 0.00015139567414371733 0 -0.013896353233967242 0.00018482506619047412 0 -0.013939200193353986 8.9495162740376767e-05 0 -0.013983841605808064 0.00015139567414371733 0 -0.014014745944863094 7.5780416499954395e-05 0 -0.013983841605808064 0.00015139567414371733 0 -0.01403292435284932 0.00012712831200457187 0 -0.014014745944863094 7.5780416499954395e-05 0 -0.01403292435284932 0.00012712831200457187 0 -0.014065656919356592 0.00011824832904154661 0 -0.014051548019308371 0.00020140423734313088 0 -0.013983841605808064 0.00015139567414371733 0 -0.01403292435284932 0.00012712831200457187 0 -0.014051548019308371 0.00020140423734313088 0 -0.01403292435284932 0.00012712831200457187 0 -0.014014745944863094 7.5780416499954395e-05 0 -0.014065656919356592 0.00011824832904154661 0 -0.014005824194074762 4.6382632843280604e-06 0 -0.014014745944863094 7.5780416499954395e-05 0 -0.014062836297866473 2.6595152781752146e-05 0 -0.014014745944863094 7.5780416499954395e-05 0 -0.014062836297866473 2.6595152781752146e-05 0 -0.014065656919356592 0.00011824832904154661 0 -0.014062836297866473 2.6595152781752146e-05 0 -0.014124698292500954 4.3625053139747773e-05 0 -0.014065656919356592 0.00011824832904154661 0 -0.014129684672404597 0.00017726779192675155 0 -0.014158649325939143 0.00021837349051882484 0 -0.014123666378648099 0.00025570245085906028 0 -0.014124698292500954 4.3625053139747773e-05 0 -0.014065656919356592 0.00011824832904154661 0 -0.014123666378648099 0.00025570245085906028 0 -0.014081200960725905 0.00010833002898650062 0 -0.014343223893072863 0.00024782537673216187 0 -0.014343223893072863 0.00024782537673216187 0 -0.014104463726122609 0.00018696019477403732 0 -0.012439027600658686 0.000585131323419163 0 -0.011620755368819733 0.00077088320829213515 0 -0.012560196320334048 0.00053890787019294476 0 -0.012533821412026235 0.00054157923908176105 0 -0.01254172495988656 0.00054426390048940138 0 -0.014065656919356592 0.00011824832904154661 0 -0.014051548019308371 0.00020140423734313088 0 -0.014123666378648099 0.00025570245085906028 0 -0.014051548019308371 0.00020140423734313088 0 -0.014123666378648099 0.00025570245085906028 0 -0.014044152958248393 0.00029502401919721615 0 -0.014173909003585838 0.00024618924572090164 0 -0.014158649325939143 0.00021837349051882484 0 -0.014123666378648099 0.00025570245085906028 0 -0.014095393438697324 0.00035906927434077503 0 -0.014173909003585838 0.00024618924572090164 0 -0.014123666378648099 0.00025570245085906028 0 -0.012439027600658686 0.000585131323419163 0 -0.013436179592846815 0.00033942498473452505 0 -0.014048919330565329 0.0004086376910074978 0 -0.014095393438697324 0.00035906927434077503 0 -0.014044152958248393 0.00029502401919721615 0 -0.014095393438697324 0.00035906927434077503 0 -0.014123666378648099 0.00025570245085906028 0 -0.014044152958248393 0.00029502401919721615 0 -0.014044152958248393 0.00029502401919721615 0 -0.013898396069187455 0.0003163166563445349 0 -0.013978639625782384 0.00024770643980235842 0 -0.014048919330565329 0.0004086376910074978 0 -0.014044152958248393 0.00029502401919721615 0 -0.013898396069187455 0.0003163166563445349 0 -0.013898396069187455 0.0003163166563445349 0 -0.013833637155263761 0.00026486038229954142 0 -0.013978639625782384 0.00024770643980235842 0 -0.013983841605808064 0.00015139567414371733 0 -0.013896353233967242 0.00018482506619047412 0 -0.013978639625782384 0.00024770643980235842 0 -0.013833637155263761 0.00026486038229954142 0 -0.013896353233967242 0.00018482506619047412 0 -0.013978639625782384 0.00024770643980235842 0 -0.014051548019308371 0.00020140423734313088 0 -0.014044152958248393 0.00029502401919721615 0 -0.013978639625782384 0.00024770643980235842 0 -0.013983841605808064 0.00015139567414371733 0 -0.014051548019308371 0.00020140423734313088 0 -0.013978639625782384 0.00024770643980235842 0 -0.014333499717996419 -0.00014528034458379202 0 -0.014496904138990251 -0.00012423918016089106 0 -0.014667548627137456 -0.00018640733720917411 0 -0.014559215596797029 -0.00013135951332539738 0 -0.014645120215398533 -0.00017760924731173049 0 -0.014496904138990251 -0.00012423918016089106 0 -0.014608704290944451 -0.0001646628938069156 0 -0.014591841343325881 -0.00014241031897873458 0 -0.014496904138990251 -0.00012423918016089106 0 -0.014608704290944451 -0.0001646628938069156 0 -0.014667548627137456 -0.00018640733720917411 0 -0.014496904138990251 -0.00012423918016089106 0 -0.014514147286412569 -4.0912471392776902e-05 0 -0.01434428104196846 -2.0884411593337751e-06 0 -0.014496904138990251 -0.00012423918016089106 0 -0.014514147286412569 -4.0912471392776902e-05 0 -0.014591841343325881 -0.00014241031897873458 0 -0.01426760651271643 -2.4828411166207042e-05 0 -0.014496904138990251 -0.00012423918016089106 0 -0.01434428104196846 -2.0884411593337751e-06 0 -0.01426760651271643 -2.4828411166207042e-05 0 -0.014333499717996419 -0.00014528034458379202 0 -0.014496904138990251 -0.00012423918016089106 0 -0.014172175935709042 -3.7434216911117629e-05 0 -0.01426760651271643 -2.4828411166207042e-05 0 -0.01434428104196846 -2.0884411593337751e-06 0 -0.014172175935709042 -3.7434216911117629e-05 0 -0.014175882685713638 -5.404165900797313e-05 0 -0.01434428104196846 -2.0884411593337751e-06 0 -0.014172175935709042 -3.7434216911117629e-05 0 -0.014106313370597316 -8.220555621103249e-05 0 -0.014175882685713638 -5.404165900797313e-05 0 -0.014388666072332485 0.00020537281174204909 0 -0.014504155603863018 0.00010749239066205198 0 -0.014541795396468965 0.00024351922603026426 0 -0.014388666072332485 0.00020537281174204909 0 -0.01434428104196846 -2.0884411593337751e-06 0 -0.014504155603863018 0.00010749239066205198 0 -0.014287758718514169 6.4247551842497435e-05 0 -0.014324871163512241 -6.6473925932756108e-06 0 -0.014514147286412569 -4.0912471392776902e-05 0 -0.01434428104196846 -2.0884411593337751e-06 0 -0.014504155603863018 0.00010749239066205198 0 -0.014514147286412569 -4.0912471392776902e-05 0 -0.014504155603863018 0.00010749239066205198 0 -0.014625659689068836 5.9404872034999179e-05 0 -0.014625659689068836 5.9404872034999179e-05 0 -0.014676347312767809 4.247349864285737e-05 0 -0.014693179156032046 1.5060998489554228e-05 0 -0.014625659689068836 5.9404872034999179e-05 0 -0.014619207246016754 0.00016198712502852052 0 -0.014687134388437009 0.00011509130501971707 0 -0.014504155603863018 0.00010749239066205198 0 -0.014625659689068836 5.9404872034999179e-05 0 -0.014619207246016754 0.00016198712502852052 0 -0.014504155603863018 0.00010749239066205198 0 -0.014619207246016754 0.00016198712502852052 0 -0.014541795396468965 0.00024351922603026426 0 -0.014727733684883691 0.00028347383926523333 0 -0.014619207246016754 0.00016198712502852052 0 -0.014541795396468965 0.00024351922603026426 0 -0.014727733684883691 0.00028347383926523333 0 -0.014619207246016754 0.00016198712502852052 0 -0.014687134388437009 0.00011509130501971707 0 -0.014322758325217786 0.00047421701656800579 0 -0.01448567208740722 0.00018797268303171285 0 -0.013700123816242653 0.00060573013471723863 0 -0.013680549884102555 0.0004673093111891181 0 -0.013726368305976806 0.00053107565842850518 0 -0.014727733684883691 0.00028347383926523333 0 -0.014687134388437009 0.00011509130501971707 0 -0.014713176675949567 5.1088176042452882e-05 0 -0.013723784207203115 0.000483166655994855 0 -0.013680549884102555 0.0004673093111891181 0 -0.013726368305976806 0.00053107565842850518 0 -0.013723784207203115 0.000483166655994855 0 -0.013680549884102555 0.0004673093111891181 0 -0.013720580707465473 0.00045043881812699459 0 -0.014625659689068836 5.9404872034999179e-05 0 -0.014687134388437009 0.00011509130501971707 0 -0.014676347312767809 4.247349864285737e-05 0 -0.014687134388437009 0.00011509130501971707 0 -0.014705080293840858 6.0153070170503134e-05 0 -0.014676347312767809 4.247349864285737e-05 0 -0.014601573462915431 7.5282448831867548e-05 0 -0.01448567208740722 0.00018797268303171285 0 -0.014705080293840858 6.0153070170503134e-05 0 -0.014676347312767809 4.247349864285737e-05 0 -0.014693179156032046 1.5060998489554228e-05 0 -0.013680549884102555 0.0004673093111891181 0 -0.013720580707465473 0.00045043881812699459 0 -0.013717863452263236 0.000358627910048369 0 -0.01448567208740722 0.00018797268303171285 0 -0.014285142091746418 0.00022456373444686595 0 -0.013720580707465473 0.00045043881812699459 0 -0.013717863452263236 0.000358627910048369 0 -0.013770898391196201 0.00024451154690264501 0 -0.01448567208740722 0.00018797268303171285 0 -0.014804273260954903 -1.6093978627235499e-05 0 -0.014831002167446278 9.1188894362501791e-05 0 -0.014848868429080933 5.3002647092963853e-05 0 -0.014831852610354036 3.1207740507995568e-05 0 -0.014705080293840858 6.0153070170503134e-05 0 -0.014728230855749886 -2.6591550164474281e-05 0 -0.014693179156032046 1.5060998489554228e-05 0 -0.014848868429080933 5.3002647092963853e-05 0 -0.014831852610354036 3.1207740507995568e-05 0 -0.014860190097945735 1.9325203714529267e-05 0 -0.014285142091746418 0.00022456373444686595 0 -0.014285123643127796 0.00017201687550381275 0 -0.014635663657545522 5.460163461592106e-05 0 -0.014661005849358942 -7.7988336860287412e-05 0 -0.014514147286412569 -4.0912471392776902e-05 0 -0.014625659689068836 5.9404872034999179e-05 0 -0.014591841343325881 -0.00014241031897873458 0 -0.014625659689068836 5.9404872034999179e-05 0 -0.014693179156032046 1.5060998489554228e-05 0 -0.014728858400515648 -3.135030192726056e-05 0 -0.014728230855749886 -2.6591550164474281e-05 0 -0.014693179156032046 1.5060998489554228e-05 0 -0.014728858400515648 -3.135030192726056e-05 0 -0.014728230855749886 -2.6591550164474281e-05 0 -0.014728858400515648 -3.135030192726056e-05 0 -0.014784464815305778 -2.9569044683227991e-05 0 -0.014661005849358942 -7.7988336860287412e-05 0 -0.014739324252246765 -9.8180345143225454e-05 0 -0.014608704290944451 -0.0001646628938069156 0 -0.014591841343325881 -0.00014241031897873458 0 -0.014653609876859795 -0.00016441448950329607 0 -0.014831852610354036 3.1207740507995568e-05 0 -0.014853709936134182 -5.8366286653339591e-06 0 -0.01483916006093465 -1.1381935186367297e-05 0 -0.014804273260954903 -1.6093978627235499e-05 0 -0.014811663099737856 -1.9768796659898299e-05 0 -0.014831852610354036 3.1207740507995568e-05 0 -0.014860190097945735 1.9325203714529267e-05 0 -0.014853709936134182 -5.8366286653339591e-06 0 -0.013721314321528844 0.0003094827695897921 0 -0.013806345242093404 0.00024136838245782447 0 -0.013821542263364388 0.00033389871676909477 0 -0.013806345242093404 0.00024136838245782447 0 -0.013895893384224816 0.0002816445193372356 0 -0.013821542263364388 0.00033389871676909477 0 -0.013895893384224816 0.0002816445193372356 0 -0.013821542263364388 0.00033389871676909477 0 -0.01391281406682093 0.00036588148422438908 0 -0.013821542263364388 0.00033389871676909477 0 -0.013828521739813873 0.00039810960099439803 0 -0.01391281406682093 0.00036588148422438908 0 -0.013828521739813873 0.00039810960099439803 0 -0.013892413018346473 0.00045726969772834375 0 -0.01391281406682093 0.00036588148422438908 0 -0.013720580707465473 0.00045043881812699459 0 -0.013721314321528844 0.0003094827695897921 0 -0.013770939471266314 0.00039200933006193868 0 -0.013721314321528844 0.0003094827695897921 0 -0.013821542263364388 0.00033389871676909477 0 -0.013770939471266314 0.00039200933006193868 0 -0.013590444361626866 0.00049674887990772999 0 -0.014285123643127796 0.00017201687550381275 0 -0.013828521739813873 0.00039810960099439803 0 -0.013770939471266314 0.00039200933006193868 0 -0.013781162226215936 0.00046811133494176779 0 -0.013821542263364388 0.00033389871676909477 0 -0.013828521739813873 0.00039810960099439803 0 -0.013770939471266314 0.00039200933006193868 0 -0.013720580707465473 0.00045043881812699459 0 -0.013770939471266314 0.00039200933006193868 0 -0.013781162226215936 0.00046811133494176779 0 -0.013723784207203115 0.000483166655994855 0 -0.013781162226215936 0.00046811133494176779 0 -0.013726368305976806 0.00053107565842850518 0 -0.013723784207203115 0.000483166655994855 0 -0.013720580707465473 0.00045043881812699459 0 -0.013781162226215936 0.00046811133494176779 0 -0.013781162226215936 0.00046811133494176779 0 -0.013726368305976806 0.00053107565842850518 0 -0.013830173106178803 0.00054105442004015328 0 -0.013726368305976806 0.00053107565842850518 0 -0.013772503409929832 0.00058980487402390358 0 -0.013830173106178803 0.00054105442004015328 0 -0.013700123816242653 0.00060573013471723863 0 -0.013726368305976806 0.00053107565842850518 0 -0.013772503409929832 0.00058980487402390358 0 -0.013831636854384623 0.00065255705022008461 0 -0.013830173106178803 0.00054105442004015328 0 -0.013961068031668376 0.00055134541097771081 0 -0.013781162226215936 0.00046811133494176779 0 -0.013830173106178803 0.00054105442004015328 0 -0.013892413018346473 0.00045726969772834375 0 -0.013828521739813873 0.00039810960099439803 0 -0.013781162226215936 0.00046811133494176779 0 -0.013892413018346473 0.00045726969772834375 0 -0.013892413018346473 0.00045726969772834375 0 -0.013961068031668376 0.00055134541097771081 0 -0.013995065073256386 0.0004071063510802917 0 -0.013830173106178803 0.00054105442004015328 0 -0.013892413018346473 0.00045726969772834375 0 -0.013961068031668376 0.00055134541097771081 0 -0.012379174898841157 0.00067620482289370979 0 -0.012246398066438329 0.00071115665857897532 0 -0.013961068031668376 0.00055134541097771081 0 -0.013995065073256386 0.0004071063510802917 0 -0.01406743606865906 0.00043254379587355664 0 -0.013995065073256386 0.0004071063510802917 0 -0.014024971140016348 0.00031669864242014808 0 -0.01407535250200799 0.00034536966435828311 0 -0.013995065073256386 0.0004071063510802917 0 -0.01406743606865906 0.00043254379587355664 0 -0.01407535250200799 0.00034536966435828311 0 -0.013995065073256386 0.0004071063510802917 0 -0.01391281406682093 0.00036588148422438908 0 -0.014024971140016348 0.00031669864242014808 0 -0.013892413018346473 0.00045726969772834375 0 -0.013995065073256386 0.0004071063510802917 0 -0.01391281406682093 0.00036588148422438908 0 -0.013895893384224816 0.0002816445193372356 0 -0.01391281406682093 0.00036588148422438908 0 -0.014024971140016348 0.00031669864242014808 0 -0.013895893384224816 0.0002816445193372356 0 -0.014024971140016348 0.00031669864242014808 0 -0.013979940691952554 0.00023419100452038287 0 -0.014024971140016348 0.00031669864242014808 0 -0.014114540606683809 0.00025467224864287588 0 -0.01409343984278346 0.00030352482183018366 0 -0.014024971140016348 0.00031669864242014808 0 -0.01407535250200799 0.00034536966435828311 0 -0.01409343984278346 0.00030352482183018366 0 -0.014114540606683809 0.00025467224864287588 0 -0.014327348172203887 -8.1400402114268613e-05 0 -0.014555449961530392 0.00010877482356911017 0 -0.014024971140016348 0.00031669864242014808 0 -0.014114540606683809 0.00025467224864287588 0 -0.013979940691952554 0.00023419100452038287 0 -0.013979940691952554 0.00023419100452038287 0 -0.013995173531284091 9.5179977343219055e-05 0 -0.013870525178883491 0.00016644262294292496 0 -0.014114540606683809 0.00025467224864287588 0 -0.013979940691952554 0.00023419100452038287 0 -0.013995173531284091 9.5179977343219055e-05 0 -0.013995173531284091 9.5179977343219055e-05 0 -0.01401094954019539 -0.00010268005017495787 0 -0.013878161049565942 2.3572413916305142e-05 0 -0.013995173531284091 9.5179977343219055e-05 0 -0.014327348172203887 -8.1400402114268613e-05 0 -0.01401094954019539 -0.00010268005017495787 0 -0.014114540606683809 0.00025467224864287588 0 -0.013995173531284091 9.5179977343219055e-05 0 -0.014327348172203887 -8.1400402114268613e-05 0 -0.014663877888593024 -1.4232254620433443e-05 0 -0.014460722280606346 -6.8080734629147864e-05 0 -0.014954380451760037 1.8397099675154554e-05 0 -0.014977088809001792 1.2757415101305944e-05 0 -0.014982559400278714 5.5199111949591556e-06 0 -0.014977088809001792 1.2757415101305944e-05 0 -0.014999980579909885 1.2451069661806633e-08 0 -0.014991909639431646 5.3708092221250764e-06 0 -0.014977088809001792 1.2757415101305944e-05 0 -0.014999980579909885 1.2451069661806633e-08 0 -0.014999927741736146 5.8270844474403709e-09 0 -0.014999980579909885 1.2451069661806633e-08 0 -0.014991909639431646 5.3708092221250764e-06 0 -0.014999982981275814 3.8961927707955787e-09 0 -0.014991909639431646 5.3708092221250764e-06 0 -0.014982559400278714 5.5199111949591556e-06 0 -0.014993306393450437 2.3960584065127945e-06 0 -0.014977088809001792 1.2757415101305944e-05 0 -0.014991909639431646 5.3708092221250764e-06 0 -0.014982559400278714 5.5199111949591556e-06 0 -0.014460722280606346 -6.8080734629147864e-05 0 -0.014607601434319753 1.084419400645502e-05 0 -0.01401094954019539 -0.00010268005017495787 0 -0.013814446491437534 -0.00015439838066849391 0 -0.013878161049565942 2.3572413916305142e-05 0 -0.014607601434319753 1.084419400645502e-05 0 -0.014806034685250534 -5.6677419007214931e-05 0 -0.014991909639431646 5.3708092221250764e-06 0 -0.014993306393450437 2.3960584065127945e-06 0 -0.014995078786686176 2.8531588092761967e-06 0 -0.014991909639431646 5.3708092221250764e-06 0 -0.014995078786686176 2.8531588092761967e-06 0 -0.014999982981275814 3.8961927707955787e-09 0 -0.014995292372697033 9.0336286756713417e-07 0 -0.014995078786686176 2.8531588092761967e-06 0 -0.01499835021632181 2.122774137167172e-06 0 -0.014995078786686176 2.8531588092761967e-06 0 -0.014999982981275814 3.8961927707955787e-09 0 -0.01499835021632181 2.122774137167172e-06 0 -0.01499835021632181 2.122774137167172e-06 0 -0.014999581692147388 3.0969364957538198e-06 0 -0.015000026727309101 3.6694584845477619e-10 0 -0.014999982981275814 3.8961927707955787e-09 0 -0.01499835021632181 2.122774137167172e-06 0 -0.015000026727309101 3.6694584845477619e-10 0 -0.014995292372697033 9.0336286756713417e-07 0 -0.01499835021632181 2.122774137167172e-06 0 -0.014999581692147388 3.0969364957538198e-06 0 -0.014850020506256265 -2.4133867706889882e-05 0 -0.014847218859499538 -2.2128038602687082e-05 0 -0.014850945216826854 -1.0661883599329064e-05 0 -0.014607601434319753 1.084419400645502e-05 0 -0.014992688341565511 5.0092402230868439e-06 0 -0.014850020506256265 -2.4133867706889882e-05 0 -0.014847218859499538 -2.2128038602687082e-05 0 -0.014833085718428438 1.6870740694611198e-05 0 -0.014847218859499538 -2.2128038602687082e-05 0 -0.014855383742595278 -2.5154386818420428e-05 0 -0.014850945216826854 -1.0661883599329064e-05 0 -0.014847218859499538 -2.2128038602687082e-05 0 -0.014859008096294849 -2.7419592794149057e-05 0 -0.014855383742595278 -2.5154386818420428e-05 0 -0.014847218859499538 -2.2128038602687082e-05 0 -0.014858913430702793 -2.5678758821008725e-05 0 -0.014863121249959057 -2.3796747581140663e-05 0 -0.014847218859499538 -2.2128038602687082e-05 0 -0.014833085718428438 1.6870740694611198e-05 0 -0.014817409595139138 1.8325215596027615e-05 0 -0.014847218859499538 -2.2128038602687082e-05 0 -0.014858913430702793 -2.5678758821008725e-05 0 -0.014859008096294849 -2.7419592794149057e-05 0 -0.014831427430380763 -4.1291839967577965e-06 0 -0.014902243251977636 -3.3187536516606342e-05 0 -0.014607601434319753 1.084419400645502e-05 0 -0.014252411831167162 5.5943820152690766e-05 0 -0.014858913430702793 -2.5678758821008725e-05 0 -0.014863121249959057 -2.3796747581140663e-05 0 -0.014855846425543584 -1.8675818943342939e-05 0 -0.013878161049565942 2.3572413916305142e-05 0 -0.013870525178883491 0.00016644262294292496 0 -0.013746612661499995 0.00010904801693989002 0 -0.013814446491437534 -0.00015439838066849391 0 -0.013878161049565942 2.3572413916305142e-05 0 -0.013746612661499995 0.00010904801693989002 0 -0.013995173531284091 9.5179977343219055e-05 0 -0.013878161049565942 2.3572413916305142e-05 0 -0.013870525178883491 0.00016644262294292496 0 -0.013806345242093404 0.00024136838245782447 0 -0.013870525178883491 0.00016644262294292496 0 -0.013746612661499995 0.00010904801693989002 0 -0.013895893384224816 0.0002816445193372356 0 -0.013979940691952554 0.00023419100452038287 0 -0.013870525178883491 0.00016644262294292496 0 -0.013806345242093404 0.00024136838245782447 0 -0.013895893384224816 0.0002816445193372356 0 -0.013870525178883491 0.00016644262294292496 0 -0.014285123643127796 0.00017201687550381275 0 -0.014252411831167162 5.5943820152690766e-05 0 -0.014285123643127796 0.00017201687550381275 0 -0.014902243251977636 -3.3187536516606342e-05 0 -0.014787156540086987 0.00010626739271483053 0 -0.014833085718428438 1.6870740694611198e-05 0 -0.014817409595139138 1.8325215596027615e-05 0 -0.013721314321528844 0.0003094827695897921 0 -0.013806345242093404 0.00024136838245782447 0 -0.013746612661499995 0.00010904801693989002 0 -0.014860190097945735 1.9325203714529267e-05 0 -0.014863121249959057 -2.3796747581140663e-05 0 -0.014853709936134182 -5.8366286653339591e-06 0 -0.014855846425543584 -1.8675818943342939e-05 0 -0.01483916006093465 -1.1381935186367297e-05 0 -0.014854309608593304 -2.357921949490926e-05 0 -0.014863121249959057 -2.3796747581140663e-05 0 -0.014855846425543584 -1.8675818943342939e-05 0 -0.014853709936134182 -5.8366286653339591e-06 0 -0.014855846425543584 -1.8675818943342939e-05 0 -0.014853709936134182 -5.8366286653339591e-06 0 -0.01483916006093465 -1.1381935186367297e-05 0 -0.014728858400515648 -3.135030192726056e-05 0 -0.014784464815305778 -2.9569044683227991e-05 0 -0.014812002065811543 -2.749850086705221e-05 0 -0.014812002065811543 -2.749850086705221e-05 0 -0.014856797332400463 -2.9619743567900989e-05 0 -0.014864485855522762 -3.4295622538806912e-05 0 -0.014811663099737856 -1.9768796659898299e-05 0 -0.014846313665237821 -3.2017344977813624e-05 0 -0.014784464815305778 -2.9569044683227991e-05 0 -0.014812002065811543 -2.749850086705221e-05 0 -0.014856797332400463 -2.9619743567900989e-05 0 -0.01483916006093465 -1.1381935186367297e-05 0 -0.014856797332400463 -2.9619743567900989e-05 0 -0.014854309608593304 -2.357921949490926e-05 0 -0.014856797332400463 -2.9619743567900989e-05 0 -0.014854309608593304 -2.357921949490926e-05 0 -0.014859008096294849 -2.7419592794149057e-05 0 -0.014858913430702793 -2.5678758821008725e-05 0 -0.014855846425543584 -1.8675818943342939e-05 0 -0.014854309608593304 -2.357921949490926e-05 0 -0.014858913430702793 -2.5678758821008725e-05 0 -0.014854309608593304 -2.357921949490926e-05 0 -0.014859008096294849 -2.7419592794149057e-05 0 -0.014859008096294849 -2.7419592794149057e-05 0 -0.014855383742595278 -2.5154386818420428e-05 0 -0.01486678194181198 -2.9968584288744139e-05 0 -0.014856797332400463 -2.9619743567900989e-05 0 -0.014859008096294849 -2.7419592794149057e-05 0 -0.01486678194181198 -2.9968584288744139e-05 0 -0.014856797332400463 -2.9619743567900989e-05 0 -0.01486678194181198 -2.9968584288744139e-05 0 -0.014903060279728977 -2.8302991391321133e-05 0 -0.01486678194181198 -2.9968584288744139e-05 0 -0.014850945216826854 -1.0661883599329064e-05 0 -0.014903060279728977 -2.8302991391321133e-05 0 -0.014855383742595278 -2.5154386818420428e-05 0 -0.01486678194181198 -2.9968584288744139e-05 0 -0.014850945216826854 -1.0661883599329064e-05 0 -0.014999581692147388 3.0969364957538198e-06 0 -0.015000026727309101 3.6694584845477619e-10 0 -0.014986071717182099 4.5739607461093491e-07 0 -0.014992688341565511 5.0092402230868439e-06 0 -0.014952140829916364 -5.5801162295442081e-06 0 -0.015000026727309101 3.6694584845477619e-10 0 -0.014986071717182099 4.5739607461093491e-07 0 -0.014999801482157583 -6.1394474778844718e-09 0 -0.014850945216826854 -1.0661883599329064e-05 0 -0.014986071717182099 4.5739607461093491e-07 0 -0.014903060279728977 -2.8302991391321133e-05 0 -0.014986071717182099 4.5739607461093491e-07 0 -0.014935137679902802 -1.5818339228048006e-05 0 -0.014999801482157583 -6.1394474778844718e-09 0 -0.014986071717182099 4.5739607461093491e-07 0 -0.014929561643022409 -1.832755918060045e-05 0 -0.014935137679902802 -1.5818339228048006e-05 0 -0.014986071717182099 4.5739607461093491e-07 0 -0.014929561643022409 -1.832755918060045e-05 0 -0.014903060279728977 -2.8302991391321133e-05 0 -0.014856797332400463 -2.9619743567900989e-05 0 -0.014903060279728977 -2.8302991391321133e-05 0 -0.014864485855522762 -3.4295622538806912e-05 0 -0.014929561643022409 -1.832755918060045e-05 0 -0.014903060279728977 -2.8302991391321133e-05 0 -0.014864485855522762 -3.4295622538806912e-05 0 -0.014864485855522762 -3.4295622538806912e-05 0 -0.014935137679902802 -1.5818339228048006e-05 0 -0.014917934024055116 -2.7266883689985597e-05 0 -0.014864485855522762 -3.4295622538806912e-05 0 -0.014917934024055116 -2.7266883689985597e-05 0 -0.014840536220431915 -8.3262812491262018e-05 0 -0.014929561643022409 -1.832755918060045e-05 0 -0.014864485855522762 -3.4295622538806912e-05 0 -0.014935137679902802 -1.5818339228048006e-05 0 -0.014935137679902802 -1.5818339228048006e-05 0 -0.014999801482157583 -6.1394474778844718e-09 0 -0.014999900784606453 -1.4798548275067212e-08 0 -0.014935137679902802 -1.5818339228048006e-05 0 -0.014999900784606453 -1.4798548275067212e-08 0 -0.014917934024055116 -2.7266883689985597e-05 0 -0.014958903930108946 -1.6610992623877261e-05 0 -0.014999900784606453 -1.4798548275067212e-08 0 -0.014917934024055116 -2.7266883689985597e-05 0 -0.014901489701885566 -5.633732035463974e-05 0 -0.014917934024055116 -2.7266883689985597e-05 0 -0.014840536220431915 -8.3262812491262018e-05 0 -0.014840536220431915 -8.3262812491262018e-05 0 -0.014759584022585363 -0.00011887938898353978 0 -0.014795567711041721 -0.00015120685373384531 0 -0.014834734579388264 -0.00014448932591642843 0 -0.014840536220431915 -8.3262812491262018e-05 0 -0.014795567711041721 -0.00015120685373384531 0 -0.014653609876859795 -0.00016441448950329607 0 -0.014864485855522762 -3.4295622538806912e-05 0 -0.014759584022585363 -0.00011887938898353978 0 -0.014739324252246765 -9.8180345143225454e-05 0 -0.014840133370347527 -4.2828632389050025e-05 0 -0.014864485855522762 -3.4295622538806912e-05 0 -0.014840536220431915 -8.3262812491262018e-05 0 -0.014759584022585363 -0.00011887938898353978 0 -0.014653609876859795 -0.00016441448950329607 0 -0.014759584022585363 -0.00011887938898353978 0 -0.014667548627137456 -0.00018640733720917411 0 -0.014608704290944451 -0.0001646628938069156 0 -0.014653609876859795 -0.00016441448950329607 0 -0.014667548627137456 -0.00018640733720917411 0 -0.014759584022585363 -0.00011887938898353978 0 -0.014667548627137456 -0.00018640733720917411 0 -0.014795567711041721 -0.00015120685373384531 0 -0.014791085482377406 -0.00013870835282858287 0 -0.014667548627137456 -0.00018640733720917411 0 -0.014795567711041721 -0.00015120685373384531 0 -0.01043750696048814 0.00090568477062209947 0 -0.010520939851931513 0.00089089744540664687 0 -0.010448776041902662 0.00095846409287921128 0 -0.01043750696048814 0.00090568477062209947 0 -0.010378992055663389 0.00089885450132330745 0 -0.010372121288360427 0.0009603751770802248 0 -0.01043750696048814 0.00090568477062209947 0 -0.010448776041902662 0.00095846409287921128 0 -0.010372121288360427 0.0009603751770802248 0 -0.010908766333004269 0.00077665673652415094 0 -0.010913660698395286 0.0004113894019513528 0 -0.011578733671059547 0.00043665173008086537 0 -0.010568765859560561 0.00089161909764305896 0 -0.011327319477531662 0.0003040210613242254 0 -0.01043750696048814 0.00090568477062209947 0 -0.010378992055663389 0.00089885450132330745 0 -0.010458869851690648 0.00084046746035694561 0 -0.01043750696048814 0.00090568477062209947 0 -0.010458869851690648 0.00084046746035694561 0 -0.010520939851931513 0.00089089744540664687 0 -0.011327319477531662 0.0003040210613242254 0 -0.011453505547682916 0.00035011332696871392 0 -0.011665686774679102 -0.00026637296759832478 0 -0.012116691195582986 9.8680244877840618e-05 0 -0.012030067376263222 -0.00039409383803201784 0 -0.011453505547682916 0.00035011332696871392 0 -0.012058857404902243 -0.00040492584617965552 0 -0.012368042969348833 -0.00027422295406749896 0 -0.012124653473623272 5.2217841822888414e-05 0 -0.012030067376263222 -0.00039409383803201784 0 -0.012368042969348833 -0.00027422295406749896 0 -0.01260902404791246 4.6605716916411983e-05 0 -0.012124653473623272 5.2217841822888414e-05 0 -0.012368042969348833 -0.00027422295406749896 0 -0.01256615183363337 -0.0005207134092403595 0 -0.012762392911755509 -0.00027189824851063543 0 -0.012368042969348833 -0.00027422295406749896 0 -0.01260902404791246 4.6605716916411983e-05 0 -0.012762392911755509 -0.00027189824851063543 0 -0.01260902404791246 4.6605716916411983e-05 0 -0.012124653473623272 5.2217841822888414e-05 0 -0.01258138680888332 0.00040528127477862169 0 -0.011152026393865103 0.00041647349846737089 0 -0.011220485510376086 0.00081648331305845178 0 -0.011415829539705187 0.0006275438383950263 0 -0.011453505547682916 0.00035011332696871392 0 -0.011971216039943548 0.00049846541627277083 0 -0.011453505547682916 0.00035011332696871392 0 -0.010898515117915709 0.00099887566193678271 0 -0.010520939851931513 0.00089089744540664687 0 -0.010532889517896783 0.0009949530609852941 0 -0.010448776041902662 0.00095846409287921128 0 -0.011220485510376086 0.00081648331305845178 0 -0.011415829539705187 0.0006275438383950263 0 -0.011479172254191927 0.00089252635101248268 0 -0.010184777497229318 0.0010329131422014493 0 -0.010898515117915709 0.00099887566193678271 0 -0.011220485510376086 0.00081648331305845178 0 -0.011438963907432242 0.0010633079280307862 0 -0.011479172254191927 0.00089252635101248268 0 -0.011286554533947108 0.0012203677987135423 0 -0.011220485510376086 0.00081648331305845178 0 -0.011438963907432242 0.0010633079280307862 0 -0.010455330757345978 0.0010687937897814106 0 -0.010544737869362716 0.0010952433581566218 0 -0.010532889517896783 0.0009949530609852941 0 -0.010455330757345978 0.0010687937897814106 0 -0.010532889517896783 0.0009949530609852941 0 -0.010427138713209702 0.0010144833349575745 0 -0.010532889517896783 0.0009949530609852941 0 -0.010427138713209702 0.0010144833349575745 0 -0.010448776041902662 0.00095846409287921128 0 -0.010427138713209702 0.0010144833349575745 0 -0.010448776041902662 0.00095846409287921128 0 -0.010372121288360427 0.0009603751770802248 0 -0.010455330757345978 0.0010687937897814106 0 -0.010427138713209702 0.0010144833349575745 0 -0.010355407947412597 0.0010460007903250114 0 -0.010427138713209702 0.0010144833349575745 0 -0.010372121288360427 0.0009603751770802248 0 -0.010355407947412597 0.0010460007903250114 0 -0.0098684943971664926 0.00091858572080968167 0 -0.0099894008235146079 0.00097146735195204352 0 -0.0099475406186557789 0.0007862775273324075 0 -0.0095790280681464432 0.00090393934214631831 0 -0.01020469813765376 0.00098094935884552367 0 -0.0099894008235146079 0.00097146735195204352 0 -0.0101745515937278 0.00098632025788924528 0 -0.010372121288360427 0.0009603751770802248 0 -0.010355407947412597 0.0010460007903250114 0 -0.01020469813765376 0.00098094935884552367 0 -0.01021245016980961 0.00077262554590146811 0 -0.0099475406186557789 0.0007862775273324075 0 -0.01020469813765376 0.00098094935884552367 0 -0.01020469813765376 0.00098094935884552367 0 -0.010276645132907216 0.00097083624085766995 0 -0.010335594202020548 0.00095972943466053769 0 -0.010372121288360427 0.0009603751770802248 0 -0.01020469813765376 0.00098094935884552367 0 -0.010335594202020548 0.00095972943466053769 0 -0.010752592460135551 0.00082117744005717741 0 -0.01037855238057001 0.00080150656376726291 0 -0.010455079222408107 0.00099173985403740584 0 -0.01021245016980961 0.00077262554590146811 0 -0.01020469813765376 0.00098094935884552367 0 -0.01037855238057001 0.00080150656376726291 0 -0.01020469813765376 0.00098094935884552367 0 -0.01037855238057001 0.00080150656376726291 0 -0.010276645132907216 0.00097083624085766995 0 -0.010276645132907216 0.00097083624085766995 0 -0.010455079222408107 0.00099173985403740584 0 -0.010225470102634851 0.00091596130460695389 0 -0.01037855238057001 0.00080150656376726291 0 -0.010276645132907216 0.00097083624085766995 0 -0.010455079222408107 0.00099173985403740584 0 -0.01406743606865906 0.00043254379587355664 0 -0.01407535250200799 0.00034536966435828311 0 -0.01408451725850522 0.00034107053336342592 0 -0.012246398066438329 0.00071115665857897532 0 -0.012208561979663296 0.00060618429063777801 0 -0.01407535250200799 0.00034536966435828311 0 -0.01408451725850522 0.00034107053336342592 0 -0.014086612216407829 0.00032701680577785645 0 -0.01408451725850522 0.00034107053336342592 0 -0.014072817753508328 0.00033676536464729884 0 -0.014086612216407829 0.00032701680577785645 0 -0.01407535250200799 0.00034536966435828311 0 -0.014086612216407829 0.00032701680577785645 0 -0.01409343984278346 0.00030352482183018366 0 -0.010568765859560561 0.00089161909764305896 0 -0.010400224472782818 0.0009321813715677447 0 -0.010378992055663389 0.00089885450132330745 0 -0.010372121288360427 0.0009603751770802248 0 -0.010335594202020548 0.00095972943466053769 0 -0.010276645132907216 0.00097083624085766995 0 -0.010225470102634851 0.00091596130460695389 0 -0.010335594202020548 0.00095972943466053769 0 -0.010225470102634851 0.00091596130460695389 0 -0.010335594202020548 0.00095972943466053769 0 -0.010506418109519829 0.00047174418729076825 0 -0.012208561979663296 0.00060618429063777801 0 -0.01205917370912603 0.00043885387135850635 0 -0.01408451725850522 0.00034107053336342592 0 -0.014072817753508328 0.00033676536464729884 0 -0.014053200799932029 0.00033863583827749299 0 -0.01408451725850522 0.00034107053336342592 0 -0.014053200799932029 0.00033863583827749299 0 -0.014016122072441064 0.00032849085824762035 0 -0.010908766333004269 0.00077665673652415094 0 -0.010335594202020548 0.00095972943466053769 0 -0.010506418109519829 0.00047174418729076825 0 -0.010908766333004269 0.00077665673652415094 0 -0.010913660698395286 0.0004113894019513528 0 -0.010506418109519829 0.00047174418729076825 0 -0.014729567194987319 0.00017983487811553837 0 -0.013684009151942808 0.00015922770357679476 0 -0.010913660698395286 0.0004113894019513528 0 -0.010506418109519829 0.00047174418729076825 0 -0.01109588896598699 -2.1432819514038007e-08 0 -0.014016122072441064 0.00032849085824762035 0 -0.014036876424708715 0.00036672648314816947 0 -0.01391545772103684 0.0003884586971367556 0 -0.014036876424708715 0.00036672648314816947 0 -0.014045889829310357 0.00038026804019105265 0 -0.01391545772103684 0.0003884586971367556 0 -0.014053200799932029 0.00033863583827749299 0 -0.014016122072441064 0.00032849085824762035 0 -0.014036876424708715 0.00036672648314816947 0 -0.01406118133435222 0.00035060541687381865 0 -0.014044517907443741 0.00037171366757278538 0 -0.014089759106786342 0.00033636837991614415 0 -0.014053200799932029 0.00033863583827749299 0 -0.01406118133435222 0.00035060541687381865 0 -0.014036876424708715 0.00036672648314816947 0 -0.014072817753508328 0.00033676536464729884 0 -0.014053200799932029 0.00033863583827749299 0 -0.01406118133435222 0.00035060541687381865 0 -0.01406118133435222 0.00035060541687381865 0 -0.014036876424708715 0.00036672648314816947 0 -0.014044517907443741 0.00037171366757278538 0 -0.014614713414625698 0.00015724643245596011 0 -0.014729567194987319 0.00017983487811553837 0 -0.014990343129581151 -4.6190146083828468e-06 0 -0.014990479038328199 -1.6859646140730803e-06 0 -0.014998011171665835 -1.9671728111996106e-07 0 -0.01508279658211009 0.00011400950500128963 0 -0.014960546279232047 5.1721124981503576e-05 0 -0.014971445344745583 7.7725717980615949e-06 0 -0.014729567194987319 0.00017983487811553837 0 -0.015032480486565834 -9.355685056976325e-06 0 -0.014990343129581151 -4.6190146083828468e-06 0 -0.014990479038328199 -1.6859646140730803e-06 0 -0.014978612168004385 -5.5710352515926958e-06 0 -0.014114540606683809 0.00025467224864287588 0 -0.014555449961530392 0.00010877482356911017 0 -0.014874750837146384 0.00018731314032696279 0 -0.014114540606683809 0.00025467224864287588 0 -0.01409343984278346 0.00030352482183018366 0 -0.014089759106786342 0.00033636837991614415 0 -0.014151158821473818 0.00025765834257070023 0 -0.014426268711276898 0.00026808152258130281 0 -0.014086612216407829 0.00032701680577785645 0 -0.01409343984278346 0.00030352482183018366 0 -0.014089759106786342 0.00033636837991614415 0 -0.014555449961530392 0.00010877482356911017 0 -0.014874750837146384 0.00018731314032696279 0 -0.014895545143103532 9.0333556476888621e-05 0 -0.01508279658211009 0.00011400950500128963 0 -0.014874750837146384 0.00018731314032696279 0 -0.014895545143103532 9.0333556476888621e-05 0 -0.014072817753508328 0.00033676536464729884 0 -0.01406118133435222 0.00035060541687381865 0 -0.014089759106786342 0.00033636837991614415 0 -0.014729567194987319 0.00017983487811553837 0 -0.014426268711276898 0.00026808152258130281 0 -0.014072817753508328 0.00033676536464729884 0 -0.014086612216407829 0.00032701680577785645 0 -0.014089759106786342 0.00033636837991614415 0 -0.014895545143103532 9.0333556476888621e-05 0 -0.014960546279232047 5.1721124981503576e-05 0 -0.014947595322281794 2.3735695457113883e-05 0 -0.01508279658211009 0.00011400950500128963 0 -0.014895545143103532 9.0333556476888621e-05 0 -0.014960546279232047 5.1721124981503576e-05 0 -0.014327348172203887 -8.1400402114268613e-05 0 -0.014555449961530392 0.00010877482356911017 0 -0.014895545143103532 9.0333556476888621e-05 0 -0.014954380451760037 1.8397099675154554e-05 0 -0.014895545143103532 9.0333556476888621e-05 0 -0.014947595322281794 2.3735695457113883e-05 0 -0.014663877888593024 -1.4232254620433443e-05 0 -0.014879202854372031 7.8709376810257389e-05 0 -0.014954380451760037 1.8397099675154554e-05 0 -0.014977088809001792 1.2757415101305944e-05 0 -0.014947595322281794 2.3735695457113883e-05 0 -0.014977088809001792 1.2757415101305944e-05 0 -0.014947595322281794 2.3735695457113883e-05 0 -0.014999927741736146 5.8270844474403709e-09 0 -0.014960546279232047 5.1721124981503576e-05 0 -0.014947595322281794 2.3735695457113883e-05 0 -0.014971445344745583 7.7725717980615949e-06 0 -0.014947595322281794 2.3735695457113883e-05 0 -0.014971445344745583 7.7725717980615949e-06 0 -0.014999927741736146 5.8270844474403709e-09 0 -0.014998011171665835 -1.9671728111996106e-07 0 -0.015000001382738035 -5.3227150588989967e-10 0 -0.01499999513984919 9.2441022515374091e-10 0 -0.015032480486565834 -9.355685056976325e-06 0 -0.014999953523173579 -8.6572806799213234e-09 0 -0.014990479038328199 -1.6859646140730803e-06 0 -0.014995198191835112 2.5533422835596394e-07 0 -0.014989870058652309 -6.0716065764506061e-08 0 -0.014990479038328199 -1.6859646140730803e-06 0 -0.014998011171665835 -1.9671728111996106e-07 0 -0.014995198191835112 2.5533422835596394e-07 0 -0.014998011171665835 -1.9671728111996106e-07 0 -0.014995198191835112 2.5533422835596394e-07 0 -0.01499999513984919 9.2441022515374091e-10 0 -0.014995198191835112 2.5533422835596394e-07 0 -0.014999989115862944 3.2765294742992886e-09 0 -0.014989870058652309 -6.0716065764506061e-08 0 -0.014995198191835112 2.5533422835596394e-07 0 -0.01499999513984919 9.2441022515374091e-10 0 -0.014999989115862944 3.2765294742992886e-09 0 -0.014999989115862944 3.2765294742992886e-09 0 -0.014986652939649297 1.1074063675199873e-06 0 -0.014989870058652309 -6.0716065764506061e-08 0 -0.014999980027780092 -4.1103016676340119e-10 0 -0.014986652939649297 1.1074063675199873e-06 0 -0.014988396382752246 -2.7050811051230763e-07 0 -0.014999989115862944 3.2765294742992886e-09 0 -0.014999980027780092 -4.1103016676340119e-10 0 -0.014986652939649297 1.1074063675199873e-06 0 -0.014986652939649297 1.1074063675199873e-06 0 -0.014971584655576253 -1.4629921290735569e-06 0 -0.014988396382752246 -2.7050811051230763e-07 0 -0.014986652939649297 1.1074063675199873e-06 0 -0.014989870058652309 -6.0716065764506061e-08 0 -0.014978612168004385 -5.5710352515926958e-06 0 -0.014990479038328199 -1.6859646140730803e-06 0 -0.014989870058652309 -6.0716065764506061e-08 0 -0.014978612168004385 -5.5710352515926958e-06 0 -0.013684009151942808 0.00015922770357679476 0 -0.013701246740749655 -0.00014801190105917002 0 -0.014971584655576253 -1.4629921290735569e-06 0 -0.014901982022586753 3.6612665109782023e-05 0 -0.014977860005556363 1.6454608115778411e-05 0 -0.014986652939649297 1.1074063675199873e-06 0 -0.014971584655576253 -1.4629921290735569e-06 0 -0.014978612168004385 -5.5710352515926958e-06 0 -0.015364815136349201 -0.00018341874799077855 0 -0.013684009151942808 0.00015922770357679476 0 -0.011802269725773751 0.00061164136826190676 0 -0.011258618686745926 -0.00018451289904654669 0 -0.012429504497034952 -0.00031848268911887007 0 -0.011802269725773751 0.00061164136826190676 0 -0.01109588896598699 -2.1432819514038007e-08 0 -0.011258618686745926 -0.00018451289904654669 0 -0.010913660698395286 0.0004113894019513528 0 -0.011578733671059547 0.00043665173008086537 0 -0.01109588896598699 -2.1432819514038007e-08 0 -0.010506418109519829 0.00047174418729076825 0 -0.01109588896598699 -2.1432819514038007e-08 0 -0.011258618686745926 -0.00018451289904654669 0 -0.01205917370912603 0.00043885387135850635 0 -0.013684009151942808 0.00015922770357679476 0 -0.011327319477531662 0.0003040210613242254 0 -0.011268411587774446 0.00014022601307525742 0 -0.01256615183363337 -0.0005207134092403595 0 -0.012195734558453039 -0.00057694019658395827 0 -0.01270119448441352 -0.00086378156026551724 0 -0.012443189692971894 -0.00026802656126613582 0 -0.013702966844511808 -0.0004668447889218108 0 -0.012706337424102583 9.8393393539127329e-05 0 -0.012429504497034952 -0.00031848268911887007 0 -0.013612965936070609 -0.0004354870879789758 0 -0.012368042969348833 -0.00027422295406749896 0 -0.01256615183363337 -0.0005207134092403595 0 -0.012195734558453039 -0.00057694019658395827 0 -0.011327319477531662 0.0003040210613242254 0 -0.012443189692971894 -0.00026802656126613582 0 -0.011802269725773751 0.00061164136826190676 0 -0.012706337424102583 9.8393393539127329e-05 0 -0.012429504497034952 -0.00031848268911887007 0 -0.012368042969348833 -0.00027422295406749896 0 -0.012030067376263222 -0.00039409383803201784 0 -0.012195734558453039 -0.00057694019658395827 0 -0.011665686774679102 -0.00026637296759832478 0 -0.012030067376263222 -0.00039409383803201784 0 -0.012195734558453039 -0.00057694019658395827 0 -0.014971584655576253 -1.4629921290735569e-06 0 -0.014977860005556363 1.6454608115778411e-05 0 -0.014985417816644621 2.9241894613090049e-06 0 -0.014977860005556363 1.6454608115778411e-05 0 -0.014985417816644621 2.9241894613090049e-06 0 -0.014982767045179455 3.6281077060224157e-06 0 -0.014987980326949273 2.2722458908569473e-06 0 -0.014985417816644621 2.9241894613090049e-06 0 -0.014982767045179455 3.6281077060224157e-06 0 -0.013701246740749655 -0.00014801190105917002 0 -0.013702966844511808 -0.0004668447889218108 0 -0.014987980326949273 2.2722458908569473e-06 0 -0.014990841332759281 1.0060309032738129e-06 0 -0.014985417816644621 2.9241894613090049e-06 0 -0.014987980326949273 2.2722458908569473e-06 0 -0.014990841332759281 1.0060309032738129e-06 0 -0.014993391316678636 8.6532544316856005e-07 0 -0.014971584655576253 -1.4629921290735569e-06 0 -0.014988396382752246 -2.7050811051230763e-07 0 -0.014985417816644621 2.9241894613090049e-06 0 -0.014990841332759281 1.0060309032738129e-06 0 -0.014988396382752246 -2.7050811051230763e-07 0 -0.014985417816644621 2.9241894613090049e-06 0 -0.014999980027780092 -4.1103016676340119e-10 0 -0.014988396382752246 -2.7050811051230763e-07 0 -0.014999988913574401 -5.5191976796042345e-10 0 -0.014990841332759281 1.0060309032738129e-06 0 -0.014993391316678636 8.6532544316856005e-07 0 -0.014999988913574401 -5.5191976796042345e-10 0 -0.014990841332759281 1.0060309032738129e-06 0 -0.014988396382752246 -2.7050811051230763e-07 0 -0.014999988913574401 -5.5191976796042345e-10 0 -0.014999988913574401 -5.5191976796042345e-10 0 -0.014995407505756548 4.6626668674853334e-07 0 -0.014999991095660395 -9.4782449532432424e-11 0 -0.014993391316678636 8.6532544316856005e-07 0 -0.014999988913574401 -5.5191976796042345e-10 0 -0.014995407505756548 4.6626668674853334e-07 0 -0.014995407505756548 4.6626668674853334e-07 0 -0.014999991095660395 -9.4782449532432424e-11 0 -0.014994914499261795 8.7725550963940211e-07 0 -0.014999991095660395 -9.4782449532432424e-11 0 -0.014994914499261795 8.7725550963940211e-07 0 -0.014998323176770247 4.0398834967594886e-07 0 -0.014994914499261795 8.7725550963940211e-07 0 -0.014989686618715426 1.9315539064342125e-06 0 -0.01498872835984082 4.1085448631742223e-06 0 -0.014994914499261795 8.7725550963940211e-07 0 -0.014996781999606759 2.1938082576873772e-06 0 -0.01498872835984082 4.1085448631742223e-06 0 -0.014783808046308446 5.9204858683721103e-05 0 -0.014185762474592233 -0.00025170031069675646 0 -0.014994914499261795 8.7725550963940211e-07 0 -0.014998323176770247 4.0398834967594886e-07 0 -0.014996781999606759 2.1938082576873772e-06 0 -0.014987980326949273 2.2722458908569473e-06 0 -0.014989686618715426 1.9315539064342125e-06 0 -0.01498476609366599 1.2809154612882849e-06 0 -0.014857320428901455 0.00017182713959435349 0 -0.014185762474592233 -0.00025170031069675646 0 -0.014993391316678636 8.6532544316856005e-07 0 -0.014995407505756548 4.6626668674853334e-07 0 -0.014989686618715426 1.9315539064342125e-06 0 -0.014987980326949273 2.2722458908569473e-06 0 -0.014993391316678636 8.6532544316856005e-07 0 -0.014989686618715426 1.9315539064342125e-06 0 -0.014995407505756548 4.6626668674853334e-07 0 -0.014994914499261795 8.7725550963940211e-07 0 -0.014989686618715426 1.9315539064342125e-06 0 -0.014999507755037937 5.726210830626624e-07 0 -0.014999998412936423 4.3604797076700644e-10 0 -0.014999999911116715 7.150794572948782e-11 0 -0.014999507755037937 5.726210830626624e-07 0 -0.014999998412936423 4.3604797076700644e-10 0 -0.014998323176770247 4.0398834967594886e-07 0 -0.014999991095660395 -9.4782449532432424e-11 0 -0.014999998412936423 4.3604797076700644e-10 0 -0.014998323176770247 4.0398834967594886e-07 0 -0.014999507755037937 5.726210830626624e-07 0 -0.014998323176770247 4.0398834967594886e-07 0 -0.014996781999606759 2.1938082576873772e-06 0 -0.014820283420053725 1.6839437041090278e-05 0 -0.014783808046308446 5.9204858683721103e-05 0 -0.014662421570102982 8.5966043135575508e-06 0 -0.014453314409671363 9.5824140975809622e-05 0 -0.014703969287745736 0.00012900762006609723 0 -0.014453314409671363 9.5824140975809622e-05 0 -0.014703969287745736 0.00012900762006609723 0 -0.014595197851664818 0.00023644333585562909 0 -0.014703969287745736 0.00012900762006609723 0 -0.014595197851664818 0.00023644333585562909 0 -0.014736780810639727 0.00020667077688859873 0 -0.014595197851664818 0.00023644333585562909 0 -0.014420720893875196 0.00023110104357833655 0 -0.014516835128180975 0.00036178322518057066 0 -0.014453314409671363 9.5824140975809622e-05 0 -0.014595197851664818 0.00023644333585562909 0 -0.014420720893875196 0.00023110104357833655 0 -0.014420720893875196 0.00023110104357833655 0 -0.014516835128180975 0.00036178322518057066 0 -0.01438814519835142 0.00035366068898467226 0 -0.014595197851664818 0.00023644333585562909 0 -0.014516835128180975 0.00036178322518057066 0 -0.014691694448386474 0.00031252181837932087 0 -0.014987980326949273 2.2722458908569473e-06 0 -0.014982767045179455 3.6281077060224157e-06 0 -0.01498476609366599 1.2809154612882849e-06 0 -0.012772801958249702 -0.00086919864731959881 0 -0.013086282869231953 -0.0010798801382868968 0 -0.012996408362220914 -0.00071705558219159026 0 -0.01270459015974609 -0.00086331078508314818 0 -0.012772801958249702 -0.00086919864731959881 0 -0.013086282869231953 -0.0010798801382868968 0 -0.01270119448441352 -0.00086378156026551724 0 -0.012772801958249702 -0.00086919864731959881 0 -0.012799187187301428 -0.00061634953115756235 0 -0.013702966844511808 -0.0004668447889218108 0 -0.013461071356656504 -0.00048140966428258079 0 -0.013702966844511808 -0.0004668447889218108 0 -0.014185762474592233 -0.00025170031069675646 0 -0.014420720893875196 0.00023110104357833655 0 -0.014298954515347408 0.00018005119208937287 0 -0.01438814519835142 0.00035366068898467226 0 -0.014453314409671363 9.5824140975809622e-05 0 -0.014420720893875196 0.00023110104357833655 0 -0.014298954515347408 0.00018005119208937287 0 -0.013086282869231953 -0.0010798801382868968 0 -0.013431980147216825 -0.00050379141472734975 0 -0.012996408362220914 -0.00071705558219159026 0 -0.014185762474592233 -0.00025170031069675646 0 -0.013824687358197363 -0.00013570861708400646 0 -0.013431980147216825 -0.00050379141472734975 0 -0.013063091482086059 -0.00043512744757847184 0 -0.012996408362220914 -0.00071705558219159026 0 -0.013063091482086059 -0.00043512744757847184 0 -0.012799187187301428 -0.00061634953115756235 0 -0.012762392911755509 -0.00027189824851063543 0 -0.013063091482086059 -0.00043512744757847184 0 -0.012996408362220914 -0.00071705558219159026 0 -0.012799187187301428 -0.00061634953115756235 0 -0.012772801958249702 -0.00086919864731959881 0 -0.012996408362220914 -0.00071705558219159026 0 -0.012799187187301428 -0.00061634953115756235 0 -0.01256615183363337 -0.0005207134092403595 0 -0.01270119448441352 -0.00086378156026551724 0 -0.012799187187301428 -0.00061634953115756235 0 -0.01256615183363337 -0.0005207134092403595 0 -0.012799187187301428 -0.00061634953115756235 0 -0.012762392911755509 -0.00027189824851063543 0 -0.013063091482086059 -0.00043512744757847184 0 -0.012762392911755509 -0.00027189824851063543 0 -0.013161358558467721 0.00015530668904628985 0 -0.01260902404791246 4.6605716916411983e-05 0 -0.012762392911755509 -0.00027189824851063543 0 -0.013161358558467721 0.00015530668904628985 0 -0.01260902404791246 4.6605716916411983e-05 0 -0.01258138680888332 0.00040528127477862169 0 -0.013161358558467721 0.00015530668904628985 0 -0.013431980147216825 -0.00050379141472734975 0 -0.013063091482086059 -0.00043512744757847184 0 -0.013161358558467721 0.00015530668904628985 0 -0.013824687358197363 -0.00013570861708400646 0 -0.014134551826310597 0.00033916127126270272 0 -0.014516835128180975 0.00036178322518057066 0 -0.01438814519835142 0.00035366068898467226 0 -0.01441079832224571 0.0005216417738126305 0 -0.013431980147216825 -0.00050379141472734975 0 -0.013161358558467721 0.00015530668904628985 0 -0.013818577493845966 8.7731895497850221e-05 0 -0.014516835128180975 0.00036178322518057066 0 -0.01441079832224571 0.0005216417738126305 0 -0.014583304114562309 0.0004951781786535816 0 -0.014134551826310597 0.00033916127126270272 0 -0.014313165048613595 0.00075877157442821213 0 -0.01445978183098828 0.00061206142490173988 0 -0.01441079832224571 0.0005216417738126305 0 -0.014583304114562309 0.0004951781786535816 0 -0.01445978183098828 0.00061206142490173988 0 -0.01441079832224571 0.0005216417738126305 0 -0.014314544240404578 0.00078357476310316019 0 -0.013161358558467721 0.00015530668904628985 0 -0.013818577493845966 8.7731895497850221e-05 0 -0.013646250376572897 0.00059891297529289576 0 -0.013646250376572897 0.00059891297529289576 0 -0.013508608919209854 0.0010392291340509817 0 -0.013889686058488884 0.00096257628377787331 0 -0.013646250376572897 0.00059891297529289576 0 -0.013508608919209854 0.0010392291340509817 0 -0.01327495874975022 0.00062756498970340338 0 -0.013646250376572897 0.00059891297529289576 0 -0.014314544240404578 0.00078357476310316019 0 -0.013889686058488884 0.00096257628377787331 0 -0.013818577493845966 8.7731895497850221e-05 0 -0.013646250376572897 0.00059891297529289576 0 -0.014314544240404578 0.00078357476310316019 0 -0.014103039179816946 0.0011213723498701149 0 -0.014504604120866297 0.0010073999950308288 0 -0.014010803318727796 0.0015868714416152477 0 -0.009905398771554854 -0.000273111349830332 0 -0.0097909054002199066 9.2837341002650371e-05 0 -0.014314544240404578 0.00078357476310316019 0 -0.014103039179816946 0.0011213723498701149 0 -0.014504604120866297 0.0010073999950308288 0 -0.014314544240404578 0.00078357476310316019 0 -0.014103039179816946 0.0011213723498701149 0 -0.013889686058488884 0.00096257628377787331 0 -0.014103039179816946 0.0011213723498701149 0 -0.013889686058488884 0.00096257628377787331 0 -0.013787168168243781 0.00126988474459183 0 -0.013508608919209854 0.0010392291340509817 0 -0.013787168168243781 0.00126988474459183 0 -0.01352249802721456 0.0014972169094683717 0 -0.013508608919209854 0.0010392291340509817 0 -0.013889686058488884 0.00096257628377787331 0 -0.013787168168243781 0.00126988474459183 0 -0.013101567804909143 0.00095549800900238482 0 -0.012835037039429524 0.0013147788918635437 0 -0.012953495816997172 0.00083839958517284094 0 -0.013508608919209854 0.0010392291340509817 0 -0.013190801277783284 0.0013440336748691375 0 -0.01352249802721456 0.0014972169094683717 0 -0.013508608919209854 0.0010392291340509817 0 -0.013101567804909143 0.00095549800900238482 0 -0.013190801277783284 0.0013440336748691375 0 -0.012938872510076948 0.00091792509604145863 0 -0.01268865361530536 0.00076049953500501412 0 -0.013101567804909143 0.00095549800900238482 0 -0.012835037039429524 0.0013147788918635437 0 -0.013190801277783284 0.0013440336748691375 0 -0.012232116607346785 0.0011845395162766346 0 -0.01268865361530536 0.00076049953500501412 0 -0.011633657100763651 0.0010765695369269938 0 -0.011479172254191927 0.00089252635101248268 0 -0.011687691921269032 0.0008399525498949264 0 -0.011438963907432242 0.0010633079280307862 0 -0.011633657100763651 0.0010765695369269938 0 -0.011479172254191927 0.00089252635101248268 0 -0.011415829539705187 0.0006275438383950263 0 -0.011479172254191927 0.00089252635101248268 0 -0.011687691921269032 0.0008399525498949264 0 -0.01258138680888332 0.00040528127477862169 0 -0.013161358558467721 0.00015530668904628985 0 -0.013030383163698606 0.00076167695196306066 0 -0.011971216039943548 0.00049846541627277083 0 -0.01268865361530536 0.00076049953500501412 0 -0.013161358558467721 0.00015530668904628985 0 -0.012973555389388948 0.0008459487236663712 0 -0.01327495874975022 0.00062756498970340338 0 -0.013161358558467721 0.00015530668904628985 0 -0.013646250376572897 0.00059891297529289576 0 -0.01327495874975022 0.00062756498970340338 0 -0.013216834015905371 0.00019835070949055216 0 -0.01268865361530536 0.00076049953500501412 0 -0.013508608919209854 0.0010392291340509817 0 -0.013101567804909143 0.00095549800900238482 0 -0.01327495874975022 0.00062756498970340338 0 -0.013101567804909143 0.00095549800900238482 0 -0.012973555389388948 0.0008459487236663712 0 -0.01327495874975022 0.00062756498970340338 0 -0.0059562560170992717 -0.0011611115057050647 0 -0.0056070142476668215 -0.0016425450648979341 0 -0.0058413611888279314 -0.0015982018124082965 0 -0.0056090658061690932 -0.001818589013920225 0 -0.0060032413572907563 -0.00194152899046999 0 -0.005954617681980255 -0.00074898059844636419 0 -0.0060912162387927399 -0.0011303438839138536 0 -0.006280824256651359 -0.00086791921818513043 0 -0.0061957784082044337 -0.00062114437118926727 0 -0.005954617681980255 -0.00074898059844636419 0 -0.006280824256651359 -0.00086791921818513043 0 -0.0058413611888279314 -0.0015982018124082965 0 -0.0055772877155389157 -0.001484281414338304 0 -0.0056090658061690932 -0.001818589013920225 0 -0.0055772877155389157 -0.001484281414338304 0 -0.0053721979963067649 -0.0015840816001760102 0 -0.0056090658061690932 -0.001818589013920225 0 -0.014504604120866297 0.0010073999950308288 0 -0.01453920183757537 0.00068487007796594964 0 -0.014717200289244841 0.00066990297354017783 0 -0.014314544240404578 0.00078357476310316019 0 -0.014504604120866297 0.0010073999950308288 0 -0.01453920183757537 0.00068487007796594964 0 -0.009905398771554854 -0.000273111349830332 0 -0.010142813130170882 -0.00055865550196995185 0 -0.01445978183098828 0.00061206142490173988 0 -0.014314544240404578 0.00078357476310316019 0 -0.01453920183757537 0.00068487007796594964 0 -0.014717200289244841 0.00066990297354017783 0 -0.014583304114562309 0.0004951781786535816 0 -0.01473527008294534 0.00044942886619933831 0 -0.014717200289244841 0.00066990297354017783 0 -0.01473527008294534 0.00044942886619933831 0 -0.014860848688140705 0.00049117570880558015 0 -0.010142813130170882 -0.00055865550196995185 0 -0.010518555663121451 -0.00081752854431731831 0 -0.01453920183757537 0.00068487007796594964 0 -0.014717200289244841 0.00066990297354017783 0 -0.014583304114562309 0.0004951781786535816 0 -0.01445978183098828 0.00061206142490173988 0 -0.01453920183757537 0.00068487007796594964 0 -0.014583304114562309 0.0004951781786535816 0 -0.014516835128180975 0.00036178322518057066 0 -0.014583304114562309 0.0004951781786535816 0 -0.014691694448386474 0.00031252181837932087 0 -0.014583304114562309 0.0004951781786535816 0 -0.01473527008294534 0.00044942886619933831 0 -0.014691694448386474 0.00031252181837932087 0 -0.01473527008294534 0.00044942886619933831 0 -0.014860848688140705 0.00049117570880558015 0 -0.014834642407419333 0.00032759307710535985 0 -0.014860848688140705 0.00049117570880558015 0 -0.014921147895879954 0.00031892348494388923 0 -0.014834642407419333 0.00032759307710535985 0 -0.014860848688140705 0.00049117570880558015 0 -0.014976480145468738 0.00034442161089047138 0 -0.014921147895879954 0.00031892348494388923 0 -0.0056090658061690932 -0.001818589013920225 0 -0.0058749381604067136 -0.0020651889382812673 0 -0.0060032413572907563 -0.00194152899046999 0 -0.0060912162387927399 -0.0011303438839138536 0 -0.0062872407766356624 -0.0011096339119031058 0 -0.006280824256651359 -0.00086791921818513043 0 -0.0060912162387927399 -0.0011303438839138536 0 -0.0062625932158400233 -0.001295709002043224 0 -0.0062872407766356624 -0.0011096339119031058 0 -0.0056070142476668215 -0.0016425450648979341 0 -0.009527047531506537 -0.001127786799035309 0 -0.0062625932158400233 -0.001295709002043224 0 -0.0062264722499083174 -0.001472299654709073 0 -0.0062719401103065479 -0.0015169201577179675 0 -0.010518555663121451 -0.00081752854431731831 0 -0.009527047531506537 -0.001127786799035309 0 -0.0058749381604067136 -0.0020651889382812673 0 -0.0060032413572907563 -0.00194152899046999 0 -0.0061701859401011028 -0.0023152856772385849 0 -0.0060912162387927399 -0.0011303438839138536 0 -0.0062625932158400233 -0.001295709002043224 0 -0.0062264722499083174 -0.001472299654709073 0 -0.009527047531506537 -0.001127786799035309 0 -0.012164479624521947 -5.9726420075928372e-05 0 -0.010693362490767491 -0.00057415945476609509 0 -0.010965889702615424 -0.00087529486826883713 0 -0.010814377184029325 -0.0010993058610659226 0 -0.009527047531506537 -0.001127786799035309 0 -0.0099980949170621926 -0.00092027019452006721 0 -0.0099980949170621926 -0.00092027019452006721 0 -0.012164479624521947 -5.9726420075928372e-05 0 -0.014988278453011561 0.00030229600377347802 0 -0.014921147895879954 0.00031892348494388923 0 -0.014960918268662887 0.00022138149740124577 0 -0.014976480145468738 0.00034442161089047138 0 -0.014988278453011561 0.00030229600377347802 0 -0.014921147895879954 0.00031892348494388923 0 -0.014921147895879954 0.00031892348494388923 0 -0.014894201012469209 0.00022468602407404764 0 -0.014834642407419333 0.00032759307710535985 0 -0.014921147895879954 0.00031892348494388923 0 -0.014894201012469209 0.00022468602407404764 0 -0.014960918268662887 0.00022138149740124577 0 -0.014894201012469209 0.00022468602407404764 0 -0.014893847597824165 0.00013920329205334905 0 -0.014937601111382681 0.00012668777422185834 0 -0.015009707883827396 0.0004437996094656458 0 -0.01488114677309191 7.4255409916795223e-05 0 -0.014894201012469209 0.00022468602407404764 0 -0.014960918268662887 0.00022138149740124577 0 -0.014937601111382681 0.00012668777422185834 0 -0.014895976849974409 9.9375206692020002e-05 0 -0.0149229758237107 0.00011349102348189606 0 -0.014921043312394701 0.00012358869446664001 0 -0.0149229758237107 0.00011349102348189606 0 -0.014921043312394701 0.00012358869446664001 0 -0.014937601111382681 0.00012668777422185834 0 -0.012164479624521947 -5.9726420075928372e-05 0 -0.014403635335377873 0.00012268627858142336 0 -0.012164479624521947 -5.9726420075928372e-05 0 -0.015009707883827396 0.0004437996094656458 0 -0.01473527008294534 0.00044942886619933831 0 -0.014691694448386474 0.00031252181837932087 0 -0.014834642407419333 0.00032759307710535985 0 -0.014691694448386474 0.00031252181837932087 0 -0.014834642407419333 0.00032759307710535985 0 -0.014824254652370977 0.00022401984929422896 0 -0.014894201012469209 0.00022468602407404764 0 -0.014834642407419333 0.00032759307710535985 0 -0.014824254652370977 0.00022401984929422896 0 -0.014894201012469209 0.00022468602407404764 0 -0.014824254652370977 0.00022401984929422896 0 -0.014893847597824165 0.00013920329205334905 0 -0.014824254652370977 0.00022401984929422896 0 -0.014848591597196543 0.00013323719551156719 0 -0.014893847597824165 0.00013920329205334905 0 -0.014691694448386474 0.00031252181837932087 0 -0.014824254652370977 0.00022401984929422896 0 -0.014736780810639727 0.00020667077688859873 0 -0.014595197851664818 0.00023644333585562909 0 -0.014691694448386474 0.00031252181837932087 0 -0.014736780810639727 0.00020667077688859873 0 -0.014824254652370977 0.00022401984929422896 0 -0.014736780810639727 0.00020667077688859873 0 -0.014848591597196543 0.00013323719551156719 0 -0.014703969287745736 0.00012900762006609723 0 -0.014848591597196543 0.00013323719551156719 0 -0.014897486847326512 5.2688694701022749e-05 0 -0.014703969287745736 0.00012900762006609723 0 -0.014736780810639727 0.00020667077688859873 0 -0.014848591597196543 0.00013323719551156719 0 -0.014662421570102982 8.5966043135575508e-06 0 -0.014703969287745736 0.00012900762006609723 0 -0.014897486847326512 5.2688694701022749e-05 0 -0.014848591597196543 0.00013323719551156719 0 -0.014934897810600005 8.0803727773923163e-05 0 -0.014897486847326512 5.2688694701022749e-05 0 -0.014848591597196543 0.00013323719551156719 0 -0.014893847597824165 0.00013920329205334905 0 -0.014934897810600005 8.0803727773923163e-05 0 -0.014934897810600005 8.0803727773923163e-05 0 -0.015000083611164131 1.6405959225976463e-07 0 -0.014897486847326512 5.2688694701022749e-05 0 -0.015000083611164131 1.6405959225976463e-07 0 -0.014897486847326512 5.2688694701022749e-05 0 -0.01499947643561075 -1.7679337621840779e-07 0 -0.014820283420053725 1.6839437041090278e-05 0 -0.014999931613808875 -5.0105519238517699e-09 0 -0.014662421570102982 8.5966043135575508e-06 0 -0.014897486847326512 5.2688694701022749e-05 0 -0.01499947643561075 -1.7679337621840779e-07 0 -0.014990736881554985 -4.979835343657324e-06 0 -0.014995913607375335 -5.5779482211228156e-07 0 -0.014992447587573957 1.2437573232921592e-06 0 -0.014921043312394701 0.00012358869446664001 0 -0.014937601111382681 0.00012668777422185834 0 -0.0149518258012787 9.6787398437077243e-05 0 -0.014990736881554985 -4.979835343657324e-06 0 -0.014999606907332591 -4.5181548392060475e-07 0 -0.014995913607375335 -5.5779482211228156e-07 0 -0.014403635335377873 0.00012268627858142336 0 -0.015057642075584384 6.4151527146810567e-05 0 -0.014934897810600005 8.0803727773923163e-05 0 -0.014937601111382681 0.00012668777422185834 0 -0.0149518258012787 9.6787398437077243e-05 0 -0.014893847597824165 0.00013920329205334905 0 -0.014934897810600005 8.0803727773923163e-05 0 -0.014937601111382681 0.00012668777422185834 0 -0.014934897810600005 8.0803727773923163e-05 0 -0.015000083611164131 1.6405959225976463e-07 0 -0.0149518258012787 9.6787398437077243e-05 0 -0.014999879876146496 -4.5801165366096425e-08 0 -0.015057642075584384 6.4151527146810567e-05 0 -0.015000004182063063 -1.7277281893545936e-09 0 -0.014999606907332591 -4.5181548392060475e-07 0 -0.014999992267419838 3.3483756750672724e-09 0 -0.014999606907332591 -4.5181548392060475e-07 0 -0.014999992267419838 3.3483756750672724e-09 0 -0.014995913607375335 -5.5779482211228156e-07 0 -0.014999992267419838 3.3483756750672724e-09 0 -0.014995913607375335 -5.5779482211228156e-07 0 -0.014992447587573957 1.2437573232921592e-06 0 -0.014999992267419838 3.3483756750672724e-09 0 -0.014992447587573957 1.2437573232921592e-06 0 -0.014999967267930878 2.6048976027732049e-09 0 -0.014992447587573957 1.2437573232921592e-06 0 -0.014981100960457988 5.0382918297993234e-06 0 -0.014999967267930878 2.6048976027732049e-09 0 -0.014969617024655284 7.3992258266388574e-06 0 -0.014992447587573957 1.2437573232921592e-06 0 -0.014981100960457988 5.0382918297993234e-06 0 -0.014969617024655284 7.3992258266388574e-06 0 -0.014981100960457988 5.0382918297993234e-06 0 -0.014963771947735488 1.0557526548858084e-05 0 -0.014403635335377873 0.00012268627858142336 0 -0.015048516379906974 -7.5114980327061715e-05 0 -0.014981100960457988 5.0382918297993234e-06 0 -0.014980660483128547 7.4103226482449577e-06 0 -0.014963771947735488 1.0557526548858084e-05 0 -0.010237959408581201 -0.00052516328081230075 0 -0.010234222570451333 -0.00049877990765046301 0 -0.010240890311568759 -0.00050070528959890892 0 -0.010250725532539001 -0.00050784940593619579 0 -0.010237959408581201 -0.00052516328081230075 0 -0.010240890311568759 -0.00050070528959890892 0 -0.010250725532539001 -0.00050784940593619579 0 -0.010249727847708646 -0.00049450704960829028 0 -0.010240890311568759 -0.00050070528959890892 0 -0.012687334732140013 -0.00022205833472934406 0 -0.012358967230010995 -0.00027637509010377555 0 -0.014981100960457988 5.0382918297993234e-06 0 -0.014980660483128547 7.4103226482449577e-06 0 -0.014991446448834307 2.8666934703536653e-06 0 -0.014980660483128547 7.4103226482449577e-06 0 -0.014985941313357076 5.9705680035947231e-06 0 -0.014991446448834307 2.8666934703536653e-06 0 -0.010250725532539001 -0.00050784940593619579 0 -0.010237959408581201 -0.00052516328081230075 0 -0.010249688775799017 -0.00056343767873369931 0 -0.012687334732140013 -0.00022205833472934406 0 -0.012664324742905598 -4.3093672809495456e-06 0 -0.014999967267930878 2.6048976027732049e-09 0 -0.014991446448834307 2.8666934703536653e-06 0 -0.014997745328439697 5.3108307296524739e-07 0 -0.014981100960457988 5.0382918297993234e-06 0 -0.014999967267930878 2.6048976027732049e-09 0 -0.014991446448834307 2.8666934703536653e-06 0 -0.014991446448834307 2.8666934703536653e-06 0 -0.014997745328439697 5.3108307296524739e-07 0 -0.014995366908794478 1.8228684163863757e-06 0 -0.014999967267930878 2.6048976027732049e-09 0 -0.014997745328439697 5.3108307296524739e-07 0 -0.014999993598318251 9.7776842023700443e-10 0 -0.014330173236758082 8.2091998484559991e-05 0 -0.014147820532299292 -3.4540253770157101e-05 0 -0.014997801111755773 -4.1048934393692249e-06 0 -0.01499875618115536 -1.5035132858327026e-05 0 -0.014964079606830959 -3.1491371812626613e-05 0 -0.014999662656192321 -3.6805299384588879e-07 0 -0.014147820532299292 -3.4540253770157101e-05 0 -0.014997745328439697 5.3108307296524739e-07 0 -0.014999993598318251 9.7776842023700443e-10 0 -0.014996623081402953 1.0016574505963479e-06 0 -0.014997801111755773 -4.1048934393692249e-06 0 -0.014999956546603743 -3.40879558294783e-09 0 -0.01499875618115536 -1.5035132858327026e-05 0 -0.01499875618115536 -1.5035132858327026e-05 0 -0.01498329274564149 -3.8170779799803318e-05 0 -0.014964079606830959 -3.1491371812626613e-05 0 -0.014147820532299292 -3.4540253770157101e-05 0 -0.012489215184406394 -0.00010661341770273964 0 -0.012489215184406394 -0.00010661341770273964 0 -0.014235638951384211 -0.00013818293484132052 0 -0.012664324742905598 -4.3093672809495456e-06 0 -0.014147820532299292 -3.4540253770157101e-05 0 -0.014985941313357076 5.9705680035947231e-06 0 -0.014991446448834307 2.8666934703536653e-06 0 -0.014995366908794478 1.8228684163863757e-06 0 -0.012966373331438314 0.00013670524957171194 0 -0.013236859639172316 -0.00016432202815980327 0 -0.013329504653497259 4.4030738067694564e-05 0 -0.014235638951384211 -0.00013818293484132052 0 -0.015119573665635096 -2.1571779257140736e-05 0 -0.014999956546603743 -3.40879558294783e-09 0 -0.014998707159154497 -1.1753772417993314e-06 0 -0.015000009379212417 -1.305810167003689e-09 0 -0.014998707159154497 -1.1753772417993314e-06 0 -0.014996654091008322 -9.2690660778569612e-07 0 -0.014999974700479269 -2.2932445132619031e-07 0 -0.014997801111755773 -4.1048934393692249e-06 0 -0.014999956546603743 -3.40879558294783e-09 0 -0.014998707159154497 -1.1753772417993314e-06 0 -0.014876700753386382 0.00015162182674108816 0 -0.014235638951384211 -0.00013818293484132052 0 -0.014997801111755773 -4.1048934393692249e-06 0 -0.014998707159154497 -1.1753772417993314e-06 0 -0.014996654091008322 -9.2690660778569612e-07 0 -0.012489215184406394 -0.00010661341770273964 0 -0.011216471468756338 -0.00012240479536022614 0 -0.014235638951384211 -0.00013818293484132052 0 -0.013541932957805628 0.00014791315026086146 0 -0.014957653312191154 -1.6573665555758891e-05 0 -0.014976218945258774 -1.4615982269703166e-05 0 -0.014968177798182778 -1.0942914364014765e-05 0 -0.012352404510679798 0.00035644951825302876 0 -0.012306881956501561 0.00021288690461482908 0 -0.012260313267746667 0.0002414734611621185 0 -0.012390843569051601 0.00034401849634944887 0 -0.012352404510679798 0.00035644951825302876 0 -0.012306881956501561 0.00021288690461482908 0 -0.010340919781312092 -0.00061540248306136698 0 -0.010283737448076058 -0.00049274710377724957 0 -0.010488213625808289 -0.00035053651374234172 0 -0.012664324742905598 -4.3093672809495456e-06 0 -0.012489215184406394 -0.00010661341770273964 0 -0.010249688775799017 -0.00056343767873369931 0 -0.010340919781312092 -0.00061540248306136698 0 -0.010283737448076058 -0.00049274710377724957 0 -0.010250725532539001 -0.00050784940593619579 0 -0.010249688775799017 -0.00056343767873369931 0 -0.010283737448076058 -0.00049274710377724957 0 -0.010250725532539001 -0.00050784940593619579 0 -0.010283737448076058 -0.00049274710377724957 0 -0.010249727847708646 -0.00049450704960829028 0 -0.010283737448076058 -0.00049274710377724957 0 -0.010244520748503938 -0.00049176487742149256 0 -0.010200522653412649 -0.00048869652859171635 0 -0.010283737448076058 -0.00049274710377724957 0 -0.010249727847708646 -0.00049450704960829028 0 -0.010244520748503938 -0.00049176487742149256 0 -0.010280648331232036 -0.00048370248196665097 0 -0.010310403021718409 -0.00040285223171516115 0 -0.010249727847708646 -0.00049450704960829028 0 -0.010244520748503938 -0.00049176487742149256 0 -0.010236587124743407 -0.0004954834419464212 0 -0.010244520748503938 -0.00049176487742149256 0 -0.010220952829159176 -0.0004957642433540151 0 -0.010200522653412649 -0.00048869652859171635 0 -0.010244520748503938 -0.00049176487742149256 0 -0.010232750456682215 -0.00049451890599561728 0 -0.010236587124743407 -0.0004954834419464212 0 -0.010244520748503938 -0.00049176487742149256 0 -0.010220952829159176 -0.0004957642433540151 0 -0.010232750456682215 -0.00049451890599561728 0 -0.010220952829159176 -0.0004957642433540151 0 -0.010232750456682215 -0.00049451890599561728 0 -0.010220915848112466 -0.0005007477739556737 0 -0.010229311280261286 -0.00049745753098488527 0 -0.010232750456682215 -0.00049451890599561728 0 -0.010220915848112466 -0.0005007477739556737 0 -0.010229311280261286 -0.00049745753098488527 0 -0.010232750456682215 -0.00049451890599561728 0 -0.010236587124743407 -0.0004954834419464212 0 -0.010283737448076058 -0.00049274710377724957 0 -0.010488213625808289 -0.00035053651374234172 0 -0.010429128678320189 -0.00028949219282206818 0 -0.012306881956501561 0.00021288690461482908 0 -0.012260313267746667 0.0002414734611621185 0 -0.012235859189741665 0.00016611932970038182 0 -0.010200522653412649 -0.00048869652859171635 0 -0.010187485054808907 -0.00050529121708261192 0 -0.010143820619535037 -0.00051740951679305055 0 -0.010429128678320189 -0.00028949219282206818 0 -0.010558566057400683 -0.00013905940894294488 0 -0.01057887665184196 -8.2448228627569249e-05 0 -0.011216471468756338 -0.00012240479536022614 0 -0.011536548719895127 6.745171022788009e-05 0 -0.010488213625808289 -0.00035053651374234172 0 -0.010429128678320189 -0.00028949219282206818 0 -0.010558566057400683 -0.00013905940894294488 0 -0.010488213625808289 -0.00035053651374234172 0 -0.010558566057400683 -0.00013905940894294488 0 -0.010651181730349332 -5.6415535655265275e-05 0 -0.012306881956501561 0.00021288690461482908 0 -0.012235859189741665 0.00016611932970038182 0 -0.012221071007551364 7.5468555256192468e-05 0 -0.010310403021718409 -0.00040285223171516115 0 -0.010374664526727213 -0.00026579144812342132 0 -0.010200522653412649 -0.00048869652859171635 0 -0.010187485054808907 -0.00050529121708261192 0 -0.010204401104501337 -0.00050023606014638075 0 -0.010187485054808907 -0.00050529121708261192 0 -0.010204401104501337 -0.00050023606014638075 0 -0.010196475204966157 -0.00050902650419609285 0 -0.010187485054808907 -0.00050529121708261192 0 -0.010181156587184454 -0.00051353524996316808 0 -0.010143820619535037 -0.00051740951679305055 0 -0.010187485054808907 -0.00050529121708261192 0 -0.010181156587184454 -0.00051353524996316808 0 -0.010196475204966157 -0.00050902650419609285 0 -0.010181156587184454 -0.00051353524996316808 0 -0.010196475204966157 -0.00050902650419609285 0 -0.01018865482835749 -0.00051744123991046172 0 -0.010181156587184454 -0.00051353524996316808 0 -0.010167861384247894 -0.00051961260941311668 0 -0.01018865482835749 -0.00051744123991046172 0 -0.010181156587184454 -0.00051353524996316808 0 -0.010143820619535037 -0.00051740951679305055 0 -0.010167861384247894 -0.00051961260941311668 0 -0.010438505768462917 -0.00016013368401894665 0 -0.010374664526727213 -0.00026579144812342132 0 -0.010220952829159176 -0.0004957642433540151 0 -0.010220915848112466 -0.0005007477739556737 0 -0.010208637280097438 -0.00050629949114019892 0 -0.010220915848112466 -0.0005007477739556737 0 -0.010208637280097438 -0.00050629949114019892 0 -0.010211225977079642 -0.00050944314120380174 0 -0.010220915848112466 -0.0005007477739556737 0 -0.010211225977079642 -0.00050944314120380174 0 -0.01021868214909878 -0.00050479333061397805 0 -0.010229311280261286 -0.00049745753098488527 0 -0.010220915848112466 -0.0005007477739556737 0 -0.01021868214909878 -0.00050479333061397805 0 -0.010220952829159176 -0.0004957642433540151 0 -0.010200522653412649 -0.00048869652859171635 0 -0.010204401104501337 -0.00050023606014638075 0 -0.010220952829159176 -0.0004957642433540151 0 -0.010204401104501337 -0.00050023606014638075 0 -0.010208637280097438 -0.00050629949114019892 0 -0.010204401104501337 -0.00050023606014638075 0 -0.010208637280097438 -0.00050629949114019892 0 -0.010196475204966157 -0.00050902650419609285 0 -0.010208637280097438 -0.00050629949114019892 0 -0.010199328911378683 -0.0005142646742801499 0 -0.010203971459329679 -0.00051487101836953037 0 -0.010208637280097438 -0.00050629949114019892 0 -0.010196475204966157 -0.00050902650419609285 0 -0.010199328911378683 -0.0005142646742801499 0 -0.010196475204966157 -0.00050902650419609285 0 -0.010199328911378683 -0.0005142646742801499 0 -0.01018865482835749 -0.00051744123991046172 0 -0.010199328911378683 -0.0005142646742801499 0 -0.010203971459329679 -0.00051487101836953037 0 -0.010198948704802969 -0.0005208656853625005 0 -0.010208637280097438 -0.00050629949114019892 0 -0.010203971459329679 -0.00051487101836953037 0 -0.010211225977079642 -0.00050944314120380174 0 -0.010203971459329679 -0.00051487101836953037 0 -0.010211225977079642 -0.00050944314120380174 0 -0.010203835856215718 -0.00051764040614793287 0 -0.010211225977079642 -0.00050944314120380174 0 -0.01020911996369419 -0.0005133992906659865 0 -0.010203835856215718 -0.00051764040614793287 0 -0.01020911996369419 -0.0005133992906659865 0 -0.01020779483558 -0.00051490082686122336 0 -0.010216198132179612 -0.00050814880288232187 0 -0.010211225977079642 -0.00050944314120380174 0 -0.01020911996369419 -0.0005133992906659865 0 -0.01021868214909878 -0.00050479333061397805 0 -0.01020911996369419 -0.0005133992906659865 0 -0.010216198132179612 -0.00050814880288232187 0 -0.01021868214909878 -0.00050479333061397805 0 -0.010216198132179612 -0.00050814880288232187 0 -0.01021868214909878 -0.00050479333061397805 0 -0.010225818620642041 -0.00050073883144066374 0 -0.010216198132179612 -0.00050814880288232187 0 -0.010225818620642041 -0.00050073883144066374 0 -0.01022246694705703 -0.00050438809675612485 0 -0.010225818620642041 -0.00050073883144066374 0 -0.01022246694705703 -0.00050438809675612485 0 -0.010226766394173642 -0.00050131258346672151 0 -0.010229311280261286 -0.00049745753098488527 0 -0.01021868214909878 -0.00050479333061397805 0 -0.010225818620642041 -0.00050073883144066374 0 -0.010222586431164044 -0.00050626854951097051 0 -0.01022887237756263 -0.000502786811203977 0 -0.010227785905684829 -0.0005019059845447905 0 -0.01022246694705703 -0.00050438809675612485 0 -0.010222586431164044 -0.00050626854951097051 0 -0.010227785905684829 -0.0005019059845447905 0 -0.01022246694705703 -0.00050438809675612485 0 -0.010226766394173642 -0.00050131258346672151 0 -0.010227785905684829 -0.0005019059845447905 0 -0.010216198132179612 -0.00050814880288232187 0 -0.01022246694705703 -0.00050438809675612485 0 -0.010214330108201672 -0.00051047317928609639 0 -0.01022246694705703 -0.00050438809675612485 0 -0.010222586431164044 -0.00050626854951097051 0 -0.010214330108201672 -0.00051047317928609639 0 -0.010222586431164044 -0.00050626854951097051 0 -0.010214330108201672 -0.00051047317928609639 0 -0.010215056139806495 -0.00051264321928969579 0 -0.01020779483558 -0.00051490082686122336 0 -0.010216198132179612 -0.00050814880288232187 0 -0.010214330108201672 -0.00051047317928609639 0 -0.01020779483558 -0.00051490082686122336 0 -0.010214330108201672 -0.00051047317928609639 0 -0.010206129466350954 -0.00051614112012461492 0 -0.010214330108201672 -0.00051047317928609639 0 -0.010215056139806495 -0.00051264321928969579 0 -0.010206129466350954 -0.00051614112012461492 0 -0.010224408633834739 -0.00051262704869744374 0 -0.010224968014559828 -0.00050724094151586045 0 -0.010235157459488105 -0.00049978566762679661 0 -0.010224408633834739 -0.00051262704869744374 0 -0.010215056139806495 -0.00051264321928969579 0 -0.010224968014559828 -0.00050724094151586045 0 -0.012369769252787132 -8.4466270094614345e-05 0 -0.012365085346739755 -9.426794998982957e-05 0 -0.012444948655922361 -0.00015022640230704133 0 -0.010222586431164044 -0.00050626854951097051 0 -0.010215056139806495 -0.00051264321928969579 0 -0.010224968014559828 -0.00050724094151586045 0 -0.010222586431164044 -0.00050626854951097051 0 -0.010224968014559828 -0.00050724094151586045 0 -0.01022887237756263 -0.000502786811203977 0 -0.010224968014559828 -0.00050724094151586045 0 -0.01022887237756263 -0.000502786811203977 0 -0.010235157459488105 -0.00049978566762679661 0 -0.012365085346739755 -9.426794998982957e-05 0 -0.012407088290643844 -0.00018285662116697347 0 -0.012444948655922361 -0.00015022640230704133 0 -0.0099980949170621926 -0.00092027019452006721 0 -0.012358967230010995 -0.00027637509010377555 0 -0.01022887237756263 -0.000502786811203977 0 -0.010235157459488105 -0.00049978566762679661 0 -0.010232692823892921 -0.00049962563220317443 0 -0.014403635335377873 0.00012268627858142336 0 -0.012358967230010995 -0.00027637509010377555 0 -0.012358967230010995 -0.00027637509010377555 0 -0.011519042947591079 -0.00067820889877827427 0 -0.010237959408581201 -0.00052516328081230075 0 -0.010233504842516301 -0.00049770199401998137 0 -0.010234222570451333 -0.00049877990765046301 0 -0.010233504842516301 -0.00049770199401998137 0 -0.010234222570451333 -0.00049877990765046301 0 -0.010232692823892921 -0.00049962563220317443 0 -0.010234222570451333 -0.00049877990765046301 0 -0.010240890311568759 -0.00050070528959890892 0 -0.010236587124743407 -0.0004954834419464212 0 -0.010249727847708646 -0.00049450704960829028 0 -0.010240890311568759 -0.00050070528959890892 0 -0.010236587124743407 -0.0004954834419464212 0 -0.010234222570451333 -0.00049877990765046301 0 -0.010231064227001161 -0.0004986568655901693 0 -0.010236587124743407 -0.0004954834419464212 0 -0.010225818620642041 -0.00050073883144066374 0 -0.010231064227001161 -0.0004986568655901693 0 -0.010236587124743407 -0.0004954834419464212 0 -0.010229311280261286 -0.00049745753098488527 0 -0.010225818620642041 -0.00050073883144066374 0 -0.010236587124743407 -0.0004954834419464212 0 -0.010225818620642041 -0.00050073883144066374 0 -0.010231064227001161 -0.0004986568655901693 0 -0.010226766394173642 -0.00050131258346672151 0 -0.010231064227001161 -0.0004986568655901693 0 -0.010226766394173642 -0.00050131258346672151 0 -0.010231139774669292 -0.00049959332386471445 0 -0.010226766394173642 -0.00050131258346672151 0 -0.010227785905684829 -0.0005019059845447905 0 -0.010231139774669292 -0.00049959332386471445 0 -0.01022887237756263 -0.000502786811203977 0 -0.010227785905684829 -0.0005019059845447905 0 -0.010232692823892921 -0.00049962563220317443 0 -0.010227785905684829 -0.0005019059845447905 0 -0.010232692823892921 -0.00049962563220317443 0 -0.010231139774669292 -0.00049959332386471445 0 -0.010234222570451333 -0.00049877990765046301 0 -0.010232692823892921 -0.00049962563220317443 0 -0.010231139774669292 -0.00049959332386471445 0 -0.010234222570451333 -0.00049877990765046301 0 -0.010231064227001161 -0.0004986568655901693 0 -0.010231139774669292 -0.00049959332386471445 0 -0.014973301438079277 -1.1897162193906566e-05 0 -0.014999981196362771 6.5848048510549801e-09 0 -0.014986649662478414 -6.6420653936075764e-06 0 -0.014986649662478414 -6.6420653936075764e-06 0 -0.014982752461529664 -9.1275859503841342e-06 0 -0.014999947407476687 -4.2135885270825405e-08 0 -0.014999981196362771 6.5848048510549801e-09 0 -0.014986649662478414 -6.6420653936075764e-06 0 -0.014999947407476687 -4.2135885270825405e-08 0 -0.014986649662478414 -6.6420653936075764e-06 0 -0.014982752461529664 -9.1275859503841342e-06 0 -0.014973960609876167 -1.4537761375931869e-05 0 -0.014973301438079277 -1.1897162193906566e-05 0 -0.014986649662478414 -6.6420653936075764e-06 0 -0.014973960609876167 -1.4537761375931869e-05 0 -0.014982752461529664 -9.1275859503841342e-06 0 -0.014999947407476687 -4.2135885270825405e-08 0 -0.014976218945258774 -1.4615982269703166e-05 0 -0.014999839465102699 3.5313183481247932e-08 0 -0.015119573665635096 -2.1571779257140736e-05 0 -0.014999995680741561 6.4466327111870203e-10 0 -0.015000009379212417 -1.305810167003689e-09 0 -0.014999974700479269 -2.2932445132619031e-07 0 -0.014998707159154497 -1.1753772417993314e-06 0 -0.015000009379212417 -1.305810167003689e-09 0 -0.014999974700479269 -2.2932445132619031e-07 0 -0.014982752461529664 -9.1275859503841342e-06 0 -0.014976218945258774 -1.4615982269703166e-05 0 -0.014968177798182778 -1.0942914364014765e-05 0 -0.014968177798182778 -1.0942914364014765e-05 0 -0.01496795125449599 -2.7469687403313745e-05 0 -0.014972597390772176 -1.5786277220578007e-05 0 -0.013541932957805628 0.00014791315026086146 0 -0.013564179667566739 4.5072721915903818e-05 0 -0.012157233464891162 0.00012525640620839225 0 -0.012235859189741665 0.00016611932970038182 0 -0.012221071007551364 7.5468555256192468e-05 0 -0.012260313267746667 0.0002414734611621185 0 -0.012157233464891162 0.00012525640620839225 0 -0.012235859189741665 0.00016611932970038182 0 -0.01496795125449599 -2.7469687403313745e-05 0 -0.014972597390772176 -1.5786277220578007e-05 0 -0.014963281609080323 -2.6580871961772497e-05 0 -0.01496795125449599 -2.7469687403313745e-05 0 -0.014963281609080323 -2.6580871961772497e-05 0 -0.014955913441849385 -3.9605880376116793e-05 0 -0.014982752461529664 -9.1275859503841342e-06 0 -0.014972597390772176 -1.5786277220578007e-05 0 -0.014973960609876167 -1.4537761375931869e-05 0 -0.014982752461529664 -9.1275859503841342e-06 0 -0.014968177798182778 -1.0942914364014765e-05 0 -0.014972597390772176 -1.5786277220578007e-05 0 -0.014973960609876167 -1.4537761375931869e-05 0 -0.014963281609080323 -2.6580871961772497e-05 0 -0.014957650393690427 -2.6089783118916733e-05 0 -0.014972597390772176 -1.5786277220578007e-05 0 -0.014973960609876167 -1.4537761375931869e-05 0 -0.014963281609080323 -2.6580871961772497e-05 0 -0.014963281609080323 -2.6580871961772497e-05 0 -0.014957650393690427 -2.6089783118916733e-05 0 -0.01494573223108887 -4.3900401570466153e-05 0 -0.014973301438079277 -1.1897162193906566e-05 0 -0.014973960609876167 -1.4537761375931869e-05 0 -0.014957650393690427 -2.6089783118916733e-05 0 -0.014973301438079277 -1.1897162193906566e-05 0 -0.014957650393690427 -2.6089783118916733e-05 0 -0.014951827481377286 -2.297220242285681e-05 0 -0.014935291494492952 -6.0561462984870851e-05 0 -0.014929205904879258 -5.9645979756706167e-05 0 -0.01492922912901333 -6.8471277730372177e-05 0 -0.014935291494492952 -6.0561462984870851e-05 0 -0.014931713846648651 -6.8478664561090217e-05 0 -0.01492922912901333 -6.8471277730372177e-05 0 -0.014935291494492952 -6.0561462984870851e-05 0 -0.014929205904879258 -5.9645979756706167e-05 0 -0.01494573223108887 -4.3900401570466153e-05 0 -0.014929205904879258 -5.9645979756706167e-05 0 -0.01494573223108887 -4.3900401570466153e-05 0 -0.014934451521897917 -4.1848244162177005e-05 0 -0.014957650393690427 -2.6089783118916733e-05 0 -0.01494573223108887 -4.3900401570466153e-05 0 -0.014934451521897917 -4.1848244162177005e-05 0 -0.014963281609080323 -2.6580871961772497e-05 0 -0.01494573223108887 -4.3900401570466153e-05 0 -0.014955913441849385 -3.9605880376116793e-05 0 -0.01494573223108887 -4.3900401570466153e-05 0 -0.014955913441849385 -3.9605880376116793e-05 0 -0.014944108792821412 -5.267425057976186e-05 0 -0.014955913441849385 -3.9605880376116793e-05 0 -0.014944108792821412 -5.267425057976186e-05 0 -0.014954283919388479 -5.3082431093190392e-05 0 -0.013541650318026691 -5.0965355893236496e-05 0 -0.013055951649484535 4.60055451149325e-05 0 -0.014944108792821412 -5.267425057976186e-05 0 -0.014931713846648651 -6.8478664561090217e-05 0 -0.014954283919388479 -5.3082431093190392e-05 0 -0.014931713846648651 -6.8478664561090217e-05 0 -0.014954283919388479 -5.3082431093190392e-05 0 -0.014922716928124058 -8.5098822400178777e-05 0 -0.012039383404843651 -1.2515570893557562e-05 0 -0.01201778447084054 -0.00011012099536939559 0 -0.011925110843004752 -0.00016895936235144189 0 -0.014935291494492952 -6.0561462984870851e-05 0 -0.01494573223108887 -4.3900401570466153e-05 0 -0.014944108792821412 -5.267425057976186e-05 0 -0.014935291494492952 -6.0561462984870851e-05 0 -0.014944108792821412 -5.267425057976186e-05 0 -0.014931713846648651 -6.8478664561090217e-05 0 -0.012122539695007654 -8.6869145480852677e-05 0 -0.012039383404843651 -1.2515570893557562e-05 0 -0.012221071007551364 7.5468555256192468e-05 0 -0.012122539695007654 -8.6869145480852677e-05 0 -0.012039383404843651 -1.2515570893557562e-05 0 -0.01201778447084054 -0.00011012099536939559 0 -0.012157233464891162 0.00012525640620839225 0 -0.012039383404843651 -1.2515570893557562e-05 0 -0.012221071007551364 7.5468555256192468e-05 0 -0.013564179667566739 4.5072721915903818e-05 0 -0.013541650318026691 -5.0965355893236496e-05 0 -0.01496795125449599 -2.7469687403313745e-05 0 -0.014955913441849385 -3.9605880376116793e-05 0 -0.014954283919388479 -5.3082431093190392e-05 0 -0.010295369911121134 -0.00026089473100841316 0 -0.010305541922310852 -0.00028926748965789302 0 -0.01033166251743152 -0.00020399607677780814 0 -0.010280706713819187 -0.00043437979272184334 0 -0.010374664526727213 -0.00026579144812342132 0 -0.010651181730349332 -5.6415535655265275e-05 0 -0.01069530873506159 6.5618167432839546e-05 0 -0.010580905086909922 -8.2026488526201063e-05 0 -0.010490900959557514 -0.00011556850106599198 0 -0.010374664526727213 -0.00026579144812342132 0 -0.010806223350017274 0.00021113915364499384 0 -0.010651181730349332 -5.6415535655265275e-05 0 -0.01069530873506159 6.5618167432839546e-05 0 -0.010080467917576429 -0.00062274688824085183 0 -0.010029021778020262 -0.00074685476248367909 0 -0.010115114324644809 -0.00066037041705287246 0 -0.01100749155353398 -5.9223652097975219e-05 0 -0.011536548719895127 6.745171022788009e-05 0 -0.010259896100183524 -0.00031814127419412029 0 -0.010295369911121134 -0.00026089473100841316 0 -0.010305541922310852 -0.00028926748965789302 0 -0.01100749155353398 -5.9223652097975219e-05 0 -0.010490900959557514 -0.00011556850106599198 0 -0.010259896100183524 -0.00031814127419412029 0 -0.010305541922310852 -0.00028926748965789302 0 -0.010278607598491901 -0.00037592695011967245 0 -0.010280706713819187 -0.00043437979272184334 0 -0.0089091157627426212 -0.00058812153678994327 0 -0.010259896100183524 -0.00031814127419412029 0 -0.010278607598491901 -0.00037592695011967245 0 -0.010243062455068428 -0.00035386868029866101 0 -0.0078732831295695964 -0.00061485706686645011 0 -0.0079482878341665762 -0.00033719684279619921 0 -0.0076897606201002311 -0.00041504924129148274 0 -0.0089091157627426212 -0.00058812153678994327 0 -0.0079340639640954353 -0.00035074507218481717 0 -0.0082011451350023617 -0.00043153312543372033 0 -0.0083086399736160277 -0.00026364743217684617 0 -0.0081135651278981431 -0.00019955729913647831 0 -0.0080150815786008776 -0.0003022831213596132 0 -0.0082011451350023617 -0.00043153312543372033 0 -0.0081135651278981431 -0.00019955729913647831 0 -0.0079646094425748232 -0.00053537848370802652 0 -0.0080150815786008776 -0.0003022831213596132 0 -0.0082011451350023617 -0.00043153312543372033 0 -0.0089091157627426212 -0.00058812153678994327 0 -0.010344022612509432 -0.00039409143027083725 0 -0.010344022612509432 -0.00039409143027083725 0 -0.010719834363787414 -0.00027118721923483189 0 -0.01100749155353398 -5.9223652097975219e-05 0 -0.010344022612509432 -0.00039409143027083725 0 -0.010278607598491901 -0.00037592695011967245 0 -0.010198885758078299 -0.0004153641580561864 0 -0.010243062455068428 -0.00035386868029866101 0 -0.012122539695007654 -8.6869145480852677e-05 0 -0.011995112093803677 -0.00026590908129669815 0 -0.011994141147874639 -0.00017121970376968851 0 -0.01026197281687059 -0.00031357467924548652 0 -0.010198885758078299 -0.0004153641580561864 0 -0.010243062455068428 -0.00035386868029866101 0 -0.01100749155353398 -5.9223652097975219e-05 0 -0.010450178826405155 -0.00047964058013316599 0 -0.012122539695007654 -8.6869145480852677e-05 0 -0.011994141147874639 -0.00017121970376968851 0 -0.01201778447084054 -0.00011012099536939559 0 -0.011994141147874639 -0.00017121970376968851 0 -0.01201778447084054 -0.00011012099536939559 0 -0.011925110843004752 -0.00016895936235144189 0 -0.01463940030382418 0.00015977147482427938 0 -0.013544466941103814 -0.00015074660774975758 0 -0.014931713846648651 -6.8478664561090217e-05 0 -0.014922716928124058 -8.5098822400178777e-05 0 -0.0149116244727398 -8.5737658583902443e-05 0 -0.013055951649484535 4.60055451149325e-05 0 -0.013544466941103814 -0.00015074660774975758 0 -0.01185504384696851 -0.00015107850860780292 0 -0.011841467263476214 -0.00023762078264233906 0 -0.011802494706622903 -0.00014988753946493005 0 -0.01186688645169875 -0.00019138012235565434 0 -0.01192160278905309 -0.0002178295895509989 0 -0.011841467263476214 -0.00023762078264233906 0 -0.01185504384696851 -0.00015107850860780292 0 -0.01186688645169875 -0.00019138012235565434 0 -0.01192160278905309 -0.0002178295895509989 0 -0.01185504384696851 -0.00015107850860780292 0 -0.01186688645169875 -0.00019138012235565434 0 -0.011841467263476214 -0.00023762078264233906 0 -0.011994141147874639 -0.00017121970376968851 0 -0.01192160278905309 -0.0002178295895509989 0 -0.011948444692672333 -0.0002477216665607459 0 -0.011772104898426424 -0.00010376104331286063 0 -0.013055951649484535 4.60055451149325e-05 0 -0.011994141147874639 -0.00017121970376968851 0 -0.01185504384696851 -0.00015107850860780292 0 -0.01192160278905309 -0.0002178295895509989 0 -0.011995112093803677 -0.00026590908129669815 0 -0.011994141147874639 -0.00017121970376968851 0 -0.011948444692672333 -0.0002477216665607459 0 -0.01192160278905309 -0.0002178295895509989 0 -0.011948444692672333 -0.0002477216665607459 0 -0.011896550520021485 -0.00029180209737221898 0 -0.011948444692672333 -0.0002477216665607459 0 -0.011896550520021485 -0.00029180209737221898 0 -0.0119639674330849 -0.00028512001883338237 0 -0.011995112093803677 -0.00026590908129669815 0 -0.011948444692672333 -0.0002477216665607459 0 -0.0119639674330849 -0.00028512001883338237 0 -0.011896550520021485 -0.00029180209737221898 0 -0.0119639674330849 -0.00028512001883338237 0 -0.011889279605113986 -0.00042252554767959995 0 -0.011993274189733153 -0.0002723571761047453 0 -0.0119639674330849 -0.00028512001883338237 0 -0.011889279605113986 -0.00042252554767959995 0 -0.010344022612509432 -0.00039409143027083725 0 -0.01008594793003705 -0.00033102049173809275 0 -0.011896550520021485 -0.00029180209737221898 0 -0.011820811047147151 -0.00034150706752968915 0 -0.011889279605113986 -0.00042252554767959995 0 -0.011896550520021485 -0.00029180209737221898 0 -0.011820811047147151 -0.00034150706752968915 0 -0.011841467263476214 -0.00023762078264233906 0 -0.01192160278905309 -0.0002178295895509989 0 -0.011896550520021485 -0.00029180209737221898 0 -0.011841467263476214 -0.00023762078264233906 0 -0.012336728117056097 5.6165496669357119e-05 0 -0.013544466941103814 -0.00015074660774975758 0 -0.011841467263476214 -0.00023762078264233906 0 -0.01171376334677432 -0.00032577829853364028 0 -0.011802494706622903 -0.00014988753946493005 0 -0.011820811047147151 -0.00034150706752968915 0 -0.011841467263476214 -0.00023762078264233906 0 -0.01171376334677432 -0.00032577829853364028 0 -0.011820811047147151 -0.00034150706752968915 0 -0.01171376334677432 -0.00032577829853364028 0 -0.011758115773093993 -0.00044522792885138391 0 -0.012917471429242877 0.00032562899572063247 0 -0.013109749076783091 0.00083269652203990996 0 -0.013336935456068517 0.00037466272368579477 0 -0.014927391385431242 -7.3695777358513475e-05 0 -0.01492922912901333 -6.8471277730372177e-05 0 -0.014917175599445984 -8.0169851511633798e-05 0 -0.014929205904879258 -5.9645979756706167e-05 0 -0.01492922912901333 -6.8471277730372177e-05 0 -0.014917175599445984 -8.0169851511633798e-05 0 -0.012917471429242877 0.00032562899572063247 0 -0.01271883453166902 -0.00017864406857998031 0 -0.013429571195463013 -0.00017868044454892232 0 -0.013544466941103814 -0.00015074660774975758 0 -0.014229613678278862 -0.00012763211714041686 0 -0.014931713846648651 -6.8478664561090217e-05 0 -0.014927391385431242 -7.3695777358513475e-05 0 -0.01492922912901333 -6.8471277730372177e-05 0 -0.010161745674015895 -0.00054259489226347684 0 -0.0092558282098385049 -0.00089797157028989681 0 -0.0096816811981446996 -0.0012141527055055696 0 -0.010212507329841821 -0.00052050478336229937 0 -0.010161745674015895 -0.00054259489226347684 0 -0.0096816811981446996 -0.0012141527055055696 0 -0.010180947901747832 -0.00055217262765591658 0 -0.0096233364824674979 -0.00067168239311810117 0 -0.010187578201122347 -0.00053125191524507965 0 -0.010161745674015895 -0.00054259489226347684 0 -0.010180061974754592 -0.00053461464227557418 0 -0.0080251661027351054 -0.0009813084221846971 0 -0.0083169242128459369 -0.0011007254984972666 0 -0.010187578201122347 -0.00053125191524507965 0 -0.010161745674015895 -0.00054259489226347684 0 -0.010200187083449799 -0.00051600309454125862 0 -0.010187578201122347 -0.00053125191524507965 0 -0.010180061974754592 -0.00053461464227557418 0 -0.01018799245191499 -0.00053149472391081202 0 -0.010187578201122347 -0.00053125191524507965 0 -0.01018799245191499 -0.00053149472391081202 0 -0.010193280564580224 -0.00052993717150567703 0 -0.0062872407766356624 -0.0011096339119031058 0 -0.0064340484953570257 -0.0012398568548513086 0 -0.0066348052064938608 -0.00094124678098992244 0 -0.0062625932158400233 -0.001295709002043224 0 -0.0062872407766356624 -0.0011096339119031058 0 -0.0064340484953570257 -0.0012398568548513086 0 -0.010224408633834739 -0.00051262704869744374 0 -0.010215056139806495 -0.00051264321928969579 0 -0.010212507329841821 -0.00052050478336229937 0 -0.010212507329841821 -0.00052050478336229937 0 -0.010195544290555386 -0.00051996735969816771 0 -0.010182856984461091 -0.00052901535634932253 0 -0.010212507329841821 -0.00052050478336229937 0 -0.010161745674015895 -0.00054259489226347684 0 -0.010182856984461091 -0.00052901535634932253 0 -0.0062625932158400233 -0.001295709002043224 0 -0.0062719401103065479 -0.0015169201577179675 0 -0.0064340484953570257 -0.0012398568548513086 0 -0.0099980949170621926 -0.00092027019452006721 0 -0.0080251661027351054 -0.0009813084221846971 0 -0.010215056139806495 -0.00051264321928969579 0 -0.010212507329841821 -0.00052050478336229937 0 -0.010195544290555386 -0.00051996735969816771 0 -0.010215056139806495 -0.00051264321928969579 0 -0.010206129466350954 -0.00051614112012461492 0 -0.010195544290555386 -0.00051996735969816771 0 -0.01020779483558 -0.00051490082686122336 0 -0.010206129466350954 -0.00051614112012461492 0 -0.010200522410986426 -0.00052067982679900699 0 -0.010206129466350954 -0.00051614112012461492 0 -0.010195544290555386 -0.00051996735969816771 0 -0.010200522410986426 -0.00052067982679900699 0 -0.010195544290555386 -0.00051996735969816771 0 -0.010188780727816781 -0.00052773181758573222 0 -0.010200522410986426 -0.00052067982679900699 0 -0.010161745674015895 -0.00054259489226347684 0 -0.010180061974754592 -0.00053461464227557418 0 -0.010182856984461091 -0.00052901535634932253 0 -0.010195544290555386 -0.00051996735969816771 0 -0.010188780727816781 -0.00052773181758573222 0 -0.010182856984461091 -0.00052901535634932253 0 -0.010188780727816781 -0.00052773181758573222 0 -0.010180061974754592 -0.00053461464227557418 0 -0.010182856984461091 -0.00052901535634932253 0 -0.010188780727816781 -0.00052773181758573222 0 -0.010180061974754592 -0.00053461464227557418 0 -0.010186227479597413 -0.00053155760665643938 0 -0.01018799245191499 -0.00053149472391081202 0 -0.010190283528651334 -0.0005294408966719788 0 -0.010193280564580224 -0.00052993717150567703 0 -0.010180061974754592 -0.00053461464227557418 0 -0.01018799245191499 -0.00053149472391081202 0 -0.010186227479597413 -0.00053155760665643938 0 -0.010188780727816781 -0.00052773181758573222 0 -0.010186227479597413 -0.00053155760665643938 0 -0.010190283528651334 -0.0005294408966719788 0 -0.01018799245191499 -0.00053149472391081202 0 -0.010186227479597413 -0.00053155760665643938 0 -0.010190283528651334 -0.0005294408966719788 0 -0.010188780727816781 -0.00052773181758573222 0 -0.010190283528651334 -0.0005294408966719788 0 -0.01019577656105756 -0.00052564594322333205 0 -0.010188780727816781 -0.00052773181758573222 0 -0.01019577656105756 -0.00052564594322333205 0 -0.010200522410986426 -0.00052067982679900699 0 -0.010190283528651334 -0.0005294408966719788 0 -0.01019577656105756 -0.00052564594322333205 0 -0.010193280564580224 -0.00052993717150567703 0 -0.01019577656105756 -0.00052564594322333205 0 -0.010198495031545981 -0.00052316311070282559 0 -0.010193280564580224 -0.00052993717150567703 0 -0.01019577656105756 -0.00052564594322333205 0 -0.010200522410986426 -0.00052067982679900699 0 -0.010198495031545981 -0.00052316311070282559 0 -0.01020911996369419 -0.0005133992906659865 0 -0.01020779483558 -0.00051490082686122336 0 -0.010200522410986426 -0.00052067982679900699 0 -0.01020911996369419 -0.0005133992906659865 0 -0.010200522410986426 -0.00052067982679900699 0 -0.010203835856215718 -0.00051764040614793287 0 -0.010200522410986426 -0.00052067982679900699 0 -0.010203835856215718 -0.00051764040614793287 0 -0.010198495031545981 -0.00052316311070282559 0 -0.010203835856215718 -0.00051764040614793287 0 -0.010198495031545981 -0.00052316311070282559 0 -0.010198948704802969 -0.0005208656853625005 0 -0.010198495031545981 -0.00052316311070282559 0 -0.010198948704802969 -0.0005208656853625005 0 -0.010195256161742654 -0.00052544269572567302 0 -0.010198948704802969 -0.0005208656853625005 0 -0.010193013559613901 -0.00052309451095472578 0 -0.010195256161742654 -0.00052544269572567302 0 -0.010203971459329679 -0.00051487101836953037 0 -0.010203835856215718 -0.00051764040614793287 0 -0.010198948704802969 -0.0005208656853625005 0 -0.010199328911378683 -0.0005142646742801499 0 -0.010198948704802969 -0.0005208656853625005 0 -0.010193013559613901 -0.00052309451095472578 0 -0.010199328911378683 -0.0005142646742801499 0 -0.010193013559613901 -0.00052309451095472578 0 -0.01018865482835749 -0.00051744123991046172 0 -0.010193013559613901 -0.00052309451095472578 0 -0.01018865482835749 -0.00051744123991046172 0 -0.010185003375284937 -0.00052519995626873386 0 -0.010193013559613901 -0.00052309451095472578 0 -0.010191562199576266 -0.00052842608202223788 0 -0.010195256161742654 -0.00052544269572567302 0 -0.010193013559613901 -0.00052309451095472578 0 -0.010191562199576266 -0.00052842608202223788 0 -0.010185003375284937 -0.00052519995626873386 0 -0.010191562199576266 -0.00052842608202223788 0 -0.010193280564580224 -0.00052993717150567703 0 -0.010194637137800838 -0.00053111944656468457 0 -0.010191562199576266 -0.00052842608202223788 0 -0.010193280564580224 -0.00052993717150567703 0 -0.010195256161742654 -0.00052544269572567302 0 -0.010198495031545981 -0.00052316311070282559 0 -0.010193280564580224 -0.00052993717150567703 0 -0.010195256161742654 -0.00052544269572567302 0 -0.010080467917576429 -0.00062274688824085183 0 -0.010143820619535037 -0.00051740951679305055 0 -0.010168237567469015 -0.00059356167185385114 0 -0.010143820619535037 -0.00051740951679305055 0 -0.010167861384247894 -0.00051961260941311668 0 -0.010168237567469015 -0.00059356167185385114 0 -0.010558566057400683 -0.00013905940894294488 0 -0.010651181730349332 -5.6415535655265275e-05 0 -0.010580905086909922 -8.2026488526201063e-05 0 -0.010167861384247894 -0.00051961260941311668 0 -0.01018865482835749 -0.00051744123991046172 0 -0.010185003375284937 -0.00052519995626873386 0 -0.010163267621308444 -0.00051205359302360749 0 -0.01015231919527023 -0.00060611956586468249 0 -0.010191562199576266 -0.00052842608202223788 0 -0.010185003375284937 -0.00052519995626873386 0 -0.010179998119064712 -0.0005328588543560554 0 -0.010167861384247894 -0.00051961260941311668 0 -0.010185003375284937 -0.00052519995626873386 0 -0.010179998119064712 -0.0005328588543560554 0 -0.010080467917576429 -0.00062274688824085183 0 -0.010168237567469015 -0.00059356167185385114 0 -0.010115114324644809 -0.00066037041705287246 0 -0.01015231919527023 -0.00060611956586468249 0 -0.0090537492663568375 -0.00061765943483296283 0 -0.010168237567469015 -0.00059356167185385114 0 -0.010115114324644809 -0.00066037041705287246 0 -0.010180230969360852 -0.00068195756237679863 0 -0.010187578201122347 -0.00053125191524507965 0 -0.010193280564580224 -0.00052993717150567703 0 -0.010194637137800838 -0.00053111944656468457 0 -0.010187578201122347 -0.00053125191524507965 0 -0.010194637137800838 -0.00053111944656468457 0 -0.010200187083449799 -0.00051600309454125862 0 -0.010179998119064712 -0.0005328588543560554 0 -0.010194637137800838 -0.00053111944656468457 0 -0.010188358003338909 -0.00054251585321032751 0 -0.010191562199576266 -0.00052842608202223788 0 -0.010179998119064712 -0.0005328588543560554 0 -0.010194637137800838 -0.00053111944656468457 0 -0.010179998119064712 -0.0005328588543560554 0 -0.010188358003338909 -0.00054251585321032751 0 -0.010177309324906483 -0.00054709081427589147 0 -0.0096233364824674979 -0.00067168239311810117 0 -0.0090537492663568375 -0.00061765943483296283 0 -0.009919970835171767 -0.00047988055799408986 0 -0.0096233364824674979 -0.00067168239311810117 0 -0.0089564065486479345 -0.00059194935039843708 0 -0.0087911201401429453 -0.00066490140100262669 0 -0.0088602508447954195 -0.0010129822848892278 0 -0.0096233364824674979 -0.00067168239311810117 0 -0.0080814780278898012 -0.0010089841942972975 0 -0.0092558282098385049 -0.00089797157028989681 0 -0.0090972176411152524 -0.0015836866221026432 0 -0.0096816811981446996 -0.0012141527055055696 0 -0.0090537492663568375 -0.00061765943483296283 0 -0.0080814780278898012 -0.0010089841942972975 0 -0.0078732831295695964 -0.00061485706686645011 0 -0.0075163492042479019 -0.00077777843957563774 0 -0.0076897606201002311 -0.00041504924129148274 0 -0.0075163492042479019 -0.00077777843957563774 0 -0.0076897606201002311 -0.00041504924129148274 0 -0.0074466036927487659 -0.00051591973237276973 0 -0.0089091157627426212 -0.00058812153678994327 0 -0.0090537492663568375 -0.00061765943483296283 0 -0.010029021778020262 -0.00074685476248367909 0 -0.010115114324644809 -0.00066037041705287246 0 -0.010180230969360852 -0.00068195756237679863 0 -0.0076897606201002311 -0.00041504924129148274 0 -0.0074466036927487659 -0.00051591973237276973 0 -0.0074876713460362782 -0.00021625500609232949 0 -0.0072338908742137697 -0.00088070351858186477 0 -0.0071752860853090813 -0.0006396758265890442 0 -0.0073148761324142997 -0.00042460889643834259 0 -0.0090972176411152524 -0.0015836866221026432 0 -0.009158440322480069 -0.0019105549817610464 0 -0.0096816811981446996 -0.0012141527055055696 0 -0.0080814780278898012 -0.0010089841942972975 0 -0.0065002984717472834 -0.00012419195249056255 0 -0.0071573119738652944 -0.0007621040050933951 0 -0.0083169242128459369 -0.0011007254984972666 0 -0.0080814780278898012 -0.0010089841942972975 0 -0.0071573119738652944 -0.0007621040050933951 0 -0.0065215602219695842 -0.00063558571560135056 0 -0.0066348052064938608 -0.00094124678098992244 0 -0.006280824256651359 -0.00086791921818513043 0 -0.0068528605420016923 -0.00061740419167400403 0 -0.0065215602219695842 -0.00063558571560135056 0 -0.0066348052064938608 -0.00094124678098992244 0 -0.0062872407766356624 -0.0011096339119031058 0 -0.0066348052064938608 -0.00094124678098992244 0 -0.006280824256651359 -0.00086791921818513043 0 -0.0061957784082044337 -0.00062114437118926727 0 -0.0065215602219695842 -0.00063558571560135056 0 -0.006280824256651359 -0.00086791921818513043 0 -0.0061957784082044337 -0.00062114437118926727 0 -0.0065215602219695842 -0.00063558571560135056 0 -0.0063105357767458585 -0.00036733391469187781 0 -0.0063105357767458585 -0.00036733391469187781 0 -0.0064310333229329652 -9.2774753344049702e-05 0 -0.006145031616313852 -0.0001206658526133613 0 -0.0063105357767458585 -0.00036733391469187781 0 -0.0067795523396152009 -0.00030790010421012285 0 -0.0064310333229329652 -9.2774753344049702e-05 0 -0.0067795523396152009 -0.00030790010421012285 0 -0.0067034711217895879 9.9264819263170966e-06 0 -0.0064310333229329652 -9.2774753344049702e-05 0 -0.0065215602219695842 -0.00063558571560135056 0 -0.0063105357767458585 -0.00036733391469187781 0 -0.0067795523396152009 -0.00030790010421012285 0 -0.0052422958029712608 -0.00015890984437753314 0 -0.0053236954142325196 -2.2463155621136249e-05 0 -0.0051633207501131408 0.00014135436528076709 0 -0.0068528605420016923 -0.00061740419167400403 0 -0.0065215602219695842 -0.00063558571560135056 0 -0.0067795523396152009 -0.00030790010421012285 0 -0.0071573119738652944 -0.0007621040050933951 0 -0.0058791376538702622 3.6315135337213828e-05 0 -0.0071573119738652944 -0.0007621040050933951 0 -0.0065002984717472834 -0.00012419195249056255 0 -0.0053236954142325196 -2.2463155621136249e-05 0 -0.0051633207501131408 0.00014135436528076709 0 -0.0052901283650843471 0.00015499490594492296 0 -0.0076897606201002311 -0.00041504924129148274 0 -0.0074876713460362782 -0.00021625500609232949 0 -0.0078484876972039746 -0.00015133329254215345 0 -0.0074876713460362782 -0.00021625500609232949 0 -0.0076706888093999379 9.4605073580198771e-05 0 -0.0078484876972039746 -0.00015133329254215345 0 -0.0057048390336796456 0.00023492567508330393 0 -0.0057373243764755888 0.00047471154238235697 0 -0.0058240855322674624 0.00043601524603322921 0 -0.0053236954142325196 -2.2463155621136249e-05 0 -0.0053739217393101142 0.00031636283017284235 0 -0.0052901283650843471 0.00015499490594492296 0 -0.0065002984717472834 -0.00012419195249056255 0 -0.0052226841720454421 0.00048712475231775851 0 -0.0065002984717472834 -0.00012419195249056255 0 -0.0068376600291555111 0.00028876834068208683 0 -0.0052910047605295241 0.00019712977991404788 0 -0.0053429201812665878 0.00030830263784148443 0 -0.0052901283650843471 0.00015499490594492296 0 -0.0052226841720454421 0.00048712475231775851 0 -0.0052478617474937591 0.00019214337781266446 0 -0.0052910047605295241 0.00019712977991404788 0 -0.0051633207501131408 0.00014135436528076709 0 -0.0050978715674438353 0.00040731104905398688 0 -0.0058791376538702622 3.6315135337213828e-05 0 -0.0060067108446427179 0.00011731140855013017 0 -0.0052910047605295241 0.00019712977991404788 0 -0.0051633207501131408 0.00014135436528076709 0 -0.0052901283650843471 0.00015499490594492296 0 -0.0052910047605295241 0.00019712977991404788 0 -0.0050978715674438353 0.00040731104905398688 0 -0.0053796805713888065 0.00056589634405863171 0 -0.0052226841720454421 0.00048712475231775851 0 -0.0040728566253487967 0.0013590909309715642 0 -0.0057373243764755888 0.00047471154238235697 0 -0.0058240855322674624 0.00043601524603322921 0 -0.0058336973336887803 0.00066563132985058865 0 -0.0052910047605295241 0.00019712977991404788 0 -0.0053429201812665878 0.00030830263784148443 0 -0.0053308817222862803 0.00059927647499582071 0 -0.0044788110855505823 0.00077908872726176269 0 -0.0045307567852590526 0.00095060684537979253 0 -0.0045602473932608361 0.00094219660914610385 0 -0.0044788110855505823 0.00077908872726176269 0 -0.0045307567852590526 0.00095060684537979253 0 -0.0044955085016494247 0.00096072507192107267 0 -0.0052226841720454421 0.00048712475231775851 0 -0.0041474146261601544 0.00086526635417893678 0 -0.0056402917355922108 0.00014708821497253996 0 -0.0041474146261601544 0.00086526635417893678 0 -0.0027608632235302569 0.0013050103633015565 0 -0.0027000400564202824 0.0013229671671645567 0 -0.0027494433605350457 0.0010444941735571988 0 -0.0027162042858153899 0.0010541268431182962 0 -0.0028326515997569648 0.00084187929809806665 0 -0.0027168301144462406 0.00087526246036684298 0 -0.0039119387571899516 0.0011710726340408708 0 -0.0040728566253487967 0.0013590909309715642 0 -0.0039119387571899516 0.0011710726340408708 0 -0.0041474146261601544 0.00086526635417893678 0 -0.0027608632235302569 0.0013050103633015565 0 -0.0028333261682501041 0.0012836747371906755 0 -0.0027494433605350457 0.0010444941735571988 0 -0.0027162042858153899 0.0010541268431182962 0 -0.002658875119532945 0.00087750700579658481 0 -0.0027168301144462406 0.00087526246036684298 0 -0.0041474146261601544 0.00086526635417893678 0 -0.0027818383815365159 0.00092276773609344066 0 -0.0041474146261601544 0.00086526635417893678 0 -0.004412323350807418 0.00064601123206380886 0 -0.0027162042858153899 0.0010541268431182962 0 -0.003072696553234144 0.00096118849736900923 0 -0.0028326515997569648 0.00084187929809806665 0 -0.0050978715674438353 0.00040731104905398688 0 -0.0053796805713888065 0.00056589634405863171 0 -0.0050328846213789817 0.00066606533080719715 0 -0.004412323350807418 0.00064601123206380886 0 -0.0057925062954774379 0.00047685680614762359 0 -0.0066225834669601039 0.00033078747495137709 0 -0.0064567585009508268 0.00015313983388675478 0 -0.0063053311097303133 0.00042681715334462684 0 -0.0060067108446427179 0.00011731140855013017 0 -0.004412323350807418 0.00064601123206380886 0 -0.0067034711217895879 9.9264819263170966e-06 0 -0.0066225834669601039 0.00033078747495137709 0 -0.0064567585009508268 0.00015313983388675478 0 -0.0064567585009508268 0.00015313983388675478 0 -0.006214688658631699 0.00011666043115095237 0 -0.0063053311097303133 0.00042681715334462684 0 -0.006214688658631699 0.00011666043115095237 0 -0.0064310333229329652 -9.2774753344049702e-05 0 -0.006145031616313852 -0.0001206658526133613 0 -0.0064567585009508268 0.00015313983388675478 0 -0.006214688658631699 0.00011666043115095237 0 -0.0064310333229329652 -9.2774753344049702e-05 0 -0.0067034711217895879 9.9264819263170966e-06 0 -0.0064567585009508268 0.00015313983388675478 0 -0.0064310333229329652 -9.2774753344049702e-05 0 -0.0088188680858460287 2.5137947948853543e-06 0 -0.0088638238150460756 -0.00031042985522486188 0 -0.0090313639969872711 0.00010539552748054969 0 -0.0088188680858460287 2.5137947948853543e-06 0 -0.0087036508552873326 0.00021406429679855028 0 -0.0090313639969872711 0.00010539552748054969 0 -0.0086689823730983044 4.0362363833064246e-05 0 -0.0085997320135714709 -8.8895684366254281e-05 0 -0.0085283665789255662 9.0422896582078717e-05 0 -0.0086689823730983044 4.0362363833064246e-05 0 -0.0085283665789255662 9.0422896582078717e-05 0 -0.0087036508552873326 0.00021406429679855028 0 -0.0088188680858460287 2.5137947948853543e-06 0 -0.0086689823730983044 4.0362363833064246e-05 0 -0.0087036508552873326 0.00021406429679855028 0 -0.0086689823730983044 4.0362363833064246e-05 0 -0.0085997320135714709 -8.8895684366254281e-05 0 -0.0087002148468106489 -0.00010773183231326932 0 -0.0088188680858460287 2.5137947948853543e-06 0 -0.0086689823730983044 4.0362363833064246e-05 0 -0.0087002148468106489 -0.00010773183231326932 0 -0.0085997320135714709 -8.8895684366254281e-05 0 -0.0087002148468106489 -0.00010773183231326932 0 -0.0085475515992635229 -0.00018173002494296995 0 -0.0091877826414925243 -0.00022544758298711731 0 -0.0094746968578357099 -3.8846261189875996e-05 0 -0.0088188680858460287 2.5137947948853543e-06 0 -0.0087002148468106489 -0.00010773183231326932 0 -0.0088638238150460756 -0.00031042985522486188 0 -0.012336728117056097 5.6165496669357119e-05 0 -0.010798815362623611 -0.00013159034768136149 0 -0.01171376334677432 -0.00032577829853364028 0 -0.011627061660166105 -0.0005018081264795011 0 -0.011758115773093993 -0.00044522792885138391 0 -0.010798815362623611 -0.00013159034768136149 0 -0.0094746968578357099 -3.8846261189875996e-05 0 -0.011627061660166105 -0.0005018081264795011 0 -0.011758115773093993 -0.00044522792885138391 0 -0.011783937617526614 -0.00056965672541210092 0 -0.0087002148468106489 -0.00010773183231326932 0 -0.0088638238150460756 -0.00031042985522486188 0 -0.0085475515992635229 -0.00018173002494296995 0 -0.0094746968578357099 -3.8846261189875996e-05 0 -0.01008594793003705 -0.00033102049173809275 0 -0.011758115773093993 -0.00044522792885138391 0 -0.011783937617526614 -0.00056965672541210092 0 -0.011889279605113986 -0.00042252554767959995 0 -0.011820811047147151 -0.00034150706752968915 0 -0.011758115773093993 -0.00044522792885138391 0 -0.011889279605113986 -0.00042252554767959995 0 -0.0083086399736160277 -0.00026364743217684617 0 -0.0082306693629252119 -0.00010136846296088051 0 -0.0081135651278981431 -0.00019955729913647831 0 -0.0084413131989539009 -7.1163842312880804e-05 0 -0.0083086399736160277 -0.00026364743217684617 0 -0.0082306693629252119 -0.00010136846296088051 0 -0.0085370080731016016 -0.00017811356730853216 0 -0.0083597484765963841 6.261463997458913e-06 0 -0.0080662180988136552 6.2738213759644881e-05 0 -0.0084413131989539009 -7.1163842312880804e-05 0 -0.0082306693629252119 -0.00010136846296088051 0 -0.0080662180988136552 6.2738213759644881e-05 0 -0.0094746968578357099 -3.8846261189875996e-05 0 -0.0077252103639974959 0.00010244194778129534 0 -0.0085997320135714709 -8.8895684366254281e-05 0 -0.0085057801777098097 -4.2067662709254534e-05 0 -0.0085283665789255662 9.0422896582078717e-05 0 -0.0085370080731016016 -0.00017811356730853216 0 -0.0085057801777098097 -4.2067662709254534e-05 0 -0.0083597484765963841 6.261463997458913e-06 0 -0.0085997320135714709 -8.8895684366254281e-05 0 -0.0085370080731016016 -0.00017811356730853216 0 -0.0085057801777098097 -4.2067662709254534e-05 0 -0.0085057801777098097 -4.2067662709254534e-05 0 -0.0085283665789255662 9.0422896582078717e-05 0 -0.0083597484765963841 6.261463997458913e-06 0 -0.0085283665789255662 9.0422896582078717e-05 0 -0.0083597484765963841 6.261463997458913e-06 0 -0.0083708068918505081 0.00024751391218078819 0 -0.0082341587114839777 0.0001360943185952372 0 -0.0083597484765963841 6.261463997458913e-06 0 -0.0083708068918505081 0.00024751391218078819 0 -0.0082341587114839777 0.0001360943185952372 0 -0.0083597484765963841 6.261463997458913e-06 0 -0.0080662180988136552 6.2738213759644881e-05 0 -0.0080662180988136552 6.2738213759644881e-05 0 -0.0080209536679722981 0.00019190048913897119 0 -0.0081491606536877679 0.00023421239837534497 0 -0.0082341587114839777 0.0001360943185952372 0 -0.0080662180988136552 6.2738213759644881e-05 0 -0.0081491606536877679 0.00023421239837534497 0 -0.0080662180988136552 6.2738213759644881e-05 0 -0.0079083666991137981 5.5358230758951689e-05 0 -0.0080209536679722981 0.00019190048913897119 0 -0.0079083666991137981 5.5358230758951689e-05 0 -0.007898384017559934 0.00021933036524567043 0 -0.0080209536679722981 0.00019190048913897119 0 -0.0080662180988136552 6.2738213759644881e-05 0 -0.0080417473491811147 -4.3260510443122296e-05 0 -0.0079083666991137981 5.5358230758951689e-05 0 -0.0080662180988136552 6.2738213759644881e-05 0 -0.0080417473491811147 -4.3260510443122296e-05 0 -0.0081224274716207231 -8.8631836029859815e-05 0 -0.0082306693629252119 -0.00010136846296088051 0 -0.0080662180988136552 6.2738213759644881e-05 0 -0.0081224274716207231 -8.8631836029859815e-05 0 -0.0080417473491811147 -4.3260510443122296e-05 0 -0.0081224274716207231 -8.8631836029859815e-05 0 -0.0081135651278981431 -0.00019955729913647831 0 -0.0079340639640954353 -0.00035074507218481717 0 -0.0080481263553471571 -5.0247297798102274e-05 0 -0.0082306693629252119 -0.00010136846296088051 0 -0.0081224274716207231 -8.8631836029859815e-05 0 -0.0081135651278981431 -0.00019955729913647831 0 -0.0080150815786008776 -0.0003022831213596132 0 -0.0080417473491811147 -4.3260510443122296e-05 0 -0.0081135651278981431 -0.00019955729913647831 0 -0.0079482878341665762 -0.00033719684279619921 0 -0.0076897606201002311 -0.00041504924129148274 0 -0.0078484876972039746 -0.00015133329254215345 0 -0.0079482878341665762 -0.00033719684279619921 0 -0.0080417473491811147 -4.3260510443122296e-05 0 -0.0078484876972039746 -0.00015133329254215345 0 -0.0076706888093999379 9.4605073580198771e-05 0 -0.0078484876972039746 -0.00015133329254215345 0 -0.0079083666991137981 5.5358230758951689e-05 0 -0.0080417473491811147 -4.3260510443122296e-05 0 -0.0078484876972039746 -0.00015133329254215345 0 -0.0079083666991137981 5.5358230758951689e-05 0 -0.0076706888093999379 9.4605073580198771e-05 0 -0.0079083666991137981 5.5358230758951689e-05 0 -0.007898384017559934 0.00021933036524567043 0 -0.0068376600291555111 0.00028876834068208683 0 -0.0062350904538042646 0.00077763300217753822 0 -0.0076706888093999379 9.4605073580198771e-05 0 -0.007898384017559934 0.00021933036524567043 0 -0.0078591947126643025 0.00043293817713062344 0 -0.0058240855322674624 0.00043601524603322921 0 -0.0059473134891855827 0.00063292458535562073 0 -0.0058336973336887803 0.00066563132985058865 0 -0.0062350904538042646 0.00077763300217753822 0 -0.0040728566253487967 0.0013590909309715642 0 -0.0027000400564202824 0.0013229671671645567 0 -0.002613310478803069 0.00091571690486256412 0 -0.0027494433605350457 0.0010444941735571988 0 -0.0034893239746523323 0.0023280663611239634 0 -0.0036907744421357806 0.0022672551323194754 0 -0.003228665552557167 0.0020010414520039289 0 -0.0040728566253487967 0.0013590909309715642 0 -0.0027862830788123816 0.0014049030962425492 0 -0.0062350904538042646 0.00077763300217753822 0 -0.0056871329580747238 0.0015274666672318953 0 -0.0077718473273282098 0.0004710162506365034 0 -0.0080865229191476127 0.00058769184664352004 0 -0.0080412986536111015 0.00090194573695136758 0 -0.0080865229191476127 0.00058769184664352004 0 -0.0083141668428135598 0.00065771139339073584 0 -0.0080412986536111015 0.00090194573695136758 0 -0.008009450812661606 0.00040107784182400179 0 -0.0081491606536877679 0.00023421239837534497 0 -0.0082429225610945612 0.00043166550866869296 0 -0.0080865229191476127 0.00058769184664352004 0 -0.008009450812661606 0.00040107784182400179 0 -0.0082429225610945612 0.00043166550866869296 0 -0.0062350904538042646 0.00077763300217753822 0 -0.0080794727527314907 0.00032123169703293799 0 -0.007898384017559934 0.00021933036524567043 0 -0.0078591947126643025 0.00043293817713062344 0 -0.008009450812661606 0.00040107784182400179 0 -0.0077718473273282098 0.0004710162506365034 0 -0.0080865229191476127 0.00058769184664352004 0 -0.008009450812661606 0.00040107784182400179 0 -0.007898384017559934 0.00021933036524567043 0 -0.008009450812661606 0.00040107784182400179 0 -0.0080209536679722981 0.00019190048913897119 0 -0.008009450812661606 0.00040107784182400179 0 -0.0080209536679722981 0.00019190048913897119 0 -0.0081491606536877679 0.00023421239837534497 0 -0.0081491606536877679 0.00023421239837534497 0 -0.0083708068918505081 0.00024751391218078819 0 -0.0082429225610945612 0.00043166550866869296 0 -0.0082341587114839777 0.0001360943185952372 0 -0.0081491606536877679 0.00023421239837534497 0 -0.0083708068918505081 0.00024751391218078819 0 -0.0083708068918505081 0.00024751391218078819 0 -0.0085296033919937415 0.00046207873302625497 0 -0.0087036508552873326 0.00021406429679855028 0 -0.0085283665789255662 9.0422896582078717e-05 0 -0.0083708068918505081 0.00024751391218078819 0 -0.0087036508552873326 0.00021406429679855028 0 -0.0083708068918505081 0.00024751391218078819 0 -0.0085296033919937415 0.00046207873302625497 0 -0.0082429225610945612 0.00043166550866869296 0 -0.0085296033919937415 0.00046207873302625497 0 -0.0082429225610945612 0.00043166550866869296 0 -0.0083141668428135598 0.00065771139339073584 0 -0.0083141668428135598 0.00065771139339073584 0 -0.00843970573290115 0.00099889055822550412 0 -0.0080412986536111015 0.00090194573695136758 0 -0.0080865229191476127 0.00058769184664352004 0 -0.0082429225610945612 0.00043166550866869296 0 -0.0083141668428135598 0.00065771139339073584 0 -0.0085296033919937415 0.00046207873302625497 0 -0.0083141668428135598 0.00065771139339073584 0 -0.0086652400279434699 0.00078140095541826015 0 -0.0083141668428135598 0.00065771139339073584 0 -0.0086652400279434699 0.00078140095541826015 0 -0.00843970573290115 0.00099889055822550412 0 -0.0085296033919937415 0.00046207873302625497 0 -0.0086652400279434699 0.00078140095541826015 0 -0.0088636290960741968 0.00049527733363013754 0 -0.0086652400279434699 0.00078140095541826015 0 -0.0088636290960741968 0.00049527733363013754 0 -0.0090265124332070228 0.00091474021449590307 0 -0.0088636290960741968 0.00049527733363013754 0 -0.0087036508552873326 0.00021406429679855028 0 -0.0090313639969872711 0.00010539552748054969 0 -0.0085296033919937415 0.00046207873302625497 0 -0.0088636290960741968 0.00049527733363013754 0 -0.0087036508552873326 0.00021406429679855028 0 -0.0030007512968681358 0.0017458985146530984 0 -0.0026696445138207287 0.0013187172780176602 0 -0.0024230699004705748 0.0017568455677246476 0 -0.0047333725488290825 0.0017449663225788158 0 -0.0057913952820533125 0.0016122694691080759 0 -0.0086652400279434699 0.00078140095541826015 0 -0.0090265124332070228 0.00091474021449590307 0 -0.0088993331766931746 0.0013275162542765275 0 -0.0086652400279434699 0.00078140095541826015 0 -0.00843970573290115 0.00099889055822550412 0 -0.0088993331766931746 0.0013275162542765275 0 -0.00843970573290115 0.00099889055822550412 0 -0.0082972079172728107 0.0013359808054807319 0 -0.0088993331766931746 0.0013275162542765275 0 -0.0030127327565856571 0.0016594140773493909 0 -0.0029440244383060581 0.0016631108388143034 0 -0.003228665552557167 0.0020010414520039289 0 -0.0047333725488290825 0.0017449663225788158 0 -0.0056871329580747238 0.0015274666672318953 0 -0.00843970573290115 0.00099889055822550412 0 -0.0082972079172728107 0.0013359808054807319 0 -0.0080412986536111015 0.00090194573695136758 0 -0.0030127327565856571 0.0016594140773493909 0 -0.00293517111751729 0.0016651635416686725 0 -0.0030542471078608808 0.0013211967462018563 0 -0.0047333725488290825 0.0017449663225788158 0 -0.0023997123861629059 0.0011885660936561066 0 -0.0040545952423079075 0.0017530663373523975 0 -0.0047333725488290825 0.0017449663225788158 0 -0.002436509908777207 0.00088153474138203476 0 -0.0025207316808594882 0.00046855791179716737 0 -0.0022251902393203541 0.00049280738177773556 0 -0.0027862830788123816 0.0014049030962425492 0 -0.0026596493233013428 0.00090309635098737755 0 -0.0030127327565856571 0.0016594140773493909 0 -0.0033901370976890254 0.0018081809662298331 0 -0.0030542471078608808 0.0013211967462018563 0 -0.0030127327565856571 0.0016594140773493909 0 -0.003228665552557167 0.0020010414520039289 0 -0.0033901370976890254 0.0018081809662298331 0 -0.0027000400564202824 0.0013229671671645567 0 -0.002436509908777207 0.00088153474138203476 0 -0.002613310478803069 0.00091571690486256412 0 -0.002613310478803069 0.00091571690486256412 0 -0.0026324174648855426 0.00074668462393534887 0 -0.0027395477485314362 0.001015982514516762 0 -0.0036907744421357806 0.0022672551323194754 0 -0.003228665552557167 0.0020010414520039289 0 -0.0033901370976890254 0.0018081809662298331 0 -0.002436509908777207 0.00088153474138203476 0 -0.002613310478803069 0.00091571690486256412 0 -0.0026324174648855426 0.00074668462393534887 0 -0.002610506541264187 0.00070330365952299162 0 -0.0027554340644746697 0.00091323492414147002 0 -0.002613310478803069 0.00091571690486256412 0 -0.0027395477485314362 0.001015982514516762 0 -0.0027494433605350457 0.0010444941735571988 0 -0.002436509908777207 0.00088153474138203476 0 -0.0026324174648855426 0.00074668462393534887 0 -0.0025207316808594882 0.00046855791179716737 0 -0.002610506541264187 0.00070330365952299162 0 -0.0025334686596953505 0.00049139770274771893 0 -0.0025905099613762503 0.00066195966762594785 0 -0.0025207316808594882 0.00046855791179716737 0 -0.002694349284139046 0.00058866438800878724 0 -0.0025207316808594882 0.00046855791179716737 0 -0.0025693738227178134 0.00026584788103762035 0 -0.0027000122998567717 0.00044920625300606473 0 -0.0025693738227178134 0.00026584788103762035 0 -0.0023478431232623201 0.00025417292637228069 0 -0.0024739856470015059 0.00010871057108558283 0 -0.0025207316808594882 0.00046855791179716737 0 -0.0025693738227178134 0.00026584788103762035 0 -0.0023478431232623201 0.00025417292637228069 0 -0.0025207316808594882 0.00046855791179716737 0 -0.0023478431232623201 0.00025417292637228069 0 -0.0022251902393203541 0.00049280738177773556 0 -0.00293517111751729 0.0016651635416686725 0 -0.0030542471078608808 0.0013211967462018563 0 -0.0026168492919278505 0.0012916397181241624 0 -0.0030542471078608808 0.0013211967462018563 0 -0.0026168492919278505 0.0012916397181241624 0 -0.0026968272941692052 0.00083812229438204951 0 -0.0026596493233013428 0.00090309635098737755 0 -0.0023746630267459626 0.00051207295788529108 0 -0.0023478431232623201 0.00025417292637228069 0 -0.0022251902393203541 0.00049280738177773556 0 -0.0020533265355215185 0.00017671651504203668 0 -0.0026168492919278505 0.0012916397181241624 0 -0.0023231510196467966 0.00092781562777268835 0 -0.0026968272941692052 0.00083812229438204951 0 -0.0023997123861629059 0.0011885660936561066 0 -0.0024246448009441457 0.0010133327382637865 0 -0.0031736413068618129 0.00057339676310315748 0 -0.0029482546158631604 0.00077862750121906023 0 -0.0031416081808959416 0.00038889837440353778 0 -0.0029271819597762806 0.00076575420426241796 0 -0.0031803368995009891 0.00045121460678121291 0 -0.0032478485383499013 0.00048261103712873941 0 -0.0033850823438562965 0.00051154966823214066 0 -0.0033146818871691375 0.00059846575294923276 0 -0.0032478485383499013 0.00048261103712873941 0 -0.0033850823438562965 0.00051154966823214066 0 -0.0033592113920383592 0.00036800123780139789 0 -0.0033850823438562965 0.00051154966823214066 0 -0.0033592113920383592 0.00036800123780139789 0 -0.0034761550764844072 0.00040567198707101951 0 -0.0033850823438562965 0.00051154966823214066 0 -0.0034761550764844072 0.00040567198707101951 0 -0.0035038822222590638 0.00052900320890715211 0 -0.0044796829898497512 0.00070863928715118776 0 -0.0048510917468197259 0.0006278561527608311 0 -0.0048692607132494676 0.00059095373325776166 0 -0.0033850823438562965 0.00051154966823214066 0 -0.0034147313330817244 0.00066611857067993478 0 -0.0033146818871691375 0.00059846575294923276 0 -0.0048510917468197259 0.0006278561527608311 0 -0.0048692607132494676 0.00059095373325776166 0 -0.0052123876064521938 0.00053781624761089705 0 -0.0033850823438562965 0.00051154966823214066 0 -0.0034147313330817244 0.00066611857067993478 0 -0.0035038822222590638 0.00052900320890715211 0 -0.0032122742184872511 0.0007423268332443126 0 -0.0032478485383499013 0.00048261103712873941 0 -0.0033146818871691375 0.00059846575294923276 0 -0.004412323350807418 0.00064601123206380886 0 -0.0039349927957936957 0.00065752522730106496 0 -0.0032122742184872511 0.0007423268332443126 0 -0.0034147313330817244 0.00066611857067993478 0 -0.0033146818871691375 0.00059846575294923276 0 -0.003072696553234144 0.00096118849736900923 0 -0.0031736413068618129 0.00057339676310315748 0 -0.0029482546158631604 0.00077862750121906023 0 -0.004412323350807418 0.00064601123206380886 0 -0.003031074773198624 0.00059859712897280561 0 -0.003072696553234144 0.00096118849736900923 0 -0.0028326515997569648 0.00084187929809806665 0 -0.0029482546158631604 0.00077862750121906023 0 -0.0028326515997569648 0.00084187929809806665 0 -0.0029482546158631604 0.00077862750121906023 0 -0.0028274650325298164 0.00067065752941836447 0 -0.0025905099613762503 0.00066195966762594785 0 -0.0026526789538406613 0.00085688520518924368 0 -0.0027230555195134772 0.00075364550871490402 0 -0.0026526789538406613 0.00085688520518924368 0 -0.0027168301144462406 0.00087526246036684298 0 -0.0027230555195134772 0.00075364550871490402 0 -0.0026526789538406613 0.00085688520518924368 0 -0.002658875119532945 0.00087750700579658481 0 -0.0027168301144462406 0.00087526246036684298 0 -0.0027554340644746697 0.00091323492414147002 0 -0.0027818383815365159 0.00092276773609344066 0 -0.0028326515997569648 0.00084187929809806665 0 -0.0027168301144462406 0.00087526246036684298 0 -0.0027230555195134772 0.00075364550871490402 0 -0.0028326515997569648 0.00084187929809806665 0 -0.0027230555195134772 0.00075364550871490402 0 -0.0028274650325298164 0.00067065752941836447 0 -0.0025905099613762503 0.00066195966762594785 0 -0.0027230555195134772 0.00075364550871490402 0 -0.002694349284139046 0.00058866438800878724 0 -0.0027230555195134772 0.00075364550871490402 0 -0.002694349284139046 0.00058866438800878724 0 -0.0028274650325298164 0.00067065752941836447 0 -0.002694349284139046 0.00058866438800878724 0 -0.0028274650325298164 0.00067065752941836447 0 -0.002815757761754252 0.00054068419070501356 0 -0.0029482546158631604 0.00077862750121906023 0 -0.0028274650325298164 0.00067065752941836447 0 -0.0029060471039146205 0.00057833112677662551 0 -0.0029482546158631604 0.00077862750121906023 0 -0.0029060471039146205 0.00057833112677662551 0 -0.0030433591667215413 0.00048356621100371331 0 -0.0028274650325298164 0.00067065752941836447 0 -0.0029060471039146205 0.00057833112677662551 0 -0.002815757761754252 0.00054068419070501356 0 -0.0029060471039146205 0.00057833112677662551 0 -0.002894073918829771 0.00041964216900462742 0 -0.0030433591667215413 0.00048356621100371331 0 -0.002815757761754252 0.00054068419070501356 0 -0.002894073918829771 0.00041964216900462742 0 -0.0027000122998567717 0.00044920625300606473 0 -0.002894073918829771 0.00041964216900462742 0 -0.0029699351988409194 0.00027630343636093045 0 -0.0030433591667215413 0.00048356621100371331 0 -0.0029060471039146205 0.00057833112677662551 0 -0.002815757761754252 0.00054068419070501356 0 -0.002894073918829771 0.00041964216900462742 0 -0.002894073918829771 0.00041964216900462742 0 -0.0027000122998567717 0.00044920625300606473 0 -0.0027791806603243573 0.00031350985215053276 0 -0.0025207316808594882 0.00046855791179716737 0 -0.002694349284139046 0.00058866438800878724 0 -0.0027000122998567717 0.00044920625300606473 0 -0.002694349284139046 0.00058866438800878724 0 -0.002815757761754252 0.00054068419070501356 0 -0.0027000122998567717 0.00044920625300606473 0 -0.0025693738227178134 0.00026584788103762035 0 -0.0027791806603243573 0.00031350985215053276 0 -0.002663521409952923 0.00013963500076751719 0 -0.0025693738227178134 0.00026584788103762035 0 -0.0027000122998567717 0.00044920625300606473 0 -0.0027791806603243573 0.00031350985215053276 0 -0.0027791806603243573 0.00031350985215053276 0 -0.0028211206000090597 0.00016174992544247511 0 -0.002663521409952923 0.00013963500076751719 0 -0.002894073918829771 0.00041964216900462742 0 -0.0027791806603243573 0.00031350985215053276 0 -0.0029699351988409194 0.00027630343636093045 0 -0.0027791806603243573 0.00031350985215053276 0 -0.0029699351988409194 0.00027630343636093045 0 -0.0028211206000090597 0.00016174992544247511 0 -0.0032667925100417759 0.00020544014812488474 0 -0.0031416081808959416 0.00038889837440353778 0 -0.0033140217286859583 2.5582697150478869e-05 0 -0.0029699351988409194 0.00027630343636093045 0 -0.0030433591667215413 0.00048356621100371331 0 -0.0031755387810691376 0.00017373526218414083 0 -0.0031803368995009891 0.00045121460678121291 0 -0.0026445508045870592 -4.2039545836355161e-05 0 -0.003031074773198624 0.00059859712897280561 0 -0.003313056659111554 0.00018238129454954392 0 -0.0031736413068618129 0.00057339676310315748 0 -0.0032667925100417759 0.00020544014812488474 0 -0.0031416081808959416 0.00038889837440353778 0 -0.0032478485383499013 0.00048261103712873941 0 -0.0032667925100417759 0.00020544014812488474 0 -0.0033592113920383592 0.00036800123780139789 0 -0.0033592113920383592 0.00036800123780139789 0 -0.0034373684416279565 0.00025478329333401069 0 -0.0034761550764844072 0.00040567198707101951 0 -0.0032667925100417759 0.00020544014812488474 0 -0.0033592113920383592 0.00036800123780139789 0 -0.0034373684416279565 0.00025478329333401069 0 -0.0014960812800991123 0.00033046057438738187 0 -0.0012190547396252974 8.8310897321060107e-05 0 -0.00099068796838300863 9.2267470060908508e-05 0 -0.0023442305657069393 0.00020798818633537694 0 -0.0026445508045870592 -4.2039545836355161e-05 0 -0.0034373684416279565 0.00025478329333401069 0 -0.0035737578139903065 0.00016360528945395507 0 -0.0033140217286859583 2.5582697150478869e-05 0 -0.0032667925100417759 0.00020544014812488474 0 -0.0034373684416279565 0.00025478329333401069 0 -0.0033140217286859583 2.5582697150478869e-05 0 -0.0014960812800991123 0.00033046057438738187 0 -0.0015026741133318375 2.9781108495744075e-05 0 -0.0012190547396252974 8.8310897321060107e-05 0 -0.0014960812800991123 0.00033046057438738187 0 -0.0017713537157164746 0.00012599077961893772 0 -0.0015026741133318375 2.9781108495744075e-05 0 -0.0023442305657069393 0.00020798818633537694 0 -0.0034732786337406162 0.00053661370588776818 0 -0.0014960812800991123 0.00033046057438738187 0 -0.0019419709573486891 0.00030219626660360596 0 -0.0021001383010008519 0.00059507632510153461 0 -0.0014960812800991123 0.00033046057438738187 0 -0.0017713537157164746 0.00012599077961893772 0 -0.0019419709573486891 0.00030219626660360596 0 -0.0020078649584607052 0.00012144638053443826 0 -0.0017713537157164746 0.00012599077961893772 0 -0.0019419709573486891 0.00030219626660360596 0 -0.0035737578139903065 0.00016360528945395507 0 -0.0036081853361531109 0.00033415591760444375 0 -0.0038212757751192455 0.00027877886684156558 0 -0.0036081853361531109 0.00033415591760444375 0 -0.0037334552061794452 0.00043996554849797908 0 -0.0038212757751192455 0.00027877886684156558 0 -0.0057798926767558016 0.0010553536525027818 0 -0.005524071210181108 0.0012054473084995973 0 -0.00556429995870343 0.0015337603980647306 0 -0.0047791609852029723 0.00071534891113691449 0 -0.0034732786337406162 0.00053661370588776818 0 -0.0034373684416279565 0.00025478329333401069 0 -0.0035737578139903065 0.00016360528945395507 0 -0.0036081853361531109 0.00033415591760444375 0 -0.0036081853361531109 0.00033415591760444375 0 -0.0034761550764844072 0.00040567198707101951 0 -0.0035984925481324084 0.00046063408002377132 0 -0.0034373684416279565 0.00025478329333401069 0 -0.0036081853361531109 0.00033415591760444375 0 -0.0034761550764844072 0.00040567198707101951 0 -0.0034761550764844072 0.00040567198707101951 0 -0.0035038822222590638 0.00052900320890715211 0 -0.0035984925481324084 0.00046063408002377132 0 -0.0035038822222590638 0.00052900320890715211 0 -0.0035984925481324084 0.00046063408002377132 0 -0.0036452121038548025 0.00059853716154077826 0 -0.0036081853361531109 0.00033415591760444375 0 -0.0035984925481324084 0.00046063408002377132 0 -0.0037334552061794452 0.00043996554849797908 0 -0.0057798926767558016 0.0010553536525027818 0 -0.0055506061328668794 0.00092871099287242264 0 -0.005524071210181108 0.0012054473084995973 0 -0.0057798926767558016 0.0010553536525027818 0 -0.00576211609989609 0.00065852466536593017 0 -0.0055506061328668794 0.00092871099287242264 0 -0.0047791609852029723 0.00071534891113691449 0 -0.0050112962016494889 0.00072924520513813326 0 -0.0057798926767558016 0.0010553536525027818 0 -0.0059468713398523687 0.0006744566681242156 0 -0.0059832539907492266 0.00066151513070710215 0 -0.0035984925481324084 0.00046063408002377132 0 -0.0037334552061794452 0.00043996554849797908 0 -0.0036452121038548025 0.00059853716154077826 0 -0.0057798926767558016 0.0010553536525027818 0 -0.0059468713398523687 0.0006744566681242156 0 -0.00576211609989609 0.00065852466536593017 0 -0.0058552184516796292 0.00057935647635178479 0 -0.0056035333133065144 0.00054658897704320088 0 -0.00576211609989609 0.00065852466536593017 0 -0.0058102922784132776 0.00050523464089887186 0 -0.0059664690108721594 0.00057915636678639211 0 -0.0059468713398523687 0.0006744566681242156 0 -0.00576211609989609 0.00065852466536593017 0 -0.0060276326793539054 0.00058232991847924982 0 -0.0050928160418068028 0.00070843718554480307 0 -0.0050112962016494889 0.00072924520513813326 0 -0.00576211609989609 0.00065852466536593017 0 -0.0054702213772364824 0.00058249115540729779 0 -0.0055506061328668794 0.00092871099287242264 0 -0.00576211609989609 0.00065852466536593017 0 -0.0056913781504840293 0.00044251099570408636 0 -0.0054702213772364824 0.00058249115540729779 0 -0.00576211609989609 0.00065852466536593017 0 -0.0056913781504840293 0.00044251099570408636 0 -0.0058102922784132776 0.00050523464089887186 0 -0.0056913781504840293 0.00044251099570408636 0 -0.0058102922784132776 0.00050523464089887186 0 -0.0058129055412485166 0.00034527414843436876 0 -0.0058102922784132776 0.00050523464089887186 0 -0.0059664690108721594 0.00057915636678639211 0 -0.0058129055412485166 0.00034527414843436876 0 -0.0057925062954774379 0.00047685680614762359 0 -0.0056035333133065144 0.00054658897704320088 0 -0.0034147313330817244 0.00066611857067993478 0 -0.0035038822222590638 0.00052900320890715211 0 -0.0036452121038548025 0.00059853716154077826 0 -0.0039349927957936957 0.00065752522730106496 0 -0.0050112962016494889 0.00072924520513813326 0 -0.0048692607132494676 0.00059095373325776166 0 -0.0052437189762283625 0.00048431468374941132 0 -0.0052123876064521938 0.00053781624761089705 0 -0.0059468713398523687 0.0006744566681242156 0 -0.0059826033367412794 0.00066233728723190085 0 -0.0060276326793539054 0.00058232991847924982 0 -0.0050112962016494889 0.00072924520513813326 0 -0.0056035333133065144 0.00054658897704320088 0 -0.0049664023521949173 0.00010913110771025612 0 -0.0050752890818987874 0.00051112682507407448 0 -0.0046816987413190745 0.00040208166360300061 0 -0.0049664023521949173 0.00010913110771025612 0 -0.004497003657147257 -7.4486229985853256e-05 0 -0.0046816987413190745 0.00040208166360300061 0 -0.004497003657147257 -7.4486229985853256e-05 0 -0.0046816987413190745 0.00040208166360300061 0 -0.0041603203652742747 0.00033737541193202224 0 -0.0049664023521949173 0.00010913110771025612 0 -0.004497003657147257 -7.4486229985853256e-05 0 -0.0050493490463501536 -0.00040448577814894383 0 -0.0049664023521949173 0.00010913110771025612 0 -0.0054904003036565369 0.00011284187903540507 0 -0.0050493490463501536 -0.00040448577814894383 0 -0.0049664023521949173 0.00010913110771025612 0 -0.0054904003036565369 0.00011284187903540507 0 -0.0050752890818987874 0.00051112682507407448 0 -0.0054904003036565369 0.00011284187903540507 0 -0.0050752890818987874 0.00051112682507407448 0 -0.0051823589083986772 0.001323776342402852 0 -0.0054702213772364824 0.00058249115540729779 0 -0.0055506061328668794 0.00092871099287242264 0 -0.0051823589083986772 0.001323776342402852 0 -0.0054678678019671077 0.00036589542715211227 0 -0.0052081265119252613 0.0012783970628170867 0 -0.0050752890818987874 0.00051112682507407448 0 -0.0048866336029052314 0.00082359362154708405 0 -0.0051823589083986772 0.001323776342402852 0 -0.0055506061328668794 0.00092871099287242264 0 -0.005524071210181108 0.0012054473084995973 0 -0.0051823589083986772 0.001323776342402852 0 -0.0048866336029052314 0.00082359362154708405 0 -0.0045115215665177929 0.00073173774369363228 0 -0.0048618574859756736 0.0012198309197520448 0 -0.0045115215665177929 0.00073173774369363228 0 -0.0048618574859756736 0.0012198309197520448 0 -0.0039349975197799864 0.00088608870220333871 0 -0.0037787175986454093 0.0009159426349599892 0 -0.0032991371152668592 0.00064261927227292196 0 -0.0025228633604081072 0.00050360579535082411 0 -0.0026519722291581259 0.00045718776642486461 0 -0.0027453538797086231 0.00046259542385267138 0 -0.0050752890818987874 0.00051112682507407448 0 -0.0048866336029052314 0.00082359362154708405 0 -0.0046816987413190745 0.00040208166360300061 0 -0.0045115215665177929 0.00073173774369363228 0 -0.0046816987413190745 0.00040208166360300061 0 -0.0041603203652742747 0.00033737541193202224 0 -0.0048866336029052314 0.00082359362154708405 0 -0.0045115215665177929 0.00073173774369363228 0 -0.0046816987413190745 0.00040208166360300061 0 -0.0025228633604081072 0.00050360579535082411 0 -0.0025984063840325442 0.00042162512063751941 0 -0.0026519722291581259 0.00045718776642486461 0 -0.0048866336029052314 0.00082359362154708405 0 -0.0048618574859756736 0.0012198309197520448 0 -0.0051823589083986772 0.001323776342402852 0 -0.0024423671681458869 0.00039488955314395078 0 -0.0025984063840325442 0.00042162512063751941 0 -0.0025899267626125896 0.00033470530255589351 0 -0.0025228633604081072 0.00050360579535082411 0 -0.0024423671681458869 0.00039488955314395078 0 -0.0025984063840325442 0.00042162512063751941 0 -0.0037787175986454093 0.0009159426349599892 0 -0.0034732786337406162 0.00053661370588776818 0 -0.0048618574859756736 0.0012198309197520448 0 -0.0051823589083986772 0.001323776342402852 0 -0.00556429995870343 0.0015337603980647306 0 -0.0025228633604081072 0.00050360579535082411 0 -0.0024423671681458869 0.00039488955314395078 0 -0.0022198317925451643 0.00042206533753458655 0 -0.005524071210181108 0.0012054473084995973 0 -0.0051823589083986772 0.001323776342402852 0 -0.00556429995870343 0.0015337603980647306 0 -0.0024423671681458869 0.00039488955314395078 0 -0.0022198317925451643 0.00042206533753458655 0 -0.00227554551358257 0.00027567865558483513 0 -0.00227554551358257 0.00027567865558483513 0 -0.002295228397197379 0.00010968838846800242 0 -0.0025899267626125896 0.00033470530255589351 0 -0.0019419709573486891 0.00030219626660360596 0 -0.0021001383010008519 0.00059507632510153461 0 -0.00227554551358257 0.00027567865558483513 0 -0.0034732786337406162 0.00053661370588776818 0 -0.0024295119042063319 0.00056703776899750256 0 -0.0020078649584607052 0.00012144638053443826 0 -0.0019419709573486891 0.00030219626660360596 0 -0.00227554551358257 0.00027567865558483513 0 -0.0020078649584607052 0.00012144638053443826 0 -0.00227554551358257 0.00027567865558483513 0 -0.002295228397197379 0.00010968838846800242 0 -0.0024423671681458869 0.00039488955314395078 0 -0.00227554551358257 0.00027567865558483513 0 -0.0025899267626125896 0.00033470530255589351 0 -0.0022156335074573468 0.00018808634153145371 0 -0.0024933549945699062 0.00034917295733032902 0 -0.0023398574834249267 0.00032962129394569775 0 -0.0023659566274478426 0.00034302865097699664 0 -0.0023625199130827513 0.00032474096308562531 0 -0.0023659566274478426 0.00034302865097699664 0 -0.0023785428275828521 0.00032523145581186686 0 -0.0023625199130827513 0.00032474096308562531 0 -0.0023659566274478426 0.00034302865097699664 0 -0.0023785428275828521 0.00032523145581186686 0 -0.0024001666895642499 0.00033846997530647619 0 -0.0024001666895642499 0.00033846997530647619 0 -0.0023936691922360805 0.00032841847141332881 0 -0.0024450376979513028 0.00034217433963776772 0 -0.0023785428275828521 0.00032523145581186686 0 -0.0024001666895642499 0.00033846997530647619 0 -0.0023936691922360805 0.00032841847141332881 0 -0.0023936691922360805 0.00032841847141332881 0 -0.0024033425698096835 0.00035019817542793479 0 -0.002353529573253973 0.00031820653388466534 0 -0.0023936691922360805 0.00032841847141332881 0 -0.0024033425698096835 0.00035019817542793479 0 -0.0024450376979513028 0.00034217433963776772 0 -0.0024450376979513028 0.00034217433963776772 0 -0.0024945263329258904 0.00036211255920770292 0 -0.0025446353668502103 0.00036247332590677318 0 -0.0024033425698096835 0.00035019817542793479 0 -0.0024450376979513028 0.00034217433963776772 0 -0.0024945263329258904 0.00036211255920770292 0 -0.0024945263329258904 0.00036211255920770292 0 -0.0025446353668502103 0.00036247332590677318 0 -0.0025847543994071973 0.0003648724909189455 0 -0.0024450376979513028 0.00034217433963776772 0 -0.0025446353668502103 0.00036247332590677318 0 -0.0024228075079898532 0.00038332070831050447 0 -0.0023659566274478426 0.00034302865097699664 0 -0.0024001666895642499 0.00033846997530647619 0 -0.0024228075079898532 0.00038332070831050447 0 -0.0024933549945699062 0.00034917295733032902 0 -0.0025909737151785179 0.00039483159086978138 0 -0.0025984063840325442 0.00042162512063751941 0 -0.0027462982273934386 0.00044676084155026257 0 -0.0026519722291581259 0.00045718776642486461 0 -0.0025984063840325442 0.00042162512063751941 0 -0.0025899267626125896 0.00033470530255589351 0 -0.0027462982273934386 0.00044676084155026257 0 -0.0027462982273934386 0.00044676084155026257 0 -0.0026519722291581259 0.00045718776642486461 0 -0.0027453538797086231 0.00046259542385267138 0 -0.0024001666895642499 0.00033846997530647619 0 -0.0024450376979513028 0.00034217433963776772 0 -0.0024228075079898532 0.00038332070831050447 0 -0.0023420756554205511 0.00039783064127258815 0 -0.0023324626904902327 0.00035790342538220599 0 -0.0022589643517462107 0.00032341620611253961 0 -0.0021898472420715607 0.00054144909211701502 0 -0.0024268648154722227 0.00038187881338351152 0 -0.0023420756554205511 0.00039783064127258815 0 -0.0023324626904902327 0.00035790342538220599 0 -0.0024009742051742549 0.00040030269412546073 0 -0.0024033425698096835 0.00035019817542793479 0 -0.0023324626904902327 0.00035790342538220599 0 -0.0022806182364769273 0.00031661252653896263 0 -0.0024033425698096835 0.00035019817542793479 0 -0.0023324626904902327 0.00035790342538220599 0 -0.0024009742051742549 0.00040030269412546073 0 -0.0024033425698096835 0.00035019817542793479 0 -0.0024863199438267276 0.00038003405667379805 0 -0.0024009742051742549 0.00040030269412546073 0 -0.0024033425698096835 0.00035019817542793479 0 -0.0024945263329258904 0.00036211255920770292 0 -0.0024863199438267276 0.00038003405667379805 0 -0.0024945263329258904 0.00036211255920770292 0 -0.0024863199438267276 0.00038003405667379805 0 -0.0025847543994071973 0.0003648724909189455 0 -0.0024863199438267276 0.00038003405667379805 0 -0.0025847543994071973 0.0003648724909189455 0 -0.0024889053676866971 0.00033177477450887214 0 -0.0024863199438267276 0.00038003405667379805 0 -0.0023713548362965325 0.0003740237042239911 0 -0.0024889053676866971 0.00033177477450887214 0 -0.0024863199438267276 0.00038003405667379805 0 -0.0024009742051742549 0.00040030269412546073 0 -0.0023713548362965325 0.0003740237042239911 0 -0.0022104279824503698 0.00037131560487465475 0 -0.0023713548362965325 0.0003740237042239911 0 -0.0023293612772015658 0.0002494813437332152 0 -0.0022104279824503698 0.00037131560487465475 0 -0.0023108913041113757 0.00048546082937732659 0 -0.0023713548362965325 0.0003740237042239911 0 -0.0023108913041113757 0.00048546082937732659 0 -0.0024009742051742549 0.00040030269412546073 0 -0.0023713548362965325 0.0003740237042239911 0 -0.0022104279824503698 0.00037131560487465475 0 -0.0020871444579408558 -6.1770698329759131e-05 0 -0.0023293612772015658 0.0002494813437332152 0 -0.0023713548362965325 0.0003740237042239911 0 -0.0023293612772015658 0.0002494813437332152 0 -0.0024889053676866971 0.00033177477450887214 0 -0.0023293612772015658 0.0002494813437332152 0 -0.0024889053676866971 0.00033177477450887214 0 -0.00246485996399309 0.00012862381955568828 0 -0.0024889053676866971 0.00033177477450887214 0 -0.0026140766286496375 0.00032397384549919764 0 -0.00246485996399309 0.00012862381955568828 0 -0.0025847543994071973 0.0003648724909189455 0 -0.0024889053676866971 0.00033177477450887214 0 -0.0026140766286496375 0.00032397384549919764 0 -0.0025847543994071973 0.0003648724909189455 0 -0.0026140766286496375 0.00032397384549919764 0 -0.0027546589084834761 0.00035792431689647718 0 -0.0026140766286496375 0.00032397384549919764 0 -0.0026976118434820294 0.00024118761094520449 0 -0.0027546589084834761 0.00035792431689647718 0 -0.0026140766286496375 0.00032397384549919764 0 -0.0026976118434820294 0.00024118761094520449 0 -0.00246485996399309 0.00012862381955568828 0 -0.0026976118434820294 0.00024118761094520449 0 -0.0028013987137664657 -9.0346496696399202e-06 0 -0.0028331702664231924 0.00033353708534967911 0 -0.0026976118434820294 0.00024118761094520449 0 -0.0028013987137664657 -9.0346496696399202e-06 0 -0.00246485996399309 0.00012862381955568828 0 -0.0028013987137664657 -9.0346496696399202e-06 0 -0.0025201700526398603 -0.00023124185862840864 0 -0.0030104830882238518 -0.00036510123064002514 0 -0.0028013987137664657 -9.0346496696399202e-06 0 -0.0025201700526398603 -0.00023124185862840864 0 -0.00246485996399309 0.00012862381955568828 0 -0.0020871444579408558 -6.1770698329759131e-05 0 -0.0025201700526398603 -0.00023124185862840864 0 -0.00246485996399309 0.00012862381955568828 0 -0.0020871444579408558 -6.1770698329759131e-05 0 -0.0023293612772015658 0.0002494813437332152 0 -0.00246485996399309 0.00012862381955568828 0 -0.0039349975197799864 0.00088608870220333871 0 -0.0036557674059550585 0.00026414230282524598 0 -0.0041603203652742747 0.00033737541193202224 0 -0.0039349975197799864 0.00088608870220333871 0 -0.0033960511469852245 0.00036302110672013484 0 -0.0036557674059550585 0.00026414230282524598 0 -0.0045115215665177929 0.00073173774369363228 0 -0.0039349975197799864 0.00088608870220333871 0 -0.0041603203652742747 0.00033737541193202224 0 -0.0027453538797086231 0.00046259542385267138 0 -0.0027546589084834761 0.00035792431689647718 0 -0.0028331702664231924 0.00033353708534967911 0 -0.0027462982273934386 0.00044676084155026257 0 -0.0027453538797086231 0.00046259542385267138 0 -0.0027546589084834761 0.00035792431689647718 0 -0.0025909737151785179 0.00039483159086978138 0 -0.002718147248409384 0.00037844804970227374 0 -0.0032991371152668592 0.00064261927227292196 0 -0.002875016954881912 0.00038304779975738658 0 -0.0039349975197799864 0.00088608870220333871 0 -0.0028331702664231924 0.00033353708534967911 0 -0.0033960511469852245 0.00036302110672013484 0 -0.0025446353668502103 0.00036247332590677318 0 -0.0024228075079898532 0.00038332070831050447 0 -0.0027546589084834761 0.00035792431689647718 0 -0.0025446353668502103 0.00036247332590677318 0 -0.0025847543994071973 0.0003648724909189455 0 -0.0027546589084834761 0.00035792431689647718 0 -0.0026976118434820294 0.00024118761094520449 0 -0.0027546589084834761 0.00035792431689647718 0 -0.0028331702664231924 0.00033353708534967911 0 -0.003192228195592387 3.1919243949447303e-05 0 -0.0037759603596721676 -0.0002078422117744555 0 -0.0030104830882238518 -0.00036510123064002514 0 -0.0028331702664231924 0.00033353708534967911 0 -0.0033960511469852245 0.00036302110672013484 0 -0.003192228195592387 3.1919243949447303e-05 0 -0.0033960511469852245 0.00036302110672013484 0 -0.003192228195592387 3.1919243949447303e-05 0 -0.0036557674059550585 0.00026414230282524598 0 -0.003192228195592387 3.1919243949447303e-05 0 -0.0037759603596721676 -0.0002078422117744555 0 -0.0036557674059550585 0.00026414230282524598 0 -0.0028013987137664657 -9.0346496696399202e-06 0 -0.0028331702664231924 0.00033353708534967911 0 -0.003192228195592387 3.1919243949447303e-05 0 -0.0028013987137664657 -9.0346496696399202e-06 0 -0.003192228195592387 3.1919243949447303e-05 0 -0.0030104830882238518 -0.00036510123064002514 0 -0.0037759603596721676 -0.0002078422117744555 0 -0.0036557674059550585 0.00026414230282524598 0 -0.0041603203652742747 0.00033737541193202224 0 -0.004497003657147257 -7.4486229985853256e-05 0 -0.0037759603596721676 -0.0002078422117744555 0 -0.0041603203652742747 0.00033737541193202224 0 -0.004497003657147257 -7.4486229985853256e-05 0 -0.0037759603596721676 -0.0002078422117744555 0 -0.0043406307268094562 -0.0006484880706861463 0 -0.0037759603596721676 -0.0002078422117744555 0 -0.0043406307268094562 -0.0006484880706861463 0 -0.0035462662365772168 -0.00088498390304704295 0 -0.0035462662365772168 -0.00088498390304704295 0 -0.0030104830882238518 -0.00036510123064002514 0 -0.0024347881137613925 -0.00079574655794339836 0 -0.0037759603596721676 -0.0002078422117744555 0 -0.0035462662365772168 -0.00088498390304704295 0 -0.0030104830882238518 -0.00036510123064002514 0 -0.0035462662365772168 -0.00088498390304704295 0 -0.0024347881137613925 -0.00079574655794339836 0 -0.0031763076378465774 -0.0017214349302162972 0 -0.0035462662365772168 -0.00088498390304704295 0 -0.0040728682963794846 -0.0014210231165326687 0 -0.0031763076378465774 -0.0017214349302162972 0 -0.0038211293655204762 -0.0015879120491098945 0 -0.0078593960771950605 0.0001052212804644802 0 -0.0043406307268094562 -0.0006484880706861463 0 -0.0035462662365772168 -0.00088498390304704295 0 -0.0040728682963794846 -0.0014210231165326687 0 -0.0091681680319239209 0.00025404782297232096 0 -0.0091588803627727436 0.00051034745944602915 0 -0.0088594934296187793 0.00059445476587649212 0 -0.0020871444579408558 -6.1770698329759131e-05 0 -0.0025201700526398603 -0.00023124185862840864 0 -0.0024347881137613925 -0.00079574655794339836 0 -0.006538469748643797 0.00035576267300962234 0 -0.0052061226336704985 -0.000105263918692883 0 -0.0091614801448532904 0.00055350061310560866 0 -0.0091588803627727436 0.00051034745944602915 0 -0.0088594934296187793 0.00059445476587649212 0 -0.0091614801448532904 0.00055350061310560866 0 -0.0091588803627727436 0.00051034745944602915 0 -0.0092564085000257611 0.00069254466195349193 0 -0.0025201700526398603 -0.00023124185862840864 0 -0.0030104830882238518 -0.00036510123064002514 0 -0.0024347881137613925 -0.00079574655794339836 0 -0.0088594934296187793 0.00059445476587649212 0 -0.0091044958225164965 0.00088407309983852707 0 -0.0084918594174109487 0.00099542137094729764 0 -0.0052061226336704985 -0.000105263918692883 0 -0.0078593960771950605 0.0001052212804644802 0 -0.0091807114521731403 0.00058654952935555343 0 -0.0091459577103517598 0.00076515835370609203 0 -0.0091614801448532904 0.00055350061310560866 0 -0.0088594934296187793 0.00059445476587649212 0 -0.0091044958225164965 0.00088407309983852707 0 -0.0091614801448532904 0.00055350061310560866 0 -0.0092666671422346868 0.00074441848270196645 0 -0.0092564085000257611 0.00069254466195349193 0 -0.0092894981997845068 0.0007392289152593493 0 -0.0092887044557535253 0.0007180149156036787 0 -0.0092666671422346868 0.00074441848270196645 0 -0.0092887044557535253 0.0007180149156036787 0 -0.0092666671422346868 0.00074441848270196645 0 -0.0092564085000257611 0.00069254466195349193 0 -0.0091131567389030992 0.0005514802945482105 0 -0.0092288502546080276 0.0006987335657396552 0 -0.0092666671422346868 0.00074441848270196645 0 -0.0092899918808389201 0.00075590360912371939 0 -0.0092890176148145345 0.00077372578040483316 0 -0.0091459577103517598 0.00076515835370609203 0 -0.011519218981462607 0.0016426084846403229 0 -0.009293249323527035 0.00076721620798453534 0 -0.0092899918808389201 0.00075590360912371939 0 -0.0092890176148145345 0.00077372578040483316 0 -0.0093067543830219045 0.00076636068286359499 0 -0.009293249323527035 0.00076721620798453534 0 -0.0092923441373185308 0.00077595469814874122 0 -0.009293249323527035 0.00076721620798453534 0 -0.0092890176148145345 0.00077372578040483316 0 -0.0092923441373185308 0.00077595469814874122 0 -0.0092894981997845068 0.0007392289152593493 0 -0.0092666671422346868 0.00074441848270196645 0 -0.0092899918808389201 0.00075590360912371939 0 -0.012770836459005451 0.0019262053917993925 0 -0.011519218981462607 0.0016426084846403229 0 -0.012937711548990771 0.0018471469824571101 0 -0.013218997006290411 0.0016786682151915828 0 -0.013474454939399449 0.0021248787608031529 0 -0.012937711548990771 0.0018471469824571101 0 -0.012715136997650089 0.0017750463243511869 0 -0.013474454939399449 0.0021248787608031529 0 -0.0091044958225164965 0.00088407309983852707 0 -0.0090423120356009842 0.0012433319939979736 0 -0.0084918594174109487 0.00099542137094729764 0 -0.011519218981462607 0.0016426084846403229 0 -0.0078593960771950605 0.0001052212804644802 0 -0.013218997006290411 0.0016786682151915828 0 -0.013190801277783284 0.0013440336748691375 0 -0.01352249802721456 0.0014972169094683717 0 -0.013218997006290411 0.0016786682151915828 0 -0.013190801277783284 0.0013440336748691375 0 -0.012970833972902355 0.0015779284926203353 0 -0.012835037039429524 0.0013147788918635437 0 -0.013190801277783284 0.0013440336748691375 0 -0.012970833972902355 0.0015779284926203353 0 -0.012937711548990771 0.0018471469824571101 0 -0.013218997006290411 0.0016786682151915828 0 -0.012970833972902355 0.0015779284926203353 0 -0.011438963907432242 0.0010633079280307862 0 -0.011578865762597984 0.0013136676286365251 0 -0.011512178142444113 0.0012924210367274722 0 -0.011438963907432242 0.0010633079280307862 0 -0.011633657100763651 0.0010765695369269938 0 -0.011578865762597984 0.0013136676286365251 0 -0.012232116607346785 0.0011845395162766346 0 -0.011519218981462607 0.0016426084846403229 0 -0.012835037039429524 0.0013147788918635437 0 -0.012970833972902355 0.0015779284926203353 0 -0.012721049323722306 0.001777343422867905 0 -0.012937711548990771 0.0018471469824571101 0 -0.012970833972902355 0.0015779284926203353 0 -0.012721049323722306 0.001777343422867905 0 -0.011519218981462607 0.0016426084846403229 0 -0.010597422530542633 0.0012192268182580396 0 -0.0051795667370895917 -0.0011014535412647644 0 -0.0051774399936667147 -0.0013600317066519093 0 -0.0053721877282976033 -0.0012488483851820647 0 -0.0051795667370895917 -0.0011014535412647644 0 -0.0050483661150227616 -0.0011812658664211821 0 -0.0051774399936667147 -0.0013600317066519093 0 -0.0078593960771950605 0.0001052212804644802 0 -0.0097909054002199066 9.2837341002650371e-05 0 -0.013218997006290411 0.0016786682151915828 0 -0.013474454939399449 0.0021248787608031529 0 -0.01352249802721456 0.0014972169094683717 0 -0.013474454939399449 0.0021248787608031529 0 -0.01352249802721456 0.0014972169094683717 0 -0.014010803318727796 0.0015868714416152477 0 -0.013787168168243781 0.00126988474459183 0 -0.01352249802721456 0.0014972169094683717 0 -0.014010803318727796 0.0015868714416152477 0 -0.014103039179816946 0.0011213723498701149 0 -0.013787168168243781 0.00126988474459183 0 -0.014010803318727796 0.0015868714416152477 0 -0.0055772877155389157 -0.001484281414338304 0 -0.0053721979963067649 -0.0015840816001760102 0 -0.0053721877282976033 -0.0012488483851820647 0 -0.0053721979963067649 -0.0015840816001760102 0 -0.0051774399936667147 -0.0013600317066519093 0 -0.0053721877282976033 -0.0012488483851820647 0 -0.0053721877282976033 -0.0012488483851820647 0 -0.0056883895042904482 -0.001305416098622001 0 -0.0054549143128257834 -0.0011367929050626257 0 -0.0055772877155389157 -0.001484281414338304 0 -0.0053721877282976033 -0.0012488483851820647 0 -0.0056883895042904482 -0.001305416098622001 0 -0.0063105357767458585 -0.00036733391469187781 0 -0.006145031616313852 -0.0001206658526133613 0 -0.0058181511102558155 -0.0003449730185288803 0 -0.0059562560170992717 -0.0011611115057050647 0 -0.005750122346852884 -0.00082658719486558324 0 -0.0058413611888279314 -0.0015982018124082965 0 -0.0055772877155389157 -0.001484281414338304 0 -0.0056883895042904482 -0.001305416098622001 0 -0.0061957784082044337 -0.00062114437118926727 0 -0.0063105357767458585 -0.00036733391469187781 0 -0.0058181511102558155 -0.0003449730185288803 0 -0.0061957784082044337 -0.00062114437118926727 0 -0.005954617681980255 -0.00074898059844636419 0 -0.0058181511102558155 -0.0003449730185288803 0 -0.006145031616313852 -0.0001206658526133613 0 -0.0058181511102558155 -0.0003449730185288803 0 -0.0059453882982816149 9.5461957379217204e-05 0 -0.005750122346852884 -0.00082658719486558324 0 -0.0056584904654273065 -0.00042660850149645713 0 -0.0058181511102558155 -0.0003449730185288803 0 -0.0056703108529026621 8.5085231949692556e-05 0 -0.0059453882982816149 9.5461957379217204e-05 0 -0.006214688658631699 0.00011666043115095237 0 -0.006145031616313852 -0.0001206658526133613 0 -0.0059453882982816149 9.5461957379217204e-05 0 -0.006214688658631699 0.00011666043115095237 0 -0.0063053311097303133 0.00042681715334462684 0 -0.0059695391832580071 0.00052567800490260785 0 -0.0063198540620596957 0.00011350698281039719 0 -0.0056035333133065144 0.00054658897704320088 0 -0.006214688658631699 0.00011666043115095237 0 -0.0059664690108721594 0.00057915636678639211 0 -0.0059453882982816149 9.5461957379217204e-05 0 -0.0056703108529026621 8.5085231949692556e-05 0 -0.0059453882982816149 9.5461957379217204e-05 0 -0.0058129055412485166 0.00034527414843436876 0 -0.0056913781504840293 0.00044251099570408636 0 -0.0056703108529026621 8.5085231949692556e-05 0 -0.0058129055412485166 0.00034527414843436876 0 -0.0059664690108721594 0.00057915636678639211 0 -0.0059453882982816149 9.5461957379217204e-05 0 -0.0058129055412485166 0.00034527414843436876 0 -0.0056913781504840293 0.00044251099570408636 0 -0.0054702213772364824 0.00058249115540729779 0 -0.0056703108529026621 8.5085231949692556e-05 0 -0.0054678678019671077 0.00036589542715211227 0 -0.0056584904654273065 -0.00042660850149645713 0 -0.0054904003036565369 0.00011284187903540507 0 -0.0056489842602571137 -0.00096444372680930918 0 -0.0050493490463501536 -0.00040448577814894383 0 -0.0056489842602571137 -0.00096444372680930918 0 -0.0050493490463501536 -0.00040448577814894383 0 -0.0052046430838564358 -0.00096958792054047691 0 -0.0043406307268094562 -0.0006484880706861463 0 -0.0050493490463501536 -0.00040448577814894383 0 -0.0052046430838564358 -0.00096958792054047691 0 -0.004497003657147257 -7.4486229985853256e-05 0 -0.0043406307268094562 -0.0006484880706861463 0 -0.0050493490463501536 -0.00040448577814894383 0 -0.0051795667370895917 -0.0011014535412647644 0 -0.0053721877282976033 -0.0012488483851820647 0 -0.0052046430838564358 -0.00096958792054047691 0 -0.0038211293655204762 -0.0015879120491098945 0 -0.0055021586526530645 -0.00085767679630719058 0 -0.0043406307268094562 -0.0006484880706861463 0 -0.0040728682963794846 -0.0014210231165326687 0 -0.0052046430838564358 -0.00096958792054047691 0 -0.0056489842602571137 -0.00096444372680930918 0 -0.0052046430838564358 -0.00096958792054047691 0 -0.0054549143128257834 -0.0011367929050626257 0 -0.0056883895042904482 -0.001305416098622001 0 -0.0056489842602571137 -0.00096444372680930918 0 -0.0054549143128257834 -0.0011367929050626257 0 -0.0053721877282976033 -0.0012488483851820647 0 -0.0052046430838564358 -0.00096958792054047691 0 -0.0054549143128257834 -0.0011367929050626257 0 -0.012189409362181864 4.7265400096407979e-05 0 -0.012090764850155668 0.00014102696354107325 0 -0.011639280987033311 7.0724195724290192e-05 0 -0.011546351636862132 7.7863593390768374e-07 0 -0.012445837500982902 -5.5590164024396906e-07 0 -0.011639280987033311 7.0724195724290192e-05 0 -0.011546351636862132 7.7863593390768374e-07 0 -0.011430414664256931 0.0001232199965998111 0 -0.011639280987033311 7.0724195724290192e-05 0 -0.011677437389386357 0.00021577474033443082 0 -0.011430414664256931 0.0001232199965998111 0 -0.01246460224666 0.00011969000017845443 0 -0.012222565250904482 8.7952856345741511e-05 0 -0.012139630272004388 8.2219565534797506e-05 0 -0.01246460224666 0.00011969000017845443 0 -0.012323989922493667 1.7422234293481111e-05 0 -0.012222565250904482 8.7952856345741511e-05 0 -0.012323989922493667 1.7422234293481111e-05 0 -0.012513775659559728 -2.0573017510305618e-05 0 -0.012379947130914851 -0.00011710109323979649 0 -0.01274899331431636 -3.0365542324898089e-05 0 -0.01246460224666 0.00011969000017845443 0 -0.012513775659559728 -2.0573017510305618e-05 0 -0.01246460224666 0.00011969000017845443 0 -0.012323989922493667 1.7422234293481111e-05 0 -0.012513775659559728 -2.0573017510305618e-05 0 -0.01274899331431636 -3.0365542324898089e-05 0 -0.012513775659559728 -2.0573017510305618e-05 0 -0.012639466311067731 -0.00012251789064748601 0 -0.012513775659559728 -2.0573017510305618e-05 0 -0.012639466311067731 -0.00012251789064748601 0 -0.012379947130914851 -0.00011710109323979649 0 -0.012951384827785239 -8.8028710002922047e-05 0 -0.012835401143381463 -9.7308566873937315e-05 0 -0.013361638824931164 -7.5732816972990885e-05 0 -0.013382692763910523 9.7236738132912552e-06 0 -0.013321619519612603 5.4465326770293905e-06 0 -0.01327504765550327 -7.6039397749173355e-05 0 -0.013361638824931164 -7.5732816972990885e-05 0 -0.013321619519612603 5.4465326770293905e-06 0 -0.01327504765550327 -7.6039397749173355e-05 0 -0.013321619519612603 5.4465326770293905e-06 0 -0.013253881081016335 6.2534487365307204e-05 0 -0.01327504765550327 -7.6039397749173355e-05 0 -0.013253881081016335 6.2534487365307204e-05 0 -0.012938519874330853 -1.2247653988090155e-05 0 -0.012951384827785239 -8.8028710002922047e-05 0 -0.012922181798769106 -2.9459933642429539e-05 0 -0.013253881081016335 6.2534487365307204e-05 0 -0.012938519874330853 -1.2247653988090155e-05 0 -0.013212671124109969 5.9829176596616405e-05 0 -0.01274899331431636 -3.0365542324898089e-05 0 -0.012639466311067731 -0.00012251789064748601 0 -0.012938519874330853 -1.2247653988090155e-05 0 -0.01274899331431636 -3.0365542324898089e-05 0 -0.012938519874330853 -1.2247653988090155e-05 0 -0.012448364372690576 -3.0079527272475066e-07 0 -0.012189409362181864 4.7265400096407979e-05 0 -0.012446660161744496 5.4485246646823581e-08 0 -0.012938519874330853 -1.2247653988090155e-05 0 -0.012448364372690576 -3.0079527272475066e-07 0 -0.0131224848687611 1.2770874068707549e-07 0 -0.012938519874330853 -1.2247653988090155e-05 0 -0.0131224848687611 1.2770874068707549e-07 0 -0.013212671124109969 5.9829176596616405e-05 0 -0.0131224848687611 1.2770874068707549e-07 0 -0.013212671124109969 5.9829176596616405e-05 0 -0.013799179455522873 3.9313881873657327e-07 0 -0.013212671124109969 5.9829176596616405e-05 0 -0.013350823709207395 7.2706280411525209e-05 0 -0.013799179455522873 3.9313881873657327e-07 0 -0.013253881081016335 6.2534487365307204e-05 0 -0.013212671124109969 5.9829176596616405e-05 0 -0.013350823709207395 7.2706280411525209e-05 0 -0.013350823709207395 7.2706280411525209e-05 0 -0.013542060731870529 -1.6420503507254362e-05 0 -0.01339371753626901 -5.8421570519502892e-05 0 -0.013542060731870529 -1.6420503507254362e-05 0 -0.013799179455522873 3.9313881873657327e-07 0 -0.01373001876748035 -0.0001062049309756752 0 -0.013350823709207395 7.2706280411525209e-05 0 -0.013542060731870529 -1.6420503507254362e-05 0 -0.013799179455522873 3.9313881873657327e-07 0 -0.013799179455522873 3.9313881873657327e-07 0 -0.014473791108210388 -8.0196873645729498e-07 0 -0.01373001876748035 -0.0001062049309756752 0 -0.014476384556043706 -3.4476424378283845e-07 0 -0.014911931155104526 -0.00012053112792674919 0 -0.014925786612250948 3.1642450776110266e-05 0 -0.014474972189502599 -6.0771432755552807e-08 0 -0.014287675015955938 -7.5519851267894398e-05 0 -0.014999246820056458 2.2022346288351683e-07 0 -0.014925786612250948 3.1642450776110266e-05 0 -0.015000099182786013 -4.4809260292075467e-08 0 -0.014981322518001711 -5.3278459301993513e-05 0 -0.014911931155104526 -0.00012053112792674919 0 -0.015022567235716461 -0.00010175949980939274 0 -0.013542060731870529 -1.6420503507254362e-05 0 -0.01373001876748035 -0.0001062049309756752 0 -0.01339371753626901 -5.8421570519502892e-05 0 -0.014287675015955938 -7.5519851267894398e-05 0 -0.014369199667107924 8.2264109129520196e-06 0 -0.014884905293531652 -0.00019871041405370021 0 -0.014369199667107924 8.2264109129520196e-06 0 -0.014911931155104526 -0.00012053112792674919 0 -0.014957027043776449 -2.7557504474460514e-05 0 -0.014925786612250948 3.1642450776110266e-05 0 -0.014981322518001711 -5.3278459301993513e-05 0 -0.014911931155104526 -0.00012053112792674919 0 -0.014957027043776449 -2.7557504474460514e-05 0 -0.014957027043776449 -2.7557504474460514e-05 0 -0.014978482032859047 -1.2402960608941903e-05 0 -0.014925786612250948 3.1642450776110266e-05 0 -0.014978482032859047 -1.2402960608941903e-05 0 -0.014925786612250948 3.1642450776110266e-05 0 -0.015000099182786013 -4.4809260292075467e-08 0 -0.014981322518001711 -5.3278459301993513e-05 0 -0.014957027043776449 -2.7557504474460514e-05 0 -0.014978482032859047 -1.2402960608941903e-05 0 -0.014476384556043706 -3.4476424378283845e-07 0 -0.014999246820056458 2.2022346288351683e-07 0 -0.014925786612250948 3.1642450776110266e-05 0 -0.014999845379790835 -1.429578874493164e-05 0 -0.015000099182786013 -4.4809260292075467e-08 0 -0.014999971455727101 1.129510007226804e-09 0 -0.014999845379790835 -1.429578874493164e-05 0 -0.015000099182786013 -4.4809260292075467e-08 0 -0.01499439078594063 -2.2547219324524646e-05 0 -0.014978482032859047 -1.2402960608941903e-05 0 -0.015000099182786013 -4.4809260292075467e-08 0 -0.01499439078594063 -2.2547219324524646e-05 0 -0.014981322518001711 -5.3278459301993513e-05 0 -0.014978482032859047 -1.2402960608941903e-05 0 -0.01499439078594063 -2.2547219324524646e-05 0 -0.01499439078594063 -2.2547219324524646e-05 0 -0.014983914127487662 -3.9094280517988818e-05 0 -0.014996193666878261 -3.0797419870525639e-05 0 -0.014369199667107924 8.2264109129520196e-06 0 -0.014652964558696063 -1.3030204602374531e-05 0 -0.014981322518001711 -5.3278459301993513e-05 0 -0.01499439078594063 -2.2547219324524646e-05 0 -0.014983914127487662 -3.9094280517988818e-05 0 -0.014999845379790835 -1.429578874493164e-05 0 -0.014996193666878261 -3.0797419870525639e-05 0 -0.015007224879473487 -1.919438772119853e-05 0 -0.014999845379790835 -1.429578874493164e-05 0 -0.01499439078594063 -2.2547219324524646e-05 0 -0.014996193666878261 -3.0797419870525639e-05 0 -0.014652964558696063 -1.3030204602374531e-05 0 -0.014720403382583923 3.3168009865445603e-05 0 -0.01425123961221174 2.5115783548974313e-05 0 -0.014252574424682453 3.3926463387396482e-05 0 -0.014243854415345616 3.6149109791147455e-05 0 -0.01425123961221174 2.5115783548974313e-05 0 -0.014243854415345616 3.6149109791147455e-05 0 -0.014240209767227055 2.9382425571259315e-05 0 -0.013350823709207395 7.2706280411525209e-05 0 -0.01339371753626901 -5.8421570519502892e-05 0 -0.013305015602887348 6.6504998848895954e-05 0 -0.014369199667107924 8.2264109129520196e-06 0 -0.013709863340539049 7.3160977997601209e-05 0 -0.014264910650634904 2.0002896733367716e-05 0 -0.01425123961221174 2.5115783548974313e-05 0 -0.014252574424682453 3.3926463387396482e-05 0 -0.013321619519612603 5.4465326770293905e-06 0 -0.013253881081016335 6.2534487365307204e-05 0 -0.013305015602887348 6.6504998848895954e-05 0 -0.013253881081016335 6.2534487365307204e-05 0 -0.013350823709207395 7.2706280411525209e-05 0 -0.013305015602887348 6.6504998848895954e-05 0 -0.013382692763910523 9.7236738132912552e-06 0 -0.013321619519612603 5.4465326770293905e-06 0 -0.013305015602887348 6.6504998848895954e-05 0 -0.014241527709290535 4.5717890626049442e-05 0 -0.014252574424682453 3.3926463387396482e-05 0 -0.014243854415345616 3.6149109791147455e-05 0 -0.013819139966327805 1.5182130866335798e-05 0 -0.013709863340539049 7.3160977997601209e-05 0 -0.014241527709290535 4.5717890626049442e-05 0 -0.014243854415345616 3.6149109791147455e-05 0 -0.014234471173865781 4.3257158937720891e-05 0 -0.01487187489763785 -5.2716165522868843e-05 0 -0.014886679251904121 -1.9918196385107444e-05 0 -0.014842588855678603 -8.6719951891469477e-05 0 -0.014720403382583923 3.3168009865445603e-05 0 -0.014580144258856354 -1.8895096219625957e-05 0 -0.014243854415345616 3.6149109791147455e-05 0 -0.014240209767227055 2.9382425571259315e-05 0 -0.014234471173865781 4.3257158937720891e-05 0 -0.014846440948541159 -6.026294153632231e-05 0 -0.01487187489763785 -5.2716165522868843e-05 0 -0.014890740678571471 -4.2815745191076031e-05 0 -0.014846440948541159 -6.026294153632231e-05 0 -0.01487187489763785 -5.2716165522868843e-05 0 -0.014842588855678603 -8.6719951891469477e-05 0 -0.01487187489763785 -5.2716165522868843e-05 0 -0.014890740678571471 -4.2815745191076031e-05 0 -0.014905239388119607 -2.8028498585947929e-05 0 -0.014905239388119607 -2.8028498585947929e-05 0 -0.014927545980303601 -1.3341154940630016e-05 0 -0.014939047244455054 -1.8363503440453171e-05 0 -0.014890740678571471 -4.2815745191076031e-05 0 -0.014905239388119607 -2.8028498585947929e-05 0 -0.014939047244455054 -1.8363503440453171e-05 0 -0.01487187489763785 -5.2716165522868843e-05 0 -0.014905239388119607 -2.8028498585947929e-05 0 -0.014895037495141006 -2.9132061694942258e-05 0 -0.014905239388119607 -2.8028498585947929e-05 0 -0.014910355009341443 -1.7496108024366206e-05 0 -0.014927545980303601 -1.3341154940630016e-05 0 -0.014905239388119607 -2.8028498585947929e-05 0 -0.014895037495141006 -2.9132061694942258e-05 0 -0.014910355009341443 -1.7496108024366206e-05 0 -0.014910355009341443 -1.7496108024366206e-05 0 -0.014927545980303601 -1.3341154940630016e-05 0 -0.014933140146966149 -7.1375868440935347e-06 0 -0.014927545980303601 -1.3341154940630016e-05 0 -0.01495346123266434 -1.8291624530115669e-06 0 -0.014939047244455054 -1.8363503440453171e-05 0 -0.014996193666878261 -3.0797419870525639e-05 0 -0.015005542851266918 -3.1908181193830644e-05 0 -0.015007224879473487 -1.919438772119853e-05 0 -0.01487187489763785 -5.2716165522868843e-05 0 -0.014895037495141006 -2.9132061694942258e-05 0 -0.014891919380215045 -2.1603523841725124e-05 0 -0.014910355009341443 -1.7496108024366206e-05 0 -0.014891919380215045 -2.1603523841725124e-05 0 -0.014893694303393568 -2.0361756742666364e-05 0 -0.01487187489763785 -5.2716165522868843e-05 0 -0.014891919380215045 -2.1603523841725124e-05 0 -0.014886679251904121 -1.9918196385107444e-05 0 -0.014895037495141006 -2.9132061694942258e-05 0 -0.014910355009341443 -1.7496108024366206e-05 0 -0.014891919380215045 -2.1603523841725124e-05 0 -0.014749003338795339 2.3974372673212746e-05 0 -0.014720403382583923 3.3168009865445603e-05 0 -0.014910355009341443 -1.7496108024366206e-05 0 -0.014893694303393568 -2.0361756742666364e-05 0 -0.014933140146966149 -7.1375868440935347e-06 0 -0.014720403382583923 3.3168009865445603e-05 0 -0.014992177862806129 -2.8784355137561727e-05 0 -0.014893694303393568 -2.0361756742666364e-05 0 -0.014953210101560341 -3.0565600719270843e-07 0 -0.014933140146966149 -7.1375868440935347e-06 0 -0.014927545980303601 -1.3341154940630016e-05 0 -0.014933140146966149 -7.1375868440935347e-06 0 -0.01495346123266434 -1.8291624530115669e-06 0 -0.014933140146966149 -7.1375868440935347e-06 0 -0.01495346123266434 -1.8291624530115669e-06 0 -0.014967794056731513 1.8792007308332986e-06 0 -0.014953210101560341 -3.0565600719270843e-07 0 -0.014933140146966149 -7.1375868440935347e-06 0 -0.014967794056731513 1.8792007308332986e-06 0 -0.014967794056731513 1.8792007308332986e-06 0 -0.014999956470673335 8.5998910524254674e-09 0 -0.014999945406657571 -2.7093764112257975e-11 0 -0.014992177862806129 -2.8784355137561727e-05 0 -0.014999987272613979 6.3847644375435822e-09 0 -0.014953210101560341 -3.0565600719270843e-07 0 -0.014967794056731513 1.8792007308332986e-06 0 -0.014999945406657571 -2.7093764112257975e-11 0 -0.014999845379790835 -1.429578874493164e-05 0 -0.015007224879473487 -1.919438772119853e-05 0 -0.014999971455727101 1.129510007226804e-09 0 -0.014999996092858302 1.0920260833257412e-08 0 -0.014986249344901838 6.3669799210886781e-06 0 -0.014991641133577772 1.035548820309466e-05 0 -0.014967794056731513 1.8792007308332986e-06 0 -0.014999956470673335 8.5998910524254674e-09 0 -0.014986249344901838 6.3669799210886781e-06 0 -0.014999956470673335 8.5998910524254674e-09 0 -0.014999996092858302 1.0920260833257412e-08 0 -0.014986249344901838 6.3669799210886781e-06 0 -0.01495346123266434 -1.8291624530115669e-06 0 -0.014986249344901838 6.3669799210886781e-06 0 -0.014991641133577772 1.035548820309466e-05 0 -0.01495346123266434 -1.8291624530115669e-06 0 -0.014967794056731513 1.8792007308332986e-06 0 -0.014986249344901838 6.3669799210886781e-06 0 -0.014999996092858302 1.0920260833257412e-08 0 -0.014991641133577772 1.035548820309466e-05 0 -0.014987392562219108 1.4851390745135364e-05 0 -0.014991641133577772 1.035548820309466e-05 0 -0.014973289814305454 -3.157599840880206e-05 0 -0.015015754323818362 -4.6217243394831323e-05 0 -0.015090369015868896 -3.0491221099450467e-06 0 -0.014671597096372318 -1.9369847044798167e-05 0 -0.014991641133577772 1.035548820309466e-05 0 -0.014973289814305454 -3.157599840880206e-05 0 -0.014939047244455054 -1.8363503440453171e-05 0 -0.01495346123266434 -1.8291624530115669e-06 0 -0.014991641133577772 1.035548820309466e-05 0 -0.014939047244455054 -1.8363503440453171e-05 0 -0.014973289814305454 -3.157599840880206e-05 0 -0.014939047244455054 -1.8363503440453171e-05 0 -0.014945838389421611 -7.6348987016997927e-05 0 -0.014846440948541159 -6.026294153632231e-05 0 -0.014890740678571471 -4.2815745191076031e-05 0 -0.014945838389421611 -7.6348987016997927e-05 0 -0.014890740678571471 -4.2815745191076031e-05 0 -0.014939047244455054 -1.8363503440453171e-05 0 -0.014945838389421611 -7.6348987016997927e-05 0 -0.014973289814305454 -3.157599840880206e-05 0 -0.014945838389421611 -7.6348987016997927e-05 0 -0.015015754323818362 -4.6217243394831323e-05 0 -0.014629516583683238 -0.00012839739721724007 0 -0.014671597096372318 -1.9369847044798167e-05 0 -0.014356169536870337 -0.00015248918051155726 0 -0.014158471687306244 -3.9828888094520476e-05 0 -0.014111033237456992 -0.00021136595110586375 0 -0.014356169536870337 -0.00015248918051155726 0 -0.014268169456645835 8.4504020980486367e-05 0 -0.014158471687306244 -3.9828888094520476e-05 0 -0.014268169456645835 8.4504020980486367e-05 0 -0.014151443008165288 0.00011201976760867954 0 -0.014158471687306244 -3.9828888094520476e-05 0 -0.014268169456645835 8.4504020980486367e-05 0 -0.014159406655634301 0.00020243991560262641 0 -0.014304840193707456 0.0002568028131994592 0 -0.014268169456645835 8.4504020980486367e-05 0 -0.014159406655634301 0.00020243991560262641 0 -0.014151443008165288 0.00011201976760867954 0 -0.014268169456645835 8.4504020980486367e-05 0 -0.014497718803875837 9.2658338442087363e-05 0 -0.014304840193707456 0.0002568028131994592 0 -0.014497718803875837 9.2658338442087363e-05 0 -0.014749613647457019 0.00021640072290480004 0 -0.014304840193707456 0.0002568028131994592 0 -0.014629516583683238 -0.00012839739721724007 0 -0.014790283798239759 -4.4733196800863448e-05 0 -0.014356169536870337 -0.00015248918051155726 0 -0.014497718803875837 9.2658338442087363e-05 0 -0.014776505896136233 -5.0223937897743028e-05 0 -0.014356169536870337 -0.00015248918051155726 0 -0.014268169456645835 8.4504020980486367e-05 0 -0.014497718803875837 9.2658338442087363e-05 0 -0.014846440948541159 -6.026294153632231e-05 0 -0.014945838389421611 -7.6348987016997927e-05 0 -0.014776505896136233 -5.0223937897743028e-05 0 -0.014846440948541159 -6.026294153632231e-05 0 -0.014776505896136233 -5.0223937897743028e-05 0 -0.014842588855678603 -8.6719951891469477e-05 0 -0.014241527709290535 4.5717890626049442e-05 0 -0.014234471173865781 4.3257158937720891e-05 0 -0.014227918670916264 5.8542563469903003e-05 0 -0.013819139966327805 1.5182130866335798e-05 0 -0.013873154551760471 2.1519374455849857e-05 0 -0.014776505896136233 -5.0223937897743028e-05 0 -0.014842588855678603 -8.6719951891469477e-05 0 -0.014826396854693235 9.6769039746106073e-05 0 -0.014580144258856354 -1.8895096219625957e-05 0 -0.013873154551760471 2.1519374455849857e-05 0 -0.013361638824931164 -7.5732816972990885e-05 0 -0.013448211066591586 -7.6074620915416621e-05 0 -0.013449475760093725 -9.8152069382784503e-05 0 -0.012835401143381463 -9.7308566873937315e-05 0 -0.013075433999802143 9.1831813006167443e-05 0 -0.012323989922493667 1.7422234293481111e-05 0 -0.012379947130914851 -0.00011710109323979649 0 -0.012232851711635776 -5.5060780681797573e-05 0 -0.013361638824931164 -7.5732816972990885e-05 0 -0.013382692763910523 9.7236738132912552e-06 0 -0.013448211066591586 -7.6074620915416621e-05 0 -0.013873154551760471 2.1519374455849857e-05 0 -0.013075433999802143 9.1831813006167443e-05 0 -0.013736679984422469 0.00010092653930749443 0 -0.013720916748199115 0.00026561989895595805 0 -0.013583601653451004 0.00030444826998480201 0 -0.014497718803875837 9.2658338442087363e-05 0 -0.014680982104817069 8.1990501826755517e-05 0 -0.014749613647457019 0.00021640072290480004 0 -0.014497718803875837 9.2658338442087363e-05 0 -0.014776505896136233 -5.0223937897743028e-05 0 -0.014680982104817069 8.1990501826755517e-05 0 -0.014776505896136233 -5.0223937897743028e-05 0 -0.014826396854693235 9.6769039746106073e-05 0 -0.014680982104817069 8.1990501826755517e-05 0 -0.014826396854693235 9.6769039746106073e-05 0 -0.014680982104817069 8.1990501826755517e-05 0 -0.014749613647457019 0.00021640072290480004 0 -0.013873154551760471 2.1519374455849857e-05 0 -0.013776398067582855 0.00018409268669730068 0 -0.013075433999802143 9.1831813006167443e-05 0 -0.013776398067582855 0.00018409268669730068 0 -0.014267151349447352 0.00027689320037205207 0 -0.01428712320356228 0.00026133700344159927 0 -0.014304840193707456 0.0002568028131994592 0 -0.013776398067582855 0.00018409268669730068 0 -0.013235213746917484 0.00021512882681113006 0 -0.012242636351954165 0.00012790984536147383 0 -0.012255438173642417 0.00012425229425093876 0 -0.012234430804041949 7.0385581156168651e-05 0 -0.012255438173642417 0.00012425229425093876 0 -0.012234430804041949 7.0385581156168651e-05 0 -0.012289873658668128 8.6615239124414534e-05 0 -0.013776398067582855 0.00018409268669730068 0 -0.014615129822443076 0.00023781212671286327 0 -0.013075433999802143 9.1831813006167443e-05 0 -0.01222657716479786 7.1603776770874265e-05 0 -0.012323989922493667 1.7422234293481111e-05 0 -0.012232851711635776 -5.5060780681797573e-05 0 -0.012234430804041949 7.0385581156168651e-05 0 -0.012323989922493667 1.7422234293481111e-05 0 -0.012234430804041949 7.0385581156168651e-05 0 -0.012222565250904482 8.7952856345741511e-05 0 -0.012222565250904482 8.7952856345741511e-05 0 -0.012263017872977474 6.4417856415204517e-05 0 -0.01225429039018556 4.2006480982417724e-05 0 -0.012234430804041949 7.0385581156168651e-05 0 -0.012222565250904482 8.7952856345741511e-05 0 -0.012263017872977474 6.4417856415204517e-05 0 -0.012234430804041949 7.0385581156168651e-05 0 -0.012289873658668128 8.6615239124414534e-05 0 -0.012263017872977474 6.4417856415204517e-05 0 -0.01428712320356228 0.00026133700344159927 0 -0.014258417597198685 0.00027417841757993783 0 -0.014236931466342247 0.00032664418788990189 0 -0.012289873658668128 8.6615239124414534e-05 0 -0.012263017872977474 6.4417856415204517e-05 0 -0.012351419314439581 5.4702694847222172e-05 0 -0.013235213746917484 0.00021512882681113006 0 -0.013303636102998336 0.00017285081081584264 0 -0.012263017872977474 6.4417856415204517e-05 0 -0.012351419314439581 5.4702694847222172e-05 0 -0.01230064926253093 3.8224607601474727e-05 0 -0.014236931466342247 0.00032664418788990189 0 -0.014081330754518525 0.00030154157273603363 0 -0.014177002344596241 0.00026727362830254649 0 -0.014258417597198685 0.00027417841757993783 0 -0.014236931466342247 0.00032664418788990189 0 -0.014177002344596241 0.00026727362830254649 0 -0.014177002344596241 0.00026727362830254649 0 -0.014159406655634301 0.00020243991560262641 0 -0.014061532215568986 0.0002599934139685744 0 -0.014258417597198685 0.00027417841757993783 0 -0.014177002344596241 0.00026727362830254649 0 -0.014304840193707456 0.0002568028131994592 0 -0.014177002344596241 0.00026727362830254649 0 -0.014159406655634301 0.00020243991560262641 0 -0.014304840193707456 0.0002568028131994592 0 -0.01428712320356228 0.00026133700344159927 0 -0.014258417597198685 0.00027417841757993783 0 -0.014304840193707456 0.0002568028131994592 0 -0.014041858534433937 0.00024660224244429794 0 -0.014010511802332055 0.00024762420848306967 0 -0.014059146613617259 0.00019536701900139635 0 -0.014041858534433937 0.00024660224244429794 0 -0.014039969163735774 0.00027566695228673426 0 -0.014010511802332055 0.00024762420848306967 0 -0.014041858534433937 0.00024660224244429794 0 -0.014061532215568986 0.0002599934139685744 0 -0.014039969163735774 0.00027566695228673426 0 -0.014159406655634301 0.00020243991560262641 0 -0.014061532215568986 0.0002599934139685744 0 -0.014059146613617259 0.00019536701900139635 0 -0.014041858534433937 0.00024660224244429794 0 -0.014061532215568986 0.0002599934139685744 0 -0.014059146613617259 0.00019536701900139635 0 -0.014081330754518525 0.00030154157273603363 0 -0.014177002344596241 0.00026727362830254649 0 -0.014061532215568986 0.0002599934139685744 0 -0.014081330754518525 0.00030154157273603363 0 -0.014061532215568986 0.0002599934139685744 0 -0.013995178784352226 0.00029012825806535751 0 -0.014061532215568986 0.0002599934139685744 0 -0.013995178784352226 0.00029012825806535751 0 -0.014039969163735774 0.00027566695228673426 0 -0.013995178784352226 0.00029012825806535751 0 -0.014039969163735774 0.00027566695228673426 0 -0.014055300236766235 0.00025729472045196234 0 -0.014039969163735774 0.00027566695228673426 0 -0.014213188330381651 0.00026825963417624062 0 -0.014055300236766235 0.00025729472045196234 0 -0.013342745757510471 -0.00034055168738156467 0 -0.012366018009936053 -0.00018026388131377327 0 -0.014213188330381651 0.00026825963417624062 0 -0.014176194719764805 0.00020059865479214758 0 -0.014212426469425181 0.00025705113457430602 0 -0.014479033955842871 8.4674466183560324e-05 0 -0.014435838710839616 9.4264049264716835e-05 0 -0.014572084159099642 4.5759410730425074e-05 0 -0.014213188330381651 0.00026825963417624062 0 -0.014176194719764805 0.00020059865479214758 0 -0.014435838710839616 9.4264049264716835e-05 0 -0.013342745757510471 -0.00034055168738156467 0 -0.014607325875461688 -2.8091749679097547e-05 0 -0.014213188330381651 0.00026825963417624062 0 -0.014593398807461773 6.1233358289692987e-05 0 -0.014435838710839616 9.4264049264716835e-05 0 -0.014232444944730882 0.00024409424070340842 0 -0.014307156204168708 0.00013880209368188852 0 -0.014039969163735774 0.00027566695228673426 0 -0.014213188330381651 0.00026825963417624062 0 -0.014010511802332055 0.00024762420848306967 0 -0.014593398807461773 6.1233358289692987e-05 0 -0.014435838710839616 9.4264049264716835e-05 0 -0.014572084159099642 4.5759410730425074e-05 0 -0.014593398807461773 6.1233358289692987e-05 0 -0.014572084159099642 4.5759410730425074e-05 0 -0.014657563287030139 1.9934884194319913e-05 0 -0.014479033955842871 8.4674466183560324e-05 0 -0.014572084159099642 4.5759410730425074e-05 0 -0.014603167701860624 3.6559830365130198e-05 0 -0.013342745757510471 -0.00034055168738156467 0 -0.01491192536937312 8.7808798844654662e-05 0 -0.014572084159099642 4.5759410730425074e-05 0 -0.014603167701860624 3.6559830365130198e-05 0 -0.014681416257952608 1.9680481921137265e-05 0 -0.014603167701860624 3.6559830365130198e-05 0 -0.014681416257952608 1.9680481921137265e-05 0 -0.014756800894151469 3.2136279284048313e-05 0 -0.014572084159099642 4.5759410730425074e-05 0 -0.014657563287030139 1.9934884194319913e-05 0 -0.014681416257952608 1.9680481921137265e-05 0 -0.014010511802332055 0.00024762420848306967 0 -0.014012183150921087 2.304206916152327e-05 0 -0.014059146613617259 0.00019536701900139635 0 -0.014307156204168708 0.00013880209368188852 0 -0.014304736266524083 2.0966290865367259e-05 0 -0.014159406655634301 0.00020243991560262641 0 -0.014059146613617259 0.00019536701900139635 0 -0.014151443008165288 0.00011201976760867954 0 -0.014012183150921087 2.304206916152327e-05 0 -0.014059146613617259 0.00019536701900139635 0 -0.014151443008165288 0.00011201976760867954 0 -0.014012183150921087 2.304206916152327e-05 0 -0.014151443008165288 0.00011201976760867954 0 -0.014158471687306244 -3.9828888094520476e-05 0 -0.014012183150921087 2.304206916152327e-05 0 -0.014158471687306244 -3.9828888094520476e-05 0 -0.014111033237456992 -0.00021136595110586375 0 -0.014304736266524083 2.0966290865367259e-05 0 -0.014671597096372318 -1.9369847044798167e-05 0 -0.014657563287030139 1.9934884194319913e-05 0 -0.014659195497680235 3.6933521273070214e-05 0 -0.014689940361324743 4.296713406926983e-05 0 -0.014657563287030139 1.9934884194319913e-05 0 -0.014689940361324743 4.296713406926983e-05 0 -0.014681416257952608 1.9680481921137265e-05 0 -0.014671597096372318 -1.9369847044798167e-05 0 -0.014855226594660197 6.3249712782332388e-05 0 -0.014988237097047028 5.6699120189978244e-05 0 -0.014958752770514394 6.0270675351973852e-05 0 -0.014987392562219108 1.4851390745135364e-05 0 -0.014991641133577772 1.035548820309466e-05 0 -0.014988237097047028 5.6699120189978244e-05 0 -0.014987392562219108 1.4851390745135364e-05 0 -0.014958752770514394 6.0270675351973852e-05 0 -0.014987392562219108 1.4851390745135364e-05 0 -0.014952422226870233 8.9082036257663984e-06 0 -0.014987392562219108 1.4851390745135364e-05 0 -0.014999976439249668 -6.5581257658393021e-09 0 -0.014952422226870233 8.9082036257663984e-06 0 -0.014999996092858302 1.0920260833257412e-08 0 -0.014987392562219108 1.4851390745135364e-05 0 -0.014999976439249668 -6.5581257658393021e-09 0 -0.014999901887717224 -3.9464306643544157e-10 0 -0.014928880240071586 1.6055631856384517e-05 0 -0.014999878080147071 1.5644590682136332e-08 0 -0.014999901887717224 -3.9464306643544157e-10 0 -0.014952422226870233 8.9082036257663984e-06 0 -0.014928880240071586 1.6055631856384517e-05 0 -0.014999976439249668 -6.5581257658393021e-09 0 -0.014999901887717224 -3.9464306643544157e-10 0 -0.014952422226870233 8.9082036257663984e-06 0 -0.014952422226870233 8.9082036257663984e-06 0 -0.014928880240071586 1.6055631856384517e-05 0 -0.014842664991759371 5.0094838522978759e-05 0 -0.014928880240071586 1.6055631856384517e-05 0 -0.014842664991759371 5.0094838522978759e-05 0 -0.014881518231370737 3.3376838534793997e-05 0 -0.014842664991759371 5.0094838522978759e-05 0 -0.014756800894151469 3.2136279284048313e-05 0 -0.014881518231370737 3.3376838534793997e-05 0 -0.014689940361324743 4.296713406926983e-05 0 -0.014842664991759371 5.0094838522978759e-05 0 -0.014681416257952608 1.9680481921137265e-05 0 -0.014855226594660197 6.3249712782332388e-05 0 -0.014822220730960076 4.3671374365361305e-05 0 -0.014958752770514394 6.0270675351973852e-05 0 -0.014952422226870233 8.9082036257663984e-06 0 -0.014842664991759371 5.0094838522978759e-05 0 -0.014842664991759371 5.0094838522978759e-05 0 -0.014681416257952608 1.9680481921137265e-05 0 -0.014756800894151469 3.2136279284048313e-05 0 -0.014895675992767043 -3.2912591064614109e-05 0 -0.014912305827803953 -3.8029213934631333e-05 0 -0.014882556259998724 -5.9610621411352876e-05 0 -0.014895675992767043 -3.2912591064614109e-05 0 -0.014912305827803953 -3.8029213934631333e-05 0 -0.014942502018484084 -1.9331964716119525e-05 0 -0.014912305827803953 -3.8029213934631333e-05 0 -0.014942502018484084 -1.9331964716119525e-05 0 -0.014929974995632049 -3.2832921495118635e-05 0 -0.014912305827803953 -3.8029213934631333e-05 0 -0.014929974995632049 -3.2832921495118635e-05 0 -0.01490528080096894 -4.7442225396607693e-05 0 -0.014895675992767043 -3.2912591064614109e-05 0 -0.014942502018484084 -1.9331964716119525e-05 0 -0.014942750445032927 -8.5973377072402807e-06 0 -0.014803309010807904 -2.0519171010001706e-05 0 -0.014916132719385158 2.1084628688652153e-05 0 -0.014942502018484084 -1.9331964716119525e-05 0 -0.014942750445032927 -8.5973377072402807e-06 0 -0.014971972274383355 -4.4238721540846013e-06 0 -0.014971972274383355 -4.4238721540846013e-06 0 -0.014999923670975987 5.7754872197445483e-09 0 -0.014999965412351756 -6.0369064468204142e-09 0 -0.014942750445032927 -8.5973377072402807e-06 0 -0.014971972274383355 -4.4238721540846013e-06 0 -0.014999923670975987 5.7754872197445483e-09 0 -0.014928880240071586 1.6055631856384517e-05 0 -0.014881518231370737 3.3376838534793997e-05 0 -0.014999878080147071 1.5644590682136332e-08 0 -0.014916132719385158 2.1084628688652153e-05 0 -0.014999965658297289 6.764183923226895e-09 0 -0.014999981196362771 6.5848048510549801e-09 0 -0.014999965412351756 -6.0369064468204142e-09 0 -0.014973824518547209 -7.622714477749286e-06 0 -0.014971972274383355 -4.4238721540846013e-06 0 -0.014999965412351756 -6.0369064468204142e-09 0 -0.014973824518547209 -7.622714477749286e-06 0 -0.014942502018484084 -1.9331964716119525e-05 0 -0.014971972274383355 -4.4238721540846013e-06 0 -0.014973824518547209 -7.622714477749286e-06 0 -0.014973301438079277 -1.1897162193906566e-05 0 -0.014999981196362771 6.5848048510549801e-09 0 -0.014973824518547209 -7.622714477749286e-06 0 -0.014973301438079277 -1.1897162193906566e-05 0 -0.014973824518547209 -7.622714477749286e-06 0 -0.014951827481377286 -2.297220242285681e-05 0 -0.014942502018484084 -1.9331964716119525e-05 0 -0.014973824518547209 -7.622714477749286e-06 0 -0.014951827481377286 -2.297220242285681e-05 0 -0.014942502018484084 -1.9331964716119525e-05 0 -0.014951827481377286 -2.297220242285681e-05 0 -0.014929974995632049 -3.2832921495118635e-05 0 -0.014951827481377286 -2.297220242285681e-05 0 -0.014929974995632049 -3.2832921495118635e-05 0 -0.014934451521897917 -4.1848244162177005e-05 0 -0.014957650393690427 -2.6089783118916733e-05 0 -0.014951827481377286 -2.297220242285681e-05 0 -0.014934451521897917 -4.1848244162177005e-05 0 -0.014929205904879258 -5.9645979756706167e-05 0 -0.014909782244141601 -6.133897315498402e-05 0 -0.014917175599445984 -8.0169851511633798e-05 0 -0.014929205904879258 -5.9645979756706167e-05 0 -0.014934451521897917 -4.1848244162177005e-05 0 -0.014909782244141601 -6.133897315498402e-05 0 -0.014909782244141601 -6.133897315498402e-05 0 -0.014866218357561882 -6.1992921083396158e-05 0 -0.014884111188683425 -8.698340446745175e-05 0 -0.014909782244141601 -6.133897315498402e-05 0 -0.01490528080096894 -4.7442225396607693e-05 0 -0.014866218357561882 -6.1992921083396158e-05 0 -0.014929974995632049 -3.2832921495118635e-05 0 -0.014934451521897917 -4.1848244162177005e-05 0 -0.01490528080096894 -4.7442225396607693e-05 0 -0.014934451521897917 -4.1848244162177005e-05 0 -0.014909782244141601 -6.133897315498402e-05 0 -0.01490528080096894 -4.7442225396607693e-05 0 -0.01490528080096894 -4.7442225396607693e-05 0 -0.014882556259998724 -5.9610621411352876e-05 0 -0.014866218357561882 -6.1992921083396158e-05 0 -0.014912305827803953 -3.8029213934631333e-05 0 -0.01490528080096894 -4.7442225396607693e-05 0 -0.014882556259998724 -5.9610621411352876e-05 0 -0.014864246332109001 -7.7873743934459111e-05 0 -0.014895675992767043 -3.2912591064614109e-05 0 -0.014882556259998724 -5.9610621411352876e-05 0 -0.01491192536937312 8.7808798844654662e-05 0 -0.014803309010807904 -2.0519171010001706e-05 0 -0.014849584294767088 -7.5989030658041637e-05 0 -0.014866218357561882 -6.1992921083396158e-05 0 -0.014792489435610784 -5.7146025789609873e-05 0 -0.014937168895930155 -4.8125193418086347e-05 0 -0.014864246332109001 -7.7873743934459111e-05 0 -0.014849584294767088 -7.5989030658041637e-05 0 -0.014864246332109001 -7.7873743934459111e-05 0 -0.014882556259998724 -5.9610621411352876e-05 0 -0.014849584294767088 -7.5989030658041637e-05 0 -0.014882556259998724 -5.9610621411352876e-05 0 -0.014849584294767088 -7.5989030658041637e-05 0 -0.014866218357561882 -6.1992921083396158e-05 0 -0.014792489435610784 -5.7146025789609873e-05 0 -0.01465857362472702 0.00018214301279411744 0 -0.014166816031514866 -0.00016633770998339468 0 -0.014772244922115482 -7.5054307799943401e-05 0 -0.014511383431312162 -0.00011755165880125537 0 -0.014866218357561882 -6.1992921083396158e-05 0 -0.014792489435610784 -5.7146025789609873e-05 0 -0.014884111188683425 -8.698340446745175e-05 0 -0.014937168895930155 -4.8125193418086347e-05 0 -0.014792489435610784 -5.7146025789609873e-05 0 -0.01465857362472702 0.00018214301279411744 0 -0.014937168895930155 -4.8125193418086347e-05 0 -0.014849584294767088 -7.5989030658041637e-05 0 -0.014792489435610784 -5.7146025789609873e-05 0 -0.010662517117692116 -0.0011304334938819001 0 -0.010069849156945119 -0.00089647917157831963 0 -0.010714036082467614 -0.00052965995809900175 0 -0.013342745757510471 -0.00034055168738156467 0 -0.012246903765769018 -0.00036920476934789907 0 -0.012246903765769018 -0.00036920476934789907 0 -0.011740604750299739 -3.7682082169415616e-05 0 -0.013894311048708086 0.00052113453262248196 0 -0.013429571195463013 -0.00017868044454892232 0 -0.014166816031514866 -0.00016633770998339468 0 -0.01465857362472702 0.00018214301279411744 0 -0.013894311048708086 0.00052113453262248196 0 -0.014166816031514866 -0.00016633770998339468 0 -0.013894311048708086 0.00052113453262248196 0 -0.013336935456068517 0.00037466272368579477 0 -0.013429571195463013 -0.00017868044454892232 0 -0.012917471429242877 0.00032562899572063247 0 -0.013336935456068517 0.00037466272368579477 0 -0.013429571195463013 -0.00017868044454892232 0 -0.014909782244141601 -6.133897315498402e-05 0 -0.014917175599445984 -8.0169851511633798e-05 0 -0.014884111188683425 -8.698340446745175e-05 0 -0.014229613678278862 -0.00012763211714041686 0 -0.014511383431312162 -0.00011755165880125537 0 -0.009537928795760783 -0.00017094377766283908 0 -0.0099261756241421171 2.1738419939655489e-05 0 -0.0096506235485281124 0.00035547915708648397 0 -0.009537928795760783 -0.00017094377766283908 0 -0.0090850400641872241 4.8723558205392832e-05 0 -0.0096506235485281124 0.00035547915708648397 0 -0.010798815362623611 -0.00013159034768136149 0 -0.008895706965253625 -5.3893891291324952e-05 0 -0.0089173203656949668 -0.00041805388647162461 0 -0.009537928795760783 -0.00017094377766283908 0 -0.0090850400641872241 4.8723558205392832e-05 0 -0.0089173203656949668 -0.00041805388647162461 0 -0.009484440712714013 -0.00065680658953365715 0 -0.009537928795760783 -0.00017094377766283908 0 -0.010798815362623611 -0.00013159034768136149 0 -0.011740604750299739 -3.7682082169415616e-05 0 -0.013109749076783091 0.00083269652203990996 0 -0.013894311048708086 0.00052113453262248196 0 -0.013336935456068517 0.00037466272368579477 0 -0.009484440712714013 -0.00065680658953365715 0 -0.009537928795760783 -0.00017094377766283908 0 -0.010184201498689947 -0.00037503125226583312 0 -0.010069849156945119 -0.00089647917157831963 0 -0.009484440712714013 -0.00065680658953365715 0 -0.010184201498689947 -0.00037503125226583312 0 -0.010069849156945119 -0.00089647917157831963 0 -0.010184201498689947 -0.00037503125226583312 0 -0.010714036082467614 -0.00052965995809900175 0 -0.010184201498689947 -0.00037503125226583312 0 -0.010317834774218992 0.00035178324374657619 0 -0.010765273111476403 6.3687255584968583e-05 0 -0.010184201498689947 -0.00037503125226583312 0 -0.0099261756241421171 2.1738419939655489e-05 0 -0.010317834774218992 0.00035178324374657619 0 -0.009537928795760783 -0.00017094377766283908 0 -0.010184201498689947 -0.00037503125226583312 0 -0.0099261756241421171 2.1738419939655489e-05 0 -0.0099261756241421171 2.1738419939655489e-05 0 -0.010317834774218992 0.00035178324374657619 0 -0.0096506235485281124 0.00035547915708648397 0 -0.010317834774218992 0.00035178324374657619 0 -0.0099251163219580031 0.00083370620716534307 0 -0.010431769738049629 0.00087472363604769324 0 -0.010317834774218992 0.00035178324374657619 0 -0.0099251163219580031 0.00083370620716534307 0 -0.0096506235485281124 0.00035547915708648397 0 -0.0099251163219580031 0.00083370620716534307 0 -0.009472688825791116 0.00078978723009338024 0 -0.0096506235485281124 0.00035547915708648397 0 -0.009472688825791116 0.00078978723009338024 0 -0.0096506235485281124 0.00035547915708648397 0 -0.009236323669515668 0.00052921488900350272 0 -0.0090850400641872241 4.8723558205392832e-05 0 -0.0096506235485281124 0.00035547915708648397 0 -0.009236323669515668 0.00052921488900350272 0 -0.0088636290960741968 0.00049527733363013754 0 -0.0090313639969872711 0.00010539552748054969 0 -0.009236323669515668 0.00052921488900350272 0 -0.008895706965253625 -5.3893891291324952e-05 0 -0.0092634909082022175 0.00055892869495017357 0 -0.0088636290960741968 0.00049527733363013754 0 -0.009236323669515668 0.00052921488900350272 0 -0.0090265124332070228 0.00091474021449590307 0 -0.009472688825791116 0.00078978723009338024 0 -0.009236323669515668 0.00052921488900350272 0 -0.0090265124332070228 0.00091474021449590307 0 -0.0090265124332070228 0.00091474021449590307 0 -0.009532537599797929 0.0013119912728614795 0 -0.0088993331766931746 0.0013275162542765275 0 -0.0099251163219580031 0.00083370620716534307 0 -0.009472688825791116 0.00078978723009338024 0 -0.009532537599797929 0.0013119912728614795 0 -0.009472688825791116 0.00078978723009338024 0 -0.0090265124332070228 0.00091474021449590307 0 -0.009532537599797929 0.0013119912728614795 0 -0.0018892938973930991 0.0017589757846808004 0 -0.0021102533998457683 0.0013506830249423593 0 -0.0015523617589349992 0.0014043283607828086 0 -0.0018892938973930991 0.0017589757846808004 0 -0.0024230699004705748 0.0017568455677246476 0 -0.0021102533998457683 0.0013506830249423593 0 -0.0060134978316052313 0.00068395409974542879 0 -0.0057913952820533125 0.0016122694691080759 0 -0.0026696445138207287 0.0013187172780176602 0 -0.0024230699004705748 0.0017568455677246476 0 -0.0021102533998457683 0.0013506830249423593 0 -0.0026696445138207287 0.0013187172780176602 0 -0.0021102533998457683 0.0013506830249423593 0 -0.0023231510196467966 0.00092781562777268835 0 -0.0021102533998457683 0.0013506830249423593 0 -0.0018564030297015073 0.00095525358044581835 0 -0.0015523617589349992 0.0014043283607828086 0 -0.0021102533998457683 0.0013506830249423593 0 -0.0018564030297015073 0.00095525358044581835 0 -0.0023231510196467966 0.00092781562777268835 0 -0.0012481553679394629 0.0010623256371774515 0 -0.0015523617589349992 0.0014043283607828086 0 -0.0014947786890126139 0.00084613166915028528 0 -0.0018564030297015073 0.00095525358044581835 0 -0.0015523617589349992 0.0014043283607828086 0 -0.0014947786890126139 0.00084613166915028528 0 -0.0061085499795534544 0.00011339075969184013 0 -0.0061675570006076369 0.00018306620256063703 0 -0.0060983023651123855 0.00018184788446522915 0 -0.0037603919264943041 0.00064148850706633711 0 -0.0035925600023944833 0.00071386777470295345 0 -0.0061675570006076369 0.00018306620256063703 0 -0.0061479577919575663 0.00023902403924010407 0 -0.0060983023651123855 0.00018184788446522915 0 -0.0060134978316052313 0.00068395409974542879 0 -0.0035925600023944833 0.00071386777470295345 0 -0.0062166693958956845 0.00024078178701138949 0 -0.0061675570006076369 0.00018306620256063703 0 -0.0061479577919575663 0.00023902403924010407 0 -0.0060134978316052313 0.00068395409974542879 0 -0.0083633070768130025 0.00083142027789880556 0 -0.0099251163219580031 0.00083370620716534307 0 -0.009532537599797929 0.0013119912728614795 0 -0.010214547670585146 0.001284725604489323 0 -0.0099251163219580031 0.00083370620716534307 0 -0.010214547670585146 0.001284725604489323 0 -0.010431769738049629 0.00087472363604769324 0 -0.010214547670585146 0.001284725604489323 0 -0.010431769738049629 0.00087472363604769324 0 -0.010875623433984526 0.0012478355530947405 0 -0.010431769738049629 0.00087472363604769324 0 -0.010875623433984526 0.0012478355530947405 0 -0.010818709990391013 0.00065522473239699455 0 -0.0094707145308305582 0.000243388582569771 0 -0.012825201383327463 0.00017722201358432867 0 -0.014120542811226355 -0.00084934879628340812 0 -0.013721957209673749 -0.00041960767382265247 0 -0.014197273469409221 -0.00036074124448712459 0 -0.0094707145308305582 0.000243388582569771 0 -0.0063178007627067278 -3.5251213285417429e-05 0 -0.0071753900246618024 -0.0001232601767676972 0 -0.0071564601933836441 -4.9543867867648579e-05 0 -0.0072097651466677725 -8.283035372612179e-05 0 -0.0061479577919575663 0.00023902403924010407 0 -0.0060728304984637082 0.00024287327241913578 0 -0.0060983023651123855 0.00018184788446522915 0 -0.0060728304984637082 0.00024287327241913578 0 -0.0060983023651123855 0.00018184788446522915 0 -0.00602649991774914 0.00016224697723535064 0 -0.0083633070768130025 0.00083142027789880556 0 -0.0094707145308305582 0.000243388582569771 0 -0.0060983023651123855 0.00018184788446522915 0 -0.00602649991774914 0.00016224697723535064 0 -0.0060468046358469751 0.00010838857689911521 0 -0.0061085499795534544 0.00011339075969184013 0 -0.0060983023651123855 0.00018184788446522915 0 -0.0060468046358469751 0.00010838857689911521 0 -0.00602649991774914 0.00016224697723535064 0 -0.0060468046358469751 0.00010838857689911521 0 -0.0059793234306612809 6.1623474666476971e-05 0 -0.0063178007627067278 -3.5251213285417429e-05 0 -0.0067123736299915917 9.1912418057640775e-05 0 -0.0071564601933836441 -4.9543867867648579e-05 0 -0.0072274018138646671 -2.267251473723405e-05 0 -0.0071377201286742277 2.2893634571407498e-05 0 -0.0060468046358469751 0.00010838857689911521 0 -0.0060347575923195926 2.9884179004806631e-05 0 -0.0059793234306612809 6.1623474666476971e-05 0 -0.0061085499795534544 0.00011339075969184013 0 -0.0060468046358469751 0.00010838857689911521 0 -0.0060347575923195926 2.9884179004806631e-05 0 -0.0037603919264943041 0.00064148850706633711 0 -0.003262715912017346 0.0003004814122386221 0 -0.0072274018138646671 -2.267251473723405e-05 0 -0.00727121134722298 -0.00013880098779291586 0 -0.0073348845413058524 -4.9358629296687592e-05 0 -0.0072274018138646671 -2.267251473723405e-05 0 -0.0072602120594354325 4.1157556660251076e-05 0 -0.0071972954542162976 4.7784308887507459e-05 0 -0.0072274018138646671 -2.267251473723405e-05 0 -0.0071972954542162976 4.7784308887507459e-05 0 -0.0071377201286742277 2.2893634571407498e-05 0 -0.0071564601933836441 -4.9543867867648579e-05 0 -0.0072274018138646671 -2.267251473723405e-05 0 -0.0072097651466677725 -8.283035372612179e-05 0 -0.0072274018138646671 -2.267251473723405e-05 0 -0.0072097651466677725 -8.283035372612179e-05 0 -0.00727121134722298 -0.00013880098779291586 0 -0.0094707145308305582 0.000243388582569771 0 -0.010712159843139876 -0.00063022652850148629 0 -0.0071753900246618024 -0.0001232601767676972 0 -0.0072097651466677725 -8.283035372612179e-05 0 -0.00727121134722298 -0.00013880098779291586 0 -0.014120542811226355 -0.00084934879628340812 0 -0.013551097009523155 -0.00089225184106162003 0 -0.013721957209673749 -0.00041960767382265247 0 -0.013551097009523155 -0.00089225184106162003 0 -0.013721957209673749 -0.00041960767382265247 0 -0.013159728732293281 -0.00065758233298807991 0 -0.010712159843139876 -0.00063022652850148629 0 -0.0098951867623833182 -0.00048539700978923045 0 -0.013596170102775558 -3.2798247601191245e-05 0 -0.013721957209673749 -0.00041960767382265247 0 -0.013174258798043362 -0.00029711842125487508 0 -0.013721957209673749 -0.00041960767382265247 0 -0.013174258798043362 -0.00029711842125487508 0 -0.013159728732293281 -0.00065758233298807991 0 -0.013596170102775558 -3.2798247601191245e-05 0 -0.013721957209673749 -0.00041960767382265247 0 -0.013952761869561825 5.7152603731263141e-05 0 -0.013721957209673749 -0.00041960767382265247 0 -0.014197273469409221 -0.00036074124448712459 0 -0.013952761869561825 5.7152603731263141e-05 0 -0.010317834774218992 0.00035178324374657619 0 -0.010431769738049629 0.00087472363604769324 0 -0.010818709990391013 0.00065522473239699455 0 -0.012825201383327463 0.00017722201358432867 0 -0.012465595668528236 4.8508622208257862e-05 0 -0.010317834774218992 0.00035178324374657619 0 -0.010818709990391013 0.00065522473239699455 0 -0.010765273111476403 6.3687255584968583e-05 0 -0.014197273469409221 -0.00036074124448712459 0 -0.014212281169792325 4.7638240304647797e-05 0 -0.013952761869561825 5.7152603731263141e-05 0 -0.014212281169792325 4.7638240304647797e-05 0 -0.014055300236766235 0.00025729472045196234 0 -0.013952761869561825 5.7152603731263141e-05 0 -0.012465595668528236 4.8508622208257862e-05 0 -0.012366018009936053 -0.00018026388131377327 0 -0.010184201498689947 -0.00037503125226583312 0 -0.010765273111476403 6.3687255584968583e-05 0 -0.010714036082467614 -0.00052965995809900175 0 -0.014212281169792325 4.7638240304647797e-05 0 -0.014212426469425181 0.00025705113457430602 0 -0.014055300236766235 0.00025729472045196234 0 -0.014213188330381651 0.00026825963417624062 0 -0.014212426469425181 0.00025705113457430602 0 -0.014055300236766235 0.00025729472045196234 0 -0.013995178784352226 0.00029012825806535751 0 -0.014055300236766235 0.00025729472045196234 0 -0.013894866980018822 0.00030427916640592275 0 -0.014055300236766235 0.00025729472045196234 0 -0.013894866980018822 0.00030427916640592275 0 -0.013952761869561825 5.7152603731263141e-05 0 -0.014081330754518525 0.00030154157273603363 0 -0.013894866980018822 0.00030427916640592275 0 -0.014127270392676902 0.00043119150193939639 0 -0.014110273470205877 0.00036340816273406669 0 -0.013271974082480195 0.00025086775019381478 0 -0.014081330754518525 0.00030154157273603363 0 -0.013995178784352226 0.00029012825806535751 0 -0.013894866980018822 0.00030427916640592275 0 -0.013596170102775558 -3.2798247601191245e-05 0 -0.013894866980018822 0.00030427916640592275 0 -0.013553230252299013 0.00024125538444765281 0 -0.013575050450349742 6.5601165349336854e-05 0 -0.013271974082480195 0.00025086775019381478 0 -0.013596170102775558 -3.2798247601191245e-05 0 -0.013894866980018822 0.00030427916640592275 0 -0.013952761869561825 5.7152603731263141e-05 0 -0.01236731969646747 0.00045335582370140527 0 -0.012420047615076315 0.00010473143736587916 0 -0.012833578350656433 0.00014717359712370994 0 -0.01225128572344702 0.00019322693637190038 0 -0.013271974082480195 0.00025086775019381478 0 -0.01236731969646747 0.00045335582370140527 0 -0.012985309307680468 0.00069850480372283369 0 -0.012833578350656433 0.00014717359712370994 0 -0.01236731969646747 0.00045335582370140527 0 -0.012178680907811093 0.00011677991194718094 0 -0.012420047615076315 0.00010473143736587916 0 -0.013596170102775558 -3.2798247601191245e-05 0 -0.012985309307680468 0.00069850480372283369 0 -0.012833578350656433 0.00014717359712370994 0 -0.013303636102998336 0.00017285081081584264 0 -0.013271974082480195 0.00025086775019381478 0 -0.014236931466342247 0.00032664418788990189 0 -0.014081330754518525 0.00030154157273603363 0 -0.014127270392676902 0.00043119150193939639 0 -0.012351419314439581 5.4702694847222172e-05 0 -0.012323381189105444 -3.3717402834899596e-05 0 -0.01230064926253093 3.8224607601474727e-05 0 -0.012351419314439581 5.4702694847222172e-05 0 -0.012323381189105444 -3.3717402834899596e-05 0 -0.012414354592228101 -1.0035680918543568e-05 0 -0.012323381189105444 -3.3717402834899596e-05 0 -0.01225429039018556 4.2006480982417724e-05 0 -0.012212483042279263 1.6007004121517683e-05 0 -0.012263017872977474 6.4417856415204517e-05 0 -0.01230064926253093 3.8224607601474727e-05 0 -0.01225429039018556 4.2006480982417724e-05 0 -0.012323381189105444 -3.3717402834899596e-05 0 -0.01230064926253093 3.8224607601474727e-05 0 -0.01225429039018556 4.2006480982417724e-05 0 -0.012222565250904482 8.7952856345741511e-05 0 -0.012212483042279263 1.6007004121517683e-05 0 -0.012139630272004388 8.2219565534797506e-05 0 -0.012222565250904482 8.7952856345741511e-05 0 -0.01225429039018556 4.2006480982417724e-05 0 -0.012212483042279263 1.6007004121517683e-05 0 -0.012212483042279263 1.6007004121517683e-05 0 -0.012104049641178711 -4.5335995618728607e-05 0 -0.012139630272004388 8.2219565534797506e-05 0 -0.01215998973970572 3.8412986448653824e-05 0 -0.011966516491006855 -0.00011078935841995264 0 -0.012104049641178711 -4.5335995618728607e-05 0 -0.012227676408095417 -8.2005382373002332e-05 0 -0.011950867783321092 -0.00014815358444706059 0 -0.012212483042279263 1.6007004121517683e-05 0 -0.012104049641178711 -4.5335995618728607e-05 0 -0.012227676408095417 -8.2005382373002332e-05 0 -0.01236731969646747 0.00045335582370140527 0 -0.012025035752943964 0.00015131685915053376 0 -0.012178680907811093 0.00011677991194718094 0 -0.01225128572344702 0.00019322693637190038 0 -0.01215998973970572 3.8412986448653824e-05 0 -0.012323381189105444 -3.3717402834899596e-05 0 -0.012212483042279263 1.6007004121517683e-05 0 -0.012227676408095417 -8.2005382373002332e-05 0 -0.012178680907811093 0.00011677991194718094 0 -0.01222671948359514 -5.4431174747023669e-05 0 -0.011997118904694803 -5.9618975953617994e-06 0 -0.012183426463007631 -3.3210720412679085e-05 0 -0.011646831418541838 0.00010170563514974729 0 -0.012178680907811093 0.00011677991194718094 0 -0.01222671948359514 -5.4431174747023669e-05 0 -0.012420047615076315 0.00010473143736587916 0 -0.012025035752943964 0.00015131685915053376 0 -0.012178680907811093 0.00011677991194718094 0 -0.011997118904694803 -5.9618975953617994e-06 0 -0.012025035752943964 0.00015131685915053376 0 -0.011997118904694803 -5.9618975953617994e-06 0 -0.011950867783321092 -0.00014815358444706059 0 -0.011286008256074171 0.00026165011477911193 0 -0.011087964634494445 -0.00018644091716311261 0 -0.010781371888671067 5.9946884756789105e-05 0 -0.011286008256074171 0.00026165011477911193 0 -0.011556992978358487 -0.00039265390010456924 0 -0.011087964634494445 -0.00018644091716311261 0 -0.011556992978358487 -0.00039265390010456924 0 -0.011087964634494445 -0.00018644091716311261 0 -0.010791627533284541 -0.000814107132158633 0 -0.01222671948359514 -5.4431174747023669e-05 0 -0.011556992978358487 -0.00039265390010456924 0 -0.012168018675388336 -0.00051844848012154324 0 -0.01222671948359514 -5.4431174747023669e-05 0 -0.011286008256074171 0.00026165011477911193 0 -0.011556992978358487 -0.00039265390010456924 0 -0.012168018675388336 -0.00051844848012154324 0 -0.012613333280987444 -0.00054297552700662509 0 -0.012589310074210016 -0.00012249161166006279 0 -0.012608385517331362 -0.00070981705760228911 0 -0.012584998005843208 -0.00012591237345624962 0 -0.01222671948359514 -5.4431174747023669e-05 0 -0.012168018675388336 -0.00051844848012154324 0 -0.012589310074210016 -0.00012249161166006279 0 -0.01222671948359514 -5.4431174747023669e-05 0 -0.012589310074210016 -0.00012249161166006279 0 -0.012420047615076315 0.00010473143736587916 0 -0.012589310074210016 -0.00012249161166006279 0 -0.012420047615076315 0.00010473143736587916 0 -0.012833578350656433 0.00014717359712370994 0 -0.013596170102775558 -3.2798247601191245e-05 0 -0.012833578350656433 0.00014717359712370994 0 -0.013174258798043362 -0.00029711842125487508 0 -0.012589310074210016 -0.00012249161166006279 0 -0.012833578350656433 0.00014717359712370994 0 -0.013174258798043362 -0.00029711842125487508 0 -0.012728972893485794 -0.00056124686007063412 0 -0.013174258798043362 -0.00029711842125487508 0 -0.013159728732293281 -0.00065758233298807991 0 -0.012728972893485794 -0.00056124686007063412 0 -0.012589310074210016 -0.00012249161166006279 0 -0.013174258798043362 -0.00029711842125487508 0 -0.013551097009523155 -0.00089225184106162003 0 -0.013159728732293281 -0.00065758233298807991 0 -0.012812174392799474 -0.0009328037157098634 0 -0.012728972893485794 -0.00056124686007063412 0 -0.013159728732293281 -0.00065758233298807991 0 -0.012812174392799474 -0.0009328037157098634 0 -0.012168018675388336 -0.00051844848012154324 0 -0.012613333280987444 -0.00054297552700662509 0 -0.012688449038432425 -0.0010253067247519316 0 -0.0098951867623833182 -0.00048539700978923045 0 -0.0096113953709199146 -0.00060995757107886524 0 -0.012168018675388336 -0.00051844848012154324 0 -0.012688449038432425 -0.0010253067247519316 0 -0.011779510696630822 -0.00099016253083894501 0 -0.012608385517331362 -0.00070981705760228911 0 -0.0098951867623833182 -0.00048539700978923045 0 -0.0072603754613769318 -0.00017098932738115886 0 -0.0073173023484280246 -3.8245088049860565e-05 0 -0.0073987378493918588 -0.00020800175055176912 0 -0.0072603754613769318 -0.00017098932738115886 0 -0.0072391972514770295 -2.5569080208951048e-05 0 -0.0073173023484280246 -3.8245088049860565e-05 0 -0.00727121134722298 -0.00013880098779291586 0 -0.0073940599850782773 -0.00015259056562920707 0 -0.0073348845413058524 -4.9358629296687592e-05 0 -0.0098951867623833182 -0.00048539700978923045 0 -0.0069857731964468022 8.4962924787414308e-05 0 -0.0072391972514770295 -2.5569080208951048e-05 0 -0.0073173023484280246 -3.8245088049860565e-05 0 -0.0072941752281982068 4.3571255115950372e-05 0 -0.0072391972514770295 -2.5569080208951048e-05 0 -0.0072941752281982068 4.3571255115950372e-05 0 -0.0072602120594354325 4.1157556660251076e-05 0 -0.0069857731964468022 8.4962924787414308e-05 0 -0.0073361827026944262 -3.0086258200286404e-05 0 -0.0072274018138646671 -2.267251473723405e-05 0 -0.0073348845413058524 -4.9358629296687592e-05 0 -0.0072602120594354325 4.1157556660251076e-05 0 -0.0073428942002820088 8.285843817660184e-05 0 -0.007622821454528526 4.4700055553747734e-05 0 -0.0073428968175198164 0.00018384504797476497 0 -0.0072941752281982068 4.3571255115950372e-05 0 -0.0073428942002820088 8.285843817660184e-05 0 -0.0073136857376674249 7.3639256937556996e-05 0 -0.0073173023484280246 -3.8245088049860565e-05 0 -0.0072941752281982068 4.3571255115950372e-05 0 -0.0073428942002820088 8.285843817660184e-05 0 -0.0073173023484280246 -3.8245088049860565e-05 0 -0.0073428942002820088 8.285843817660184e-05 0 -0.0074240226856286656 -3.4312361786102452e-05 0 -0.0073428942002820088 8.285843817660184e-05 0 -0.0074240226856286656 -3.4312361786102452e-05 0 -0.007622821454528526 4.4700055553747734e-05 0 -0.0074240226856286656 -3.4312361786102452e-05 0 -0.007562698312034476 -0.00010980258998468925 0 -0.007622821454528526 4.4700055553747734e-05 0 -0.0074240226856286656 -3.4312361786102452e-05 0 -0.0073987378493918588 -0.00020800175055176912 0 -0.007562698312034476 -0.00010980258998468925 0 -0.0073987378493918588 -0.00020800175055176912 0 -0.007630861280516643 -0.00028054937689384361 0 -0.007562698312034476 -0.00010980258998468925 0 -0.0073173023484280246 -3.8245088049860565e-05 0 -0.0074240226856286656 -3.4312361786102452e-05 0 -0.0073987378493918588 -0.00020800175055176912 0 -0.011556992978358487 -0.00039265390010456924 0 -0.012168018675388336 -0.00051844848012154324 0 -0.011779510696630822 -0.00099016253083894501 0 -0.011556992978358487 -0.00039265390010456924 0 -0.011779510696630822 -0.00099016253083894501 0 -0.010791627533284541 -0.000814107132158633 0 -0.0096113953709199146 -0.00060995757107886524 0 -0.0092249365490863124 -0.00054393231550533909 0 -0.010791627533284541 -0.000814107132158633 0 -0.010383291113859947 -0.00029845027117913131 0 -0.010688307986569208 -0.00020524175216688303 0 -0.010791627533284541 -0.000814107132158633 0 -0.010067296655504437 -0.0005274561433435002 0 -0.010383291113859947 -0.00029845027117913131 0 -0.0092249365490863124 -0.00054393231550533909 0 -0.0090761904787300968 -0.00040682915701655291 0 -0.007630861280516643 -0.00028054937689384361 0 -0.0077941809961892478 -8.3114488778608019e-05 0 -0.0080549316498107568 -0.00033696221127134943 0 -0.007630861280516643 -0.00028054937689384361 0 -0.0077941809961892478 -8.3114488778608019e-05 0 -0.007562698312034476 -0.00010980258998468925 0 -0.0077941809961892478 -8.3114488778608019e-05 0 -0.007562698312034476 -0.00010980258998468925 0 -0.007622821454528526 4.4700055553747734e-05 0 -0.0077941809961892478 -8.3114488778608019e-05 0 -0.007622821454528526 4.4700055553747734e-05 0 -0.007972013009015181 6.7190289832673228e-05 0 -0.0078676877414453374 0.00012404684675714956 0 -0.007622821454528526 4.4700055553747734e-05 0 -0.0077471727117028287 0.00021807862699655135 0 -0.0078676877414453374 0.00012404684675714956 0 -0.007622821454528526 4.4700055553747734e-05 0 -0.007972013009015181 6.7190289832673228e-05 0 -0.007622821454528526 4.4700055553747734e-05 0 -0.0077471727117028287 0.00021807862699655135 0 -0.0073428968175198164 0.00018384504797476497 0 -0.0078160786691689223 2.2260900000018146e-07 0 -0.0078788134945254693 0.00012422158382524703 0 -0.0071845502584070454 -2.7821920125027423e-07 0 -0.0078676877414453374 0.00012404684675714956 0 -0.0078788134945254693 0.00012422158382524703 0 -0.007972013009015181 6.7190289832673228e-05 0 -0.0078676877414453374 0.00012404684675714956 0 -0.0078788134945254693 0.00012422158382524703 0 -0.0078638124460204423 2.4032867259426552e-05 0 -0.0078788134945254693 0.00012422158382524703 0 -0.007972013009015181 6.7190289832673228e-05 0 -0.0084494457580497791 3.4010609944394667e-07 0 -0.007972013009015181 6.7190289832673228e-05 0 -0.0084494457580497791 3.4010609944394667e-07 0 -0.0082574469201431421 -2.1936762580442872e-05 0 -0.0078160786691689223 2.2260900000018146e-07 0 -0.0078788134945254693 0.00012422158382524703 0 -0.0084494457580497791 3.4010609944394667e-07 0 -0.0084494457580497791 3.4010609944394667e-07 0 -0.0082574469201431421 -2.1936762580442872e-05 0 -0.0090808731401068529 -8.8388916691559105e-07 0 -0.0077941809961892478 -8.3114488778608019e-05 0 -0.0082574469201431421 -2.1936762580442872e-05 0 -0.0080549316498107568 -0.00033696221127134943 0 -0.0077941809961892478 -8.3114488778608019e-05 0 -0.007972013009015181 6.7190289832673228e-05 0 -0.0082574469201431421 -2.1936762580442872e-05 0 -0.0090761904787300968 -0.00040682915701655291 0 -0.0090822402099592046 -1.7285266654033118e-07 0 -0.010067296655504437 -0.0005274561433435002 0 -0.0090834435093450037 -1.1755256181773115e-06 0 -0.0097215568935748141 -5.5506885986964038e-05 0 -0.0082574469201431421 -2.1936762580442872e-05 0 -0.0080549316498107568 -0.00033696221127134943 0 -0.0090808731401068529 -8.8388916691559105e-07 0 -0.0097215568935748141 -5.5506885986964038e-05 0 -0.0098642958970617776 6.5661899251661721e-07 0 -0.01007333829903624 -7.4971147081884667e-06 0 -0.0090834435093450037 -1.1755256181773115e-06 0 -0.0097215568935748141 -5.5506885986964038e-05 0 -0.0098642958970617776 6.5661899251661721e-07 0 -0.01007333829903624 -7.4971147081884667e-06 0 -0.01036289982344164 7.6764439257633128e-05 0 -0.010142250524001591 0.00017793422539766042 0 -0.0098642958970617776 6.5661899251661721e-07 0 -0.01007333829903624 -7.4971147081884667e-06 0 -0.010142250524001591 0.00017793422539766042 0 -0.010067296655504437 -0.0005274561433435002 0 -0.0097215568935748141 -5.5506885986964038e-05 0 -0.01007333829903624 -7.4971147081884667e-06 0 -0.01007333829903624 -7.4971147081884667e-06 0 -0.010383291113859947 -0.00029845027117913131 0 -0.01036289982344164 7.6764439257633128e-05 0 -0.010067296655504437 -0.0005274561433435002 0 -0.01007333829903624 -7.4971147081884667e-06 0 -0.010383291113859947 -0.00029845027117913131 0 -0.010383291113859947 -0.00029845027117913131 0 -0.010688307986569208 -0.00020524175216688303 0 -0.01036289982344164 7.6764439257633128e-05 0 -0.011087964634494445 -0.00018644091716311261 0 -0.010791627533284541 -0.000814107132158633 0 -0.010688307986569208 -0.00020524175216688303 0 -0.010688307986569208 -0.00020524175216688303 0 -0.010781371888671067 5.9946884756789105e-05 0 -0.01036289982344164 7.6764439257633128e-05 0 -0.011087964634494445 -0.00018644091716311261 0 -0.010688307986569208 -0.00020524175216688303 0 -0.010781371888671067 5.9946884756789105e-05 0 -0.011286008256074171 0.00026165011477911193 0 -0.010781371888671067 5.9946884756789105e-05 0 -0.010502620411752152 0.00030432903425251298 0 -0.011646831418541838 0.00010170563514974729 0 -0.01120105212450391 4.3477545785064296e-05 0 -0.011997118904694803 -5.9618975953617994e-06 0 -0.011950867783321092 -0.00014815358444706059 0 -0.011906882988425745 -0.00022369682824029696 0 -0.010781371888671067 5.9946884756789105e-05 0 -0.01036289982344164 7.6764439257633128e-05 0 -0.010502620411752152 0.00030432903425251298 0 -0.01036289982344164 7.6764439257633128e-05 0 -0.010502620411752152 0.00030432903425251298 0 -0.010142250524001591 0.00017793422539766042 0 -0.01120105212450391 4.3477545785064296e-05 0 -0.010813699147085595 -2.4788736461943442e-05 0 -0.011906882988425745 -0.00022369682824029696 0 -0.011746632017676499 -2.1150258611738316e-05 0 -0.011450938853703928 -0.00025646444371660862 0 -0.011906882988425745 -0.00022369682824029696 0 -0.011975813202884192 -8.8705207580543234e-05 0 -0.011746632017676499 -2.1150258611738316e-05 0 -0.012104049641178711 -4.5335995618728607e-05 0 -0.011950867783321092 -0.00014815358444706059 0 -0.011975813202884192 -8.8705207580543234e-05 0 -0.011950867783321092 -0.00014815358444706059 0 -0.011906882988425745 -0.00022369682824029696 0 -0.011975813202884192 -8.8705207580543234e-05 0 -0.012104049641178711 -4.5335995618728607e-05 0 -0.011975813202884192 -8.8705207580543234e-05 0 -0.012139630272004388 8.2219565534797506e-05 0 -0.011975813202884192 -8.8705207580543234e-05 0 -0.012139630272004388 8.2219565534797506e-05 0 -0.011746632017676499 -2.1150258611738316e-05 0 -0.012090764850155668 0.00014102696354107325 0 -0.012151451864204263 8.0181450386941917e-05 0 -0.011677437389386357 0.00021577474033443082 0 -0.012139630272004388 8.2219565534797506e-05 0 -0.011746632017676499 -2.1150258611738316e-05 0 -0.011677437389386357 0.00021577474033443082 0 -0.011746632017676499 -2.1150258611738316e-05 0 -0.011430414664256931 0.0001232199965998111 0 -0.011746632017676499 -2.1150258611738316e-05 0 -0.011430414664256931 0.0001232199965998111 0 -0.011450938853703928 -0.00025646444371660862 0 -0.011546351636862132 7.7863593390768374e-07 0 -0.011430414664256931 0.0001232199965998111 0 -0.010647561482865948 -7.6353739705718012e-07 0 -0.010646134009261636 -1.5889557650372285e-08 0 -0.010813699147085595 -2.4788736461943442e-05 0 -0.0098642958970617776 6.5661899251661721e-07 0 -0.010644803143396102 -3.366273890251371e-07 0 -0.010142250524001591 0.00017793422539766042 0 -0.011430414664256931 0.0001232199965998111 0 -0.010647561482865948 -7.6353739705718012e-07 0 -0.011450938853703928 -0.00025646444371660862 0 -0.0043130154977108507 5.9660506201778283e-05 0 -0.0038430868683620814 0.00016433542566095859 0 -0.004236913628503044 -1.1131187359313467e-05 0 -0.0043130154977108507 5.9660506201778283e-05 0 -0.0038842061098499575 2.1221000681351777e-07 0 -0.0047089018352103043 1.5610443846484076e-07 0 -0.0043130154977108507 5.9660506201778283e-05 0 -0.0038842061098499575 2.1221000681351777e-07 0 -0.0037201662045987355 0.00010385800873167835 0 -0.0037201662045987355 0.00010385800873167835 0 -0.0038430868683620814 0.00016433542566095859 0 -0.003308532086323901 0.00015053618245027377 0 -0.0043130154977108507 5.9660506201778283e-05 0 -0.0037201662045987355 0.00010385800873167835 0 -0.0038430868683620814 0.00016433542566095859 0 -0.0035655099438143237 0.00024066435962854927 0 -0.0038430868683620814 0.00016433542566095859 0 -0.0038068862298717065 0.00013293051607442502 0 -0.0035655099438143237 0.00024066435962854927 0 -0.0038430868683620814 0.00016433542566095859 0 -0.003308532086323901 0.00015053618245027377 0 -0.0035655099438143237 0.00024066435962854927 0 -0.0035699722928684966 0.00030866997605768901 0 -0.0038068862298717065 0.00013293051607442502 0 -0.0035655099438143237 0.00024066435962854927 0 -0.0035699722928684966 0.00030866997605768901 0 -0.0034841835577162743 0.00019623316758723814 0 -0.0035053567687236293 0.00036513349288312783 0 -0.0035041916012693167 0.00044650096932801533 0 -0.0035699722928684966 0.00030866997605768901 0 -0.0034460882000960603 -2.9981663398487975e-05 0 -0.0038068862298717065 0.00013293051607442502 0 -0.0038430868683620814 0.00016433542566095859 0 -0.0038068862298717065 0.00013293051607442502 0 -0.004236913628503044 -1.1131187359313467e-05 0 -0.0038068862298717065 0.00013293051607442502 0 -0.004236913628503044 -1.1131187359313467e-05 0 -0.0039122081661160371 -0.00019441203877880887 0 -0.0034460882000960603 -2.9981663398487975e-05 0 -0.0038068862298717065 0.00013293051607442502 0 -0.0039122081661160371 -0.00019441203877880887 0 -0.0034460882000960603 -2.9981663398487975e-05 0 -0.0039122081661160371 -0.00019441203877880887 0 -0.0034917291302954041 -0.00047308439758824453 0 -0.0042361074446074787 -0.00034435492229752758 0 -0.0036428868769402272 -0.00063712130373078763 0 -0.0034917291302954041 -0.00047308439758824453 0 -0.0039122081661160371 -0.00019441203877880887 0 -0.0042361074446074787 -0.00034435492229752758 0 -0.0034917291302954041 -0.00047308439758824453 0 -0.004236913628503044 -1.1131187359313467e-05 0 -0.0039122081661160371 -0.00019441203877880887 0 -0.0042361074446074787 -0.00034435492229752758 0 -0.004236913628503044 -1.1131187359313467e-05 0 -0.0042361074446074787 -0.00034435492229752758 0 -0.0049283305606992768 -8.6460150523757882e-05 0 -0.0043130154977108507 5.9660506201778283e-05 0 -0.004236913628503044 -1.1131187359313467e-05 0 -0.0049283305606992768 -8.6460150523757882e-05 0 -0.0043130154977108507 5.9660506201778283e-05 0 -0.0049283305606992768 -8.6460150523757882e-05 0 -0.0047089018352103043 1.5610443846484076e-07 0 -0.0049283305606992768 -8.6460150523757882e-05 0 -0.0047089018352103043 1.5610443846484076e-07 0 -0.0055335715916675207 -2.4190247003037643e-07 0 -0.0055335715916675207 -2.4190247003037643e-07 0 -0.0057330238538196437 -0.00040309258404945406 0 -0.0063584040343761267 -2.8113184088890955e-07 0 -0.0049283305606992768 -8.6460150523757882e-05 0 -0.0055335715916675207 -2.4190247003037643e-07 0 -0.0057330238538196437 -0.00040309258404945406 0 -0.0049283305606992768 -8.6460150523757882e-05 0 -0.0057330238538196437 -0.00040309258404945406 0 -0.0047384208973515864 -0.00045127048161042242 0 -0.0057092115710119197 -0.000492338110828234 0 -0.0055640325088148557 -0.00069962521627184109 0 -0.0057330238538196437 -0.00040309258404945406 0 -0.0063276078017878478 -0.00011697604841275398 0 -0.006545413593684094 -0.00045428800097002545 0 -0.0057330238538196437 -0.00040309258404945406 0 -0.0063584040343761267 -2.8113184088890955e-07 0 -0.0063173095128876127 -4.8443018375594188e-05 0 -0.0063584040343761267 -2.8113184088890955e-07 0 -0.0063173095128876127 -4.8443018375594188e-05 0 -0.0071817258867060974 -5.5874066986712021e-07 0 -0.0063173095128876127 -4.8443018375594188e-05 0 -0.0063276078017878478 -0.00011697604841275398 0 -0.0063278669559373108 -7.4222018478870271e-05 0 -0.0057330238538196437 -0.00040309258404945406 0 -0.0063173095128876127 -4.8443018375594188e-05 0 -0.0063276078017878478 -0.00011697604841275398 0 -0.0078788134945254693 0.00012422158382524703 0 -0.0078638124460204423 2.4032867259426552e-05 0 -0.0071845502584070454 -2.7821920125027423e-07 0 -0.0071049834673809478 3.685180566299961e-06 0 -0.0071833190888575668 -1.5645769305683661e-08 0 -0.0063173095128876127 -4.8443018375594188e-05 0 -0.0063278669559373108 -7.4222018478870271e-05 0 -0.0071817258867060974 -5.5874066986712021e-07 0 -0.0066703158113804928 0.00017780893384526785 0 -0.0071459692225704597 -2.1263535610809224e-05 0 -0.0073428968175198164 0.00018384504797476497 0 -0.0066703158113804928 0.00017780893384526785 0 -0.0067444173276569874 -0.00014629266971463492 0 -0.0071459692225704597 -2.1263535610809224e-05 0 -0.0072086666280287174 0.00016736145682330519 0 -0.007325633056436188 0.00019373264662778504 0 -0.0063276078017878478 -0.00011697604841275398 0 -0.0063278669559373108 -7.4222018478870271e-05 0 -0.0066703158113804928 0.00017780893384526785 0 -0.0078676877414453374 0.00012404684675714956 0 -0.0078638124460204423 2.4032867259426552e-05 0 -0.0077471727117028287 0.00021807862699655135 0 -0.0071049834673809478 3.685180566299961e-06 0 -0.0072086666280287174 0.00016736145682330519 0 -0.0063276078017878478 -0.00011697604841275398 0 -0.0067444173276569874 -0.00014629266971463492 0 -0.006545413593684094 -0.00045428800097002545 0 -0.0063276078017878478 -0.00011697604841275398 0 -0.0066703158113804928 0.00017780893384526785 0 -0.0067444173276569874 -0.00014629266971463492 0 -0.0067444173276569874 -0.00014629266971463492 0 -0.0071459692225704597 -2.1263535610809224e-05 0 -0.0070728710476464654 -0.0003727316264938433 0 -0.0067444173276569874 -0.00014629266971463492 0 -0.0070728710476464654 -0.0003727316264938433 0 -0.006545413593684094 -0.00045428800097002545 0 -0.0053090852317840406 -0.00081197997593522152 0 -0.0055640325088148557 -0.00069962521627184109 0 -0.0040459988193306037 -0.00077994968347678292 0 -0.0038430389108992176 -0.0011417540708424318 0 -0.0036453350436206505 -0.00091275900415785502 0 -0.0040459988193306037 -0.00077994968347678292 0 -0.0038430389108992176 -0.0011417540708424318 0 -0.0045029468266568071 -0.0010600103611122379 0 -0.0040459988193306037 -0.00077994968347678292 0 -0.0045029468266568071 -0.0010600103611122379 0 -0.0047384208973515864 -0.00045127048161042242 0 -0.0057330238538196437 -0.00040309258404945406 0 -0.0045029468266568071 -0.0010600103611122379 0 -0.0047384208973515864 -0.00045127048161042242 0 -0.0042361074446074787 -0.00034435492229752758 0 -0.0040459988193306037 -0.00077994968347678292 0 -0.0047384208973515864 -0.00045127048161042242 0 -0.0042361074446074787 -0.00034435492229752758 0 -0.0049283305606992768 -8.6460150523757882e-05 0 -0.0047384208973515864 -0.00045127048161042242 0 -0.0042361074446074787 -0.00034435492229752758 0 -0.0040459988193306037 -0.00077994968347678292 0 -0.0036428868769402272 -0.00063712130373078763 0 -0.0036428868769402272 -0.00063712130373078763 0 -0.0034493958218385226 -0.00082449092639125861 0 -0.00339051666705272 -0.00053479199310439869 0 -0.0040459988193306037 -0.00077994968347678292 0 -0.0036428868769402272 -0.00063712130373078763 0 -0.0036453350436206505 -0.00091275900415785502 0 -0.0036428868769402272 -0.00063712130373078763 0 -0.0034493958218385226 -0.00082449092639125861 0 -0.0036453350436206505 -0.00091275900415785502 0 -0.0034493958218385226 -0.00082449092639125861 0 -0.003257005762754677 -0.00078355297677543774 0 -0.00339051666705272 -0.00053479199310439869 0 -0.0033335701768649646 -0.00092670329010214681 0 -0.0034726567637934341 -0.0011692720342036471 0 -0.0031636520883488459 -0.0009437882607787509 0 -0.0062400357713112593 -0.00024043179188103662 0 -0.0052324599578527356 -0.00026428705536960743 0 -0.0033335701768649646 -0.00092670329010214681 0 -0.0034493958218385226 -0.00082449092639125861 0 -0.0034726567637934341 -0.0011692720342036471 0 -0.0033335701768649646 -0.00092670329010214681 0 -0.0034493958218385226 -0.00082449092639125861 0 -0.003257005762754677 -0.00078355297677543774 0 -0.0038430389108992176 -0.0011417540708424318 0 -0.0036453350436206505 -0.00091275900415785502 0 -0.0034726567637934341 -0.0011692720342036471 0 -0.0034493958218385226 -0.00082449092639125861 0 -0.0036453350436206505 -0.00091275900415785502 0 -0.0034726567637934341 -0.0011692720342036471 0 -0.0071459692225704597 -2.1263535610809224e-05 0 -0.0070728710476464654 -0.0003727316264938433 0 -0.0074888781974308738 -0.00024856054649565813 0 -0.0071459692225704597 -2.1263535610809224e-05 0 -0.0073161904735041536 1.4449346581527002e-05 0 -0.0073212949842770903 9.8451796338359766e-05 0 -0.007514656848054903 -0.00012531530218991545 0 -0.0062400357713112593 -0.00024043179188103662 0 -0.0053090852317840406 -0.00081197997593522152 0 -0.0062400357713112593 -0.00024043179188103662 0 -0.0073161904735041536 1.4449346581527002e-05 0 -0.0073136857376674249 7.3639256937556996e-05 0 -0.0072827800468747072 5.762452944508779e-05 0 -0.0062400357713112593 -0.00024043179188103662 0 -0.0077516633808242348 0.00016194568146387574 0 -0.0073428942002820088 8.285843817660184e-05 0 -0.0073136857376674249 7.3639256937556996e-05 0 -0.0073212949842770903 9.8451796338359766e-05 0 -0.0073161904735041536 1.4449346581527002e-05 0 -0.0073136857376674249 7.3639256937556996e-05 0 -0.0073212949842770903 9.8451796338359766e-05 0 -0.0073428942002820088 8.285843817660184e-05 0 -0.0073428968175198164 0.00018384504797476497 0 -0.0073212949842770903 9.8451796338359766e-05 0 -0.0071459692225704597 -2.1263535610809224e-05 0 -0.0073428968175198164 0.00018384504797476497 0 -0.0073212949842770903 9.8451796338359766e-05 0 -0.0072608015658422584 6.4050204540438066e-05 0 -0.0072602120594354325 4.1157556660251076e-05 0 -0.007284038863269982 5.8748745311178958e-05 0 -0.0072608015658422584 6.4050204540438066e-05 0 -0.0072602120594354325 4.1157556660251076e-05 0 -0.007227310237780768 7.345849583381445e-05 0 -0.0072941752281982068 4.3571255115950372e-05 0 -0.0072602120594354325 4.1157556660251076e-05 0 -0.007284038863269982 5.8748745311178958e-05 0 -0.0072941752281982068 4.3571255115950372e-05 0 -0.0073136857376674249 7.3639256937556996e-05 0 -0.007284038863269982 5.8748745311178958e-05 0 -0.0073136857376674249 7.3639256937556996e-05 0 -0.007284038863269982 5.8748745311178958e-05 0 -0.0072827800468747072 5.762452944508779e-05 0 -0.0072608015658422584 6.4050204540438066e-05 0 -0.007284038863269982 5.8748745311178958e-05 0 -0.0072827800468747072 5.762452944508779e-05 0 -0.0075388221381589475 3.0984957060251098e-05 0 -0.0072827800468747072 5.762452944508779e-05 0 -0.0072485975954311357 0.00014515466541777181 0 -0.0072608015658422584 6.4050204540438066e-05 0 -0.0072827800468747072 5.762452944508779e-05 0 -0.0072405884525448931 9.2594511377444677e-05 0 -0.0072827800468747072 5.762452944508779e-05 0 -0.0072405884525448931 9.2594511377444677e-05 0 -0.0072485975954311357 0.00014515466541777181 0 -0.0072405884525448931 9.2594511377444677e-05 0 -0.0072131437283028199 0.00011083286854118578 0 -0.007227310237780768 7.345849583381445e-05 0 -0.0072405884525448931 9.2594511377444677e-05 0 -0.0072485975954311357 0.00014515466541777181 0 -0.0072131437283028199 0.00011083286854118578 0 -0.0072608015658422584 6.4050204540438066e-05 0 -0.0072405884525448931 9.2594511377444677e-05 0 -0.007227310237780768 7.345849583381445e-05 0 -0.006979913992824942 0.0001346177615099448 0 -0.0068078418866805972 -8.1065368820725043e-06 0 -0.0062981648452563217 0.00034133032194852317 0 -0.0072235822460802353 0.00032307808909360437 0 -0.0058843065115722175 0.0011333382868009697 0 -0.0031636520883488459 -0.0009437882607787509 0 -0.0031065734434032053 -0.00078949030510172286 0 -0.0028820033278008396 -0.00077056274740254429 0 -0.0062981648452563217 0.00034133032194852317 0 -0.0055621295883959013 0.00050178371658234782 0 -0.005394363964338067 -6.9311525085534218e-05 0 -0.0052324599578527356 -0.00026428705536960743 0 -0.0031854130888948505 -0.00065536104651977363 0 -0.0062981648452563217 0.00034133032194852317 0 -0.0072485975954311357 0.00014515466541777181 0 -0.005394363964338067 -6.9311525085534218e-05 0 -0.0062981648452563217 0.00034133032194852317 0 -0.0058843065115722175 0.0011333382868009697 0 -0.0055621295883959013 0.00050178371658234782 0 -0.0075388221381589475 3.0984957060251098e-05 0 -0.0072485975954311357 0.00014515466541777181 0 -0.0072235822460802353 0.00032307808909360437 0 -0.0062981648452563217 0.00034133032194852317 0 -0.0072485975954311357 0.00014515466541777181 0 -0.0072235822460802353 0.00032307808909360437 0 -0.0033335701768649646 -0.00092670329010214681 0 -0.0031636520883488459 -0.0009437882607787509 0 -0.003257005762754677 -0.00078355297677543774 0 -0.0031636520883488459 -0.0009437882607787509 0 -0.003257005762754677 -0.00078355297677543774 0 -0.0031065734434032053 -0.00078949030510172286 0 -0.003257005762754677 -0.00078355297677543774 0 -0.0031280385572050803 -0.0006601010705220246 0 -0.00339051666705272 -0.00053479199310439869 0 -0.003257005762754677 -0.00078355297677543774 0 -0.0031065734434032053 -0.00078949030510172286 0 -0.0031280385572050803 -0.0006601010705220246 0 -0.001927922491671201 -0.0011811074548983766 0 -0.0014720836791661249 -0.0012838961333293871 0 -0.0014897269288806872 -0.0010685282236343021 0 -0.0023473982590923518 -0.00099887423570283493 0 -0.0031854130888948505 -0.00065536104651977363 0 -0.0031065734434032053 -0.00078949030510172286 0 -0.0031280385572050803 -0.0006601010705220246 0 -0.0028820033278008396 -0.00077056274740254429 0 -0.001927922491671201 -0.0011811074548983766 0 -0.0015472550912650103 -0.00087671236894826515 0 -0.0017648505865015211 -0.00067454018698333838 0 -0.0014897269288806872 -0.0010685282236343021 0 -0.0015472550912650103 -0.00087671236894826515 0 -0.001296085734530899 -0.0008956130297896721 0 -0.001927922491671201 -0.0011811074548983766 0 -0.0014897269288806872 -0.0010685282236343021 0 -0.0015472550912650103 -0.00087671236894826515 0 -0.0015472550912650103 -0.00087671236894826515 0 -0.0013750353021808877 -0.00056866563186640348 0 -0.0017648505865015211 -0.00067454018698333838 0 -0.0015472550912650103 -0.00087671236894826515 0 -0.0013750353021808877 -0.00056866563186640348 0 -0.001296085734530899 -0.0008956130297896721 0 -0.0013750353021808877 -0.00056866563186640348 0 -0.0017648505865015211 -0.00067454018698333838 0 -0.0015771834696402924 -0.00023904485645062813 0 -0.0020960507515464149 -0.00042362072210414193 0 -0.0017648505865015211 -0.00067454018698333838 0 -0.0015771834696402924 -0.00023904485645062813 0 -0.0020960507515464149 -0.00042362072210414193 0 -0.0021510809554473316 -0.00080066737789710339 0 -0.0017648505865015211 -0.00067454018698333838 0 -0.001927922491671201 -0.0011811074548983766 0 -0.0021510809554473316 -0.00080066737789710339 0 -0.0017648505865015211 -0.00067454018698333838 0 -0.0023473982590923518 -0.00099887423570283493 0 -0.0030361484956271086 -0.00073544872590599003 0 -0.001927922491671201 -0.0011811074548983766 0 -0.0021510809554473316 -0.00080066737789710339 0 -0.0025940880926180977 -0.0010145089673554101 0 -0.0021510809554473316 -0.00080066737789710339 0 -0.0025940880926180977 -0.0010145089673554101 0 -0.0027537955636360652 -0.00041627189526775176 0 -0.0036428868769402272 -0.00063712130373078763 0 -0.00339051666705272 -0.00053479199310439869 0 -0.0034917291302954041 -0.00047308439758824453 0 -0.0025940880926180977 -0.0010145089673554101 0 -0.0034917291302954041 -0.00047308439758824453 0 -0.0027537955636360652 -0.00041627189526775176 0 -0.0030361484956271086 -0.00073544872590599003 0 -0.0034276630722437171 -0.00052521992272270895 0 -0.0034460882000960603 -2.9981663398487975e-05 0 -0.0027537955636360652 -0.00041627189526775176 0 -0.0027000826775207798 -2.1256687872504472e-05 0 -0.0034460882000960603 -2.9981663398487975e-05 0 -0.0034917291302954041 -0.00047308439758824453 0 -0.0027537955636360652 -0.00041627189526775176 0 -0.0020960507515464149 -0.00042362072210414193 0 -0.0027537955636360652 -0.00041627189526775176 0 -0.0027000826775207798 -2.1256687872504472e-05 0 -0.0020960507515464149 -0.00042362072210414193 0 -0.0021510809554473316 -0.00080066737789710339 0 -0.0027537955636360652 -0.00041627189526775176 0 -0.0020960507515464149 -0.00042362072210414193 0 -0.0027000826775207798 -2.1256687872504472e-05 0 -0.0020515110871285203 -7.5836565564064518e-05 0 -0.0027000826775207798 -2.1256687872504472e-05 0 -0.0022941152524524441 0.00034883308277214591 0 -0.0020515110871285203 -7.5836565564064518e-05 0 -0.0034460882000960603 -2.9981663398487975e-05 0 -0.0027000826775207798 -2.1256687872504472e-05 0 -0.0030651510605254253 0.00026551719638203211 0 -0.0035699722928684966 0.00030866997605768901 0 -0.0034460882000960603 -2.9981663398487975e-05 0 -0.0030651510605254253 0.00026551719638203211 0 -0.0035699722928684966 0.00030866997605768901 0 -0.0030651510605254253 0.00026551719638203211 0 -0.0030860213017240776 0.00079503521917934561 0 -0.0030651510605254253 0.00026551719638203211 0 -0.0022941152524524441 0.00034883308277214591 0 -0.0030860213017240776 0.00079503521917934561 0 -0.0027000826775207798 -2.1256687872504472e-05 0 -0.0030651510605254253 0.00026551719638203211 0 -0.0022941152524524441 0.00034883308277214591 0 -0.0022941152524524441 0.00034883308277214591 0 -0.0014958205106839937 5.9654204114151384e-05 0 -0.0011408985595320882 0.00051633466748555524 0 -0.0022941152524524441 0.00034883308277214591 0 -0.0014958205106839937 5.9654204114151384e-05 0 -0.0020515110871285203 -7.5836565564064518e-05 0 -0.0014317610914591674 5.2635186813648013e-05 0 -0.00098304638633704678 0.00024334290356012761 0 -0.0014958205106839937 5.9654204114151384e-05 0 -0.0013112218848795214 -1.877834293917572e-05 0 -0.0011635250429780407 5.7442436658182028e-05 0 -0.0013112218848795214 -1.877834293917572e-05 0 -0.0015771834696402924 -0.00023904485645062813 0 -0.0012485320905853831 -0.00019684770923210137 0 -0.0013750353021808877 -0.00056866563186640348 0 -0.0015771834696402924 -0.00023904485645062813 0 -0.0012485320905853831 -0.00019684770923210137 0 -0.0014958205106839937 5.9654204114151384e-05 0 -0.0013112218848795214 -1.877834293917572e-05 0 -0.0015771834696402924 -0.00023904485645062813 0 -0.0020960507515464149 -0.00042362072210414193 0 -0.0015771834696402924 -0.00023904485645062813 0 -0.0020515110871285203 -7.5836565564064518e-05 0 -0.0014958205106839937 5.9654204114151384e-05 0 -0.0015771834696402924 -0.00023904485645062813 0 -0.0020515110871285203 -7.5836565564064518e-05 0 -0.00095420778320448607 -0.0001076356335314828 0 -0.0009190821686741867 -0.00026186975250736937 0 -0.00097104254713972196 -8.6029982839535478e-05 0 -0.00092775250622044848 -0.00010887395703021045 0 -0.00091115019827317978 -0.00010412800304702127 0 -0.0010779201766156752 -0.00022592969854479342 0 -0.00097104254713972196 -8.6029982839535478e-05 0 -0.00087605399947011866 -0.00047811802257406326 0 -0.0012485320905853831 -0.00019684770923210137 0 -0.0010779201766156752 -0.00022592969854479342 0 -0.0011262471450268147 -2.1583548755195611e-05 0 -0.0012485320905853831 -0.00019684770923210137 0 -0.0010779201766156752 -0.00022592969854479342 0 -0.0011310979659399055 -0.00043262210536218075 0 -0.0013112218848795214 -1.877834293917572e-05 0 -0.0012485320905853831 -0.00019684770923210137 0 -0.0011262471450268147 -2.1583548755195611e-05 0 -0.0013112218848795214 -1.877834293917572e-05 0 -0.0011262471450268147 -2.1583548755195611e-05 0 -0.0011635250429780407 5.7442436658182028e-05 0 -0.00097104254713972196 -8.6029982839535478e-05 0 -0.00093020544253199589 -9.0167594532263406e-05 0 -0.00098774256884721803 -4.3538959012420517e-06 0 -0.0011262471450268147 -2.1583548755195611e-05 0 -0.00097104254713972196 -8.6029982839535478e-05 0 -0.00098774256884721803 -4.3538959012420517e-06 0 -0.0010779201766156752 -0.00022592969854479342 0 -0.0011262471450268147 -2.1583548755195611e-05 0 -0.00097104254713972196 -8.6029982839535478e-05 0 -0.00097104254713972196 -8.6029982839535478e-05 0 -0.00093020544253199589 -9.0167594532263406e-05 0 -0.00092775250622044848 -0.00010887395703021045 0 -0.00093020544253199589 -9.0167594532263406e-05 0 -0.00090847537521687391 -0.00017815200161040872 0 -0.00094524063749822291 -0.00023313779727075824 0 -0.00093020544253199589 -9.0167594532263406e-05 0 -0.00088276189023863067 -0.00010422796710620551 0 -0.00090847537521687391 -0.00017815200161040872 0 -0.00090847537521687391 -0.00017815200161040872 0 -0.00094524063749822291 -0.00023313779727075824 0 -0.00092598432110799005 -0.00023771039566814424 0 -0.00094524063749822291 -0.00023313779727075824 0 -0.00098966046848462203 -0.00025879699446198823 0 -0.00092598432110799005 -0.00023771039566814424 0 -0.00093547133871717811 -0.00010011715012940084 0 -0.00094434763395857271 -0.00017325120855605876 0 -0.00093020544253199589 -9.0167594532263406e-05 0 -0.00094524063749822291 -0.00023313779727075824 0 -0.00097205466437780481 -0.00024529323413857891 0 -0.00094434763395857271 -0.00017325120855605876 0 -0.00092579768088737406 -0.00012053662077078527 0 -0.00097205466437780481 -0.00024529323413857891 0 -0.00097159950706542098 -0.00024324196792824328 0 -0.00092049539354970391 -0.00020027552482195264 0 -0.00092775250622044848 -0.00010887395703021045 0 -0.0009267707678338431 -5.9325688636597092e-05 0 -0.00091115019827317978 -0.00010412800304702127 0 -0.00097159950706542098 -0.00024324196792824328 0 -0.0010430277578647798 -0.00019795437698676128 0 -0.00098966046848462203 -0.00025879699446198823 0 -0.00094524063749822291 -0.00023313779727075824 0 -0.00097205466437780481 -0.00024529323413857891 0 -0.00097159950706542098 -0.00024324196792824328 0 -0.00094524063749822291 -0.00023313779727075824 0 -0.00097159950706542098 -0.00024324196792824328 0 -0.00098966046848462203 -0.00025879699446198823 0 -0.0010430277578647798 -0.00019795437698676128 0 -0.00092049539354970391 -0.00020027552482195264 0 -0.0010168793956986052 -5.3557858624734235e-05 0 -0.00097159950706542098 -0.00024324196792824328 0 -0.0010430277578647798 -0.00019795437698676128 0 -0.00092049539354970391 -0.00020027552482195264 0 -0.0009267707678338431 -5.9325688636597092e-05 0 -0.00091115019827317978 -0.00010412800304702127 0 -0.000857915404041944 -1.3223359959178921e-05 0 -0.00087605399947011866 -0.00047811802257406326 0 -0.0010941809830571838 -0.00072805674544284952 0 -0.00083480990713058912 -0.0010078039390599997 0 -0.0009190821686741867 -0.00026186975250736937 0 -0.00068804077914101354 -0.00060385863448048061 0 -0.0010941809830571838 -0.00072805674544284952 0 -0.00083480990713058912 -0.0010078039390599997 0 -0.0010926835047383517 -0.00098748136736797536 0 -0.00087605399947011866 -0.00047811802257406326 0 -0.0011310979659399055 -0.00043262210536218075 0 -0.0010941809830571838 -0.00072805674544284952 0 -0.0010779201766156752 -0.00022592969854479342 0 -0.00087605399947011866 -0.00047811802257406326 0 -0.0011310979659399055 -0.00043262210536218075 0 -0.0013750353021808877 -0.00056866563186640348 0 -0.0012485320905853831 -0.00019684770923210137 0 -0.0011310979659399055 -0.00043262210536218075 0 -0.0013750353021808877 -0.00056866563186640348 0 -0.0011310979659399055 -0.00043262210536218075 0 -0.0010941809830571838 -0.00072805674544284952 0 -0.0013750353021808877 -0.00056866563186640348 0 -0.0010941809830571838 -0.00072805674544284952 0 -0.001296085734530899 -0.0008956130297896721 0 -0.0010941809830571838 -0.00072805674544284952 0 -0.001296085734530899 -0.0008956130297896721 0 -0.0010926835047383517 -0.00098748136736797536 0 -0.0014720836791661249 -0.0012838961333293871 0 -0.0014897269288806872 -0.0010685282236343021 0 -0.0012631980900256051 -0.0011171493986257643 0 -0.001432353994899722 -0.0012047915516469154 0 -0.0012631980900256051 -0.0011171493986257643 0 -0.0011156781906218243 -0.0013197595271884697 0 -0.0014897269288806872 -0.0010685282236343021 0 -0.001296085734530899 -0.0008956130297896721 0 -0.0012631980900256051 -0.0011171493986257643 0 -0.0012631980900256051 -0.0011171493986257643 0 -0.0010926835047383517 -0.00098748136736797536 0 -0.0010485647096747767 -0.0011542344118644515 0 -0.001296085734530899 -0.0008956130297896721 0 -0.0012631980900256051 -0.0011171493986257643 0 -0.0010926835047383517 -0.00098748136736797536 0 -0.0012631980900256051 -0.0011171493986257643 0 -0.0010485647096747767 -0.0011542344118644515 0 -0.0011156781906218243 -0.0013197595271884697 0 -0.0031854130888948505 -0.00065536104651977363 0 -0.0013751671756808094 -0.00067840213492823876 0 -0.00083480990713058912 -0.0010078039390599997 0 -0.00095567848761337953 -0.0012319899533374792 0 -0.00081973119263765548 -0.0014419242477454589 0 -0.00083480990713058912 -0.0010078039390599997 0 -0.0010926835047383517 -0.00098748136736797536 0 -0.0010485647096747767 -0.0011542344118644515 0 -0.0010485647096747767 -0.0011542344118644515 0 -0.00095567848761337953 -0.0012319899533374792 0 -0.0011156781906218243 -0.0013197595271884697 0 -0.00083480990713058912 -0.0010078039390599997 0 -0.0010485647096747767 -0.0011542344118644515 0 -0.00095567848761337953 -0.0012319899533374792 0 -0.0029513085453672398 -0.00032381619511025975 0 -0.0021130164053926952 -0.00024490721094160884 0 -0.0068078418866805972 -8.1065368820725043e-06 0 -0.0031064146488328712 0.00029797055958714707 0 -0.00095567848761337953 -0.0012319899533374792 0 -0.0011156781906218243 -0.0013197595271884697 0 -0.00081973119263765548 -0.0014419242477454589 0 -0.0046320914802732479 0.00061237782614543732 0 -0.005394363964338067 -6.9311525085534218e-05 0 -0.0032923230554836964 -0.00012848213866102642 0 -0.0072131437283028199 0.00011083286854118578 0 -0.0071158962137296607 0.00010596303955688214 0 -0.0070906031854371101 0.00012070995536462972 0 -0.0046320914802732479 0.00061237782614543732 0 -0.0032923230554836964 -0.00012848213866102642 0 -0.0033129445522831463 3.4847658516572503e-05 0 -0.0058843065115722175 0.0011333382868009697 0 -0.0055621295883959013 0.00050178371658234782 0 -0.0046320914802732479 0.00061237782614543732 0 -0.0031854130888948505 -0.00065536104651977363 0 -0.0029513085453672398 -0.00032381619511025975 0 -0.0055621295883959013 0.00050178371658234782 0 -0.0046320914802732479 0.00061237782614543732 0 -0.005394363964338067 -6.9311525085534218e-05 0 -0.0072131437283028199 0.00011083286854118578 0 -0.007227310237780768 7.345849583381445e-05 0 -0.0071822546076209456 8.1288613188653497e-05 0 -0.007227310237780768 7.345849583381445e-05 0 -0.0071822546076209456 8.1288613188653497e-05 0 -0.0071972954542162976 4.7784308887507459e-05 0 -0.0072131437283028199 0.00011083286854118578 0 -0.0071822546076209456 8.1288613188653497e-05 0 -0.0071158962137296607 0.00010596303955688214 0 -0.0071158962137296607 0.00010596303955688214 0 -0.0071498282907949979 6.8295801996577109e-05 0 -0.0071145207557123807 8.7093062421655939e-05 0 -0.0071822546076209456 8.1288613188653497e-05 0 -0.0071158962137296607 0.00010596303955688214 0 -0.0071498282907949979 6.8295801996577109e-05 0 -0.0071822546076209456 8.1288613188653497e-05 0 -0.0071498282907949979 6.8295801996577109e-05 0 -0.0071972954542162976 4.7784308887507459e-05 0 -0.0071498282907949979 6.8295801996577109e-05 0 -0.0071972954542162976 4.7784308887507459e-05 0 -0.0071377201286742277 2.2893634571407498e-05 0 -0.0072602120594354325 4.1157556660251076e-05 0 -0.007227310237780768 7.345849583381445e-05 0 -0.0071972954542162976 4.7784308887507459e-05 0 -0.00098071837432877414 0.00073332606771851316 0 -0.00094818306538298018 0.00046156406072604575 0 -0.0012475992959735964 0.00056225278160799757 0 -0.0012481553679394629 0.0010623256371774515 0 -0.00098071837432877414 0.00073332606771851316 0 -0.0012475992959735964 0.00056225278160799757 0 -0.0067123736299915917 9.1912418057640775e-05 0 -0.0051216660292616829 -2.0635342864047397e-05 0 -0.0071498282907949979 6.8295801996577109e-05 0 -0.0071377201286742277 2.2893634571407498e-05 0 -0.0071145207557123807 8.7093062421655939e-05 0 -0.003262715912017346 0.0003004814122386221 0 -0.0051216660292616829 -2.0635342864047397e-05 0 -0.0060347575923195926 2.9884179004806631e-05 0 -0.0059793234306612809 6.1623474666476971e-05 0 -0.0059439518625340436 -5.9621447889498687e-05 0 -0.00098071837432877414 0.00073332606771851316 0 -0.00076351051243820646 0.00044182912629628178 0 -0.00094818306538298018 0.00046156406072604575 0 -0.00094818306538298018 0.00046156406072604575 0 -0.0010448661569026673 0.00029026226168811818 0 -0.00074832101835708054 0.00030858731671398032 0 -0.0071158962137296607 0.00010596303955688214 0 -0.0070652720422489951 6.4008407662185721e-05 0 -0.0070906031854371101 0.00012070995536462972 0 -0.0051216660292616829 -2.0635342864047397e-05 0 -0.0031064146488328712 0.00029797055958714707 0 -0.006586386131146274 0.00056471971328800601 0 -0.0051216660292616829 -2.0635342864047397e-05 0 -0.00076351051243820646 0.00044182912629628178 0 -0.00094818306538298018 0.00046156406072604575 0 -0.00074832101835708054 0.00030858731671398032 0 -0.00094818306538298018 0.00046156406072604575 0 -0.0010448661569026673 0.00029026226168811818 0 -0.0012475992959735964 0.00056225278160799757 0 -0.0010448661569026673 0.00029026226168811818 0 -0.0010864135025610584 0.00010167810307907244 0 -0.00092147862628756412 0.00010082989352140444 0 -0.0010448661569026673 0.00029026226168811818 0 -0.00083693036094825051 0.00021365557150490109 0 -0.00087065942604898252 0.00021925558707983891 0 -0.0010448661569026673 0.00029026226168811818 0 -0.00087065942604898252 0.00021925558707983891 0 -0.00092147862628756412 0.00010082989352140444 0 -0.0001346337889867142 0.00026809601482108935 0 -0.0031064146488328712 0.00029797055958714707 0 -0.00083823597504323777 0.00019291430345714535 0 -0.00087065942604898252 0.00021925558707983891 0 -0.00092147862628756412 0.00010082989352140444 0 -0.00083693036094825051 0.00021365557150490109 0 -0.00083624357905150138 0.00019281177803469218 0 -0.00087065942604898252 0.00021925558707983891 0 -0.0031064146488328712 0.00029797055958714707 0 -0.0021130164053926952 -0.00024490721094160884 0 -0.0021130164053926952 -0.00024490721094160884 0 -0.0016276073031397246 -0.00029800558101730979 0 -0.000857915404041944 -1.3223359959178921e-05 0 -0.00083823597504323777 0.00019291430345714535 0 -0.00092147862628756412 0.00010082989352140444 0 -0.00092579768088737406 -0.00012053662077078527 0 -0.0009229954323922878 8.4586703144890965e-05 0 -0.00068804077914101354 -0.00060385863448048061 0 -0.0021130164053926952 -0.00024490721094160884 0 -0.0009267707678338431 -5.9325688636597092e-05 0 -0.000857915404041944 -1.3223359959178921e-05 0 -0.00092147862628756412 0.00010082989352140444 0 -0.00092049539354970391 -0.00020027552482195264 0 -0.00092147862628756412 0.00010082989352140444 0 -0.0010168793956986052 -5.3557858624734235e-05 0 -0.0010864135025610584 0.00010167810307907244 0 -0.0010168793956986052 -5.3557858624734235e-05 0 -0.0011596703604144481 -4.3614570647867182e-05 0 -0.0010864135025610584 0.00010167810307907244 0 -0.00092147862628756412 0.00010082989352140444 0 -0.0010168793956986052 -5.3557858624734235e-05 0 -0.0010430277578647798 -0.00019795437698676128 0 -0.0010168793956986052 -5.3557858624734235e-05 0 -0.0011596703604144481 -4.3614570647867182e-05 0 -0.0011596703604144481 -4.3614570647867182e-05 0 -0.0015123907241032591 6.5101434891319951e-06 0 -0.0013474345319599726 0.00025639023987062554 0 -0.0011596703604144481 -4.3614570647867182e-05 0 -0.0015123907241032591 6.5101434891319951e-06 0 -0.0011706047219944881 -0.00027838088005902734 0 -0.0015123907241032591 6.5101434891319951e-06 0 -0.0015877982642180314 -0.00019341862029694415 0 -0.0011706047219944881 -0.00027838088005902734 0 -0.0015123907241032591 6.5101434891319951e-06 0 -0.0013474345319599726 0.00025639023987062554 0 -0.0017978850225601436 0.0003059344583342976 0 -0.0010864135025610584 0.00010167810307907244 0 -0.0011596703604144481 -4.3614570647867182e-05 0 -0.0013474345319599726 0.00025639023987062554 0 -0.0010448661569026673 0.00029026226168811818 0 -0.0010864135025610584 0.00010167810307907244 0 -0.0013474345319599726 0.00025639023987062554 0 -0.0010448661569026673 0.00029026226168811818 0 -0.0013474345319599726 0.00025639023987062554 0 -0.0012475992959735964 0.00056225278160799757 0 -0.0013474345319599726 0.00025639023987062554 0 -0.0012475992959735964 0.00056225278160799757 0 -0.0016399888137309069 0.00057882733701772413 0 -0.0013474345319599726 0.00025639023987062554 0 -0.0016399888137309069 0.00057882733701772413 0 -0.0017978850225601436 0.0003059344583342976 0 -0.0012475992959735964 0.00056225278160799757 0 -0.0016399888137309069 0.00057882733701772413 0 -0.0014947786890126139 0.00084613166915028528 0 -0.0018564030297015073 0.00095525358044581835 0 -0.0016399888137309069 0.00057882733701772413 0 -0.0014947786890126139 0.00084613166915028528 0 -0.0012481553679394629 0.0010623256371774515 0 -0.0012475992959735964 0.00056225278160799757 0 -0.0014947786890126139 0.00084613166915028528 0 -0.0023231510196467966 0.00092781562777268835 0 -0.0020151905745023403 0.00063613423496112218 0 -0.0023371412427434716 0.00038514829737812812 0 -0.0018564030297015073 0.00095525358044581835 0 -0.0023231510196467966 0.00092781562777268835 0 -0.0020151905745023403 0.00063613423496112218 0 -0.0018564030297015073 0.00095525358044581835 0 -0.0016399888137309069 0.00057882733701772413 0 -0.0020151905745023403 0.00063613423496112218 0 -0.0016399888137309069 0.00057882733701772413 0 -0.0020151905745023403 0.00063613423496112218 0 -0.0017978850225601436 0.0003059344583342976 0 -0.0020151905745023403 0.00063613423496112218 0 -0.0017978850225601436 0.0003059344583342976 0 -0.0023371412427434716 0.00038514829737812812 0 -0.0018960545835167808 -0.00022906758578699346 0 -0.0021007297962357236 0.00013586926137595733 0 -0.0017978850225601436 0.0003059344583342976 0 -0.0019812878574525777 -2.391322581786192e-05 0 -0.0023371412427434716 0.00038514829737812812 0 -0.0015123907241032591 6.5101434891319951e-06 0 -0.0017978850225601436 0.0003059344583342976 0 -0.0019812878574525777 -2.391322581786192e-05 0 -0.0015123907241032591 6.5101434891319951e-06 0 -0.0019812878574525777 -2.391322581786192e-05 0 -0.0015877982642180314 -0.00019341862029694415 0 -0.0016977000568620488 -0.00042009166285448136 0 -0.0017458005660340437 -0.0008009101185658782 0 -0.0015174989158980555 -0.00072022618526235952 0 -0.0016977000568620488 -0.00042009166285448136 0 -0.0017458005660340437 -0.0008009101185658782 0 -0.0020395108492584938 -0.0006159555365356287 0 -0.00048616792353388079 -0.00046542041826987493 0 -0.00052739240139512841 -0.00043759157576744374 0 -0.000577430171455068 -0.00044656852425913892 0 -0.00049140622385528837 -0.00045621650603057596 0 -0.00052739240139512841 -0.00043759157576744374 0 -0.00049052715617787124 -0.00037918717126525205 0 -0.0010311795345279576 -0.00053190513018148413 0 -0.00077652743245722807 -0.0005967588090601242 0 -0.00052739240139512841 -0.00043759157576744374 0 -0.00055211767986473566 -0.00039796329590423946 0 -0.000577430171455068 -0.00044656852425913892 0 -0.00052739240139512841 -0.00043759157576744374 0 -0.00055211767986473566 -0.00039796329590423946 0 -0.00049052715617787124 -0.00037918717126525205 0 -0.00049140622385528837 -0.00045621650603057596 0 -0.00049052715617787124 -0.00037918717126525205 0 -0.00040100869987588891 -0.00035179886288590792 0 -0.000577430171455068 -0.00044656852425913892 0 -0.0006698440481913223 -0.00053801560742576808 0 -0.00062349245645107823 -0.00038559089656445565 0 -0.0006698440481913223 -0.00053801560742576808 0 -0.00074455486798812465 -0.00041856504124749693 0 -0.00062349245645107823 -0.00038559089656445565 0 -0.0010311795345279576 -0.00053190513018148413 0 -0.001237414120050578 -0.00050383962644863663 0 -0.00048616792353388079 -0.00046542041826987493 0 -0.000577430171455068 -0.00044656852425913892 0 -0.0006698440481913223 -0.00053801560742576808 0 -0.00055211767986473566 -0.00039796329590423946 0 -0.000577430171455068 -0.00044656852425913892 0 -0.00062349245645107823 -0.00038559089656445565 0 -0.001237414120050578 -0.00050383962644863663 0 -0.0008738262420226482 -0.00034740545179863069 0 -0.0018960545835167808 -0.00022906758578699346 0 -0.001237414120050578 -0.00050383962644863663 0 -0.0019812878574525777 -2.391322581786192e-05 0 -0.0016516768926934549 -0.00049415369501710875 0 -0.0015877982642180314 -0.00019341862029694415 0 -0.001237414120050578 -0.00050383962644863663 0 -0.0011990655889038881 -0.00028826270689386941 0 -0.0016516768926934549 -0.00049415369501710875 0 -0.0015877982642180314 -0.00019341862029694415 0 -0.0011706047219944881 -0.00027838088005902734 0 -0.0010430277578647798 -0.00019795437698676128 0 -0.0011706047219944881 -0.00027838088005902734 0 -0.00098966046848462203 -0.00025879699446198823 0 -0.0010430277578647798 -0.00019795437698676128 0 -0.0011596703604144481 -4.3614570647867182e-05 0 -0.0011706047219944881 -0.00027838088005902734 0 -0.0011706047219944881 -0.00027838088005902734 0 -0.00098373168601708781 -0.00025739698284946231 0 -0.00098966046848462203 -0.00025879699446198823 0 -0.0011706047219944881 -0.00027838088005902734 0 -0.00098373168601708781 -0.00025739698284946231 0 -0.00099802809999262007 -0.00024347832196822315 0 -0.00099726339946069388 -0.00029000399552708714 0 -0.0011706047219944881 -0.00027838088005902734 0 -0.00099802809999262007 -0.00024347832196822315 0 -0.0008738262420226482 -0.00034740545179863069 0 -0.00088130465828786461 -0.00025845378513282926 0 -0.00074455486798812465 -0.00041856504124749693 0 -0.00086002988089243159 -0.00025774938894327791 0 -0.00070056720458303435 -0.00030229002449595093 0 -0.00098373168601708781 -0.00025739698284946231 0 -0.00099802809999262007 -0.00024347832196822315 0 -0.00086002988089243159 -0.00025774938894327791 0 -0.00086002988089243159 -0.00025774938894327791 0 -0.00072522385852566169 -0.00020550659736929823 0 -0.00070056720458303435 -0.00030229002449595093 0 -0.00086002988089243159 -0.00025774938894327791 0 -0.00092598432110799005 -0.00023771039566814424 0 -0.00084345220876969388 -0.00016025119270476608 0 -0.00098373168601708781 -0.00025739698284946231 0 -0.00098966046848462203 -0.00025879699446198823 0 -0.00092598432110799005 -0.00023771039566814424 0 -0.00098373168601708781 -0.00025739698284946231 0 -0.00086002988089243159 -0.00025774938894327791 0 -0.00092598432110799005 -0.00023771039566814424 0 -0.00088276189023863067 -0.00010422796710620551 0 -0.00090847537521687391 -0.00017815200161040872 0 -0.00084345220876969388 -0.00016025119270476608 0 -0.00090847537521687391 -0.00017815200161040872 0 -0.00092598432110799005 -0.00023771039566814424 0 -0.00084345220876969388 -0.00016025119270476608 0 -0.00086002988089243159 -0.00025774938894327791 0 -0.00084345220876969388 -0.00016025119270476608 0 -0.00072522385852566169 -0.00020550659736929823 0 -0.00084345220876969388 -0.00016025119270476608 0 -0.00072522385852566169 -0.00020550659736929823 0 -0.00070307292219220607 -0.00013133415045810714 0 -0.00072522385852566169 -0.00020550659736929823 0 -0.00062413150512978391 -0.00016859383576570868 0 -0.00070307292219220607 -0.00013133415045810714 0 -0.00072522385852566169 -0.00020550659736929823 0 -0.00062413150512978391 -0.00016859383576570868 0 -0.00058411097358915568 -0.00025263003404247527 0 -0.00062413150512978391 -0.00016859383576570868 0 -0.0005268946355810551 -0.00015421428798868415 0 -0.00058491550529251018 -0.0001118648571962807 0 -0.00062413150512978391 -0.00016859383576570868 0 -0.0005268946355810551 -0.00015421428798868415 0 -0.00058411097358915568 -0.00025263003404247527 0 -0.0005268946355810551 -0.00015421428798868415 0 -0.00048623247747696526 -0.0002110830779168044 0 -0.00042759572100749607 -0.00012233922060808712 0 -0.00048623247747696526 -0.0002110830779168044 0 -0.00044649700506238477 -0.00029424882800760128 0 -0.0003714738166209604 -0.00022581150824820985 0 -0.00048623247747696526 -0.0002110830779168044 0 -0.0005121386998806043 -0.00027365757892849879 0 -0.00058411097358915568 -0.00025263003404247527 0 -0.0005268946355810551 -0.00015421428798868415 0 -0.00048623247747696526 -0.0002110830779168044 0 -0.00058411097358915568 -0.00025263003404247527 0 -0.0005121386998806043 -0.00027365757892849879 0 -0.0005345629541035062 -0.00033737439532688645 0 -0.00058411097358915568 -0.00025263003404247527 0 -0.0005121386998806043 -0.00027365757892849879 0 -0.00044649700506238477 -0.00029424882800760128 0 -0.0005345629541035062 -0.00033737439532688645 0 -0.00048623247747696526 -0.0002110830779168044 0 -0.0005121386998806043 -0.00027365757892849879 0 -0.00044649700506238477 -0.00029424882800760128 0 -0.00044649700506238477 -0.00029424882800760128 0 -0.00049052715617787124 -0.00037918717126525205 0 -0.0005345629541035062 -0.00033737439532688645 0 -0.00044649700506238477 -0.00029424882800760128 0 -0.00049052715617787124 -0.00037918717126525205 0 -0.00040100869987588891 -0.00035179886288590792 0 -0.00055211767986473566 -0.00039796329590423946 0 -0.00049052715617787124 -0.00037918717126525205 0 -0.0005345629541035062 -0.00033737439532688645 0 -0.00055211767986473566 -0.00039796329590423946 0 -0.0005345629541035062 -0.00033737439532688645 0 -0.00062349245645107823 -0.00038559089656445565 0 -0.0005345629541035062 -0.00033737439532688645 0 -0.00062349245645107823 -0.00038559089656445565 0 -0.00058411097358915568 -0.00025263003404247527 0 -0.00074455486798812465 -0.00041856504124749693 0 -0.00062349245645107823 -0.00038559089656445565 0 -0.00070056720458303435 -0.00030229002449595093 0 -0.00072522385852566169 -0.00020550659736929823 0 -0.00070056720458303435 -0.00030229002449595093 0 -0.00058411097358915568 -0.00025263003404247527 0 -0.00062349245645107823 -0.00038559089656445565 0 -0.00070056720458303435 -0.00030229002449595093 0 -0.00058411097358915568 -0.00025263003404247527 0 -0.00039707007312470406 -3.0963861783065084e-05 0 -0.00047079302881420087 -2.2616246901760703e-05 0 -0.00048738173325790362 -5.0911121189261901e-05 0 -0.00039679805229132418 -3.0395346321750292e-05 0 -0.00072435952847064999 6.2243556845389047e-05 0 -0.00030242157446848427 -6.267195746028133e-05 0 -0.00039679805229132418 -3.0395346321750292e-05 0 -0.0002134895846035509 -8.9841578109821674e-05 0 -0.00030242157446848427 -6.267195746028133e-05 0 -0.00039679805229132418 -3.0395346321750292e-05 0 -0.00030927980911579658 -4.4997375722303696e-05 0 -0.00039679805229132418 -3.0395346321750292e-05 0 -0.00030927980911579658 -4.4997375722303696e-05 0 -0.00028945711760352611 -6.553448015544363e-05 0 -0.0005268946355810551 -0.00015421428798868415 0 -0.0004993143066396896 -0.00010856234519490727 0 -0.00042759572100749607 -0.00012233922060808712 0 -0.00048738173325790362 -5.0911121189261901e-05 0 -0.00039679805229132418 -3.0395346321750292e-05 0 -0.00028690205791793408 -0.00015412004170381198 0 -0.00039679805229132418 -3.0395346321750292e-05 0 -0.00028945711760352611 -6.553448015544363e-05 0 -0.00028690205791793408 -0.00015412004170381198 0 -0.00048738173325790362 -5.0911121189261901e-05 0 -0.0004993143066396896 -0.00010856234519490727 0 -0.00042759572100749607 -0.00012233922060808712 0 -0.00048181234314617806 -5.6825426776420795e-05 0 -0.00036106143717146508 -0.00013504904355504132 0 -0.0005268946355810551 -0.00015421428798868415 0 -0.0004993143066396896 -0.00010856234519490727 0 -0.00058491550529251018 -0.0001118648571962807 0 -0.00048738173325790362 -5.0911121189261901e-05 0 -0.0004993143066396896 -0.00010856234519490727 0 -0.00058491550529251018 -0.0001118648571962807 0 -0.00048738173325790362 -5.0911121189261901e-05 0 -0.00058491550529251018 -0.0001118648571962807 0 -0.00068728423836864614 -5.0471000227922226e-05 0 -0.00062413150512978391 -0.00016859383576570868 0 -0.00058491550529251018 -0.0001118648571962807 0 -0.00070307292219220607 -0.00013133415045810714 0 -0.00058491550529251018 -0.0001118648571962807 0 -0.00070307292219220607 -0.00013133415045810714 0 -0.00068728423836864614 -5.0471000227922226e-05 0 -0.00077972282685749182 -7.786782994814846e-05 0 -0.00068728423836864614 -5.0471000227922226e-05 0 -0.00079867224720773112 -1.17304769323101e-06 0 -0.00070307292219220607 -0.00013133415045810714 0 -0.00077972282685749182 -7.786782994814846e-05 0 -0.00068728423836864614 -5.0471000227922226e-05 0 -0.00084345220876969388 -0.00016025119270476608 0 -0.00070307292219220607 -0.00013133415045810714 0 -0.00077972282685749182 -7.786782994814846e-05 0 -0.00088276189023863067 -0.00010422796710620551 0 -0.00084345220876969388 -0.00016025119270476608 0 -0.00084038771883739125 -5.7324423363630261e-05 0 -0.00084345220876969388 -0.00016025119270476608 0 -0.00077972282685749182 -7.786782994814846e-05 0 -0.00084038771883739125 -5.7324423363630261e-05 0 -0.00077972282685749182 -7.786782994814846e-05 0 -0.00084038771883739125 -5.7324423363630261e-05 0 -0.00079867224720773112 -1.17304769323101e-06 0 -0.00084038771883739125 -5.7324423363630261e-05 0 -0.00079867224720773112 -1.17304769323101e-06 0 -0.00083093884480569126 7.3848923834967673e-06 0 -0.00079867224720773112 -1.17304769323101e-06 0 -0.00072435952847064999 6.2243556845389047e-05 0 -0.00082918054289402758 3.0557298651125639e-05 0 -0.00079867224720773112 -1.17304769323101e-06 0 -0.00082918054289402758 3.0557298651125639e-05 0 -0.00083093884480569126 7.3848923834967673e-06 0 -0.00068728423836864614 -5.0471000227922226e-05 0 -0.00079867224720773112 -1.17304769323101e-06 0 -0.00072435952847064999 6.2243556845389047e-05 0 -0.00048738173325790362 -5.0911121189261901e-05 0 -0.00068728423836864614 -5.0471000227922226e-05 0 -0.00072435952847064999 6.2243556845389047e-05 0 -0.0002134895846035509 -8.9841578109821674e-05 0 -0.00020042554041979266 -0.00011574007515730476 0 -0.00025169443274254791 -7.2779327758624768e-05 0 -0.00047079302881420087 -2.2616246901760703e-05 0 -0.00057149517267727926 -5.3607792578910878e-05 0 -0.0002134895846035509 -8.9841578109821674e-05 0 -0.00020042554041979266 -0.00011574007515730476 0 -0.00031700799240187515 -0.00016830363497875376 0 -0.00031700799240187515 -0.00016830363497875376 0 -0.00027028711914564932 -4.5335404659148304e-05 0 -0.00043975647935669949 -3.7091721876730776e-05 0 -0.00020042554041979266 -0.00011574007515730476 0 -0.00031700799240187515 -0.00016830363497875376 0 -0.00027028711914564932 -4.5335404659148304e-05 0 -0.00020042554041979266 -0.00011574007515730476 0 -0.00011064420400614009 -0.00013315119485060727 0 -0.00025169443274254791 -7.2779327758624768e-05 0 -0.00020042554041979266 -0.00011574007515730476 0 -0.00027028711914564932 -4.5335404659148304e-05 0 -0.00011064420400614009 -0.00013315119485060727 0 -0.00011064420400614009 -0.00013315119485060727 0 -0.00025169443274254791 -7.2779327758624768e-05 0 -0.00028874898830023312 -6.0558864038795134e-05 0 -9.3488347661263083e-05 -0.00014156229707665705 0 0.00010361438329418597 -0.00017129792125020142 0 -0.00030242157446848427 -6.267195746028133e-05 0 -0.0002134895846035509 -8.9841578109821674e-05 0 -0.00025169443274254791 -7.2779327758624768e-05 0 -0.00030242157446848427 -6.267195746028133e-05 0 -0.00025169443274254791 -7.2779327758624768e-05 0 -0.00030927980911579658 -4.4997375722303696e-05 0 -0.00030927980911579658 -4.4997375722303696e-05 0 -0.00028874898830023312 -6.0558864038795134e-05 0 -0.00026093511952204933 -3.3461500434472789e-05 0 -0.00025169443274254791 -7.2779327758624768e-05 0 -0.00030927980911579658 -4.4997375722303696e-05 0 -0.00028874898830023312 -6.0558864038795134e-05 0 0.00048799357169775244 -0.00030093989701733851 0 0.00026454495121366553 -2.6526430634943533e-05 0 0.00058093251017477822 -4.507943715841558e-05 0 -0.00011064420400614009 -0.00013315119485060727 0 0.00048799357169775244 -0.00030093989701733851 0 0.00026454495121366553 -2.6526430634943533e-05 0 -0.00011064420400614009 -0.00013315119485060727 0 0.00026454495121366553 -2.6526430634943533e-05 0 6.2716506680093024e-05 0.00010092405652902015 0 6.2716506680093024e-05 0.00010092405652902015 0 0.00031731519313834547 0.00015217855524654459 0 0.00020781484742136546 0.00029789593752520163 0 0.00026454495121366553 -2.6526430634943533e-05 0 6.2716506680093024e-05 0.00010092405652902015 0 0.00031731519313834547 0.00015217855524654459 0 0.00031731519313834547 0.00015217855524654459 0 0.00057121145250015515 0.00025547178965348193 0 0.00058093251017477822 -4.507943715841558e-05 0 0.00026454495121366553 -2.6526430634943533e-05 0 0.00031731519313834547 0.00015217855524654459 0 0.00058093251017477822 -4.507943715841558e-05 0 0.00057121145250015515 0.00025547178965348193 0 0.00032909346788540493 0.00027318637062217907 0 0.00032101762970211591 0.00037036103438476374 0 0.00031731519313834547 0.00015217855524654459 0 0.00057121145250015515 0.00025547178965348193 0 0.00032909346788540493 0.00027318637062217907 0 0.00031731519313834547 0.00015217855524654459 0 0.00032909346788540493 0.00027318637062217907 0 0.00020781484742136546 0.00029789593752520163 0 0.00020781484742136546 0.00029789593752520163 0 0.00028759994522087253 0.0004628820025919963 0 -5.4039556128446688e-05 0.00031520469447733358 0 0.00032909346788540493 0.00027318637062217907 0 0.00020781484742136546 0.00029789593752520163 0 0.00032101762970211591 0.00037036103438476374 0 0.00020781484742136546 0.00029789593752520163 0 0.00032101762970211591 0.00037036103438476374 0 0.00028759994522087253 0.0004628820025919963 0 0.00028759994522087253 0.0004628820025919963 0 0.0003045369003860435 0.00051059501827228427 0 0.00035187695898219524 0.00031215085700028213 0 0.00032101762970211591 0.00037036103438476374 0 0.00028759994522087253 0.0004628820025919963 0 0.0003045369003860435 0.00051059501827228427 0 0.00057121145250015515 0.00025547178965348193 0 0.0003045369003860435 0.00051059501827228427 0 0.0007048474109830554 0.00044825259072789006 0 0.0011832796132206019 9.6731689479364152e-05 0 0.0011783856847595927 0.00015077771677162472 0 0.0011729624684618911 0.00012832760467885388 0 0.00075030209771692797 0.00029310795281952242 0 0.0009359315444653312 0.00028945280709386363 0 0.00057121145250015515 0.00025547178965348193 0 0.00032101762970211591 0.00037036103438476374 0 0.0003045369003860435 0.00051059501827228427 0 0.00063049046610346717 0.00047834212598223819 0 0.00046459809389711636 0.00048728982265505596 0 0.00043520141440700814 0.00049837559979879821 0 0.00028759994522087253 0.0004628820025919963 0 0.00043266936422373575 0.00046015359211060071 0 0.00049986834786462837 0.00052981592592477565 0 0.00027304135286439825 0.00045348163461444101 0 0.00021631098509959656 0.00041235338451121357 0 0.00063049046610346717 0.00047834212598223819 0 0.00043266936422373575 0.00046015359211060071 0 0.00049986834786462837 0.00052981592592477565 0 0.00063049046610346717 0.00047834212598223819 0 0.00043266936422373575 0.00046015359211060071 0 0.00035187695898219524 0.00031215085700028213 0 0.00028759994522087253 0.0004628820025919963 0 0.00043266936422373575 0.00046015359211060071 0 0.00035187695898219524 0.00031215085700028213 0 6.2716506680093024e-05 0.00010092405652902015 0 0.00020781484742136546 0.00029789593752520163 0 -5.4039556128446688e-05 0.00031520469447733358 0 0.00049986834786462837 0.00052981592592477565 0 0.00045707549346864999 0.00041677444342882807 0 0.00046459809389711636 0.00048728982265505596 0 0.00063049046610346717 0.00047834212598223819 0 0.00049986834786462837 0.00052981592592477565 0 0.00046459809389711636 0.00048728982265505596 0 -5.4039556128446688e-05 0.00031520469447733358 0 -0.00030496504215696225 0.00013988834298469684 0 -0.00015052344079592985 5.3071237170822424e-05 0 0.00021631098509959656 0.00041235338451121357 0 6.8967361445405919e-05 0.00027943103891912613 0 6.2716506680093024e-05 0.00010092405652902015 0 -5.4039556128446688e-05 0.00031520469447733358 0 -0.00015052344079592985 5.3071237170822424e-05 0 -0.00027028711914564932 -4.5335404659148304e-05 0 -0.00011064420400614009 -0.00013315119485060727 0 -0.00015052344079592985 5.3071237170822424e-05 0 -0.00011064420400614009 -0.00013315119485060727 0 6.2716506680093024e-05 0.00010092405652902015 0 -0.00015052344079592985 5.3071237170822424e-05 0 -0.00027028711914564932 -4.5335404659148304e-05 0 -0.00030496504215696225 0.00013988834298469684 0 -0.00015052344079592985 5.3071237170822424e-05 0 -0.00027028711914564932 -4.5335404659148304e-05 0 -0.00030496504215696225 0.00013988834298469684 0 -0.00038474078304751524 1.8732965153870592e-05 0 -0.00030496504215696225 0.00013988834298469684 0 -0.00038474078304751524 1.8732965153870592e-05 0 -0.00051770313473651394 4.0667898439561472e-05 0 0.00045707549346864999 0.00041677444342882807 0 9.8320840750083438e-05 0.0001942113554987397 0 0.00019968539106442849 0.000321274349494213 0 6.8967361445405919e-05 0.00027943103891912613 0 -0.00022640741155682077 0.00013700574030098403 0 0.00019968539106442849 0.000321274349494213 0 8.3076034124695557e-05 0.00029057742741128592 0 -1.2628944892279207e-05 0.00020101866477487777 0 9.8320840750083438e-05 0.0001942113554987397 0 0.00019968539106442849 0.000321274349494213 0 -0.00058459454714406803 8.8289345700479156e-05 0 8.3076034124695557e-05 0.00029057742741128592 0 0.00011995759277063143 0.00035594890214832629 0 -2.6664256193399182e-07 0.00029894096108261842 0 0.00019968539106442849 0.000321274349494213 0 8.3076034124695557e-05 0.00029057742741128592 0 0.00015650382934766319 0.00033911887822522243 0 0.00015650382934766319 0.00033911887822522243 0 0.00011995759277063143 0.00035594890214832629 0 0.00022326326305522424 0.0003945328275096995 0 0.00019968539106442849 0.000321274349494213 0 0.00015650382934766319 0.00033911887822522243 0 0.00022326326305522424 0.0003945328275096995 0 8.3076034124695557e-05 0.00029057742741128592 0 0.00015650382934766319 0.00033911887822522243 0 0.00011995759277063143 0.00035594890214832629 0 0.00011995759277063143 0.00035594890214832629 0 0.00022326326305522424 0.0003945328275096995 0 0.00022636261865265834 0.00045462968637201859 0 0.00022326326305522424 0.0003945328275096995 0 0.00022636261865265834 0.00045462968637201859 0 0.00031863204805896822 0.00043761938245588894 0 0.00045707549346864999 0.00041677444342882807 0 0.00031863204805896822 0.00043761938245588894 0 0.00046459809389711636 0.00048728982265505596 0 0.00045707549346864999 0.00041677444342882807 0 0.00019968539106442849 0.000321274349494213 0 0.00031863204805896822 0.00043761938245588894 0 0.00019968539106442849 0.000321274349494213 0 0.00022326326305522424 0.0003945328275096995 0 0.00031863204805896822 0.00043761938245588894 0 0.00031863204805896822 0.00043761938245588894 0 0.00046459809389711636 0.00048728982265505596 0 0.00035726169055755715 0.00050558801903271644 0 0.00046459809389711636 0.00048728982265505596 0 0.00035726169055755715 0.00050558801903271644 0 0.00043520141440700814 0.00049837559979879821 0 0.00022636261865265834 0.00045462968637201859 0 0.00035726169055755715 0.00050558801903271644 0 0.00030367269477226647 0.0005372785546830551 0 0.00022636261865265834 0.00045462968637201859 0 0.00031863204805896822 0.00043761938245588894 0 0.00035726169055755715 0.00050558801903271644 0 0.00035726169055755715 0.00050558801903271644 0 0.00036391974016110632 0.00052582145118825396 0 0.00030367269477226647 0.0005372785546830551 0 0.00036391974016110632 0.00052582145118825396 0 0.00041188428866650747 0.0005148950034178164 0 0.00030367269477226647 0.0005372785546830551 0 0.00063049046610346717 0.00047834212598223819 0 0.00043520141440700814 0.00049837559979879821 0 0.00036923163356922581 0.00051860758349441417 0 0.00036391974016110632 0.00052582145118825396 0 0.00043520141440700814 0.00049837559979879821 0 0.00036923163356922581 0.00051860758349441417 0 0.00035726169055755715 0.00050558801903271644 0 0.00036391974016110632 0.00052582145118825396 0 0.00043520141440700814 0.00049837559979879821 0 0.00041188428866650747 0.0005148950034178164 0 0.00033295214553436951 0.00058847352468725496 0 0.00063863264529387073 0.0004322908124847172 0 0.00033295214553436951 0.00058847352468725496 0 0.00061955976196296429 0.00053231253915393564 0 0.00063863264529387073 0.0004322908124847172 0 0.00041188428866650747 0.0005148950034178164 0 0.00030367269477226647 0.0005372785546830551 0 0.00033295214553436951 0.00058847352468725496 0 0.00022636261865265834 0.00045462968637201859 0 0.00030367269477226647 0.0005372785546830551 0 0.00019305693739981369 0.00050317752123024803 0 0.00030367269477226647 0.0005372785546830551 0 0.00033295214553436951 0.00058847352468725496 0 0.00019305693739981369 0.00050317752123024803 0 0.00033295214553436951 0.00058847352468725496 0 1.6023489199298067e-05 0.00046107915164319147 0 0.00019305693739981369 0.00050317752123024803 0 0.00029912863176381792 0.00057374767644268311 0 0.00015199744372858121 0.00048505628479349286 0 0.00033295214553436951 0.00058847352468725496 0 1.6023489199298067e-05 0.00046107915164319147 0 -0.00030235817472727417 0.00052750857953000481 0 1.6023489199298067e-05 0.00046107915164319147 0 4.2574952432835239e-05 0.00038145786597946872 0 -0.00025917156413257772 0.0003031010704072529 0 0.00011995759277063143 0.00035594890214832629 0 0.00022636261865265834 0.00045462968637201859 0 4.2574952432835239e-05 0.00038145786597946872 0 1.6023489199298067e-05 0.00046107915164319147 0 0.00019305693739981369 0.00050317752123024803 0 4.2574952432835239e-05 0.00038145786597946872 0 0.00022636261865265834 0.00045462968637201859 0 0.00019305693739981369 0.00050317752123024803 0 4.2574952432835239e-05 0.00038145786597946872 0 4.2574952432835239e-05 0.00038145786597946872 0 -2.6664256193399182e-07 0.00029894096108261842 0 -0.00017669118391964319 0.00025253211831399204 0 0.00011995759277063143 0.00035594890214832629 0 4.2574952432835239e-05 0.00038145786597946872 0 -2.6664256193399182e-07 0.00029894096108261842 0 8.3076034124695557e-05 0.00029057742741128592 0 -2.6664256193399182e-07 0.00029894096108261842 0 -6.4347299763911199e-06 0.00026120731864461342 0 4.2574952432835239e-05 0.00038145786597946872 0 -0.00017669118391964319 0.00025253211831399204 0 -0.00025917156413257772 0.0003031010704072529 0 -0.00017669118391964319 0.00025253211831399204 0 -0.00040780014191733107 0.00018004640701523242 0 -0.00025917156413257772 0.0003031010704072529 0 -0.00017669118391964319 0.00025253211831399204 0 -0.00024792963691562867 0.00021305213351161418 0 -0.00040780014191733107 0.00018004640701523242 0 -0.00044054904743230574 0.00020975628851458127 0 -0.00063758388942906908 0.00029556457226267508 0 -0.00040780014191733107 0.00018004640701523242 0 -0.00024792963691562867 0.00021305213351161418 0 -0.00044054904743230574 0.00020975628851458127 0 -0.00040780014191733107 0.00018004640701523242 0 -0.00068836110969096136 5.2228830932559727e-05 0 -0.00058459454714406803 8.8289345700479156e-05 0 -0.00098251895613268143 3.0127005455670869e-05 0 -0.00024792963691562867 0.00021305213351161418 0 -1.2628944892279207e-05 0.00020101866477487777 0 -0.00044054904743230574 0.00020975628851458127 0 -0.00029564956690961456 0.00014220649529057334 0 -0.00069814314720700508 0.00013178557425339753 0 -0.00068836110969096136 5.2228830932559727e-05 0 -0.00098251895613268143 3.0127005455670869e-05 0 -0.00087144867757643608 1.3644515869813542e-05 0 -0.00024792963691562867 0.00021305213351161418 0 -0.00010606143566791221 0.0002430373835761581 0 -1.2628944892279207e-05 0.00020101866477487777 0 -0.00017669118391964319 0.00025253211831399204 0 -0.00024792963691562867 0.00021305213351161418 0 -0.00010606143566791221 0.0002430373835761581 0 -2.6664256193399182e-07 0.00029894096108261842 0 -0.00017669118391964319 0.00025253211831399204 0 -0.00010606143566791221 0.0002430373835761581 0 -2.6664256193399182e-07 0.00029894096108261842 0 -0.00010606143566791221 0.0002430373835761581 0 -6.4347299763911199e-06 0.00026120731864461342 0 -0.00010606143566791221 0.0002430373835761581 0 -6.4347299763911199e-06 0.00026120731864461342 0 -1.2628944892279207e-05 0.00020101866477487777 0 9.8320840750083438e-05 0.0001942113554987397 0 -0.00068836110969096136 5.2228830932559727e-05 0 -0.00058459454714406803 8.8289345700479156e-05 0 -0.00051770313473651394 4.0667898439561472e-05 0 -0.00068836110969096136 5.2228830932559727e-05 0 -0.00064988537081769177 1.057139475903202e-05 0 -0.00022640741155682077 0.00013700574030098403 0 -0.00061298743824941165 4.0611532201403025e-05 0 8.3076034124695557e-05 0.00029057742741128592 0 -6.4347299763911199e-06 0.00026120731864461342 0 -1.2628944892279207e-05 0.00020101866477487777 0 0.00013030848470213814 0.00031397790391562064 0 -0.00029564956690961456 0.00014220649529057334 0 -0.00051770313473651394 4.0667898439561472e-05 0 -0.00064988537081769177 1.057139475903202e-05 0 -0.00043975647935669949 -3.7091721876730776e-05 0 -0.00027028711914564932 -4.5335404659148304e-05 0 -0.00038474078304751524 1.8732965153870592e-05 0 -0.00043975647935669949 -3.7091721876730776e-05 0 -0.00038474078304751524 1.8732965153870592e-05 0 -0.00051770313473651394 4.0667898439561472e-05 0 -0.00043975647935669949 -3.7091721876730776e-05 0 -0.00082918054289402758 3.0557298651125639e-05 0 -0.00064988537081769177 1.057139475903202e-05 0 -0.00078718518699307622 3.2560439056551722e-05 0 -0.00031700799240187515 -0.00016830363497875376 0 -0.00064988537081769177 1.057139475903202e-05 0 -0.00043975647935669949 -3.7091721876730776e-05 0 -0.00057149517267727926 -5.3607792578910878e-05 0 -0.00064907459537145594 -1.7563684103709073e-06 0 -0.00082918054289402758 3.0557298651125639e-05 0 -0.00078718518699307622 3.2560439056551722e-05 0 -0.00083093884480569126 7.3848923834967673e-06 0 -0.00068836110969096136 5.2228830932559727e-05 0 -0.00076043753221473234 3.205560080085107e-05 0 -0.00087144867757643608 1.3644515869813542e-05 0 -0.00064988537081769177 1.057139475903202e-05 0 -0.00078718518699307622 3.2560439056551722e-05 0 -0.00076043753221473234 3.205560080085107e-05 0 -0.00068836110969096136 5.2228830932559727e-05 0 -0.00064988537081769177 1.057139475903202e-05 0 -0.00076043753221473234 3.205560080085107e-05 0 -0.00076043753221473234 3.205560080085107e-05 0 -0.00083740067136636221 9.6027311827642281e-06 0 -0.00087144867757643608 1.3644515869813542e-05 0 -0.00078718518699307622 3.2560439056551722e-05 0 -0.00076043753221473234 3.205560080085107e-05 0 -0.00083740067136636221 9.6027311827642281e-06 0 -0.00083740067136636221 9.6027311827642281e-06 0 -0.00089946212503772926 -1.6542982687794793e-05 0 -0.00087144867757643608 1.3644515869813542e-05 0 -0.00078718518699307622 3.2560439056551722e-05 0 -0.00083740067136636221 9.6027311827642281e-06 0 -0.00083093884480569126 7.3848923834967673e-06 0 -0.00083740067136636221 9.6027311827642281e-06 0 -0.00083093884480569126 7.3848923834967673e-06 0 -0.00087401727009000444 -4.0456253677801144e-05 0 -0.00093020544253199589 -9.0167594532263406e-05 0 -0.00088276189023863067 -0.00010422796710620551 0 -0.00087401727009000444 -4.0456253677801144e-05 0 -0.00084038771883739125 -5.7324423363630261e-05 0 -0.00083093884480569126 7.3848923834967673e-06 0 -0.00087401727009000444 -4.0456253677801144e-05 0 -0.00088276189023863067 -0.00010422796710620551 0 -0.00084038771883739125 -5.7324423363630261e-05 0 -0.00087401727009000444 -4.0456253677801144e-05 0 -0.00093020544253199589 -9.0167594532263406e-05 0 -0.00089946212503772926 -1.6542982687794793e-05 0 -0.00098774256884721803 -4.3538959012420517e-06 0 -0.00093020544253199589 -9.0167594532263406e-05 0 -0.00087401727009000444 -4.0456253677801144e-05 0 -0.00089946212503772926 -1.6542982687794793e-05 0 -0.00083740067136636221 9.6027311827642281e-06 0 -0.00087401727009000444 -4.0456253677801144e-05 0 -0.00089946212503772926 -1.6542982687794793e-05 0 -0.0011262471450268147 -2.1583548755195611e-05 0 -0.00098774256884721803 -4.3538959012420517e-06 0 -0.0011635250429780407 5.7442436658182028e-05 0 -0.00098774256884721803 -4.3538959012420517e-06 0 -0.0011635250429780407 5.7442436658182028e-05 0 -0.00098251895613268143 3.0127005455670869e-05 0 -0.00077517914946542113 0.00043372074222531004 0 -0.00044054904743230574 0.00020975628851458127 0 -0.00063758388942906908 0.00029556457226267508 0 -0.00098304638633704678 0.00024334290356012761 0 -0.00069814314720700508 0.00013178557425339753 0 -0.00098774256884721803 -4.3538959012420517e-06 0 -0.00098251895613268143 3.0127005455670869e-05 0 -0.00087144867757643608 1.3644515869813542e-05 0 -0.00089946212503772926 -1.6542982687794793e-05 0 -0.00098774256884721803 -4.3538959012420517e-06 0 -0.00087144867757643608 1.3644515869813542e-05 0 -0.0018174888782074479 0.00033060894189706097 0 -0.00049306478278750212 4.0428327587414158e-05 0 -0.00091500109891638922 0.00038690948211587501 0 -0.00066497797046358837 0.00040758491520067952 0 -0.00079397701187300103 0.00030148686151307958 0 -0.00091500109891638922 0.00038690948211587501 0 -0.00063758388942906908 0.00029556457226267508 0 -0.00079397701187300103 0.00030148686151307958 0 -0.00077517914946542113 0.00043372074222531004 0 -0.00091500109891638922 0.00038690948211587501 0 -0.00063758388942906908 0.00029556457226267508 0 -0.00077517914946542113 0.00043372074222531004 0 -0.00091500109891638922 0.00038690948211587501 0 -0.0011408985595320882 0.00051633466748555524 0 -0.0014958205106839937 5.9654204114151384e-05 0 -0.00077517914946542113 0.00043372074222531004 0 -0.0011408985595320882 0.00051633466748555524 0 -0.0010835778014456586 0.00068702822233282165 0 -0.0018174888782074479 0.00033060894189706097 0 -0.0022941152524524441 0.00034883308277214591 0 -0.0011408985595320882 0.00051633466748555524 0 -0.0024447198601951887 0.001306306232798574 0 -0.00091500109891638922 0.00038690948211587501 0 -0.0011408985595320882 0.00051633466748555524 0 -0.00066497797046358837 0.00040758491520067952 0 -0.0022941152524524441 0.00034883308277214591 0 -0.0030860213017240776 0.00079503521917934561 0 -0.0024447198601951887 0.001306306232798574 0 -0.0036408073382612283 0.00022224132482015686 0 -0.0036154800173652038 1.6154741250340027e-05 0 -0.003757378740482258 0.00010134582798408547 0 -0.0035041916012693167 0.00044650096932801533 0 -0.0018174888782074479 0.00033060894189706097 0 -0.002369507575284088 -0.00025274622033338444 0 -0.0018174888782074479 0.00033060894189706097 0 -0.0010229679476122533 -0.00046474785562530347 0 -0.0007730974211216865 -0.00051830192745804643 0 -0.00081948303936714374 -0.0002410454204910761 0 -0.0007730974211216865 -0.00051830192745804643 0 -0.00081948303936714374 -0.0002410454204910761 0 -0.00052313093881513101 -0.0002145037138004953 0 -0.00081948303936714374 -0.0002410454204910761 0 -0.0009627819288227094 5.6111378374311455e-05 0 -0.0010760763113790762 -0.00033041931012216171 0 -0.0010229679476122533 -0.00046474785562530347 0 -0.00081948303936714374 -0.0002410454204910761 0 -0.0010760763113790762 -0.00033041931012216171 0 -0.0009627819288227094 5.6111378374311455e-05 0 -0.00056570953631151621 7.7681444747380244e-05 0 -0.00063266760461852816 0.00033505292495529271 0 -0.00081948303936714374 -0.0002410454204910761 0 -0.0009627819288227094 5.6111378374311455e-05 0 -0.00056570953631151621 7.7681444747380244e-05 0 -0.00081948303936714374 -0.0002410454204910761 0 -0.00056570953631151621 7.7681444747380244e-05 0 -0.00052313093881513101 -0.0002145037138004953 0 -0.00056570953631151621 7.7681444747380244e-05 0 -0.00052313093881513101 -0.0002145037138004953 0 -0.00040780014191733107 0.00018004640701523242 0 -0.00063758388942906908 0.00029556457226267508 0 -0.00079397701187300103 0.00030148686151307958 0 -0.00040780014191733107 0.00018004640701523242 0 -0.00049306478278750212 4.0428327587414158e-05 0 -0.00051232403497600742 0.00013446260244060181 0 -0.00056570953631151621 7.7681444747380244e-05 0 -0.00040780014191733107 0.00018004640701523242 0 -0.00025917156413257772 0.0003031010704072529 0 -0.00056570953631151621 7.7681444747380244e-05 0 -0.00025917156413257772 0.0003031010704072529 0 -0.00063266760461852816 0.00033505292495529271 0 0.00015199744372858121 0.00048505628479349286 0 -0.00015744295822965788 0.00020998771720714382 0 0.00063170861850812019 0.00048564628907384738 0 0.00041720041485373541 0.00044570475651801598 0 0.00033223883449967856 6.9601670988045223e-05 0 1.6023489199298067e-05 0.00046107915164319147 0 -0.00025917156413257772 0.0003031010704072529 0 -0.00030235817472727417 0.00052750857953000481 0 -0.00025917156413257772 0.0003031010704072529 0 -0.00030235817472727417 0.00052750857953000481 0 -0.00063266760461852816 0.00033505292495529271 0 0.00033295214553436951 0.00058847352468725496 0 0.00063170861850812019 0.00048564628907384738 0 0.00061955976196296429 0.00053231253915393564 0 0.00063170861850812019 0.00048564628907384738 0 0.00064416329793852564 0.00058433060669202711 0 0.00061955976196296429 0.00053231253915393564 0 0.00063170861850812019 0.00048564628907384738 0 0.00064416329793852564 0.00058433060669202711 0 0.00041720041485373541 0.00044570475651801598 0 0.00064416329793852564 0.00058433060669202711 0 0.00061955976196296429 0.00053231253915393564 0 0.000791520175306598 0.00045469562304071719 0 0.00052003601234390604 0.00074265405636077936 0 -0.00029141975238034217 0.00053199889495311617 0 -0.00021002068168340024 0.00090165124121583057 0 0.00064416329793852564 0.00058433060669202711 0 0.00052003601234390604 0.00074265405636077936 0 0.00041720041485373541 0.00044570475651801598 0 0.00064416329793852564 0.00058433060669202711 0 0.00052003601234390604 0.00074265405636077936 0 0.00077035665952256355 0.00053627696273692363 0 0.00052003601234390604 0.00074265405636077936 0 0.00041720041485373541 0.00044570475651801598 0 -1.9152227623631697e-05 0.00040341727272002234 0 0.00052003601234390604 0.00074265405636077936 0 -1.9152227623631697e-05 0.00040341727272002234 0 -0.00029141975238034217 0.00053199889495311617 0 -1.9152227623631697e-05 0.00040341727272002234 0 -0.00057697218472478693 0.00016771613850022953 0 -0.00029141975238034217 0.00053199889495311617 0 -1.9152227623631697e-05 0.00040341727272002234 0 -0.00012164240174206363 0.00011546482362899667 0 -0.00057697218472478693 0.00016771613850022953 0 0.00041720041485373541 0.00044570475651801598 0 0.00033223883449967856 6.9601670988045223e-05 0 -0.00012164240174206363 0.00011546482362899667 0 0.00041720041485373541 0.00044570475651801598 0 -1.9152227623631697e-05 0.00040341727272002234 0 -0.00012164240174206363 0.00011546482362899667 0 -0.00038521915572952114 -0.00025193092573090321 0 0.00033223883449967856 6.9601670988045223e-05 0 -0.00012164240174206363 0.00011546482362899667 0 -0.00067082898898621198 -8.5328512496396009e-05 0 -0.00015744295822965788 0.00020998771720714382 0 -0.00038521915572952114 -0.00025193092573090321 0 -0.00012164240174206363 0.00011546482362899667 0 -0.00057697218472478693 0.00016771613850022953 0 -0.00038521915572952114 -0.00025193092573090321 0 -0.00057697218472478693 0.00016771613850022953 0 -0.0010121275806010356 -7.9358550167341082e-05 0 -0.001217927355394297 8.1951352679185947e-05 0 -0.00057697218472478693 0.00016771613850022953 0 -0.0010121275806010356 -7.9358550167341082e-05 0 -0.001217927355394297 8.1951352679185947e-05 0 -0.00084378267376940372 0.00028500505431105024 0 -0.00057697218472478693 0.00016771613850022953 0 -0.001217927355394297 8.1951352679185947e-05 0 -0.00084378267376940372 0.00028500505431105024 0 -0.0012161210374915677 0.00013843391884170919 0 -0.00084378267376940372 0.00028500505431105024 0 -0.00057697218472478693 0.00016771613850022953 0 -0.00029141975238034217 0.00053199889495311617 0 -0.00084378267376940372 0.00028500505431105024 0 -0.00029141975238034217 0.00053199889495311617 0 -0.00062600629548957868 0.00070722688180136232 0 -0.00079408961227330052 0.00030087118405580795 0 -0.00065221175736481982 0.00045127063889035293 0 -0.00084378267376940372 0.00028500505431105024 0 -0.00065036106505891736 0.00020592687238204962 0 -0.00074857660473133785 0.00018247068634382675 0 -0.00065036106505891736 0.00020592687238204962 0 -0.00040791543474605671 0.00013836237646304653 0 -0.00040735370300981247 0.0001061729144768109 0 -0.00029141975238034217 0.00053199889495311617 0 -0.00062600629548957868 0.00070722688180136232 0 -0.00021002068168340024 0.00090165124121583057 0 -0.00062600629548957868 0.00070722688180136232 0 -0.00021002068168340024 0.00090165124121583057 0 -0.00050993845939379366 0.0012446462428259411 0 -0.00065221175736481982 0.00045127063889035293 0 -0.00057675117241965214 0.00072450028381865997 0 -0.00040791543474605671 0.00013836237646304653 0 -0.00058543388522019066 2.1322750166097213e-07 0 0.00023946994702925319 5.3976516442360155e-07 0 -0.00040791543474605671 0.00013836237646304653 0 -0.00074857660473133785 0.00018247068634382675 0 -0.00058543388522019066 2.1322750166097213e-07 0 -0.00065036106505891736 0.00020592687238204962 0 -0.00040791543474605671 0.00013836237646304653 0 -0.00074857660473133785 0.00018247068634382675 0 -0.00074857660473133785 0.00018247068634382675 0 -0.00058543388522019066 2.1322750166097213e-07 0 -0.0012161210374915677 0.00013843391884170919 0 -0.00058543388522019066 2.1322750166097213e-07 0 -0.0012161210374915677 0.00013843391884170919 0 -0.0014099894762539097 2.0650951618148523e-07 0 -0.00084378267376940372 0.00028500505431105024 0 -0.00074857660473133785 0.00018247068634382675 0 -0.0012161210374915677 0.00013843391884170919 0 -0.001217927355394297 8.1951352679185947e-05 0 -0.0012161210374915677 0.00013843391884170919 0 -0.0018219215744291048 -6.0456815616438229e-06 0 -0.0012161210374915677 0.00013843391884170919 0 -0.0014099894762539097 2.0650951618148523e-07 0 -0.0018219215744291048 -6.0456815616438229e-06 0 -0.0014099894762539097 2.0650951618148523e-07 0 -0.0022347481416206991 -2.0975606100610785e-07 0 -0.0018219215744291048 -6.0456815616438229e-06 0 -0.0022347481416206991 -2.0975606100610785e-07 0 -0.0022706911423782069 -0.00011245689687554431 0 -0.0018219215744291048 -6.0456815616438229e-06 0 -0.0022347481416206991 -2.0975606100610785e-07 0 -0.0022706911423782069 -0.00011245689687554431 0 -0.002705736243703087 -5.9411328454054161e-05 0 -0.0022347481416206991 -2.0975606100610785e-07 0 -0.0030593762570632586 -7.3424355577514636e-09 0 -0.002705736243703087 -5.9411328454054161e-05 0 -0.0022670715517078368 -0.00029869584468275015 0 -0.0029323454162370707 3.1757286313740745e-06 0 -0.002705736243703087 -5.9411328454054161e-05 0 -0.0022706911423782069 -0.00011245689687554431 0 -0.0022670715517078368 -0.00029869584468275015 0 -0.002705736243703087 -5.9411328454054161e-05 0 -0.0022670715517078368 -0.00029869584468275015 0 -0.0018219215744291048 -6.0456815616438229e-06 0 -0.0015568532823941193 -9.7570921753739284e-05 0 -0.0022706911423782069 -0.00011245689687554431 0 -0.0022670715517078368 -0.00029869584468275015 0 -0.0018219215744291048 -6.0456815616438229e-06 0 -0.0015568532823941193 -9.7570921753739284e-05 0 -0.0010121275806010356 -7.9358550167341082e-05 0 -0.0012989639789062857 -0.00037250740301920747 0 -0.001217927355394297 8.1951352679185947e-05 0 -0.0015568532823941193 -9.7570921753739284e-05 0 -0.0010121275806010356 -7.9358550167341082e-05 0 -0.001217927355394297 8.1951352679185947e-05 0 -0.0018219215744291048 -6.0456815616438229e-06 0 -0.0015568532823941193 -9.7570921753739284e-05 0 -0.00038521915572952114 -0.00025193092573090321 0 -0.0010121275806010356 -7.9358550167341082e-05 0 -0.0012989639789062857 -0.00037250740301920747 0 -0.00067082898898621198 -8.5328512496396009e-05 0 -0.0012316708690513903 -0.00035522261659251862 0 -0.0010229679476122533 -0.00046474785562530347 0 -0.0010760763113790762 -0.00033041931012216171 0 -0.0012809040276419218 -0.00057358444083884105 0 -0.0009627819288227094 5.6111378374311455e-05 0 -0.0010760763113790762 -0.00033041931012216171 0 -0.0012989639789062857 -0.00037250740301920747 0 -0.0010760763113790762 -0.00033041931012216171 0 -0.0012989639789062857 -0.00037250740301920747 0 -0.0012809040276419218 -0.00057358444083884105 0 -0.0022670715517078368 -0.00029869584468275015 0 -0.0033213598406845509 -0.00017712122688951236 0 -0.0029323454162370707 3.1757286313740745e-06 0 -0.0023091695290097854 -0.0003077411614587589 0 -0.0023038056065362721 -0.00033869291629565451 0 -0.0022670715517078368 -0.00029869584468275015 0 -0.0012989639789062857 -0.00037250740301920747 0 -0.0012809040276419218 -0.00057358444083884105 0 -0.0022670715517078368 -0.00029869584468275015 0 -0.0015568532823941193 -9.7570921753739284e-05 0 -0.0012989639789062857 -0.00037250740301920747 0 -0.0033213598406845509 -0.00017712122688951236 0 -0.0029323454162370707 3.1757286313740745e-06 0 -0.0033141604413620828 6.8978609766896917e-05 0 -0.0029323454162370707 3.1757286313740745e-06 0 -0.0033141604413620828 6.8978609766896917e-05 0 -0.003308532086323901 0.00015053618245027377 0 -0.0036154800173652038 1.6154741250340027e-05 0 -0.0033141604413620828 6.8978609766896917e-05 0 -0.0034841835577162743 0.00019623316758723814 0 -0.0036154800173652038 1.6154741250340027e-05 0 -0.0033213598406845509 -0.00017712122688951236 0 -0.0033141604413620828 6.8978609766896917e-05 0 -0.002369507575284088 -0.00025274622033338444 0 -0.0023038056065362721 -0.00033869291629565451 0 -0.0035699722928684966 0.00030866997605768901 0 -0.0036408073382612283 0.00022224132482015686 0 -0.0034841835577162743 0.00019623316758723814 0 -0.0036408073382612283 0.00022224132482015686 0 -0.0036154800173652038 1.6154741250340027e-05 0 -0.0034841835577162743 0.00019623316758723814 0 -0.0035655099438143237 0.00024066435962854927 0 -0.0034841835577162743 0.00019623316758723814 0 -0.003308532086323901 0.00015053618245027377 0 -0.0033141604413620828 6.8978609766896917e-05 0 -0.0034841835577162743 0.00019623316758723814 0 -0.003308532086323901 0.00015053618245027377 0 -0.0037201662045987355 0.00010385800873167835 0 -0.003308532086323901 0.00015053618245027377 0 -0.0033138917072627625 5.894108706679164e-05 0 -0.0038842061098499575 2.1221000681351777e-07 0 -0.0033138917072627625 5.894108706679164e-05 0 -0.0030593762570632586 -7.3424355577514636e-09 0 -0.0038842061098499575 2.1221000681351777e-07 0 -0.0037201662045987355 0.00010385800873167835 0 -0.0033138917072627625 5.894108706679164e-05 0 -0.0033138917072627625 5.894108706679164e-05 0 -0.0030593762570632586 -7.3424355577514636e-09 0 -0.002705736243703087 -5.9411328454054161e-05 0 -0.003308532086323901 0.00015053618245027377 0 -0.0033138917072627625 5.894108706679164e-05 0 -0.002705736243703087 -5.9411328454054161e-05 0 -0.0029323454162370707 3.1757286313740745e-06 0 -0.003308532086323901 0.00015053618245027377 0 -0.002705736243703087 -5.9411328454054161e-05 0 -0.00019370543325797289 -0.00058674883701738281 0 -0.00021642189171306215 -0.00051817603401353252 0 -0.00010453382066099138 -0.00054795644427776187 0 -0.00019370543325797289 -0.00058674883701738281 0 -0.00015528286586068995 -0.00064610571574549294 0 -0.00010453382066099138 -0.00054795644427776187 0 -0.00019370543325797289 -0.00058674883701738281 0 -0.00015528286586068995 -0.00064610571574549294 0 -0.00024367651702737926 -0.0006319692579106384 0 -0.00015528286586068995 -0.00064610571574549294 0 -0.00024367651702737926 -0.0006319692579106384 0 -0.00033770641654339879 -0.0006972222649892178 0 -0.00024367651702737926 -0.0006319692579106384 0 -0.00029545890334260961 -0.00063604546635396262 0 -0.00026571331144056029 -0.0005843885787854585 0 -0.00024367651702737926 -0.0006319692579106384 0 -0.00029545890334260961 -0.00063604546635396262 0 -0.00033770641654339879 -0.0006972222649892178 0 -0.00029545890334260961 -0.00063604546635396262 0 -0.00034298027849893496 -0.0006329946857481538 0 -0.00033770641654339879 -0.0006972222649892178 0 -0.00029545890334260961 -0.00063604546635396262 0 -0.00034298027849893496 -0.0006329946857481538 0 -0.00031051344325470562 -0.00060547902353720194 0 -0.00034298027849893496 -0.0006329946857481538 0 -0.00031051344325470562 -0.00060547902353720194 0 -0.00035308867918448691 -0.00059559044324625666 0 -0.00026571331144056029 -0.0005843885787854585 0 -0.00027726709459627692 -0.00052741378323747749 0 -0.0003343034827757233 -0.00053535372406581525 0 -0.00031051344325470562 -0.00060547902353720194 0 -0.0003343034827757233 -0.00053535372406581525 0 -0.00035308867918448691 -0.00059559044324625666 0 -0.00031051344325470562 -0.00060547902353720194 0 -0.00026571331144056029 -0.0005843885787854585 0 -0.0003343034827757233 -0.00053535372406581525 0 -0.00029545890334260961 -0.00063604546635396262 0 -0.00031051344325470562 -0.00060547902353720194 0 -0.00026571331144056029 -0.0005843885787854585 0 -0.00019370543325797289 -0.00058674883701738281 0 -0.00026571331144056029 -0.0005843885787854585 0 -0.00021642189171306215 -0.00051817603401353252 0 -0.00019370543325797289 -0.00058674883701738281 0 -0.00024367651702737926 -0.0006319692579106384 0 -0.00026571331144056029 -0.0005843885787854585 0 -0.00026571331144056029 -0.0005843885787854585 0 -0.00027726709459627692 -0.00052741378323747749 0 -0.00021642189171306215 -0.00051817603401353252 0 -0.00027726709459627692 -0.00052741378323747749 0 -0.00029282715938410792 -0.00047121218589821814 0 -0.00021642189171306215 -0.00051817603401353252 0 -0.0003343034827757233 -0.00053535372406581525 0 -0.00029282715938410792 -0.00047121218589821814 0 -0.0003834067778558819 -0.00049981948856386578 0 -0.00027726709459627692 -0.00052741378323747749 0 -0.0003343034827757233 -0.00053535372406581525 0 -0.00029282715938410792 -0.00047121218589821814 0 -0.00029282715938410792 -0.00047121218589821814 0 -0.0003834067778558819 -0.00049981948856386578 0 -0.00035915895124138562 -0.00045081756898857409 0 -0.00029282715938410792 -0.00047121218589821814 0 -0.00035915895124138562 -0.00045081756898857409 0 -0.00030394861095975784 -0.00042220125095607041 0 -0.00029282715938410792 -0.00047121218589821814 0 -0.00027087181430768156 -0.00043558437910887318 0 -0.00030394861095975784 -0.00042220125095607041 0 -0.00035915895124138562 -0.00045081756898857409 0 -0.00036538965098952713 -0.00040863877749177058 0 -0.00030394861095975784 -0.00042220125095607041 0 -0.00029282715938410792 -0.00047121218589821814 0 -0.00022257743488894293 -0.00044901524633542177 0 -0.00021642189171306215 -0.00051817603401353252 0 -0.00029282715938410792 -0.00047121218589821814 0 -0.00027087181430768156 -0.00043558437910887318 0 -0.00022257743488894293 -0.00044901524633542177 0 -0.00022257743488894293 -0.00044901524633542177 0 -0.00016844364708368083 -0.000450136860546597 0 -0.0002220834182048556 -0.00040064978951222691 0 -0.00022257743488894293 -0.00044901524633542177 0 -0.00016844364708368083 -0.000450136860546597 0 -0.00021642189171306215 -0.00051817603401353252 0 -0.00016844364708368083 -0.000450136860546597 0 -0.00021642189171306215 -0.00051817603401353252 0 -0.00010453382066099138 -0.00054795644427776187 0 -0.00016844364708368083 -0.000450136860546597 0 -0.00010453382066099138 -0.00054795644427776187 0 -5.5459605364324538e-05 -0.00047641358941884773 0 -5.5459605364324538e-05 -0.00047641358941884773 0 -2.2458887964089665e-05 -0.00052205084396915338 0 3.5144176386779931e-06 -0.00047602160002341998 0 -0.00010453382066099138 -0.00054795644427776187 0 -5.5459605364324538e-05 -0.00047641358941884773 0 -2.2458887964089665e-05 -0.00052205084396915338 0 1.987576367918362e-05 -0.00050292160918506213 0 4.4846180944606802e-05 -0.00050269199837287817 0 5.040278540010761e-05 -0.00047591701111606973 0 -2.2458887964089665e-05 -0.00052205084396915338 0 1.987576367918362e-05 -0.00050292160918506213 0 3.5144176386779931e-06 -0.00047602160002341998 0 1.987576367918362e-05 -0.00050292160918506213 0 5.040278540010761e-05 -0.00047591701111606973 0 3.5144176386779931e-06 -0.00047602160002341998 0 -2.2458887964089665e-05 -0.00052205084396915338 0 2.3832886121656352e-05 -0.00052719762177804721 0 1.987576367918362e-05 -0.00050292160918506213 0 2.3832886121656352e-05 -0.00052719762177804721 0 4.4846180944606802e-05 -0.00050269199837287817 0 7.5963848928015332e-05 -0.00052300184496860825 0 2.3832886121656352e-05 -0.00052719762177804721 0 1.987576367918362e-05 -0.00050292160918506213 0 4.4846180944606802e-05 -0.00050269199837287817 0 2.3832886121656352e-05 -0.00052719762177804721 0 -7.5305866909806983e-06 -0.00058275611251456811 0 7.5963848928015332e-05 -0.00052300184496860825 0 0.00030840127731183065 -0.00022111778175384531 0 0.00033238752985772325 -0.00027000709977787011 0 0.00015603326192947055 -0.00031664675722041741 0 0.00015604891305128559 -0.00042387394229792297 0 0.00015945656925464775 -0.00043295456233595676 0 0.00040713822184391176 -0.000289281335897638 0 0.00015945656925464775 -0.00043295456233595676 0 0.00048426973016267534 -0.00037500314338023894 0 0.00030338484253905059 -0.00039740822179947259 0 0.00028895776114802184 -0.0004796998220052398 0 0.00048426973016267534 -0.00037500314338023894 0 0.000368102385478581 -0.00034974638721084738 0 0.00030338484253905059 -0.00039740822179947259 0 -2.2458887964089665e-05 -0.00052205084396915338 0 2.3832886121656352e-05 -0.00052719762177804721 0 -7.5305866909806983e-06 -0.00058275611251456811 0 -0.00015528286586068995 -0.00064610571574549294 0 -0.00010453382066099138 -0.00054795644427776187 0 -7.5305866909806983e-06 -0.00058275611251456811 0 0.00013614954009005117 -0.00045322524499044901 0 0.00015604891305128559 -0.00042387394229792297 0 0.00048760084552528274 -0.00022201875276596554 0 0.00033238752985772325 -0.00027000709977787011 0 0.00039510442435603161 -0.00021180898005430186 0 -0.00010453382066099138 -0.00054795644427776187 0 -2.2458887964089665e-05 -0.00052205084396915338 0 -7.5305866909806983e-06 -0.00058275611251456811 0 0.00030840127731183065 -0.00022111778175384531 0 0.00033238752985772325 -0.00027000709977787011 0 0.00039510442435603161 -0.00021180898005430186 0 0.00048426973016267534 -0.00037500314338023894 0 0.00052833280585576695 -0.00028137305796305722 0 0.00061841086681113482 -0.00025305477446450751 0 0.00040713822184391176 -0.000289281335897638 0 0.00052679020102964244 -0.00020050473671102379 0 0.00030840127731183065 -0.00022111778175384531 0 0.00039510442435603161 -0.00021180898005430186 0 0.00044909043453577772 -0.00014135876641510525 0 0.00048426973016267534 -0.00037500314338023894 0 0.00052833280585576695 -0.00028137305796305722 0 0.00047564074552888325 -0.00030915945891490964 0 0.00052833280585576695 -0.00028137305796305722 0 0.00044606824486664675 -0.00026441549973272118 0 0.00052876818486883334 -0.00020278341947777183 0 0.00052833280585576695 -0.00028137305796305722 0 0.00052876818486883334 -0.00020278341947777183 0 0.00061841086681113482 -0.00025305477446450751 0 0.00048426973016267534 -0.00037500314338023894 0 0.000368102385478581 -0.00034974638721084738 0 0.00043068608105634496 -0.00031745706226927426 0 0.000368102385478581 -0.00034974638721084738 0 0.00043068608105634496 -0.00031745706226927426 0 0.00037722120960123888 -0.00030449029011815333 0 0.00048426973016267534 -0.00037500314338023894 0 0.00043068608105634496 -0.00031745706226927426 0 0.00047564074552888325 -0.00030915945891490964 0 0.00052833280585576695 -0.00028137305796305722 0 0.00047564074552888325 -0.00030915945891490964 0 0.00044606824486664675 -0.00026441549973272118 0 0.00043068608105634496 -0.00031745706226927426 0 0.00047564074552888325 -0.00030915945891490964 0 0.00044606824486664675 -0.00026441549973272118 0 0.00044606824486664675 -0.00026441549973272118 0 0.00037722120960123888 -0.00030449029011815333 0 0.00033852286450155005 -0.00026299378927175672 0 0.00043068608105634496 -0.00031745706226927426 0 0.00044606824486664675 -0.00026441549973272118 0 0.00037722120960123888 -0.00030449029011815333 0 0.00044549790150977562 -0.00017578211445692935 0 0.00052876818486883334 -0.00020278341947777183 0 0.00055233581999078636 -0.00010013665049587448 0 0.00044606824486664675 -0.00026441549973272118 0 0.00044549790150977562 -0.00017578211445692935 0 0.00033852286450155005 -0.00026299378927175672 0 0.00044606824486664675 -0.00026441549973272118 0 0.00044549790150977562 -0.00017578211445692935 0 0.00052876818486883334 -0.00020278341947777183 0 0.00052876818486883334 -0.00020278341947777183 0 0.00059682256273315933 -0.00014926593141262586 0 0.00061841086681113482 -0.00025305477446450751 0 0.00052876818486883334 -0.00020278341947777183 0 0.00059682256273315933 -0.00014926593141262586 0 0.00055233581999078636 -0.00010013665049587448 0 0.00052679020102964244 -0.00020050473671102379 0 0.00062022281724123511 -0.0001194970632455726 0 0.00059682256273315933 -0.00014926593141262586 0 0.00065402489752235799 -0.00012432964878643897 0 0.00061841086681113482 -0.00025305477446450751 0 0.00065402489752235799 -0.00012432964878643897 0 0.00061841086681113482 -0.00025305477446450751 0 0.00068545346973908166 -0.00014278691017702064 0 0.00044909043453577772 -0.00014135876641510525 0 0.00053952279737344664 -0.00016430994475439788 0 0.0005640028443758832 -8.8491314699509294e-05 0 0.00048760084552528274 -0.00022201875276596554 0 0.00044909043453577772 -0.00014135876641510525 0 0.00053952279737344664 -0.00016430994475439788 0 0.00048760084552528274 -0.00022201875276596554 0 0.00039510442435603161 -0.00021180898005430186 0 0.00044909043453577772 -0.00014135876641510525 0 0.00053952279737344664 -0.00016430994475439788 0 0.00059373998490396733 -0.00012179096765616609 0 0.0005640028443758832 -8.8491314699509294e-05 0 0.00013614954009005117 -0.00045322524499044901 0 0.00024944876331430915 -0.00024671874290143123 0 0.00048760084552528274 -0.00022201875276596554 0 0.00060728123575119308 -0.00016866439778073997 0 0.00053952279737344664 -0.00016430994475439788 0 0.00060728123575119308 -0.00016866439778073997 0 0.00053952279737344664 -0.00016430994475439788 0 0.000604328211172637 -0.0001443300824028326 0 0.00060728123575119308 -0.00016866439778073997 0 0.000604328211172637 -0.0001443300824028326 0 0.00060926678590207737 -0.00015488401751327389 0 0.00053952279737344664 -0.00016430994475439788 0 0.000604328211172637 -0.0001443300824028326 0 0.00059373998490396733 -0.00012179096765616609 0 0.00059373998490396733 -0.00012179096765616609 0 0.0005640028443758832 -8.8491314699509294e-05 0 0.0006289794379391539 -0.00010004296699840576 0 0.00062022281724123511 -0.0001194970632455726 0 0.00065766013289858755 -8.3984044529254552e-05 0 0.00065402489752235799 -0.00012432964878643897 0 0.00068545346973908166 -0.00014278691017702064 0 0.00068051795973853848 -8.4842575952560667e-05 0 0.0005640028443758832 -8.8491314699509294e-05 0 0.0006289794379391539 -0.00010004296699840576 0 0.00066466716474653062 -7.6527076342824065e-05 0 0.0006289794379391539 -0.00010004296699840576 0 0.00064047006759924692 -0.00010859552790572768 0 0.00062029142871063798 -0.00012382216886811556 0 0.00059373998490396733 -0.00012179096765616609 0 0.0006289794379391539 -0.00010004296699840576 0 0.00062029142871063798 -0.00012382216886811556 0 0.0006289794379391539 -0.00010004296699840576 0 0.00064047006759924692 -0.00010859552790572768 0 0.00065326040187868031 -8.6451482117800478e-05 0 0.0006289794379391539 -0.00010004296699840576 0 0.00065326040187868031 -8.6451482117800478e-05 0 0.00066466716474653062 -7.6527076342824065e-05 0 0.00065326040187868031 -8.6451482117800478e-05 0 0.00066598124970317476 -7.8325667691127776e-05 0 0.00065624540499741306 -7.537226294869767e-05 0 0.00065326040187868031 -8.6451482117800478e-05 0 0.00066598124970317476 -7.8325667691127776e-05 0 0.00065413830972831371 -0.00010075998123714301 0 0.00066598124970317476 -7.8325667691127776e-05 0 0.00066352236862196319 -0.00010865702297617367 0 0.00069117870242452 -0.00011801114968943074 0 0.00066598124970317476 -7.8325667691127776e-05 0 0.00066352236862196319 -0.00010865702297617367 0 0.00065413830972831371 -0.00010075998123714301 0 0.00064047006759924692 -0.00010859552790572768 0 0.00065326040187868031 -8.6451482117800478e-05 0 0.00065413830972831371 -0.00010075998123714301 0 0.00066352236862196319 -0.00010865702297617367 0 0.00065413830972831371 -0.00010075998123714301 0 0.00064860606351134357 -0.00011513885499652086 0 0.00064047006759924692 -0.00010859552790572768 0 0.00065413830972831371 -0.00010075998123714301 0 0.00064860606351134357 -0.00011513885499652086 0 0.00065298198044586031 -0.00013167100990989317 0 0.00069117870242452 -0.00011801114968943074 0 0.00068159429336538948 -0.0002072828712757758 0 0.00064860606351134357 -0.00011513885499652086 0 0.00065298198044586031 -0.00013167100990989317 0 0.00063204299505470235 -0.00012967099380057997 0 0.00066352236862196319 -0.00010865702297617367 0 0.00064860606351134357 -0.00011513885499652086 0 0.00065298198044586031 -0.00013167100990989317 0 0.00066352236862196319 -0.00010865702297617367 0 0.00065298198044586031 -0.00013167100990989317 0 0.00069117870242452 -0.00011801114968943074 0 0.00065298198044586031 -0.00013167100990989317 0 0.00068159429336538948 -0.0002072828712757758 0 0.00062283999825957063 -0.00020063224859290008 0 0.00065298198044586031 -0.00013167100990989317 0 0.00057843185805336308 -0.00018482995507575298 0 0.00062283999825957063 -0.00020063224859290008 0 0.00024944876331430915 -0.00024671874290143123 0 0.00076743223193429997 -0.00010366655075138615 0 0.00065298198044586031 -0.00013167100990989317 0 0.00061874432054116605 -0.00014812280816266021 0 0.00063204299505470235 -0.00012967099380057997 0 0.00060728123575119308 -0.00016866439778073997 0 0.00065298198044586031 -0.00013167100990989317 0 0.00061874432054116605 -0.00014812280816266021 0 0.0004770281969573338 -0.0001634020147099803 0 0.00065298198044586031 -0.00013167100990989317 0 0.00057843185805336308 -0.00018482995507575298 0 0.00060728123575119308 -0.00016866439778073997 0 0.00060926678590207737 -0.00015488401751327389 0 0.00061874432054116605 -0.00014812280816266021 0 0.00061874432054116605 -0.00014812280816266021 0 0.00062029142871063798 -0.00012382216886811556 0 0.00063204299505470235 -0.00012967099380057997 0 0.000604328211172637 -0.0001443300824028326 0 0.00061874432054116605 -0.00014812280816266021 0 0.00062029142871063798 -0.00012382216886811556 0 0.000604328211172637 -0.0001443300824028326 0 0.00060926678590207737 -0.00015488401751327389 0 0.00061874432054116605 -0.00014812280816266021 0 0.000604328211172637 -0.0001443300824028326 0 0.00059373998490396733 -0.00012179096765616609 0 0.00062029142871063798 -0.00012382216886811556 0 0.00064047006759924692 -0.00010859552790572768 0 0.00064860606351134357 -0.00011513885499652086 0 0.00063204299505470235 -0.00012967099380057997 0 0.00064047006759924692 -0.00010859552790572768 0 0.00062029142871063798 -0.00012382216886811556 0 0.00063204299505470235 -0.00012967099380057997 0 0.00025075147799347072 -0.00044736611067792449 0 0.00014531712941814656 -0.0004781612268282283 0 0.00017886301539781789 -0.00043889022141813951 0 0.00014531712941814656 -0.0004781612268282283 0 0.00011602554093421685 -0.00046903484267876082 0 0.00017886301539781789 -0.00043889022141813951 0 0.00014531712941814656 -0.0004781612268282283 0 0.00011602554093421685 -0.00046903484267876082 0 8.5779898029773977e-05 -0.00049719897743338121 0 0.00051345607548858752 0.00017896871182407885 0 0.0004405525314129645 0.00041036911495378906 0 0.00037809730992370609 5.9648435678641014e-05 0 7.3911563593150953e-05 -0.0004886602569691206 0 2.8892239601424148e-05 -0.00050706449383543619 0 0.00012514124405139877 -0.00042850549969909084 0 7.3911563593150953e-05 -0.0004886602569691206 0 0.00011602554093421685 -0.00046903484267876082 0 0.00012514124405139877 -0.00042850549969909084 0 0.00025793673124848646 -0.00011545248894507791 0 0.00025145253818304315 -0.00018175232002609398 0 7.3911563593150953e-05 -0.0004886602569691206 0 0.00011602554093421685 -0.00046903484267876082 0 8.5779898029773977e-05 -0.00049719897743338121 0 0.00011602554093421685 -0.00046903484267876082 0 0.00017886301539781789 -0.00043889022141813951 0 0.00012514124405139877 -0.00042850549969909084 0 0.00057317138541306705 6.3182934516746436e-05 0 0.00025793673124848646 -0.00011545248894507791 0 0.00025793673124848646 -0.00011545248894507791 0 -0.00011203887022312589 -0.00026035801426280901 0 3.6260342111569171e-05 -0.00017173072437838281 0 5.0931385099511346e-05 -0.0002214141326701561 0 1.3258809922203222e-05 -0.0003041405627918524 0 7.3911563593150953e-05 -0.0004886602569691206 0 2.8892239601424148e-05 -0.00050706449383543619 0 3.2437941723692965e-05 -0.00051173471266536489 0 2.8892239601424148e-05 -0.00050706449383543619 0 3.2437941723692965e-05 -0.00051173471266536489 0 3.0335725147649417e-05 -0.000515322286403357 0 3.2437941723692965e-05 -0.00051173471266536489 0 5.0110974731421573e-06 -0.00052406847394444373 0 2.301048360629176e-05 -0.00052483926587872229 0 -0.00010642792591759496 -0.00040043208834108623 0 -0.00011522976304452511 -0.00031487566074694001 0 0.00025793673124848646 -0.00011545248894507791 0 -0.00011522976304452511 -0.00031487566074694001 0 -0.00011522976304452511 -0.00031487566074694001 0 -0.00011203887022312589 -0.00026035801426280901 0 5.0110974731421573e-06 -0.00052406847394444373 0 2.301048360629176e-05 -0.00052483926587872229 0 -1.0162490693004763e-05 -0.00055476184285174323 0 2.301048360629176e-05 -0.00052483926587872229 0 4.1555452064205539e-05 -0.00052581155633379061 0 -1.0162490693004763e-05 -0.00055476184285174323 0 2.301048360629176e-05 -0.00052483926587872229 0 5.0815677059697519e-05 -0.00050976461817141651 0 4.1555452064205539e-05 -0.00052581155633379061 0 5.0815677059697519e-05 -0.00050976461817141651 0 8.5779898029773977e-05 -0.00049719897743338121 0 4.1555452064205539e-05 -0.00052581155633379061 0 3.2437941723692965e-05 -0.00051173471266536489 0 2.301048360629176e-05 -0.00052483926587872229 0 5.0815677059697519e-05 -0.00050976461817141651 0 7.3911563593150953e-05 -0.0004886602569691206 0 3.2437941723692965e-05 -0.00051173471266536489 0 5.0815677059697519e-05 -0.00050976461817141651 0 7.3911563593150953e-05 -0.0004886602569691206 0 5.0815677059697519e-05 -0.00050976461817141651 0 8.5779898029773977e-05 -0.00049719897743338121 0 8.5779898029773977e-05 -0.00049719897743338121 0 4.1555452064205539e-05 -0.00052581155633379061 0 9.8994757941641518e-05 -0.00051306648625772664 0 0.00014531712941814656 -0.0004781612268282283 0 8.5779898029773977e-05 -0.00049719897743338121 0 9.8994757941641518e-05 -0.00051306648625772664 0 4.1555452064205539e-05 -0.00052581155633379061 0 9.8994757941641518e-05 -0.00051306648625772664 0 2.9541108839332377e-05 -0.00055302582569778907 0 4.1555452064205539e-05 -0.00052581155633379061 0 2.9541108839332377e-05 -0.00055302582569778907 0 -1.0162490693004763e-05 -0.00055476184285174323 0 9.1705269152010904e-05 -0.00056144306966763951 0 9.8994757941641518e-05 -0.00051306648625772664 0 2.9541108839332377e-05 -0.00055302582569778907 0 0.00016767811739012766 -0.00050598224075972345 0 0.00014531712941814656 -0.0004781612268282283 0 9.8994757941641518e-05 -0.00051306648625772664 0 9.1705269152010904e-05 -0.00056144306966763951 0 3.4456665310571477e-05 -0.0007020257223405267 0 -3.3757031644465608e-05 -0.00060526394842088012 0 9.1705269152010904e-05 -0.00056144306966763951 0 -3.3757031644465608e-05 -0.00060526394842088012 0 2.9541108839332377e-05 -0.00055302582569778907 0 -3.3757031644465608e-05 -0.00060526394842088012 0 2.9541108839332377e-05 -0.00055302582569778907 0 -1.0162490693004763e-05 -0.00055476184285174323 0 -3.3757031644465608e-05 -0.00060526394842088012 0 -0.0001037853331167127 -0.00060743310255898875 0 -1.0162490693004763e-05 -0.00055476184285174323 0 -0.00057080738417844632 -8.0542617155916936e-05 0 -0.00046747069312912386 -0.00041354876407197081 0 -0.00065842743131727937 -0.00027185736217407699 0 -0.00011522976304452511 -0.00031487566074694001 0 -0.00029399334111210659 -0.00052108901767894736 0 -0.00046747069312912386 -0.00041354876407197081 0 -0.00065842743131727937 -0.00027185736217407699 0 -0.00054920338272969858 -0.00060589839023425616 0 5.0110974731421573e-06 -0.00052406847394444373 0 -0.0001037853331167127 -0.00060743310255898875 0 -1.0162490693004763e-05 -0.00055476184285174323 0 -0.00029399334111210659 -0.00052108901767894736 0 -0.00028740066584290316 -0.00073960525697042167 0 -0.00065842743131727937 -0.00027185736217407699 0 -0.00054920338272969858 -0.00060589839023425616 0 -0.00071221897231312523 -0.00079149413471545321 0 -0.00046747069312912386 -0.00041354876407197081 0 -0.00054920338272969858 -0.00060589839023425616 0 -0.00031639898522443639 -0.00074542923169169766 0 -0.00054920338272969858 -0.00060589839023425616 0 -0.00071221897231312523 -0.00079149413471545321 0 -0.00055122073769834246 -0.00079626690120144952 0 -0.00054920338272969858 -0.00060589839023425616 0 -0.00031639898522443639 -0.00074542923169169766 0 -0.00055122073769834246 -0.00079626690120144952 0 3.4456665310571477e-05 -0.0007020257223405267 0 -3.3757031644465608e-05 -0.00060526394842088012 0 -0.00031639898522443639 -0.00074542923169169766 0 -3.3757031644465608e-05 -0.00060526394842088012 0 -0.0001037853331167127 -0.00060743310255898875 0 -0.00031639898522443639 -0.00074542923169169766 0 3.4456665310571477e-05 -0.0007020257223405267 0 -0.00031639898522443639 -0.00074542923169169766 0 -0.00010809347577725448 -0.0009335482159152608 0 -0.0003343034827757233 -0.00053535372406581525 0 -0.00043357099845837076 -0.00058490689755370383 0 -0.00035308867918448691 -0.00059559044324625666 0 -0.00034298027849893496 -0.0006329946857481538 0 -0.00043357099845837076 -0.00058490689755370383 0 -0.00035308867918448691 -0.00059559044324625666 0 0.00024944876331430915 -0.00024671874290143123 0 0.00014419321703479981 -0.00051040931311630575 0 -0.00034298027849893496 -0.0006329946857481538 0 -0.00033770641654339879 -0.0006972222649892178 0 -0.00043357099845837076 -0.00058490689755370383 0 0.00057843185805336308 -0.00018482995507575298 0 0.00055240920730116648 -0.00025425516966432946 0 0.00062283999825957063 -0.00020063224859290008 0 0.0004770281969573338 -0.0001634020147099803 0 0.00057843185805336308 -0.00018482995507575298 0 0.00055240920730116648 -0.00025425516966432946 0 0.00055240920730116648 -0.00025425516966432946 0 0.00062283999825957063 -0.00020063224859290008 0 0.00062540260259041046 -0.00024424055458532824 0 0.00068159429336538948 -0.0002072828712757758 0 0.00062283999825957063 -0.00020063224859290008 0 0.00062540260259041046 -0.00024424055458532824 0 0.00068159429336538948 -0.0002072828712757758 0 0.00062540260259041046 -0.00024424055458532824 0 0.00063672243296821504 -0.00029767742316311207 0 -0.00011203887022312589 -0.00026035801426280901 0 -0.00020422760215333823 -0.00014663729553986409 0 0.00055240920730116648 -0.00025425516966432946 0 0.00062540260259041046 -0.00024424055458532824 0 0.00063064740868943908 -0.00030852160736925046 0 0.00055240920730116648 -0.00025425516966432946 0 0.00063064740868943908 -0.00030852160736925046 0 0.00061444846115656592 -0.00033824913552009839 0 -0.00054970133983644207 -0.00013616663240538119 0 -0.00058950241840959538 -0.00021062317776619706 0 -0.00058471893369391192 -0.00027922669726186076 0 0.00014419321703479981 -0.00051040931311630575 0 -0.00082843193368187208 -0.00024611807426760956 0 -0.00011203887022312589 -0.00026035801426280901 0 -0.0012240929188373822 -0.00025072129881543591 0 -0.00030677990439245228 -0.00015501829747779664 0 -0.00082843193368187208 -0.00024611807426760956 0 -0.00058950241840959538 -0.00021062317776619706 0 -0.00059440530403400316 -0.00021995657967911075 0 -0.00058471893369391192 -0.00027922669726186076 0 0.00062540260259041046 -0.00024424055458532824 0 0.00063672243296821504 -0.00029767742316311207 0 0.00063064740868943908 -0.00030852160736925046 0 -0.00020422760215333823 -0.00014663729553986409 0 -0.00030677990439245228 -0.00015501829747779664 0 -0.0021716502323069924 0.00022619734730877113 0 -0.0021840388237683085 0.00024065630657841243 0 -0.0021826141851704088 0.00023506200039473862 0 -0.00059440530403400316 -0.00021995657967911075 0 -0.00060801534942308817 -0.00024650610504683534 0 -0.00058471893369391192 -0.00027922669726186076 0 -0.00082843193368187208 -0.00024611807426760956 0 -0.0012240929188373822 -0.00025072129881543591 0 -0.00052158499061081328 -0.00047067084905468752 0 -0.0004438804085647986 -0.00046642465252592317 0 -0.00046012858433796736 -0.00037078681729018969 0 -0.00043357099845837076 -0.00058490689755370383 0 -0.0004438804085647986 -0.00046642465252592317 0 -0.0003834067778558819 -0.00049981948856386578 0 -0.00043357099845837076 -0.00058490689755370383 0 -0.00052158499061081328 -0.00047067084905468752 0 -0.0004438804085647986 -0.00046642465252592317 0 -0.0003343034827757233 -0.00053535372406581525 0 -0.00043357099845837076 -0.00058490689755370383 0 -0.0003834067778558819 -0.00049981948856386578 0 -0.0004438804085647986 -0.00046642465252592317 0 -0.0003834067778558819 -0.00049981948856386578 0 -0.00035915895124138562 -0.00045081756898857409 0 -0.0004438804085647986 -0.00046642465252592317 0 -0.00035915895124138562 -0.00045081756898857409 0 -0.00036538965098952713 -0.00040863877749177058 0 -0.0004438804085647986 -0.00046642465252592317 0 -0.00046012858433796736 -0.00037078681729018969 0 -0.00042671524081972921 -0.00037723870186405245 0 -0.0004438804085647986 -0.00046642465252592317 0 -0.00036538965098952713 -0.00040863877749177058 0 -0.00038551197044279205 -0.00035173528858919014 0 -0.00045415312873450602 -0.00047557281094190993 0 -0.00039315931774132026 -0.00028499617033808216 0 -0.00036538965098952713 -0.00040863877749177058 0 -0.00038551197044279205 -0.00035173528858919014 0 -0.00032700108598915411 -0.00037916894442550507 0 -0.0013568781372859738 1.6797447883890652e-05 0 -0.0014009604102923202 -1.3841384117399045e-05 0 -0.0013963921241426137 -1.8169540245375896e-05 0 -0.0021716502323069924 0.00022619734730877113 0 -0.0021840388237683085 0.00024065630657841243 0 -0.0021841821325586709 0.00025181696454035853 0 -0.0021716502323069924 0.00022619734730877113 0 -0.0021793873778087293 0.00025268671273968743 0 -0.0021841821325586709 0.00025181696454035853 0 -0.00082843193368187208 -0.00024611807426760956 0 -0.0018248205282738966 0.0001149531659915188 0 -0.00082843193368187208 -0.00024611807426760956 0 -0.00089678357933668188 -0.00019137190707488083 0 -0.0021840388237683085 0.00024065630657841243 0 -0.0021871653964073844 0.00023179053521733091 0 -0.0021876972977602498 0.00025681869089137825 0 -0.0013183740219446269 -0.00011227146501463114 0 -0.0012240929188373822 -0.00025072129881543591 0 -0.0021840388237683085 0.00024065630657841243 0 -0.0021876972977602498 0.00025681869089137825 0 -0.0021841821325586709 0.00025181696454035853 0 -0.0021876972977602498 0.00025681869089137825 0 -0.0021841821325586709 0.00025181696454035853 0 -0.0021905689632160615 0.00025784443424440185 0 -0.0021876972977602498 0.00025681869089137825 0 -0.0021905689632160615 0.00025784443424440185 0 -0.0021924563854500384 0.00026620191646313236 0 -0.0021793873778087293 0.00025268671273968743 0 -0.0021841821325586709 0.00025181696454035853 0 -0.0021905689632160615 0.00025784443424440185 0 -0.0021793873778087293 0.00025268671273968743 0 -0.0021905689632160615 0.00025784443424440185 0 -0.0021907080054292005 0.00025648373719078054 0 -0.0021905689632160615 0.00025784443424440185 0 -0.0021956940136336721 0.00026195671149637352 0 -0.002199503432044969 0.00025692128263133881 0 -0.0021905689632160615 0.00025784443424440185 0 -0.0021956940136336721 0.00026195671149637352 0 -0.0021924563854500384 0.00026620191646313236 0 -0.002199503432044969 0.00025692128263133881 0 -0.0021907080054292005 0.00025648373719078054 0 -0.0022057955053628397 0.00025548151141892051 0 -0.0021905689632160615 0.00025784443424440185 0 -0.002199503432044969 0.00025692128263133881 0 -0.0021907080054292005 0.00025648373719078054 0 -0.00089678357933668188 -0.00019137190707488083 0 -0.0016047711527724224 4.3053113803331656e-05 0 -0.0013963921241426137 -1.8169540245375896e-05 0 -0.0014245125327203242 -5.5528330402371296e-05 0 -0.0014328120421001618 -4.8286720277012165e-05 0 -0.00042671524081972921 -0.00037723870186405245 0 -0.00043231513661429926 -0.00030373310390359768 0 -0.00041369979043987681 -0.00031918033460427622 0 -0.0021793873778087293 0.00025268671273968743 0 -0.0021907080054292005 0.00025648373719078054 0 -0.002180783732505606 0.00025873721165229355 0 -0.0018248205282738966 0.0001149531659915188 0 -0.0020378770534664691 0.00026043603979737271 0 -0.0014009604102923202 -1.3841384117399045e-05 0 -0.0013963921241426137 -1.8169540245375896e-05 0 -0.0014328120421001618 -4.8286720277012165e-05 0 -0.00046012858433796736 -0.00037078681729018969 0 -0.00042671524081972921 -0.00037723870186405245 0 -0.00043231513661429926 -0.00030373310390359768 0 -0.0020378770534664691 0.00026043603979737271 0 -0.0016047711527724224 4.3053113803331656e-05 0 -0.00039315931774132026 -0.00028499617033808216 0 -0.0013970523583822028 -0.00033699289126624894 0 -0.0019923014013163128 -0.0014118427531441566 0 -0.00065732568199566258 -0.00097381328723390834 0 -0.0015300078526821947 -0.0008620554678384812 0 -0.00010809347577725448 -0.0009335482159152608 0 -0.00065732568199566258 -0.00097381328723390834 0 -0.00045192933755978194 -0.0008725875518831005 0 -0.0010615254441699354 -0.0011579483077411767 0 -0.00067215129682861763 -0.00099682770516217219 0 -0.0023888840753186914 -0.00098118850098026554 0 -0.0019923014013163128 -0.0014118427531441566 0 -0.0015300078526821947 -0.0008620554678384812 0 -0.00031639898522443639 -0.00074542923169169766 0 -0.00010809347577725448 -0.0009335482159152608 0 -0.00045192933755978194 -0.0008725875518831005 0 -0.0021871653964073844 0.00023179053521733091 0 -0.0021876972977602498 0.00025681869089137825 0 -0.0021882703861877744 0.00028520747371524785 0 -0.00071221897231312523 -0.00079149413471545321 0 -0.00065732568199566258 -0.00097381328723390834 0 -0.0006585526454134259 -0.00093301020209225283 0 -0.0012240929188373822 -0.00025072129881543591 0 -0.0014874151698626153 -0.00030703608623587224 0 -0.00065732568199566258 -0.00097381328723390834 0 -0.00045192933755978194 -0.0008725875518831005 0 -0.00060550869363495041 -0.0008581839421515897 0 -0.00031639898522443639 -0.00074542923169169766 0 -0.00045192933755978194 -0.0008725875518831005 0 -0.00055122073769834246 -0.00079626690120144952 0 -0.00045192933755978194 -0.0008725875518831005 0 -0.00055122073769834246 -0.00079626690120144952 0 -0.00060550869363495041 -0.0008581839421515897 0 -0.00071221897231312523 -0.00079149413471545321 0 -0.00055122073769834246 -0.00079626690120144952 0 -0.00060550869363495041 -0.0008581839421515897 0 -0.00071221897231312523 -0.00079149413471545321 0 -0.00065732568199566258 -0.00097381328723390834 0 -0.00060550869363495041 -0.0008581839421515897 0 -0.0021876972977602498 0.00025681869089137825 0 -0.0021924563854500384 0.00026620191646313236 0 -0.0021882703861877744 0.00028520747371524785 0 -0.0021779424569344859 0.00023128004652452492 0 -0.0021882703861877744 0.00028520747371524785 0 -0.0020485596769835362 0.00016345458463708958 0 -0.0021924563854500384 0.00026620191646313236 0 -0.0021935193141502281 0.00026869093803427708 0 -0.0021882703861877744 0.00028520747371524785 0 -0.0021935193141502281 0.00026869093803427708 0 -0.0021963525203772269 0.0002575432857203379 0 -0.0021882703861877744 0.00028520747371524785 0 -0.0021956940136336721 0.00026195671149637352 0 -0.0021924563854500384 0.00026620191646313236 0 -0.0021935193141502281 0.00026869093803427708 0 -0.0021956940136336721 0.00026195671149637352 0 -0.0021935193141502281 0.00026869093803427708 0 -0.0021963525203772269 0.0002575432857203379 0 -0.0021956940136336721 0.00026195671149637352 0 -0.002199503432044969 0.00025692128263133881 0 -0.0021963525203772269 0.0002575432857203379 0 -0.002199503432044969 0.00025692128263133881 0 -0.0021963525203772269 0.0002575432857203379 0 -0.0022063199990939239 0.00024842602512860454 0 -0.0021963525203772269 0.0002575432857203379 0 -0.0021779424569344859 0.00023128004652452492 0 -0.0022063199990939239 0.00024842602512860454 0 -0.0021963525203772269 0.0002575432857203379 0 -0.0021779424569344859 0.00023128004652452492 0 -0.0021882703861877744 0.00028520747371524785 0 -0.00065732568199566258 -0.00097381328723390834 0 -0.0006585526454134259 -0.00093301020209225283 0 -0.0015300078526821947 -0.0008620554678384812 0 -0.0006585526454134259 -0.00093301020209225283 0 -0.0015300078526821947 -0.0008620554678384812 0 -0.0020485596769835362 0.00016345458463708958 0 -0.002259352262432646 -0.00035095790189869862 0 -0.0015300078526821947 -0.0008620554678384812 0 -0.0020485596769835362 0.00016345458463708958 0 -0.0014874151698626153 -0.00030703608623587224 0 -0.0019429431453139828 0.00010900531000621036 0 -0.0023888840753186914 -0.00098118850098026554 0 -0.002259352262432646 -0.00035095790189869862 0 -0.0015300078526821947 -0.0008620554678384812 0 -0.0020485596769835362 0.00016345458463708958 0 -0.0022124064148891531 0.00025183055826565303 0 -0.0022589643517462107 0.00032341620611253961 0 -0.0021779424569344859 0.00023128004652452492 0 -0.0020485596769835362 0.00016345458463708958 0 -0.0022124064148891531 0.00025183055826565303 0 -0.0021779424569344859 0.00023128004652452492 0 -0.0022124064148891531 0.00025183055826565303 0 -0.0022063199990939239 0.00024842602512860454 0 -0.0022124064148891531 0.00025183055826565303 0 -0.0022295699730581005 0.00026532634162156808 0 -0.0022806182364769273 0.00031661252653896263 0 -0.0022124064148891531 0.00025183055826565303 0 -0.0022063199990939239 0.00024842602512860454 0 -0.0022295699730581005 0.00026532634162156808 0 -0.0022124064148891531 0.00025183055826565303 0 -0.0022589643517462107 0.00032341620611253961 0 -0.0022806182364769273 0.00031661252653896263 0 -0.0023324626904902327 0.00035790342538220599 0 -0.0022589643517462107 0.00032341620611253961 0 -0.0022806182364769273 0.00031661252653896263 0 -0.0023420756554205511 0.00039783064127258815 0 -0.0023343226290174677 0.00034872218493233218 0 -0.0022589643517462107 0.00032341620611253961 0 -0.0020485596769835362 0.00016345458463708958 0 -0.0023343226290174677 0.00034872218493233218 0 -0.0022589643517462107 0.00032341620611253961 0 -0.0020378770534664691 0.00026043603979737271 0 -0.0024360567521681991 0.00031331951939611038 0 -0.0023717373062053563 0.00035195153312297738 0 -0.0023691703148557347 0.00033365531390863956 0 -0.0023714680480354344 0.00031670988745386954 0 -0.0023694472549464361 0.00029187877009827473 0 -0.0023650063066675301 0.00028882091495053419 0 -0.002364224884397709 0.00030323583039156021 0 -0.0020378770534664691 0.00026043603979737271 0 -0.0022971470921611596 0.00033082300465138746 0 -0.0021907080054292005 0.00025648373719078054 0 -0.002180783732505606 0.00025873721165229355 0 -0.002188048386356722 0.00026841173324913987 0 -0.0023717373062053563 0.00035195153312297738 0 -0.0023691703148557347 0.00033365531390863956 0 -0.0023535443993747121 0.000346938058788206 0 -0.0021907080054292005 0.00025648373719078054 0 -0.0022057955053628397 0.00025548151141892051 0 -0.002188048386356722 0.00026841173324913987 0 -0.0022063199990939239 0.00024842602512860454 0 -0.0022057955053628397 0.00025548151141892051 0 -0.0022295699730581005 0.00026532634162156808 0 -0.0022057955053628397 0.00025548151141892051 0 -0.0022295699730581005 0.00026532634162156808 0 -0.002188048386356722 0.00026841173324913987 0 -0.002199503432044969 0.00025692128263133881 0 -0.0022063199990939239 0.00024842602512860454 0 -0.0022057955053628397 0.00025548151141892051 0 -0.0022971470921611596 0.00033082300465138746 0 -0.0022674578363699079 0.00030553535290185304 0 -0.0022295699730581005 0.00026532634162156808 0 -0.002188048386356722 0.00026841173324913987 0 -0.0022806182364769273 0.00031661252653896263 0 -0.0024033425698096835 0.00035019817542793479 0 -0.0022806182364769273 0.00031661252653896263 0 -0.002353529573253973 0.00031820653388466534 0 -0.0023535443993747121 0.000346938058788206 0 -0.0022806182364769273 0.00031661252653896263 0 -0.002353529573253973 0.00031820653388466534 0 -0.0023535443993747121 0.000346938058788206 0 -0.002353529573253973 0.00031820653388466534 0 -0.0023731578679883412 0.00032223155876412956 0 -0.0023785428275828521 0.00032523145581186686 0 -0.0023936691922360805 0.00032841847141332881 0 -0.0023731578679883412 0.00032223155876412956 0 -0.0023936691922360805 0.00032841847141332881 0 -0.002353529573253973 0.00031820653388466534 0 -0.0023731578679883412 0.00032223155876412956 0 -0.0023691703148557347 0.00033365531390863956 0 -0.0023535443993747121 0.000346938058788206 0 -0.0023731578679883412 0.00032223155876412956 0 -0.0023691703148557347 0.00033365531390863956 0 -0.0023731578679883412 0.00032223155876412956 0 -0.0023714680480354344 0.00031670988745386954 0 -0.0023785428275828521 0.00032523145581186686 0 -0.0023731578679883412 0.00032223155876412956 0 -0.0023714680480354344 0.00031670988745386954 0 -0.0023785428275828521 0.00032523145581186686 0 -0.0023625199130827513 0.00032474096308562531 0 -0.0023714680480354344 0.00031670988745386954 0 -0.0023398574834249267 0.00032962129394569775 0 -0.0023625199130827513 0.00032474096308562531 0 -0.0023518274064020248 0.00031129405877567941 0 -0.0023625199130827513 0.00032474096308562531 0 -0.0023518274064020248 0.00031129405877567941 0 -0.0023714680480354344 0.00031670988745386954 0 -0.0023448194604472916 0.00031699114598775723 0 -0.0023557425323874294 0.00025005160108458927 0 -0.0023518274064020248 0.00031129405877567941 0 -0.0023714680480354344 0.00031670988745386954 0 -0.002364224884397709 0.00030323583039156021 0 -0.0020923134307164527 4.0944244300345422e-05 0 -0.0020290511650100603 -0.00021782710111673743 0 -0.0017501191123382538 -0.00022241902875763672 0 -0.0020923134307164527 4.0944244300345422e-05 0 -0.0020290511650100603 -0.00021782710111673743 0 -0.0022746743701067907 -0.00033057706295687293 0 -0.0022156335074573468 0.00018808634153145371 0 -0.0024035358794751221 -6.1191363719206816e-05 0 -0.0023398574834249267 0.00032962129394569775 0 -0.0023518274064020248 0.00031129405877567941 0 -0.0023459609939969011 0.00027948808234977348 0 -0.0020290511650100603 -0.00021782710111673743 0 -0.0021164587170163303 -0.00037164327592805266 0 -0.001890515004510551 -0.00045273472358634876 0 -0.0021164587170163303 -0.00037164327592805266 0 -0.0022112077216273835 -0.00042775705531390202 0 -0.0022746743701067907 -0.00033057706295687293 0 -0.0020290511650100603 -0.00021782710111673743 0 -0.0021164587170163303 -0.00037164327592805266 0 -0.0022746743701067907 -0.00033057706295687293 0 -0.0021164587170163303 -0.00037164327592805266 0 -0.0021767628259358046 -0.00047771421342128581 0 -0.0020571123204135783 -0.00053016713419047601 0 -0.0021164587170163303 -0.00037164327592805266 0 -0.0022112077216273835 -0.00042775705531390202 0 -0.0021767628259358046 -0.00047771421342128581 0 -0.0022112077216273835 -0.00042775705531390202 0 -0.0021767628259358046 -0.00047771421342128581 0 -0.0022770720835177398 -0.00053118963245406346 0 -0.0021767628259358046 -0.00047771421342128581 0 -0.0022770720835177398 -0.00053118963245406346 0 -0.0021996062679120257 -0.00058762001801568331 0 -0.0021767628259358046 -0.00047771421342128581 0 -0.0020571123204135783 -0.00053016713419047601 0 -0.0021996062679120257 -0.00058762001801568331 0 -0.0021164587170163303 -0.00037164327592805266 0 -0.0020571123204135783 -0.00053016713419047601 0 -0.001890515004510551 -0.00045273472358634876 0 -0.0020571123204135783 -0.00053016713419047601 0 -0.0019603337360353822 -0.00070153278024593496 0 -0.001890515004510551 -0.00045273472358634876 0 -0.0022746743701067907 -0.00033057706295687293 0 -0.0022770720835177398 -0.00053118963245406346 0 -0.0024551508052647274 -0.00071747561706606629 0 -0.0024035358794751221 -6.1191363719206816e-05 0 -0.0013970523583822028 -0.00033699289126624894 0 -0.0023558374710962978 0.00027192321997582372 0 -0.0023459609939969011 0.00027948808234977348 0 -0.0023493321294746441 0.00022262451116940679 0 -0.0023694472549464361 0.00029187877009827473 0 -0.0023714680480354344 0.00031670988745386954 0 -0.002364224884397709 0.00030323583039156021 0 -0.0023518274064020248 0.00031129405877567941 0 -0.0023558374710962978 0.00027192321997582372 0 -0.0023459609939969011 0.00027948808234977348 0 -0.0022112077216273835 -0.00042775705531390202 0 -0.0022746743701067907 -0.00033057706295687293 0 -0.0022770720835177398 -0.00053118963245406346 0 -0.0016047711527724224 4.3053113803331656e-05 0 -0.0023557425323874294 0.00025005160108458927 0 -0.0024551508052647274 -0.00071747561706606629 0 -0.0022611484914921952 -0.00080335907833829334 0 -0.0021103587585381582 -0.0010091867307469491 0 -0.0023620048812200986 0.00023287730342356369 0 -0.0023558374710962978 0.00027192321997582372 0 -0.0023493321294746441 0.00022262451116940679 0 -0.0013970523583822028 -0.00033699289126624894 0 -0.00087223609092836648 -0.00054083400075646045 0 -0.0016047711527724224 4.3053113803331656e-05 0 -0.0013970523583822028 -0.00033699289126624894 0 -0.00033563190327231786 -0.00023463557908907464 0 -0.00033592918688547086 -0.00031251568248414279 0 -0.00029716700331380727 -0.00032276829927166769 0 -0.0024551508052647274 -0.00071747561706606629 0 -0.0022611484914921952 -0.00080335907833829334 0 -0.002320632510483654 -0.0007190357532570877 0 -0.0022611484914921952 -0.00080335907833829334 0 -0.0022284663472138789 -0.00069741279652108163 0 -0.002320632510483654 -0.0007190357532570877 0 -0.0022770720835177398 -0.00053118963245406346 0 -0.0024551508052647274 -0.00071747561706606629 0 -0.0023007947535272715 -0.00064954904301045861 0 -0.0022284663472138789 -0.00069741279652108163 0 -0.002320632510483654 -0.0007190357532570877 0 -0.0023007947535272715 -0.00064954904301045861 0 -0.0024551508052647274 -0.00071747561706606629 0 -0.002320632510483654 -0.0007190357532570877 0 -0.0023007947535272715 -0.00064954904301045861 0 -0.0022770720835177398 -0.00053118963245406346 0 -0.0023007947535272715 -0.00064954904301045861 0 -0.0021996062679120257 -0.00058762001801568331 0 -0.0022284663472138789 -0.00069741279652108163 0 -0.0023007947535272715 -0.00064954904301045861 0 -0.0021996062679120257 -0.00058762001801568331 0 -0.0022284663472138789 -0.00069741279652108163 0 -0.0021996062679120257 -0.00058762001801568331 0 -0.0021150288475847543 -0.00065169996710901174 0 -0.0020571123204135783 -0.00053016713419047601 0 -0.0021996062679120257 -0.00058762001801568331 0 -0.0021150288475847543 -0.00065169996710901174 0 -0.0021150288475847543 -0.00065169996710901174 0 -0.0021499274858936077 -0.00076766701120628024 0 -0.0020697053321568756 -0.00073661559369182176 0 -0.0022284663472138789 -0.00069741279652108163 0 -0.0021150288475847543 -0.00065169996710901174 0 -0.0021499274858936077 -0.00076766701120628024 0 -0.0020571123204135783 -0.00053016713419047601 0 -0.0021150288475847543 -0.00065169996710901174 0 -0.0019603337360353822 -0.00070153278024593496 0 -0.0021150288475847543 -0.00065169996710901174 0 -0.0019603337360353822 -0.00070153278024593496 0 -0.0020697053321568756 -0.00073661559369182176 0 -0.002053348118986702 -0.00082548468527900588 0 -0.0019174214740881772 -0.00084150103078897253 0 -0.0020709339406296758 -0.00089599146902278237 0 -0.0019603337360353822 -0.00070153278024593496 0 -0.002053348118986702 -0.00082548468527900588 0 -0.0019174214740881772 -0.00084150103078897253 0 -0.0019603337360353822 -0.00070153278024593496 0 -0.002053348118986702 -0.00082548468527900588 0 -0.0020697053321568756 -0.00073661559369182176 0 -0.0022611484914921952 -0.00080335907833829334 0 -0.0022284663472138789 -0.00069741279652108163 0 -0.0021499274858936077 -0.00076766701120628024 0 -0.002053348118986702 -0.00082548468527900588 0 -0.0021499274858936077 -0.00076766701120628024 0 -0.0020697053321568756 -0.00073661559369182176 0 -0.002053348118986702 -0.00082548468527900588 0 -0.002136134454837184 -0.00085385328108317021 0 -0.0020709339406296758 -0.00089599146902278237 0 -0.002053348118986702 -0.00082548468527900588 0 -0.0021499274858936077 -0.00076766701120628024 0 -0.002136134454837184 -0.00085385328108317021 0 -0.0022611484914921952 -0.00080335907833829334 0 -0.002136134454837184 -0.00085385328108317021 0 -0.0021448201334658369 -0.00089056479555916059 0 -0.0022611484914921952 -0.00080335907833829334 0 -0.0021499274858936077 -0.00076766701120628024 0 -0.002136134454837184 -0.00085385328108317021 0 -0.0022611484914921952 -0.00080335907833829334 0 -0.0021448201334658369 -0.00089056479555916059 0 -0.0021103587585381582 -0.0010091867307469491 0 -0.00018111135084358497 -0.00035589155292615581 0 -0.00019786532335307538 -0.00035983042794389002 0 -0.00025544702145696387 -0.00034618901331586854 0 -0.0021448201334658369 -0.00089056479555916059 0 -0.0020709339406296758 -0.00089599146902278237 0 -0.0021103587585381582 -0.0010091867307469491 0 -0.002136134454837184 -0.00085385328108317021 0 -0.0021448201334658369 -0.00089056479555916059 0 -0.0020709339406296758 -0.00089599146902278237 0 -0.00087223609092836648 -0.00054083400075646045 0 -0.00076405595019325007 -0.00051552074148780702 0 -0.0019174214740881772 -0.00084150103078897253 0 -0.0020709339406296758 -0.00089599146902278237 0 -0.0021103587585381582 -0.0010091867307469491 0 -0.00016844364708368083 -0.000450136860546597 0 -5.5459605364324538e-05 -0.00047641358941884773 0 -0.00017931916652649799 -0.00035618300914345253 0 8.3900391577300065e-05 -0.00055034042688038615 0 -0.00087223609092836648 -0.00054083400075646045 0 -0.00016844364708368083 -0.000450136860546597 0 -0.00017931916652649799 -0.00035618300914345253 0 -0.00019786532335307538 -0.00035983042794389002 0 -0.00016844364708368083 -0.000450136860546597 0 -0.00019786532335307538 -0.00035983042794389002 0 -0.0002220834182048556 -0.00040064978951222691 0 -0.00019786532335307538 -0.00035983042794389002 0 -0.0002220834182048556 -0.00040064978951222691 0 -0.00025544702145696387 -0.00034618901331586854 0 -0.00033563190327231786 -0.00023463557908907464 0 -0.00018111135084358497 -0.00035589155292615581 0 -0.00025544702145696387 -0.00034618901331586854 0 -0.00027087181430768156 -0.00043558437910887318 0 -0.00022257743488894293 -0.00044901524633542177 0 -0.00026371220738149461 -0.00039950908678069557 0 -0.00022257743488894293 -0.00044901524633542177 0 -0.0002220834182048556 -0.00040064978951222691 0 -0.00026371220738149461 -0.00039950908678069557 0 -0.0002220834182048556 -0.00040064978951222691 0 -0.00026371220738149461 -0.00039950908678069557 0 -0.00025544702145696387 -0.00034618901331586854 0 -0.00028899876607798263 -0.0003654996838866914 0 -0.00026371220738149461 -0.00039950908678069557 0 -0.00025544702145696387 -0.00034618901331586854 0 -0.00027087181430768156 -0.00043558437910887318 0 -0.00026371220738149461 -0.00039950908678069557 0 -0.00030394861095975784 -0.00042220125095607041 0 -0.00028899876607798263 -0.0003654996838866914 0 -0.00026371220738149461 -0.00039950908678069557 0 -0.00030394861095975784 -0.00042220125095607041 0 -0.00036538965098952713 -0.00040863877749177058 0 -0.00030394861095975784 -0.00042220125095607041 0 -0.00032700108598915411 -0.00037916894442550507 0 -0.00028899876607798263 -0.0003654996838866914 0 -0.00030394861095975784 -0.00042220125095607041 0 -0.00032700108598915411 -0.00037916894442550507 0 -0.00028899876607798263 -0.0003654996838866914 0 -0.00032509788775446092 -0.00034085454832416572 0 -0.00029716700331380727 -0.00032276829927166769 0 -0.00028899876607798263 -0.0003654996838866914 0 -0.00032700108598915411 -0.00037916894442550507 0 -0.00032509788775446092 -0.00034085454832416572 0 -0.00033563190327231786 -0.00023463557908907464 0 -0.00029716700331380727 -0.00032276829927166769 0 -0.00025544702145696387 -0.00034618901331586854 0 -0.00038551197044279205 -0.00035173528858919014 0 -0.00033563190327231786 -0.00023463557908907464 0 -0.00033592918688547086 -0.00031251568248414279 0 -0.00038551197044279205 -0.00035173528858919014 0 -0.00032700108598915411 -0.00037916894442550507 0 -0.00032509788775446092 -0.00034085454832416572 0 -0.00038551197044279205 -0.00035173528858919014 0 -0.00032509788775446092 -0.00034085454832416572 0 -0.00033592918688547086 -0.00031251568248414279 0 -0.00032509788775446092 -0.00034085454832416572 0 -0.00033592918688547086 -0.00031251568248414279 0 -0.00029716700331380727 -0.00032276829927166769 0 -0.00028899876607798263 -0.0003654996838866914 0 -0.00029716700331380727 -0.00032276829927166769 0 -0.00025544702145696387 -0.00034618901331586854 0 1.0376660949068592e-05 -0.00044599724882921543 0 5.040278540010761e-05 -0.00047591701111606973 0 3.5144176386779931e-06 -0.00047602160002341998 0 -5.5459605364324538e-05 -0.00047641358941884773 0 -0.00010999365765434736 -0.00044029198791394199 0 1.0376660949068592e-05 -0.00044599724882921543 0 -5.5459605364324538e-05 -0.00047641358941884773 0 1.0376660949068592e-05 -0.00044599724882921543 0 3.5144176386779931e-06 -0.00047602160002341998 0 -0.0019174214740881772 -0.00084150103078897253 0 -0.0021103587585381582 -0.0010091867307469491 0 -0.0015473412101960143 -0.00092195734169046417 0 -0.00087223609092836648 -0.00054083400075646045 0 -0.00082519361496156995 -0.00071804105311580493 0 -0.0015473412101960143 -0.00092195734169046417 0 -0.0017709440521957616 -0.00067377123609988008 0 -0.0015688756135404441 -0.00048895684487977012 0 -0.0019174214740881772 -0.00084150103078897253 0 -0.0015473412101960143 -0.00092195734169046417 0 -0.0017709440521957616 -0.00067377123609988008 0 -0.0019603337360353822 -0.00070153278024593496 0 -0.0019174214740881772 -0.00084150103078897253 0 -0.0017709440521957616 -0.00067377123609988008 0 -0.0019603337360353822 -0.00070153278024593496 0 -0.0017709440521957616 -0.00067377123609988008 0 -0.001890515004510551 -0.00045273472358634876 0 -0.0015473412101960143 -0.00092195734169046417 0 -0.0015688756135404441 -0.00048895684487977012 0 -0.0011796717336126242 -0.00039929230339717618 0 -0.0015688756135404441 -0.00048895684487977012 0 -0.0013172265369260146 -0.00016412121023066966 0 -0.0011796717336126242 -0.00039929230339717618 0 -0.0015688756135404441 -0.00048895684487977012 0 -0.0017501191123382538 -0.00022241902875763672 0 -0.0013172265369260146 -0.00016412121023066966 0 -0.0017709440521957616 -0.00067377123609988008 0 -0.0015688756135404441 -0.00048895684487977012 0 -0.001890515004510551 -0.00045273472358634876 0 -0.0015688756135404441 -0.00048895684487977012 0 -0.001890515004510551 -0.00045273472358634876 0 -0.0017501191123382538 -0.00022241902875763672 0 -0.0020290511650100603 -0.00021782710111673743 0 -0.001890515004510551 -0.00045273472358634876 0 -0.0017501191123382538 -0.00022241902875763672 0 -0.0022156335074573468 0.00018808634153145371 0 -0.0017661175351275124 -0.00023731943628972309 0 -0.0020078649584607052 0.00012144638053443826 0 -0.002295228397197379 0.00010968838846800242 0 -0.0017501191123382538 -0.00022241902875763672 0 -0.0017713537157164746 0.00012599077961893772 0 -0.0017501191123382538 -0.00022241902875763672 0 -0.0015026741133318375 2.9781108495744075e-05 0 -0.0020078649584607052 0.00012144638053443826 0 -0.0017713537157164746 0.00012599077961893772 0 -0.0017501191123382538 -0.00022241902875763672 0 -0.0017501191123382538 -0.00022241902875763672 0 -0.0013172265369260146 -0.00016412121023066966 0 -0.0015026741133318375 2.9781108495744075e-05 0 -0.0013172265369260146 -0.00016412121023066966 0 -0.0015026741133318375 2.9781108495744075e-05 0 -0.0012190547396252974 8.8310897321060107e-05 0 -0.0015608785208454867 0.00012579145302200737 0 -0.0011096272904994619 -0.00033207120405276695 0 -0.001175289808915484 -1.9968281592768217e-05 0 -0.0015608785208454867 0.00012579145302200737 0 -0.0013172265369260146 -0.00016412121023066966 0 -0.0012190547396252974 8.8310897321060107e-05 0 -0.0010431104273086913 -2.6137038566908108e-05 0 -0.0013172265369260146 -0.00016412121023066966 0 -0.0010431104273086913 -2.6137038566908108e-05 0 -0.0011796717336126242 -0.00039929230339717618 0 -0.0012190547396252974 8.8310897321060107e-05 0 -0.00099068796838300863 9.2267470060908508e-05 0 -0.001045478546280169 -2.8621156275252436e-05 0 -0.0026445508045870592 -4.2039545836355161e-05 0 -0.0015608785208454867 0.00012579145302200737 0 -0.00097263536557210353 8.7425379878627236e-05 0 -0.0011796717336126242 -0.00039929230339717618 0 -0.00083265300055114446 -0.00037241888549564318 0 -0.0011796717336126242 -0.00039929230339717618 0 -0.00083265300055114446 -0.00037241888549564318 0 -0.00085380531855201128 -0.00080024512103737944 0 -0.00097263536557210353 8.7425379878627236e-05 0 -0.00083265300055114446 -0.00037241888549564318 0 -0.00032907903920260701 -0.00034716447542121554 0 -0.00083265300055114446 -0.00037241888549564318 0 -0.00032907903920260701 -0.00034716447542121554 0 -0.00085380531855201128 -0.00080024512103737944 0 -0.0028450283094637037 -4.8932613041197116e-06 0 -0.002824900374961868 -1.2682539556392788e-05 0 -0.00282110676885325 -5.5484975297540028e-05 0 -0.0028421098234069956 9.7601749121455565e-07 0 -0.0028450283094637037 -4.8932613041197116e-06 0 -0.002824900374961868 -1.2682539556392788e-05 0 -0.0026445508045870592 -4.2039545836355161e-05 0 -0.0029612302590184126 6.4834423812282181e-05 0 -0.0015608785208454867 0.00012579145302200737 0 -0.0016553108278438316 -0.00019893073559032647 0 -0.0029699351988409194 0.00027630343636093045 0 -0.0031755387810691376 0.00017373526218414083 0 -0.0029790723915566432 8.3238994340871202e-05 0 -0.0029612302590184126 6.4834423812282181e-05 0 -0.002742689235308455 -2.1302269117335801e-05 0 -0.0029790723915566432 8.3238994340871202e-05 0 -0.0028211206000090597 0.00016174992544247511 0 -0.0027491489702172849 -1.209917768772245e-05 0 -0.002824900374961868 -1.2682539556392788e-05 0 -0.0027491489702172849 -1.209917768772245e-05 0 -0.00282110676885325 -5.5484975297540028e-05 0 -0.0029699351988409194 0.00027630343636093045 0 -0.0029790723915566432 8.3238994340871202e-05 0 -0.0028211206000090597 0.00016174992544247511 0 -0.0028211206000090597 0.00016174992544247511 0 -0.002663521409952923 0.00013963500076751719 0 -0.0027491489702172849 -1.209917768772245e-05 0 -0.002663521409952923 0.00013963500076751719 0 -0.0027491489702172849 -1.209917768772245e-05 0 -0.0025851200452137522 1.0233724497975417e-05 0 -0.0016553108278438316 -0.00019893073559032647 0 -0.0013022149438663435 -0.00043406387788237784 0 -0.0026565979040364834 -0.00010408597891522113 0 -0.00282110676885325 -5.5484975297540028e-05 0 -0.0026113963746384971 -0.00024904317227572868 0 -0.0027491489702172849 -1.209917768772245e-05 0 -0.0025851200452137522 1.0233724497975417e-05 0 -0.0026565979040364834 -0.00010408597891522113 0 -0.0027491489702172849 -1.209917768772245e-05 0 -0.0026565979040364834 -0.00010408597891522113 0 -0.00282110676885325 -5.5484975297540028e-05 0 -0.00032907903920260701 -0.00034716447542121554 0 -0.00019344773645421547 -0.00056193164566539756 0 -0.00011008573695355044 -0.00059636633802846403 0 -0.00019344773645421547 -0.00056193164566539756 0 -0.00013313268446992656 -0.00055586251976963441 0 -8.0973726741268712e-05 -0.00052271274250933466 0 -0.0026565979040364834 -0.00010408597891522113 0 -0.0026113963746384971 -0.00024904317227572868 0 -0.0024354350756704661 -0.00020674066541724698 0 -0.00011008573695355044 -0.00059636633802846403 0 -0.00013313268446992656 -0.00055586251976963441 0 -0.00014743772408960793 -0.0005158039451059565 0 -0.00019344773645421547 -0.00056193164566539756 0 -0.00011008573695355044 -0.00059636633802846403 0 -0.00013313268446992656 -0.00055586251976963441 0 -0.00013313268446992656 -0.00055586251976963441 0 -0.00014743772408960793 -0.0005158039451059565 0 -8.9070896199721286e-05 -0.00050031452542461025 0 -0.00014743772408960793 -0.0005158039451059565 0 -8.9070896199721286e-05 -0.00050031452542461025 0 -0.00011809490107918525 -0.00043365070866615798 0 -8.0973726741268712e-05 -0.00052271274250933466 0 -8.9070896199721286e-05 -0.00050031452542461025 0 1.345552756443274e-05 -0.00048382245412421774 0 -8.9070896199721286e-05 -0.00050031452542461025 0 1.345552756443274e-05 -0.00048382245412421774 0 -3.774426186994486e-05 -0.00045369088794216172 0 -0.00013313268446992656 -0.00055586251976963441 0 -8.0973726741268712e-05 -0.00052271274250933466 0 -8.9070896199721286e-05 -0.00050031452542461025 0 1.345552756443274e-05 -0.00048382245412421774 0 6.5424207388443362e-05 -0.00047969098362684752 0 4.9207637652287327e-05 -0.00052487817803719284 0 -8.0973726741268712e-05 -0.00052271274250933466 0 1.345552756443274e-05 -0.00048382245412421774 0 4.9207637652287327e-05 -0.00052487817803719284 0 1.0376660949068592e-05 -0.00044599724882921543 0 5.040278540010761e-05 -0.00047591701111606973 0 4.9207637652287327e-05 -0.00052487817803719284 0 5.040278540010761e-05 -0.00047591701111606973 0 6.5424207388443362e-05 -0.00047969098362684752 0 4.9207637652287327e-05 -0.00052487817803719284 0 -0.0015473412101960143 -0.00092195734169046417 0 -0.0011796717336126242 -0.00039929230339717618 0 -0.00085380531855201128 -0.00080024512103737944 0 -0.00082519361496156995 -0.00071804105311580493 0 -0.00039444422576073897 -0.00064760882743882865 0 -0.0002095044859078939 -0.00057735418955844715 0 -0.00039444422576073897 -0.00064760882743882865 0 -0.00019344773645421547 -0.00056193164566539756 0 -8.0973726741268712e-05 -0.00052271274250933466 0 4.9207637652287327e-05 -0.00052487817803719284 0 -0.00032907903920260701 -0.00034716447542121554 0 -0.00019344773645421547 -0.00056193164566539756 0 -0.00085380531855201128 -0.00080024512103737944 0 -0.0018776640890803902 -0.00012162641221569785 0 -0.0020533265355215185 0.00017671651504203668 0 -0.0020983047591002489 -2.5377556834357322e-05 0 -0.0023231510196467966 0.00092781562777268835 0 -0.0023371412427434716 0.00038514829737812812 0 -0.0026968272941692052 0.00083812229438204951 0 -0.0021007297962357236 0.00013586926137595733 0 -0.0023746630267459626 0.00051207295788529108 0 -0.0020533265355215185 0.00017671651504203668 0 -0.0020983047591002489 -2.5377556834357322e-05 0 -0.0022633163104091372 4.0485978116965267e-05 0 -0.0020983047591002489 -2.5377556834357322e-05 0 -0.0022633163104091372 4.0485978116965267e-05 0 -0.0022035052090366887 -0.00018834729740071501 0 -0.0018776640890803902 -0.00012162641221569785 0 -0.0020983047591002489 -2.5377556834357322e-05 0 -0.0022035052090366887 -0.00018834729740071501 0 -0.0022633163104091372 4.0485978116965267e-05 0 -0.0024094844877129494 -4.9088906049819347e-05 0 -0.0022035052090366887 -0.00018834729740071501 0 -0.0024094844877129494 -4.9088906049819347e-05 0 -0.0024607447250195127 -0.00020712603194502372 0 -0.0022035052090366887 -0.00018834729740071501 0 -0.0023478431232623201 0.00025417292637228069 0 -0.0020533265355215185 0.00017671651504203668 0 -0.0022633163104091372 4.0485978116965267e-05 0 -0.0022633163104091372 4.0485978116965267e-05 0 -0.0024739856470015059 0.00010871057108558283 0 -0.0024094844877129494 -4.9088906049819347e-05 0 -0.0023478431232623201 0.00025417292637228069 0 -0.0022633163104091372 4.0485978116965267e-05 0 -0.0024739856470015059 0.00010871057108558283 0 -0.0025693738227178134 0.00026584788103762035 0 -0.002663521409952923 0.00013963500076751719 0 -0.0024739856470015059 0.00010871057108558283 0 -0.002663521409952923 0.00013963500076751719 0 -0.0025851200452137522 1.0233724497975417e-05 0 -0.0024739856470015059 0.00010871057108558283 0 -0.0025851200452137522 1.0233724497975417e-05 0 -0.0024739856470015059 0.00010871057108558283 0 -0.0024094844877129494 -4.9088906049819347e-05 0 -0.0025851200452137522 1.0233724497975417e-05 0 -0.0026565979040364834 -0.00010408597891522113 0 -0.0024354350756704661 -0.00020674066541724698 0 -0.002549843291511453 -3.0971532907897883e-05 0 -0.0025329912053019162 -0.00015782443662402346 0 -0.0025851200452137522 1.0233724497975417e-05 0 -0.0024094844877129494 -4.9088906049819347e-05 0 -0.0024607447250195127 -0.00020712603194502372 0 -0.0025329912053019162 -0.00015782443662402346 0 -0.0015237020282879868 -0.00046486865098865996 0 -0.0013022149438663435 -0.00043406387788237784 0 -0.0015237020282879868 -0.00046486865098865996 0 -0.0026113963746384971 -0.00024904317227572868 0 -0.0024354350756704661 -0.00020674066541724698 0 -0.0022793593946002946 -0.00047384719354004126 0 -0.00011008573695355044 -0.00059636633802846403 0 -0.00014743772408960793 -0.0005158039451059565 0 -0.00029651990037170116 -0.00052475905980317507 0 -0.00014743772408960793 -0.0005158039451059565 0 -0.00029651990037170116 -0.00052475905980317507 0 -0.00019498654053890367 -0.00043800580216667298 0 -0.0024607447250195127 -0.00020712603194502372 0 -0.0023303268990008574 -0.00043222132428117314 0 -0.0022035052090366887 -0.00018834729740071501 0 -0.0023303268990008574 -0.00043222132428117314 0 -0.0022035052090366887 -0.00018834729740071501 0 -0.0019815632891841363 -0.00036122792388681806 0 -0.0023303268990008574 -0.00043222132428117314 0 -0.0019815632891841363 -0.00036122792388681806 0 -0.0020395108492584938 -0.0006159555365356287 0 -0.0015237020282879868 -0.00046486865098865996 0 -0.0016962898618698868 -0.0005032584182216005 0 -0.0016977000568620488 -0.00042009166285448136 0 -0.0019815632891841363 -0.00036122792388681806 0 -0.0020395108492584938 -0.0006159555365356287 0 -0.0016977000568620488 -0.00042009166285448136 0 -0.0018776640890803902 -0.00012162641221569785 0 -0.0019815632891841363 -0.00036122792388681806 0 -0.0018776640890803902 -0.00012162641221569785 0 -0.0022035052090366887 -0.00018834729740071501 0 -0.0019815632891841363 -0.00036122792388681806 0 -0.00049140622385528837 -0.00045621650603057596 0 -0.00028896300884034679 -0.0003717230694086298 0 -0.00040100869987588891 -0.00035179886288590792 0 -0.0010205595076999358 -0.00048581853808937894 0 -0.0011200177038748222 -0.00042203052017987205 0 -0.0011233838636382511 -0.00052204095022366059 0 -0.0010311795345279576 -0.00053190513018148413 0 -0.0005441413255246058 -0.00032603196990525839 0 -0.0010311795345279576 -0.00053190513018148413 0 -0.0016962898618698868 -0.0005032584182216005 0 -0.0012241887589664528 -0.00035656094032211614 0 -0.0011200177038748222 -0.00042203052017987205 0 -0.0011730190901989444 -0.00044087677083839147 0 -0.0011200177038748222 -0.00042203052017987205 0 -0.0011730190901989444 -0.00044087677083839147 0 -0.0011233838636382511 -0.00052204095022366059 0 -0.00070321329064511068 -0.00046121563668077706 0 -0.0005441413255246058 -0.00032603196990525839 0 -0.00036185267097497915 -0.00041155294778298846 0 -0.00033321628948900818 -0.00032640613090004683 0 -0.00042564507526365473 -0.00029556895374073744 0 -0.00033321628948900818 -0.00032640613090004683 0 -0.00026820108303176102 -0.00035326427306491654 0 -0.0002771573989012884 -0.0002453551076998119 0 -0.00036185267097497915 -0.00041155294778298846 0 -0.00033321628948900818 -0.00032640613090004683 0 -0.00026820108303176102 -0.00035326427306491654 0 -0.0015237020282879868 -0.00046486865098865996 0 -0.00070321329064511068 -0.00046121563668077706 0 -0.00029651990037170116 -0.00052475905980317507 0 -0.00036185267097497915 -0.00041155294778298846 0 -0.00028045699957712615 -0.00043210879792829283 0 -0.00036185267097497915 -0.00041155294778298846 0 -0.00026820108303176102 -0.00035326427306491654 0 -0.00028045699957712615 -0.00043210879792829283 0 -0.00026820108303176102 -0.00035326427306491654 0 -0.00028045699957712615 -0.00043210879792829283 0 -0.00019498654053890367 -0.00043800580216667298 0 -0.00029651990037170116 -0.00052475905980317507 0 -0.00028045699957712615 -0.00043210879792829283 0 -0.00019498654053890367 -0.00043800580216667298 0 -0.00026820108303176102 -0.00035326427306491654 0 -0.0002771573989012884 -0.0002453551076998119 0 -0.00017115868483919919 -0.00030751211708332239 0 -0.00026820108303176102 -0.00035326427306491654 0 -0.00019498654053890367 -0.00043800580216667298 0 -0.00017115868483919919 -0.00030751211708332239 0 -0.00013898001710828107 -0.00027934729210165156 0 -0.0001058334205367591 -0.00033169563171819621 0 -2.8202997599019081e-05 -0.00026617973599782997 0 -0.00012902196681496752 -0.00030079058377826347 0 -1.6959805390411367e-05 -0.00036542092379908766 0 -3.2774459116005523e-05 -0.00026643906056248893 0 -0.00013898001710828107 -0.00027934729210165156 0 -2.8202997599019081e-05 -0.00026617973599782997 0 -0.00012621436433332567 -0.00018664470785055378 0 -3.5007714816368693e-05 -0.00016253465283118715 0 -2.8202997599019081e-05 -0.00026617973599782997 0 -0.00012621436433332567 -0.00018664470785055378 0 -0.00010959727069824016 -0.00028463826343142601 0 -0.00013898001710828107 -0.00027934729210165156 0 -0.0002285906763664439 -0.0002171717344493027 0 -0.00012621436433332567 -0.00018664470785055378 0 -0.00010959727069824016 -0.00028463826343142601 0 -0.00020926258920350545 -0.00021272480002234329 0 -0.00013898001710828107 -0.00027934729210165156 0 -0.0005441413255246058 -0.00032603196990525839 0 -0.00033321628948900818 -0.00032640613090004683 0 -0.0002771573989012884 -0.0002453551076998119 0 -0.00042564507526365473 -0.00029556895374073744 0 -0.00010754654081645255 -0.00030247521936062994 0 -0.00029252257644658445 -0.00036846513497139084 0 -0.00026394714183330936 -0.00021249818294638445 0 -0.00029252257644658445 -0.00036846513497139084 0 -0.00031697076252600905 -0.00032196903186782459 0 -0.00026394714183330936 -0.00021249818294638445 0 -0.0005441413255246058 -0.00032603196990525839 0 -0.00041954828088201833 -0.00038421817250093002 0 -0.00031697076252600905 -0.00032196903186782459 0 -0.00026394714183330936 -0.00021249818294638445 0 -0.0003714738166209604 -0.00022581150824820985 0 -0.00026394714183330936 -0.00021249818294638445 0 -0.0003714738166209604 -0.00022581150824820985 0 -0.00042759572100749607 -0.00012233922060808712 0 -0.00048623247747696526 -0.0002110830779168044 0 -0.0003714738166209604 -0.00022581150824820985 0 -0.00042759572100749607 -0.00012233922060808712 0 -0.0002285906763664439 -0.0002171717344493027 0 -0.00036106143717146508 -0.00013504904355504132 0 -0.00044649700506238477 -0.00029424882800760128 0 -0.00038127332471135151 -0.00029605909822722078 0 -0.00040100869987588891 -0.00035179886288590792 0 -0.00044649700506238477 -0.00029424882800760128 0 -0.0003714738166209604 -0.00022581150824820985 0 -0.00038127332471135151 -0.00029605909822722078 0 -0.00031697076252600905 -0.00032196903186782459 0 -0.0003714738166209604 -0.00022581150824820985 0 -0.00038127332471135151 -0.00029605909822722078 0 -0.00031697076252600905 -0.00032196903186782459 0 -0.00038127332471135151 -0.00029605909822722078 0 -0.00040100869987588891 -0.00035179886288590792 0 -0.00028896300884034679 -0.0003717230694086298 0 -0.00031697076252600905 -0.00032196903186782459 0 -0.00040100869987588891 -0.00035179886288590792 0 0.00015133939709050111 -0.00042158085927495134 0 0.00010428026468877055 -0.00043542620994780642 0 0.00013295460790903289 -0.00047583099391312721 0 0.00015133939709050111 -0.00042158085927495134 0 0.00010428026468877055 -0.00043542620994780642 0 0.00011562699001924385 -0.00039655148278284482 0 0.00015133939709050111 -0.00042158085927495134 0 0.00011562699001924385 -0.00039655148278284482 0 0.0001633216844114632 -0.00037366515567728727 0 0.00015133939709050111 -0.00042158085927495134 0 0.0001633216844114632 -0.00037366515567728727 0 0.00021676945577334388 -0.00038268806584854217 0 0.00021676945577334388 -0.00038268806584854217 0 0.00030338484253905059 -0.00039740822179947259 0 0.00030295240703714693 -0.00033253414649352716 0 0.00021676945577334388 -0.00038268806584854217 0 0.00030338484253905059 -0.00039740822179947259 0 0.00021061898634024855 -0.00042965012548708742 0 0.00015133939709050111 -0.00042158085927495134 0 0.00021676945577334388 -0.00038268806584854217 0 0.00021061898634024855 -0.00042965012548708742 0 0.00030338484253905059 -0.00039740822179947259 0 0.00028895776114802184 -0.0004796998220052398 0 0.00021061898634024855 -0.00042965012548708742 0 0.00028895776114802184 -0.0004796998220052398 0 0.00021061898634024855 -0.00042965012548708742 0 0.00013295460790903289 -0.00047583099391312721 0 0.00015945656925464775 -0.00043295456233595676 0 9.5401359249436992e-05 -0.00048408878069386099 0 0.00015945656925464775 -0.00043295456233595676 0 0.00015265208258525317 -0.0004615175507397117 0 9.8843742973872491e-05 -0.00048702349380856582 0 0.00013295460790903289 -0.00047583099391312721 0 0.00011587434507043674 -0.0004769461575768479 0 0.00015133939709050111 -0.00042158085927495134 0 0.00021061898634024855 -0.00042965012548708742 0 0.00013295460790903289 -0.00047583099391312721 0 8.8518607116293337e-05 -0.00047560595660919869 0 0.00011587434507043674 -0.0004769461575768479 0 7.5900548940620351e-05 -0.00046827546921255985 0 7.5963848928015332e-05 -0.00052300184496860825 0 8.8518607116293337e-05 -0.00047560595660919869 0 0.00011587434507043674 -0.0004769461575768479 0 4.4846180944606802e-05 -0.00050269199837287817 0 7.5963848928015332e-05 -0.00052300184496860825 0 7.0109008868397108e-05 -0.00048472338509789449 0 7.5963848928015332e-05 -0.00052300184496860825 0 8.8518607116293337e-05 -0.00047560595660919869 0 7.0109008868397108e-05 -0.00048472338509789449 0 5.040278540010761e-05 -0.00047591701111606973 0 6.5424207388443362e-05 -0.00047969098362684752 0 7.0109008868397108e-05 -0.00048472338509789449 0 4.4846180944606802e-05 -0.00050269199837287817 0 5.040278540010761e-05 -0.00047591701111606973 0 7.0109008868397108e-05 -0.00048472338509789449 0 6.5424207388443362e-05 -0.00047969098362684752 0 8.8518607116293337e-05 -0.00047560595660919869 0 7.5900548940620351e-05 -0.00046827546921255985 0 6.5424207388443362e-05 -0.00047969098362684752 0 8.8518607116293337e-05 -0.00047560595660919869 0 7.0109008868397108e-05 -0.00048472338509789449 0 0.00010428026468877055 -0.00043542620994780642 0 7.4298173716684916e-05 -0.00045448308857725772 0 7.9049706727245419e-05 -0.00042226687823646909 0 1.345552756443274e-05 -0.00048382245412421774 0 7.5900548940620351e-05 -0.00046827546921255985 0 7.4298173716684916e-05 -0.00045448308857725772 0 1.345552756443274e-05 -0.00048382245412421774 0 6.5424207388443362e-05 -0.00047969098362684752 0 7.5900548940620351e-05 -0.00046827546921255985 0 0.00011587434507043674 -0.0004769461575768479 0 7.5900548940620351e-05 -0.00046827546921255985 0 7.4298173716684916e-05 -0.00045448308857725772 0 0.00013295460790903289 -0.00047583099391312721 0 0.00011587434507043674 -0.0004769461575768479 0 7.4298173716684916e-05 -0.00045448308857725772 0 0.00010428026468877055 -0.00043542620994780642 0 0.00013295460790903289 -0.00047583099391312721 0 7.4298173716684916e-05 -0.00045448308857725772 0 1.345552756443274e-05 -0.00048382245412421774 0 7.4298173716684916e-05 -0.00045448308857725772 0 -3.774426186994486e-05 -0.00045369088794216172 0 7.1330305217404976e-05 -0.00044739237097679438 0 7.5142531708349936e-06 -0.0003980753989541236 0 7.4298173716684916e-05 -0.00045448308857725772 0 -3.774426186994486e-05 -0.00045369088794216172 0 -6.8304313038437039e-05 -0.00036621485694727363 0 -8.9070896199721286e-05 -0.00050031452542461025 0 -3.774426186994486e-05 -0.00045369088794216172 0 -0.00011809490107918525 -0.00043365070866615798 0 -3.774426186994486e-05 -0.00045369088794216172 0 -0.00011809490107918525 -0.00043365070866615798 0 -6.8304313038437039e-05 -0.00036621485694727363 0 -0.00019498654053890367 -0.00043800580216667298 0 -0.00011809490107918525 -0.00043365070866615798 0 -0.00017115868483919919 -0.00030751211708332239 0 -0.00014743772408960793 -0.0005158039451059565 0 -0.00019498654053890367 -0.00043800580216667298 0 -0.00011809490107918525 -0.00043365070866615798 0 -0.00011809490107918525 -0.00043365070866615798 0 -0.00017115868483919919 -0.00030751211708332239 0 -6.8304313038437039e-05 -0.00036621485694727363 0 -1.6959805390411367e-05 -0.00036542092379908766 0 7.9049706727245419e-05 -0.00042226687823646909 0 7.750886294906357e-05 -0.00035217239700026663 0 -0.0001058334205367591 -0.00033169563171819621 0 7.5142531708349936e-06 -0.0003980753989541236 0 0.00010428026468877055 -0.00043542620994780642 0 0.00011562699001924385 -0.00039655148278284482 0 7.9049706727245419e-05 -0.00042226687823646909 0 0.00011562699001924385 -0.00039655148278284482 0 7.9049706727245419e-05 -0.00042226687823646909 0 7.750886294906357e-05 -0.00035217239700026663 0 7.750886294906357e-05 -0.00035217239700026663 0 0.00010018764439610388 -0.00028416644172148174 0 0.00013957196133967159 -0.00033335217101782038 0 0.00011562699001924385 -0.00039655148278284482 0 7.750886294906357e-05 -0.00035217239700026663 0 0.00013957196133967159 -0.00033335217101782038 0 7.750886294906357e-05 -0.00035217239700026663 0 0.00010018764439610388 -0.00028416644172148174 0 3.5418654269404109e-05 -0.00029848332607859478 0 0.00010018764439610388 -0.00028416644172148174 0 0.00018209319346574861 -0.00026258911755342704 0 0.00013957196133967159 -0.00033335217101782038 0 -2.8202997599019081e-05 -0.00026617973599782997 0 -1.6959805390411367e-05 -0.00036542092379908766 0 3.5418654269404109e-05 -0.00029848332607859478 0 -1.6959805390411367e-05 -0.00036542092379908766 0 7.750886294906357e-05 -0.00035217239700026663 0 3.5418654269404109e-05 -0.00029848332607859478 0 -2.8202997599019081e-05 -0.00026617973599782997 0 4.479370575601727e-05 -0.00022232463205165299 0 -3.5007714816368693e-05 -0.00016253465283118715 0 -2.8202997599019081e-05 -0.00026617973599782997 0 3.5418654269404109e-05 -0.00029848332607859478 0 4.479370575601727e-05 -0.00022232463205165299 0 0.00010018764439610388 -0.00028416644172148174 0 3.5418654269404109e-05 -0.00029848332607859478 0 4.479370575601727e-05 -0.00022232463205165299 0 0.00010018764439610388 -0.00028416644172148174 0 0.00014412527010551119 -0.00018386227828688325 0 0.00018209319346574861 -0.00026258911755342704 0 0.00010018764439610388 -0.00028416644172148174 0 4.479370575601727e-05 -0.00022232463205165299 0 0.00014412527010551119 -0.00018386227828688325 0 0.00014412527010551119 -0.00018386227828688325 0 0.00018209319346574861 -0.00026258911755342704 0 0.00025861071080218891 -0.00017006162621741001 0 0.00018209319346574861 -0.00026258911755342704 0 0.00026736767893234715 -0.00024159301674442756 0 0.00025861071080218891 -0.00017006162621741001 0 0.00018209319346574861 -0.00026258911755342704 0 0.00022141667339935158 -0.00031893483526276579 0 0.00013957196133967159 -0.00033335217101782038 0 0.00018209319346574861 -0.00026258911755342704 0 0.00022141667339935158 -0.00031893483526276579 0 0.00026736767893234715 -0.00024159301674442756 0 0.0001633216844114632 -0.00037366515567728727 0 0.00022141667339935158 -0.00031893483526276579 0 0.00013957196133967159 -0.00033335217101782038 0 0.0001633216844114632 -0.00037366515567728727 0 0.00021676945577334388 -0.00038268806584854217 0 0.00022141667339935158 -0.00031893483526276579 0 0.00011562699001924385 -0.00039655148278284482 0 0.0001633216844114632 -0.00037366515567728727 0 0.00013957196133967159 -0.00033335217101782038 0 0.000368102385478581 -0.00034974638721084738 0 0.00030338484253905059 -0.00039740822179947259 0 0.00030295240703714693 -0.00033253414649352716 0 0.000368102385478581 -0.00034974638721084738 0 0.00037722120960123888 -0.00030449029011815333 0 0.00030295240703714693 -0.00033253414649352716 0 0.00021676945577334388 -0.00038268806584854217 0 0.00022141667339935158 -0.00031893483526276579 0 0.00030295240703714693 -0.00033253414649352716 0 0.00022141667339935158 -0.00031893483526276579 0 0.00030295240703714693 -0.00033253414649352716 0 0.00033852286450155005 -0.00026299378927175672 0 0.00022141667339935158 -0.00031893483526276579 0 0.00033852286450155005 -0.00026299378927175672 0 0.00026736767893234715 -0.00024159301674442756 0 0.00037722120960123888 -0.00030449029011815333 0 0.00030295240703714693 -0.00033253414649352716 0 0.00033852286450155005 -0.00026299378927175672 0 0.00044549790150977562 -0.00017578211445692935 0 0.00033852286450155005 -0.00026299378927175672 0 0.00033734461580763476 -0.0001948996980487098 0 0.00033852286450155005 -0.00026299378927175672 0 0.00026736767893234715 -0.00024159301674442756 0 0.00033734461580763476 -0.0001948996980487098 0 0.00026736767893234715 -0.00024159301674442756 0 0.00033734461580763476 -0.0001948996980487098 0 0.00025861071080218891 -0.00017006162621741001 0 0.00044549790150977562 -0.00017578211445692935 0 0.00033734461580763476 -0.0001948996980487098 0 0.00037727990973248726 -0.00012652305671099429 0 0.00037727990973248726 -0.00012652305671099429 0 0.00035390905337189736 -4.1362092475911492e-05 0 0.00025861071080218891 -0.00017006162621741001 0 0.00033734461580763476 -0.0001948996980487098 0 0.00037727990973248726 -0.00012652305671099429 0 0.00025861071080218891 -0.00017006162621741001 0 0.00037727990973248726 -0.00012652305671099429 0 0.00035390905337189736 -4.1362092475911492e-05 0 0.00046777588895645128 -4.0874931802981185e-05 0 0.00035390905337189736 -4.1362092475911492e-05 0 0.00047230383328732064 3.5172329329664709e-05 0 0.00046777588895645128 -4.0874931802981185e-05 0 0.00035390905337189736 -4.1362092475911492e-05 0 0.0002237810680412122 -3.6528243312586204e-05 0 0.00030669091470604667 0.00015061871127786602 0 0.00014412527010551119 -0.00018386227828688325 0 0.0002237810680412122 -3.6528243312586204e-05 0 0.00025861071080218891 -0.00017006162621741001 0 0.00035390905337189736 -4.1362092475911492e-05 0 0.0002237810680412122 -3.6528243312586204e-05 0 0.00025861071080218891 -0.00017006162621741001 0 0.00014412527010551119 -0.00018386227828688325 0 0.0002237810680412122 -3.6528243312586204e-05 0 6.7106929563679344e-05 -0.00011797393129508523 0 4.479370575601727e-05 -0.00022232463205165299 0 0.00014412527010551119 -0.00018386227828688325 0 6.7106929563679344e-05 -0.00011797393129508523 0 4.479370575601727e-05 -0.00022232463205165299 0 6.7106929563679344e-05 -0.00011797393129508523 0 -3.5007714816368693e-05 -0.00016253465283118715 0 6.7106929563679344e-05 -0.00011797393129508523 0 -1.1329276375343605e-05 -2.1175175593543151e-05 0 -3.5007714816368693e-05 -0.00016253465283118715 0 6.7106929563679344e-05 -0.00011797393129508523 0 -1.1329276375343605e-05 -2.1175175593543151e-05 0 0.0001304757843325057 1.415468795956771e-05 0 0.0002237810680412122 -3.6528243312586204e-05 0 6.7106929563679344e-05 -0.00011797393129508523 0 0.0001304757843325057 1.415468795956771e-05 0 0.001223715222295045 -1.2943495316242042e-05 0 0.0011888278359666979 -0.00015297241893222674 0 0.0012683214922532065 -4.655098117613568e-05 0 0.0001304757843325057 1.415468795956771e-05 0 9.7036258936361323e-05 0.00011775990470790851 0 0.00030669091470604667 0.00015061871127786602 0 -1.1329276375343605e-05 -2.1175175593543151e-05 0 0.0001304757843325057 1.415468795956771e-05 0 9.7036258936361323e-05 0.00011775990470790851 0 -1.1329276375343605e-05 -2.1175175593543151e-05 0 9.7036258936361323e-05 0.00011775990470790851 0 -7.330924866767918e-05 8.122271817507719e-05 0 0.00065511720341562482 5.3200879956021757e-05 0 0.00055254904104669821 -3.5546955382716395e-05 0 0.0010496850931708936 0.00012483418593245733 0 0.00095502393979603054 -3.2112562306614168e-05 0 0.0011738207496836508 -2.2163346791407918e-05 0 0.00065511720341562482 5.3200879956021757e-05 0 0.00067650640423022482 0.00012959584762977191 0 0.001223715222295045 -1.2943495316242042e-05 0 0.0010496850931708936 0.00012483418593245733 0 0.0011738207496836508 -2.2163346791407918e-05 0 0.00086964802949577745 6.3488593723604433e-05 0 0.0010496850931708936 0.00012483418593245733 0 0.00095502393979603054 -3.2112562306614168e-05 0 0.00086964802949577745 6.3488593723604433e-05 0 0.0010496850931708936 0.00012483418593245733 0 0.00065834141426305962 0.00012661457863114939 0 0.00030669091470604667 0.00015061871127786602 0 0.00065834141426305962 0.00012661457863114939 0 0.00047230383328732064 3.5172329329664709e-05 0 0.00067650640423022482 0.00012959584762977191 0 0.00066306383446364508 0.00013038774344839739 0 0.00035390905337189736 -4.1362092475911492e-05 0 0.00030669091470604667 0.00015061871127786602 0 0.00047230383328732064 3.5172329329664709e-05 0 0.0002237810680412122 -3.6528243312586204e-05 0 0.0001304757843325057 1.415468795956771e-05 0 0.00030669091470604667 0.00015061871127786602 0 -0.00028945711760352611 -6.553448015544363e-05 0 -0.00021272711029205426 -0.00010914998461152889 0 -0.00026093511952204933 -3.3461500434472789e-05 0 -0.00030927980911579658 -4.4997375722303696e-05 0 -0.00028945711760352611 -6.553448015544363e-05 0 -0.00026093511952204933 -3.3461500434472789e-05 0 -0.00028945711760352611 -6.553448015544363e-05 0 -0.00028690205791793408 -0.00015412004170381198 0 -0.00021272711029205426 -0.00010914998461152889 0 -0.00020926258920350545 -0.00021272480002234329 0 -0.00028690205791793408 -0.00015412004170381198 0 -0.00021272711029205426 -0.00010914998461152889 0 -0.00012621436433332567 -0.00018664470785055378 0 -0.00020926258920350545 -0.00021272480002234329 0 -0.00021272711029205426 -0.00010914998461152889 0 -0.00021272711029205426 -0.00010914998461152889 0 -0.00017007888486243375 -2.3201719645323947e-05 0 -0.00026093511952204933 -3.3461500434472789e-05 0 -0.00021272711029205426 -0.00010914998461152889 0 -0.00011048784158805627 -9.9602631032692286e-05 0 -0.00017007888486243375 -2.3201719645323947e-05 0 -0.00012621436433332567 -0.00018664470785055378 0 -0.00021272711029205426 -0.00010914998461152889 0 -0.00011048784158805627 -9.9602631032692286e-05 0 -0.00012621436433332567 -0.00018664470785055378 0 -0.00011048784158805627 -9.9602631032692286e-05 0 -3.5007714816368693e-05 -0.00016253465283118715 0 -1.1329276375343605e-05 -2.1175175593543151e-05 0 -0.00011048784158805627 -9.9602631032692286e-05 0 -3.5007714816368693e-05 -0.00016253465283118715 0 -1.1329276375343605e-05 -2.1175175593543151e-05 0 -0.00011048784158805627 -9.9602631032692286e-05 0 -0.00017007888486243375 -2.3201719645323947e-05 0 -1.1329276375343605e-05 -2.1175175593543151e-05 0 -7.330924866767918e-05 8.122271817507719e-05 0 -0.00017007888486243375 -2.3201719645323947e-05 0 0.00055254904104669821 -3.5546955382716395e-05 0 0.00035962894740804613 -0.00011772949097208647 0 -7.330924866767918e-05 8.122271817507719e-05 0 -0.00017007888486243375 -2.3201719645323947e-05 0 -0.00021652093575067331 2.9266989364615032e-05 0 -0.00017007888486243375 -2.3201719645323947e-05 0 -0.00021652093575067331 2.9266989364615032e-05 0 -0.00026093511952204933 -3.3461500434472789e-05 0 -0.00028874898830023312 -6.0558864038795134e-05 0 -0.00021652093575067331 2.9266989364615032e-05 0 -0.00026093511952204933 -3.3461500434472789e-05 0 0.00010361438329418597 -0.00017129792125020142 0 0.00035962894740804613 -0.00011772949097208647 0 0.00057121145250015515 0.00025547178965348193 0 0.00058093251017477822 -4.507943715841558e-05 0 0.00084526507981176526 1.4473117909386272e-05 0 0.00094134051128081167 -0.0002644810516005447 0 0.00058093251017477822 -4.507943715841558e-05 0 0.00084526507981176526 1.4473117909386272e-05 0 0.00048799357169775244 -0.00030093989701733851 0 0.00094134051128081167 -0.0002644810516005447 0 0.00058093251017477822 -4.507943715841558e-05 0 0.00094134051128081167 -0.0002644810516005447 0 0.00084526507981176526 1.4473117909386272e-05 0 0.0011085090654367842 -6.4458759810961861e-06 0 0.00084526507981176526 1.4473117909386272e-05 0 0.0011085090654367842 -6.4458759810961861e-06 0 0.0008696509132248341 0.00017445872310264669 0 0.0011888278359666979 -0.00015297241893222674 0 0.00094134051128081167 -0.0002644810516005447 0 0.0011085090654367842 -6.4458759810961861e-06 0 0.0011085090654367842 -6.4458759810961861e-06 0 0.0012231441119217204 8.2138484167354733e-05 0 0.0012683214922532065 -4.655098117613568e-05 0 0.0011888278359666979 -0.00015297241893222674 0 0.0011085090654367842 -6.4458759810961861e-06 0 0.0012683214922532065 -4.655098117613568e-05 0 0.0012231441119217204 8.2138484167354733e-05 0 0.0012676312171072783 0.00011283710870727669 0 0.0012583012436913142 0.00016862736869658381 0 0.0012231441119217204 8.2138484167354733e-05 0 0.0012676312171072783 0.00011283710870727669 0 0.0012784418842941929 3.6793018715603345e-05 0 0.0012676312171072783 0.00011283710870727669 0 0.0013101718924343924 0.0001239521907367558 0 0.0012949692308345281 0.00014795922253999796 0 0.0012676312171072783 0.00011283710870727669 0 0.0012957351982977427 0.00016547366123168404 0 0.0012949692308345281 0.00014795922253999796 0 0.0012676312171072783 0.00011283710870727669 0 0.0012583012436913142 0.00016862736869658381 0 0.0012957351982977427 0.00016547366123168404 0 0.0012231441119217204 8.2138484167354733e-05 0 0.0011239649777878343 0.00019366223428178011 0 0.0012583012436913142 0.00016862736869658381 0 0.0011239649777878343 0.00019366223428178011 0 0.0012186713321150817 0.00015679560638582159 0 0.0012583012436913142 0.00016862736869658381 0 0.0011085090654367842 -6.4458759810961861e-06 0 0.0012231441119217204 8.2138484167354733e-05 0 0.0011239649777878343 0.00019366223428178011 0 0.0011085090654367842 -6.4458759810961861e-06 0 0.0008696509132248341 0.00017445872310264669 0 0.0011239649777878343 0.00019366223428178011 0 0.0008696509132248341 0.00017445872310264669 0 0.0011239649777878343 0.00019366223428178011 0 0.0007048474109830554 0.00044825259072789006 0 0.0011239649777878343 0.00019366223428178011 0 0.0011783856847595927 0.00015077771677162472 0 0.0011759320463449029 0.00014372133842646532 0 0.0011239649777878343 0.00019366223428178011 0 0.0011759320463449029 0.00014372133842646532 0 0.0012186713321150817 0.00015679560638582159 0 0.0011047823580949097 0.00021281555257110775 0 0.0009359315444653312 0.00028945280709386363 0 0.0011783856847595927 0.00015077771677162472 0 0.0011729624684618911 0.00012832760467885388 0 0.0011759320463449029 0.00014372133842646532 0 0.00057121145250015515 0.00025547178965348193 0 0.0008696509132248341 0.00017445872310264669 0 0.0007048474109830554 0.00044825259072789006 0 0.00057121145250015515 0.00025547178965348193 0 0.00084526507981176526 1.4473117909386272e-05 0 0.0008696509132248341 0.00017445872310264669 0 0.0010983838935453023 -9.258210305875729e-05 0 0.0012287240133854946 -6.1090710606703918e-05 0 0.0013293237135667889 -9.2173106155211439e-05 0 0.0010983838935453023 -9.258210305875729e-05 0 0.0011738207496836508 -2.2163346791407918e-05 0 0.0012287240133854946 -6.1090710606703918e-05 0 0.0010983838935453023 -9.258210305875729e-05 0 0.00093263987935177334 -9.105912592909896e-05 0 0.00095502393979603054 -3.2112562306614168e-05 0 0.0010983838935453023 -9.258210305875729e-05 0 0.00093263987935177334 -9.105912592909896e-05 0 0.00097734457295442457 -0.00014756413720427305 0 0.0010983838935453023 -9.258210305875729e-05 0 0.00095502393979603054 -3.2112562306614168e-05 0 0.0011738207496836508 -2.2163346791407918e-05 0 0.001223715222295045 -1.2943495316242042e-05 0 0.0011738207496836508 -2.2163346791407918e-05 0 0.0012683214922532065 -4.655098117613568e-05 0 0.0012683214922532065 -4.655098117613568e-05 0 0.0012287240133854946 -6.1090710606703918e-05 0 0.0013293237135667889 -9.2173106155211439e-05 0 0.0011738207496836508 -2.2163346791407918e-05 0 0.0012683214922532065 -4.655098117613568e-05 0 0.0012287240133854946 -6.1090710606703918e-05 0 0.0012683214922532065 -4.655098117613568e-05 0 0.0013293237135667889 -9.2173106155211439e-05 0 0.0012784418842941929 3.6793018715603345e-05 0 0.0012231441119217204 8.2138484167354733e-05 0 0.0012683214922532065 -4.655098117613568e-05 0 0.0012784418842941929 3.6793018715603345e-05 0 0.0013293237135667889 -9.2173106155211439e-05 0 0.0012784418842941929 3.6793018715603345e-05 0 0.001287060579128212 0.00011875186782838573 0 0.0012676312171072783 0.00011283710870727669 0 0.0012784418842941929 3.6793018715603345e-05 0 0.0013101718924343924 0.0001239521907367558 0 0.0012784418842941929 3.6793018715603345e-05 0 0.001287060579128212 0.00011875186782838573 0 0.0013101718924343924 0.0001239521907367558 0 0.0013422441120000419 -8.5368151684481815e-05 0 0.0014272369566951863 -0.00014010191386030078 0 0.0013293237135667889 -9.2173106155211439e-05 0 0.0012221746775105133 -0.000331202888702059 0 0.001469662197958414 -0.00047084700939963459 0 0.0013293237135667889 -9.2173106155211439e-05 0 0.0015846195471507967 -0.0003845994652567543 0 0.001469662197958414 -0.00047084700939963459 0 0.0010983838935453023 -9.258210305875729e-05 0 0.0013293237135667889 -9.2173106155211439e-05 0 0.0010867401134692421 -0.00018706105088950705 0 0.0013293237135667889 -9.2173106155211439e-05 0 0.0012221746775105133 -0.000331202888702059 0 0.0010867401134692421 -0.00018706105088950705 0 0.0010983838935453023 -9.258210305875729e-05 0 0.0010867401134692421 -0.00018706105088950705 0 0.00097734457295442457 -0.00014756413720427305 0 0.0010867401134692421 -0.00018706105088950705 0 0.00097734457295442457 -0.00014756413720427305 0 0.00090517444415438668 -0.00021714203993962732 0 0.0010867401134692421 -0.00018706105088950705 0 0.00096953881072916917 -0.00028487609647487246 0 0.00090517444415438668 -0.00021714203993962732 0 0.0012221746775105133 -0.000331202888702059 0 0.00096953881072916917 -0.00028487609647487246 0 0.0010503729626099791 -0.00048911880245901403 0 0.00096953881072916917 -0.00028487609647487246 0 0.00088625690301762095 -0.00045901534189667065 0 0.0010503729626099791 -0.00048911880245901403 0 0.0012221746775105133 -0.000331202888702059 0 0.0010867401134692421 -0.00018706105088950705 0 0.00096953881072916917 -0.00028487609647487246 0 0.00093608763749832588 -0.00027487725670361342 0 0.00090735023024976513 -0.00059824117868787527 0 0.00096953881072916917 -0.00028487609647487246 0 0.00073192831435218389 -0.00047180682777092051 0 0.00088625690301762095 -0.00045901534189667065 0 0.00096953881072916917 -0.00028487609647487246 0 0.00083890212195256533 -0.00036606421343296302 0 0.00082884336099523924 -0.00043073985888386027 0 0.00096953881072916917 -0.00028487609647487246 0 0.00086057599210532837 -0.00027748957684989599 0 0.00083890212195256533 -0.00036606421343296302 0 0.00086057599210532837 -0.00027748957684989599 0 0.00083890212195256533 -0.00036606421343296302 0 0.00078223795431332712 -0.0002956316616556718 0 0.0008105909491053692 -0.00032501571708691519 0 0.00068837516390845383 -0.00043173877465330166 0 0.00083890212195256533 -0.00036606421343296302 0 0.0007377802085045507 -0.00037096438290812035 0 0.0006855860604408643 -0.00027635859294375978 0 0.00083890212195256533 -0.00036606421343296302 0 0.00078223795431332712 -0.0002956316616556718 0 0.00068740702831303064 -0.00027113257914701484 0 0.00083890212195256533 -0.00036606421343296302 0 0.0007377802085045507 -0.00037096438290812035 0 0.00082884336099523924 -0.00043073985888386027 0 0.00083641488831868321 -0.00056547402559745791 0 0.00090735023024976513 -0.00059824117868787527 0 0.00094408132578151043 -0.0007290540776286557 0 0.00094490943503225627 -0.00079830093087278494 0 0.001015409458535925 -0.00079743681289665537 0 0.00083472844503669713 -0.00065254282714164791 0 0.00099978190046397892 -0.00071021497046043415 0 0.00090226610179989565 -0.00064451603514633358 0 0.00084478832393794772 -0.00060916355332273954 0 0.00092404878422684277 -0.00068548656704537085 0 0.00083641488831868321 -0.00056547402559745791 0 0.00099978190046397892 -0.00071021497046043415 0 0.00083641488831868321 -0.00056547402559745791 0 0.00083472844503669713 -0.00065254282714164791 0 0.00078223795431332712 -0.0002956316616556718 0 0.00075167331409466088 -0.00025761948179930721 0 0.00068740702831303064 -0.00027113257914701484 0 0.00077591019908816673 -0.00066328059614619982 0 0.00074662080290131036 -0.00064588455219133356 0 0.00074576829117634232 -0.00060820388415038407 0 0.00083641488831868321 -0.00056547402559745791 0 0.00068837516390845383 -0.00043173877465330166 0 0.0007215131514692162 -0.00016384303421322245 0 0.00068740702831303064 -0.00027113257914701484 0 0.0006718554137813427 -0.00013780581059309282 0 0.00078223795431332712 -0.0002956316616556718 0 0.00075167331409466088 -0.00025761948179930721 0 0.00081165358711302624 -0.00022846784603979857 0 0.00075167331409466088 -0.00025761948179930721 0 0.00074933427571870952 -0.00021725052721883068 0 0.00081165358711302624 -0.00022846784603979857 0 0.00074933427571870952 -0.00021725052721883068 0 0.0007215131514692162 -0.00016384303421322245 0 0.00068740702831303064 -0.00027113257914701484 0 0.00075167331409466088 -0.00025761948179930721 0 0.00074933427571870952 -0.00021725052721883068 0 0.00068740702831303064 -0.00027113257914701484 0 0.00074933427571870952 -0.00021725052721883068 0 0.00078690458666978225 -0.00016018962655126601 0 0.00081165358711302624 -0.00022846784603979857 0 0.00074933427571870952 -0.00021725052721883068 0 0.0007215131514692162 -0.00016384303421322245 0 0.00078690458666978225 -0.00016018962655126601 0 0.0008726539349664938 -0.0001560175775790219 0 0.00090517444415438668 -0.00021714203993962732 0 0.00081165358711302624 -0.00022846784603979857 0 0.00078690458666978225 -0.00016018962655126601 0 0.0008726539349664938 -0.0001560175775790219 0 0.00081165358711302624 -0.00022846784603979857 0 0.00097734457295442457 -0.00014756413720427305 0 0.0008726539349664938 -0.0001560175775790219 0 0.00090517444415438668 -0.00021714203993962732 0 0.00096953881072916917 -0.00028487609647487246 0 0.00086057599210532837 -0.00027748957684989599 0 0.00090517444415438668 -0.00021714203993962732 0 0.00086057599210532837 -0.00027748957684989599 0 0.00078223795431332712 -0.0002956316616556718 0 0.00081165358711302624 -0.00022846784603979857 0 0.00086057599210532837 -0.00027748957684989599 0 0.00090517444415438668 -0.00021714203993962732 0 0.00081165358711302624 -0.00022846784603979857 0 0.00074782249542558856 -0.00068018147565539894 0 0.00069775315336820861 -0.00069680944188097306 0 0.00069714681485744481 -0.00064272685449114834 0 0.00074782249542558856 -0.00068018147565539894 0 0.00074838543409550212 -0.00072058876804760596 0 0.00069775315336820861 -0.00069680944188097306 0 0.00074838543409550212 -0.00072058876804760596 0 0.00069775315336820861 -0.00069680944188097306 0 0.00071495295614567569 -0.00076341094968854716 0 0.00069775315336820861 -0.00069680944188097306 0 0.00071495295614567569 -0.00076341094968854716 0 0.00065296954853677795 -0.00072435275177122518 0 0.00071495295614567569 -0.00076341094968854716 0 0.00079850154369178058 -0.00075192055340934612 0 0.0007969763079766801 -0.00081269813530331254 0 0.00074838543409550212 -0.00072058876804760596 0 0.00071495295614567569 -0.00076341094968854716 0 0.00079850154369178058 -0.00075192055340934612 0 0.00079850154369178058 -0.00075192055340934612 0 0.00078832204935005566 -0.00070454532805223457 0 0.00084713840298903927 -0.00072688638752597089 0 0.00078832204935005566 -0.00070454532805223457 0 0.00084713840298903927 -0.00072688638752597089 0 0.00079940745690924137 -0.00064226606228919394 0 0.00074838543409550212 -0.00072058876804760596 0 0.00079850154369178058 -0.00075192055340934612 0 0.00078832204935005566 -0.00070454532805223457 0 0.00074782249542558856 -0.00068018147565539894 0 0.00074838543409550212 -0.00072058876804760596 0 0.00078832204935005566 -0.00070454532805223457 0 0.00074782249542558856 -0.00068018147565539894 0 0.00078832204935005566 -0.00070454532805223457 0 0.00079940745690924137 -0.00064226606228919394 0 0.00083472844503669713 -0.00065254282714164791 0 0.00073602039765120785 -0.00062783266223474798 0 0.00076229427663228419 -0.00066317549335240104 0 0.00067676306735272858 -0.00058368268938714988 0 0.00066047010618972436 -0.00060160310837442828 0 0.00094408132578151043 -0.0007290540776286557 0 0.00084713840298903927 -0.00072688638752597089 0 0.00079940745690924137 -0.00064226606228919394 0 0.00079850154369178058 -0.00075192055340934612 0 0.00088235373814014905 -0.00077637114408909958 0 0.0007969763079766801 -0.00081269813530331254 0 0.00079850154369178058 -0.00075192055340934612 0 0.00084713840298903927 -0.00072688638752597089 0 0.00088235373814014905 -0.00077637114408909958 0 0.00094408132578151043 -0.0007290540776286557 0 0.00084713840298903927 -0.00072688638752597089 0 0.00088235373814014905 -0.00077637114408909958 0 0.00094408132578151043 -0.0007290540776286557 0 0.00088235373814014905 -0.00077637114408909958 0 0.00094490943503225627 -0.00079830093087278494 0 0.00083472844503669713 -0.00065254282714164791 0 0.0006646184861907172 -0.00057855720208809967 0 0.00074662080290131036 -0.00064588455219133356 0 0.00074576829117634232 -0.00060820388415038407 0 0.00067676306735272858 -0.00058368268938714988 0 0.00068837516390845383 -0.00043173877465330166 0 0.00058735699906184609 -0.00028701136253972903 0 0.00068837516390845383 -0.00043173877465330166 0 0.00060846797549209304 -0.00055502617311109026 0 0.00062598644817352231 -0.0005736918836449919 0 0.00055417298761803468 -0.00049553251384274258 0 0.00057660038234682177 -0.00047230766515635143 0 0.00074576829117634232 -0.00060820388415038407 0 0.00067676306735272858 -0.00058368268938714988 0 0.00065729287827041188 -0.00055650182964949574 0 0.00062598644817352231 -0.0005736918836449919 0 0.00053976912865266616 -0.00052181985709115919 0 0.00055417298761803468 -0.00049553251384274258 0 0.00068740702831303064 -0.00027113257914701484 0 0.00060390924001884391 -0.00011748462599826795 0 0.0006718554137813427 -0.00013780581059309282 0 0.00066047010618972436 -0.00060160310837442828 0 0.00064105877716554276 -0.00057298467156274879 0 0.00056950677298988348 -0.00054912158744865706 0 0.00079940745690924137 -0.00064226606228919394 0 0.00069714681485744481 -0.00064272685449114834 0 0.00064582146076414806 -0.00055708230352714578 0 0.00073602039765120785 -0.00062783266223474798 0 0.00060348393919942378 -0.00055351282663806468 0 0.00065729287827041188 -0.00055650182964949574 0 0.00064105877716554276 -0.00057298467156274879 0 0.00056950677298988348 -0.00054912158744865706 0 0.00067676306735272858 -0.00058368268938714988 0 0.00066047010618972436 -0.00060160310837442828 0 0.00064105877716554276 -0.00057298467156274879 0 0.00067676306735272858 -0.00058368268938714988 0 0.00065729287827041188 -0.00055650182964949574 0 0.00064105877716554276 -0.00057298467156274879 0 0.00074782249542558856 -0.00068018147565539894 0 0.00079940745690924137 -0.00064226606228919394 0 0.00069714681485744481 -0.00064272685449114834 0 0.00065729287827041188 -0.00055650182964949574 0 0.00056080095453657389 -0.00049758680000156863 0 0.00056950677298988348 -0.00054912158744865706 0 0.00053976912865266616 -0.00052181985709115919 0 0.00051741021251036092 -0.00047510359415669107 0 0.0004602360618050668 -0.00045952476538184281 0 0.00053601838084517644 -0.00043900257850972685 0 0.00057660038234682177 -0.00047230766515635143 0 0.00051542982359311523 -0.00018529564566118154 0 0.00060846797549209304 -0.00055502617311109026 0 0.00050745058337736606 -0.00047830233754772751 0 0.00049749450475820725 -0.00045288545443261967 0 0.00049959791795995735 -0.00043212848832662777 0 0.00048066819844312328 -0.00043878002888376083 0 0.00049749450475820725 -0.00045288545443261967 0 0.00051567555676730907 -0.00044803582175004811 0 0.00049959791795995735 -0.00043212848832662777 0 0.00049749450475820725 -0.00045288545443261967 0 0.00051741021251036092 -0.00047510359415669107 0 0.00051567555676730907 -0.00044803582175004811 0 0.00049749450475820725 -0.00045288545443261967 0 0.00051741021251036092 -0.00047510359415669107 0 0.0004602360618050668 -0.00045952476538184281 0 0.00053976912865266616 -0.00052181985709115919 0 0.00051741021251036092 -0.00047510359415669107 0 0.00055417298761803468 -0.00049553251384274258 0 0.00051741021251036092 -0.00047510359415669107 0 0.00055417298761803468 -0.00049553251384274258 0 0.00053601838084517644 -0.00043900257850972685 0 0.00053601838084517644 -0.00043900257850972685 0 0.00051567555676730907 -0.00044803582175004811 0 0.00049959791795995735 -0.00043212848832662777 0 0.00051741021251036092 -0.00047510359415669107 0 0.00053601838084517644 -0.00043900257850972685 0 0.00051567555676730907 -0.00044803582175004811 0 0.00060390924001884391 -0.00011748462599826795 0 0.00059922908673080478 -4.161649503921046e-05 0 0.00061891859032800608 -6.2745798747400032e-05 0 0.00060390924001884391 -0.00011748462599826795 0 0.00064472588086097039 -8.9115370107845633e-05 0 0.00061891859032800608 -6.2745798747400032e-05 0 0.00055417298761803468 -0.00049553251384274258 0 0.00053601838084517644 -0.00043900257850972685 0 0.00057660038234682177 -0.00047230766515635143 0 0.00060390924001884391 -0.00011748462599826795 0 0.0006718554137813427 -0.00013780581059309282 0 0.00064472588086097039 -8.9115370107845633e-05 0 0.0006718554137813427 -0.00013780581059309282 0 0.00064472588086097039 -8.9115370107845633e-05 0 0.00068148532991376797 -8.3853515726802313e-05 0 0.00064472588086097039 -8.9115370107845633e-05 0 0.00064910773041203555 -4.8178420390461081e-05 0 0.00068148532991376797 -8.3853515726802313e-05 0 0.00060390924001884391 -0.00011748462599826795 0 0.00059922908673080478 -4.161649503921046e-05 0 0.00057616702739703564 -2.0663291476139044e-05 0 0.00064910773041203555 -4.8178420390461081e-05 0 0.00064671096074495071 -2.8217449789431779e-06 0 0.00070894186837709467 -3.1580065642859603e-05 0 0.00064472588086097039 -8.9115370107845633e-05 0 0.00064910773041203555 -4.8178420390461081e-05 0 0.00061891859032800608 -6.2745798747400032e-05 0 0.00064910773041203555 -4.8178420390461081e-05 0 0.00062007506812629583 -2.6977472201204146e-05 0 0.00061891859032800608 -6.2745798747400032e-05 0 0.00064910773041203555 -4.8178420390461081e-05 0 0.00064671096074495071 -2.8217449789431779e-06 0 0.00062007506812629583 -2.6977472201204146e-05 0 0.00064671096074495071 -2.8217449789431779e-06 0 0.00062007506812629583 -2.6977472201204146e-05 0 0.00060298527460825736 8.2137583024401693e-07 0 0.00060298527460825736 8.2137583024401693e-07 0 0.00057616702739703564 -2.0663291476139044e-05 0 0.0005741778396133265 3.1498493596692289e-05 0 0.00062007506812629583 -2.6977472201204146e-05 0 0.00060298527460825736 8.2137583024401693e-07 0 0.00059922908673080478 -4.161649503921046e-05 0 0.00060298527460825736 8.2137583024401693e-07 0 0.00059922908673080478 -4.161649503921046e-05 0 0.00057616702739703564 -2.0663291476139044e-05 0 0.00062007506812629583 -2.6977472201204146e-05 0 0.00059922908673080478 -4.161649503921046e-05 0 0.00061891859032800608 -6.2745798747400032e-05 0 0.00048378445395444165 -0.0004237914083325103 0 0.00049959791795995735 -0.00043212848832662777 0 0.00047957964595869641 -0.0004013919423825159 0 0.00060390924001884391 -0.00011748462599826795 0 0.00057616702739703564 -2.0663291476139044e-05 0 0.00054111841161375203 -3.6664989713660929e-06 0 0.00053601838084517644 -0.00043900257850972685 0 0.00051542982359311523 -0.00018529564566118154 0 0.00048158466582578325 -0.00012139690704274437 0 0.00053601838084517644 -0.00043900257850972685 0 0.00049959791795995735 -0.00043212848832662777 0 0.00047957964595869641 -0.0004013919423825159 0 0.00054715517229715778 -0.00044364779844978906 0 0.00045778590504771635 -0.00024672466633990614 0 0.00058735699906184609 -0.00028701136253972903 0 0.00052409715432619208 -8.9656633264540805e-05 0 0.00057616702739703564 -2.0663291476139044e-05 0 0.00054111841161375203 -3.6664989713660929e-06 0 0.0005741778396133265 3.1498493596692289e-05 0 0.00048378445395444165 -0.0004237914083325103 0 0.00047957964595869641 -0.0004013919423825159 0 0.00047171679190095243 -0.00041579110817853865 0 0.00048378445395444165 -0.0004237914083325103 0 0.00049959791795995735 -0.00043212848832662777 0 0.00048066819844312328 -0.00043878002888376083 0 0.00082613422424892983 -0.00010554168182012359 0 0.00074652746570675048 -0.00010012121947012995 0 0.00081920540914262629 -5.8126302334509206e-05 0 0.00093263987935177334 -9.105912592909896e-05 0 0.00082613422424892983 -0.00010554168182012359 0 0.00081920540914262629 -5.8126302334509206e-05 0 0.00093263987935177334 -9.105912592909896e-05 0 0.00097734457295442457 -0.00014756413720427305 0 0.0008726539349664938 -0.0001560175775790219 0 0.00093263987935177334 -9.105912592909896e-05 0 0.0008726539349664938 -0.0001560175775790219 0 0.00082613422424892983 -0.00010554168182012359 0 0.00078690458666978225 -0.00016018962655126601 0 0.0008726539349664938 -0.0001560175775790219 0 0.00082613422424892983 -0.00010554168182012359 0 0.0007215131514692162 -0.00016384303421322245 0 0.00078690458666978225 -0.00016018962655126601 0 0.00074652746570675048 -0.00010012121947012995 0 0.00078690458666978225 -0.00016018962655126601 0 0.00082613422424892983 -0.00010554168182012359 0 0.00074652746570675048 -0.00010012121947012995 0 0.0007215131514692162 -0.00016384303421322245 0 0.00070393220638773893 -0.00011982352187639416 0 0.00074652746570675048 -0.00010012121947012995 0 0.0006718554137813427 -0.00013780581059309282 0 0.00070393220638773893 -0.00011982352187639416 0 0.00068148532991376797 -8.3853515726802313e-05 0 0.0007215131514692162 -0.00016384303421322245 0 0.0006718554137813427 -0.00013780581059309282 0 0.00070393220638773893 -0.00011982352187639416 0 0.00070393220638773893 -0.00011982352187639416 0 0.00068148532991376797 -8.3853515726802313e-05 0 0.00074652746570675048 -0.00010012121947012995 0 0.00068148532991376797 -8.3853515726802313e-05 0 0.00074652746570675048 -0.00010012121947012995 0 0.00070894186837709467 -3.1580065642859603e-05 0 0.00074652746570675048 -0.00010012121947012995 0 0.00070894186837709467 -3.1580065642859603e-05 0 0.00081920540914262629 -5.8126302334509206e-05 0 0.00070894186837709467 -3.1580065642859603e-05 0 0.00077574553500281928 8.3564336946955104e-06 0 0.00081920540914262629 -5.8126302334509206e-05 0 0.00064910773041203555 -4.8178420390461081e-05 0 0.00068148532991376797 -8.3853515726802313e-05 0 0.00070894186837709467 -3.1580065642859603e-05 0 0.00064671096074495071 -2.8217449789431779e-06 0 0.00070894186837709467 -3.1580065642859603e-05 0 0.00068245093868112038 3.3276468242368203e-05 0 0.00070894186837709467 -3.1580065642859603e-05 0 0.00077574553500281928 8.3564336946955104e-06 0 0.00068245093868112038 3.3276468242368203e-05 0 0.00093263987935177334 -9.105912592909896e-05 0 0.00095502393979603054 -3.2112562306614168e-05 0 0.00081920540914262629 -5.8126302334509206e-05 0 0.00086964802949577745 6.3488593723604433e-05 0 0.00095502393979603054 -3.2112562306614168e-05 0 0.00077574553500281928 8.3564336946955104e-06 0 0.00095502393979603054 -3.2112562306614168e-05 0 0.00077574553500281928 8.3564336946955104e-06 0 0.00081920540914262629 -5.8126302334509206e-05 0 0.00086964802949577745 6.3488593723604433e-05 0 0.00070911073811417904 6.7224482470958481e-05 0 0.00065834141426305962 0.00012661457863114939 0 0.00086964802949577745 6.3488593723604433e-05 0 0.00077574553500281928 8.3564336946955104e-06 0 0.00070911073811417904 6.7224482470958481e-05 0 0.00065834141426305962 0.00012661457863114939 0 0.00047230383328732064 3.5172329329664709e-05 0 0.00057003780890683812 2.0629301986563054e-05 0 0.00063525040049152142 3.1253392207347105e-05 0 0.00066005106381934384 7.9816124898694112e-05 0 0.00065920985772931152 2.6603361360199263e-05 0 0.00065834141426305962 0.00012661457863114939 0 0.00063525040049152142 3.1253392207347105e-05 0 0.00057003780890683812 2.0629301986563054e-05 0 0.00065834141426305962 0.00012661457863114939 0 0.00063525040049152142 3.1253392207347105e-05 0 0.00066005106381934384 7.9816124898694112e-05 0 0.00066005106381934384 7.9816124898694112e-05 0 0.00068245093868112038 3.3276468242368203e-05 0 0.00062517868163382013 4.4346858373416452e-05 0 0.00070911073811417904 6.7224482470958481e-05 0 0.00065834141426305962 0.00012661457863114939 0 0.00066005106381934384 7.9816124898694112e-05 0 0.00070911073811417904 6.7224482470958481e-05 0 0.00066005106381934384 7.9816124898694112e-05 0 0.00068245093868112038 3.3276468242368203e-05 0 0.00077574553500281928 8.3564336946955104e-06 0 0.00070911073811417904 6.7224482470958481e-05 0 0.00068245093868112038 3.3276468242368203e-05 0 0.00066005106381934384 7.9816124898694112e-05 0 0.00062517868163382013 4.4346858373416452e-05 0 0.00057583032403179927 0.00010451742064779553 0 0.00062517868163382013 4.4346858373416452e-05 0 0.0005741778396133265 3.1498493596692289e-05 0 0.00057583032403179927 0.00010451742064779553 0 0.00064671096074495071 -2.8217449789431779e-06 0 0.00068245093868112038 3.3276468242368203e-05 0 0.00062517868163382013 4.4346858373416452e-05 0 0.00064671096074495071 -2.8217449789431779e-06 0 0.00060298527460825736 8.2137583024401693e-07 0 0.00062517868163382013 4.4346858373416452e-05 0 0.00060298527460825736 8.2137583024401693e-07 0 0.00062517868163382013 4.4346858373416452e-05 0 0.0005741778396133265 3.1498493596692289e-05 0 0.0005741778396133265 3.1498493596692289e-05 0 0.00053456401664200891 5.7602758437102342e-05 0 0.00057583032403179927 0.00010451742064779553 0 0.00052409715432619208 -8.9656633264540805e-05 0 0.00045008955134448014 8.9863268794558866e-05 0 0.00054111841161375203 -3.6664989713660929e-06 0 0.00053456401664200891 5.7602758437102342e-05 0 0.00045048346353889645 9.7191143971548494e-05 0 0.00051542982359311523 -0.00018529564566118154 0 0.00048158466582578325 -0.00012139690704274437 0 0.00045048346353889645 9.7191143971548494e-05 0 0.00054111841161375203 -3.6664989713660929e-06 0 0.0005741778396133265 3.1498493596692289e-05 0 0.00053456401664200891 5.7602758437102342e-05 0 0.0006732426130392525 1.0245216047058374e-05 0 0.00067977039723793418 -3.128869571009699e-05 0 0.00069618000762295578 -3.4006297596960115e-05 0 0.00060631044284819571 8.5158443320359521e-05 0 0.00059150242939400119 -0.00014786355523622308 0 0.00053456401664200891 5.7602758437102342e-05 0 0.00057583032403179927 0.00010451742064779553 0 0.00045048346353889645 9.7191143971548494e-05 0 0.0006732426130392525 1.0245216047058374e-05 0 0.00066343851172554163 -1.9252139677046054e-05 0 0.00067977039723793418 -3.128869571009699e-05 0 0.0006605066572215382 6.8719213809959189e-05 0 0.00060631044284819571 8.5158443320359521e-05 0 0.00063525040049152142 3.1253392207347105e-05 0 0.00065920985772931152 2.6603361360199263e-05 0 0.00066343851172554163 -1.9252139677046054e-05 0 0.00066005106381934384 7.9816124898694112e-05 0 0.0006732426130392525 1.0245216047058374e-05 0 0.00065920985772931152 2.6603361360199263e-05 0 0.0006732426130392525 1.0245216047058374e-05 0 0.00065920985772931152 2.6603361360199263e-05 0 0.00066343851172554163 -1.9252139677046054e-05 0 0.00063525040049152142 3.1253392207347105e-05 0 0.00066343851172554163 -1.9252139677046054e-05 0 0.00061686785436731171 -3.6767039422054239e-05 0 0.00066343851172554163 -1.9252139677046054e-05 0 0.00066406698863045175 -7.3325935104888142e-05 0 0.00063331595564397939 -8.3006561229913479e-05 0 0.00066343851172554163 -1.9252139677046054e-05 0 0.00063331595564397939 -8.3006561229913479e-05 0 0.00061686785436731171 -3.6767039422054239e-05 0 0.00066343851172554163 -1.9252139677046054e-05 0 0.00067977039723793418 -3.128869571009699e-05 0 0.00067642050208721529 -5.5081129659880343e-05 0 0.00066343851172554163 -1.9252139677046054e-05 0 0.00067642050208721529 -5.5081129659880343e-05 0 0.00066406698863045175 -7.3325935104888142e-05 0 0.00067977039723793418 -3.128869571009699e-05 0 0.00067642050208721529 -5.5081129659880343e-05 0 0.00068245312048597023 -6.2651150957145676e-05 0 0.00068545346973908166 -0.00014278691017702064 0 0.00068051795973853848 -8.4842575952560667e-05 0 0.00066466716474653062 -7.6527076342824065e-05 0 0.00065402489752235799 -0.00012432964878643897 0 0.00066406698863045175 -7.3325935104888142e-05 0 0.00068051795973853848 -8.4842575952560667e-05 0 0.00067642050208721529 -5.5081129659880343e-05 0 0.00068051795973853848 -8.4842575952560667e-05 0 0.00068245312048597023 -6.2651150957145676e-05 0 0.00067642050208721529 -5.5081129659880343e-05 0 0.00066406698863045175 -7.3325935104888142e-05 0 0.00068051795973853848 -8.4842575952560667e-05 0 0.00065402489752235799 -0.00012432964878643897 0 0.00066406698863045175 -7.3325935104888142e-05 0 0.00063331595564397939 -8.3006561229913479e-05 0 0.00059682256273315933 -0.00014926593141262586 0 0.00065402489752235799 -0.00012432964878643897 0 0.00063331595564397939 -8.3006561229913479e-05 0 0.00063331595564397939 -8.3006561229913479e-05 0 0.00055233581999078636 -0.00010013665049587448 0 0.00061686785436731171 -3.6767039422054239e-05 0 0.00059682256273315933 -0.00014926593141262586 0 0.00063331595564397939 -8.3006561229913479e-05 0 0.00055233581999078636 -0.00010013665049587448 0 0.00044549790150977562 -0.00017578211445692935 0 0.00055233581999078636 -0.00010013665049587448 0 0.00047210142342870291 -0.00010302682974593869 0 0.00044549790150977562 -0.00017578211445692935 0 0.00037727990973248726 -0.00012652305671099429 0 0.00047210142342870291 -0.00010302682974593869 0 0.00037727990973248726 -0.00012652305671099429 0 0.00047210142342870291 -0.00010302682974593869 0 0.00046777588895645128 -4.0874931802981185e-05 0 0.00055233581999078636 -0.00010013665049587448 0 0.00047210142342870291 -0.00010302682974593869 0 0.00056900684756840516 -3.3052792447678977e-05 0 0.00047210142342870291 -0.00010302682974593869 0 0.00046777588895645128 -4.0874931802981185e-05 0 0.00056900684756840516 -3.3052792447678977e-05 0 0.00046777588895645128 -4.0874931802981185e-05 0 0.00057003780890683812 2.0629301986563054e-05 0 0.00056900684756840516 -3.3052792447678977e-05 0 0.00047230383328732064 3.5172329329664709e-05 0 0.00046777588895645128 -4.0874931802981185e-05 0 0.00057003780890683812 2.0629301986563054e-05 0 0.00063525040049152142 3.1253392207347105e-05 0 0.00061686785436731171 -3.6767039422054239e-05 0 0.00056900684756840516 -3.3052792447678977e-05 0 0.00063525040049152142 3.1253392207347105e-05 0 0.00057003780890683812 2.0629301986563054e-05 0 0.00056900684756840516 -3.3052792447678977e-05 0 0.00055233581999078636 -0.00010013665049587448 0 0.00061686785436731171 -3.6767039422054239e-05 0 0.00056900684756840516 -3.3052792447678977e-05 0 0.00023199043075136433 -0.00037669174717641743 0 0.00027659417060406268 -0.00034379687249447727 0 0.00012514124405139877 -0.00042850549969909084 0 0.00023199043075136433 -0.00037669174717641743 0 0.00026923800125327362 -0.00035529860254359676 0 0.00025621623110759278 -0.00037220798469740873 0 0.00039805498179358101 -0.00014608205214849477 0 0.000378283806703954 -0.00025266587343678108 0 0.00027659417060406268 -0.00034379687249447727 0 0.00039805498179358101 -0.00014608205214849477 0 0.00044447264693031759 -0.00020583815328678937 0 0.000378283806703954 -0.00025266587343678108 0 0.00039805498179358101 -0.00014608205214849477 0 0.00044447264693031759 -0.00020583815328678937 0 0.00051809541517646774 -0.00014927451865915587 0 0.00044447264693031759 -0.00020583815328678937 0 0.000378283806703954 -0.00025266587343678108 0 0.00048211902157459734 -0.00027508857359198206 0 0.00030795736551510671 -0.00034212048418445513 0 0.00038359174361164635 -0.00032702444657469295 0 0.00033211355689090393 -0.00034588280058179058 0 0.00033112699328255386 -0.00033955143171625937 0 0.00050828435835836426 -0.00036959164151420841 0 0.00030795736551510671 -0.00034212048418445513 0 0.00048211902157459734 -0.00027508857359198206 0 0.00059789716431491347 -0.00041251022766600312 0 0.000378283806703954 -0.00025266587343678108 0 0.00030795736551510671 -0.00034212048418445513 0 0.00027659417060406268 -0.00034379687249447727 0 0.000378283806703954 -0.00025266587343678108 0 0.00030795736551510671 -0.00034212048418445513 0 0.00048211902157459734 -0.00027508857359198206 0 0.00030046402067951134 -0.00035075081182033859 0 0.00030795736551510671 -0.00034212048418445513 0 0.00033211355689090393 -0.00034588280058179058 0 0.00023199043075136433 -0.00037669174717641743 0 0.00027659417060406268 -0.00034379687249447727 0 0.00026923800125327362 -0.00035529860254359676 0 0.00030046402067951134 -0.00035075081182033859 0 0.00028717490233820975 -0.00035296779016128524 0 0.0003095843033750304 -0.00035442133791601489 0 0.00030046402067951134 -0.00035075081182033859 0 0.00027659417060406268 -0.00034379687249447727 0 0.00028717490233820975 -0.00035296779016128524 0 0.00030046402067951134 -0.00035075081182033859 0 0.00030795736551510671 -0.00034212048418445513 0 0.00027659417060406268 -0.00034379687249447727 0 0.00027659417060406268 -0.00034379687249447727 0 0.00026923800125327362 -0.00035529860254359676 0 0.00028717490233820975 -0.00035296779016128524 0 0.00026923800125327362 -0.00035529860254359676 0 0.00028717490233820975 -0.00035296779016128524 0 0.0002825114248205218 -0.00035708051843188349 0 0.00034863516339176141 -0.00038342108248445118 0 0.00029299445675102956 -0.00036155839375799257 0 0.00025621623110759278 -0.00037220798469740873 0 0.0002825114248205218 -0.00035708051843188349 0 0.00029299445675102956 -0.00036155839375799257 0 0.00025621623110759278 -0.00037220798469740873 0 0.00034863516339176141 -0.00038342108248445118 0 0.00025621623110759278 -0.00037220798469740873 0 0.00024898581335164045 -0.00040462427465625268 0 0.00026923800125327362 -0.00035529860254359676 0 0.0002825114248205218 -0.00035708051843188349 0 0.00025621623110759278 -0.00037220798469740873 0 0.00023199043075136433 -0.00037669174717641743 0 0.00025621623110759278 -0.00037220798469740873 0 0.00021057577253262233 -0.0003997803333195475 0 0.00025621623110759278 -0.00037220798469740873 0 0.00021057577253262233 -0.0003997803333195475 0 0.00024898581335164045 -0.00040462427465625268 0 0.00021057577253262233 -0.0003997803333195475 0 0.00024898581335164045 -0.00040462427465625268 0 0.00017886301539781789 -0.00043889022141813951 0 0.00025075147799347072 -0.00044736611067792449 0 0.00024898581335164045 -0.00040462427465625268 0 0.00017886301539781789 -0.00043889022141813951 0 0.00039805498179358101 -0.00014608205214849477 0 0.00027659417060406268 -0.00034379687249447727 0 0.00037809730992370609 5.9648435678641014e-05 0 0.00026512676526055487 -0.00034601945130484433 0 0.00025145253818304315 -0.00018175232002609398 0 0.00021057577253262233 -0.0003997803333195475 0 0.00017886301539781789 -0.00043889022141813951 0 0.00012514124405139877 -0.00042850549969909084 0 0.00023199043075136433 -0.00037669174717641743 0 0.00021057577253262233 -0.0003997803333195475 0 0.00012514124405139877 -0.00042850549969909084 0 0.00039805498179358101 -0.00014608205214849477 0 0.00047742887640290203 -2.8648439053346648e-05 0 0.00037809730992370609 5.9648435678641014e-05 0 0.00039805498179358101 -0.00014608205214849477 0 0.00047742887640290203 -2.8648439053346648e-05 0 0.00051809541517646774 -0.00014927451865915587 0 0.00051345607548858752 0.00017896871182407885 0 0.00047742887640290203 -2.8648439053346648e-05 0 0.00037809730992370609 5.9648435678641014e-05 0 0.00051345607548858752 0.00017896871182407885 0 0.00047742887640290203 -2.8648439053346648e-05 0 0.00061845035690458812 -7.7488455510010056e-05 0 0.00057317138541306705 6.3182934516746436e-05 0 0.00062015041652118688 -7.2193177695893947e-05 0 0.00066598124970317476 -7.8325667691127776e-05 0 0.00065233600565955995 -7.3501007605619327e-05 0 0.00061845035690458812 -7.7488455510010056e-05 0 0.00065624540499741306 -7.537226294869767e-05 0 0.00065233600565955995 -7.3501007605619327e-05 0 0.00067277109222544382 -8.0086374500666174e-05 0 0.00066598124970317476 -7.8325667691127776e-05 0 0.00065624540499741306 -7.537226294869767e-05 0 0.00065233600565955995 -7.3501007605619327e-05 0 0.00065233600565955995 -7.3501007605619327e-05 0 0.00067170367916934571 -8.9915210995715863e-05 0 0.00067277109222544382 -8.0086374500666174e-05 0 0.00065233600565955995 -7.3501007605619327e-05 0 0.00067170367916934571 -8.9915210995715863e-05 0 0.00061845035690458812 -7.7488455510010056e-05 0 0.00067170367916934571 -8.9915210995715863e-05 0 0.00061845035690458812 -7.7488455510010056e-05 0 0.00062199759379268126 -0.00024376423461636333 0 0.00047742887640290203 -2.8648439053346648e-05 0 0.00061845035690458812 -7.7488455510010056e-05 0 0.00051809541517646774 -0.00014927451865915587 0 0.00067170367916934571 -8.9915210995715863e-05 0 0.00067277109222544382 -8.0086374500666174e-05 0 0.00068245312048597023 -6.2651150957145676e-05 0 0.00068051795973853848 -8.4842575952560667e-05 0 0.00066466716474653062 -7.6527076342824065e-05 0 0.00067277109222544382 -8.0086374500666174e-05 0 0.00065326040187868031 -8.6451482117800478e-05 0 0.00065624540499741306 -7.537226294869767e-05 0 0.00066466716474653062 -7.6527076342824065e-05 0 0.00065624540499741306 -7.537226294869767e-05 0 0.00066466716474653062 -7.6527076342824065e-05 0 0.00067277109222544382 -8.0086374500666174e-05 0 0.00068051795973853848 -8.4842575952560667e-05 0 0.00067277109222544382 -8.0086374500666174e-05 0 0.00068245312048597023 -6.2651150957145676e-05 0 0.00073476846136067656 -0.00015219651209664618 0 0.00059150242939400119 -0.00014786355523622308 0 0.00067170367916934571 -8.9915210995715863e-05 0 0.00068245312048597023 -6.2651150957145676e-05 0 0.00069618000762295578 -3.4006297596960115e-05 0 0.00067977039723793418 -3.128869571009699e-05 0 0.00068245312048597023 -6.2651150957145676e-05 0 0.00069618000762295578 -3.4006297596960115e-05 0 0.00067170367916934571 -8.9915210995715863e-05 0 0.00062199759379268126 -0.00024376423461636333 0 0.00086530124622455611 -0.00048238627095021838 0 0.00061845035690458812 -7.7488455510010056e-05 0 0.00051809541517646774 -0.00014927451865915587 0 0.00062199759379268126 -0.00024376423461636333 0 0.00048211902157459734 -0.00027508857359198206 0 0.00051809541517646774 -0.00014927451865915587 0 0.00062199759379268126 -0.00024376423461636333 0 0.00044447264693031759 -0.00020583815328678937 0 0.00048211902157459734 -0.00027508857359198206 0 0.00051809541517646774 -0.00014927451865915587 0 0.00062199759379268126 -0.00024376423461636333 0 0.00059789716431491347 -0.00041251022766600312 0 0.00086530124622455611 -0.00048238627095021838 0 0.00048211902157459734 -0.00027508857359198206 0 0.00062199759379268126 -0.00024376423461636333 0 0.00059789716431491347 -0.00041251022766600312 0 0.00038359174361164635 -0.00032702444657469295 0 0.00033211355689090393 -0.00034588280058179058 0 0.00034678176970226297 -0.00035480817808292717 0 0.00038359174361164635 -0.00032702444657469295 0 0.00037974145586096536 -0.00036538632507287057 0 0.00034678176970226297 -0.00035480817808292717 0 0.00050828435835836426 -0.00036959164151420841 0 0.00059150242939400119 -0.00014786355523622308 0 0.00038359174361164635 -0.00032702444657469295 0 0.00041134698399251143 -0.0003539892899816732 0 0.00044310530495269787 -0.00033684654699969681 0 0.00038359174361164635 -0.00032702444657469295 0 0.00041134698399251143 -0.0003539892899816732 0 0.00037974145586096536 -0.00036538632507287057 0 0.00041134698399251143 -0.0003539892899816732 0 0.00043394021548714241 -0.00036616309253904747 0 0.00041294409279363508 -0.00037621128510041424 0 0.00041134698399251143 -0.0003539892899816732 0 0.00037974145586096536 -0.00036538632507287057 0 0.00041294409279363508 -0.00037621128510041424 0 0.00048158466582578325 -0.00012139690704274437 0 0.00045048346353889645 9.7191143971548494e-05 0 0.00042218391980846683 0.0001779924110890007 0 0.00057583032403179927 0.00010451742064779553 0 0.00045048346353889645 9.7191143971548494e-05 0 0.00042218391980846683 0.0001779924110890007 0 0.00044310530495269787 -0.00033684654699969681 0 0.00043394021548714241 -0.00036616309253904747 0 0.00045726590409628345 -0.00037994811978365285 0 0.00041134698399251143 -0.0003539892899816732 0 0.00044310530495269787 -0.00033684654699969681 0 0.00043394021548714241 -0.00036616309253904747 0 0.00045778590504771635 -0.00024672466633990614 0 0.00059150242939400119 -0.00014786355523622308 0 0.00047957964595869641 -0.0004013919423825159 0 0.00044310530495269787 -0.00033684654699969681 0 0.00045726590409628345 -0.00037994811978365285 0 0.00045726590409628345 -0.00037994811978365285 0 0.00043816091305776318 -0.00038572450459556108 0 0.00045422418314028634 -0.00039436666869949345 0 0.00043394021548714241 -0.00036616309253904747 0 0.00045726590409628345 -0.00037994811978365285 0 0.00043816091305776318 -0.00038572450459556108 0 0.00043394021548714241 -0.00036616309253904747 0 0.00043816091305776318 -0.00038572450459556108 0 0.00041294409279363508 -0.00037621128510041424 0 0.00043816091305776318 -0.00038572450459556108 0 0.0004430422901231166 -0.00040479431925457036 0 0.00042271443771292654 -0.00039341999026982268 0 0.00043816091305776318 -0.00038572450459556108 0 0.0004430422901231166 -0.00040479431925457036 0 0.00045422418314028634 -0.00039436666869949345 0 0.00047957964595869641 -0.0004013919423825159 0 0.00045726590409628345 -0.00037994811978365285 0 0.00046411268332065638 -0.00039542946000584151 0 0.0004430422901231166 -0.00040479431925457036 0 0.00045422418314028634 -0.00039436666869949345 0 0.00046528615685301314 -0.00040530805644009576 0 0.00045726590409628345 -0.00037994811978365285 0 0.00045422418314028634 -0.00039436666869949345 0 0.00046411268332065638 -0.00039542946000584151 0 0.00045422418314028634 -0.00039436666869949345 0 0.00046528615685301314 -0.00040530805644009576 0 0.00046411268332065638 -0.00039542946000584151 0 0.00047957964595869641 -0.0004013919423825159 0 0.00046528615685301314 -0.00040530805644009576 0 0.00046411268332065638 -0.00039542946000584151 0 0.00037974145586096536 -0.00036538632507287057 0 0.00038981702616193924 -0.00038913581498428251 0 0.00041294409279363508 -0.00037621128510041424 0 0.00037974145586096536 -0.00036538632507287057 0 0.00038981702616193924 -0.00038913581498428251 0 0.00034794286784467179 -0.00037298295683695949 0 0.00038981702616193924 -0.00038913581498428251 0 0.00041294409279363508 -0.00037621128510041424 0 0.00042271443771292654 -0.00039341999026982268 0 0.00043816091305776318 -0.00038572450459556108 0 0.00041294409279363508 -0.00037621128510041424 0 0.00042271443771292654 -0.00039341999026982268 0 0.0004430422901231166 -0.00040479431925457036 0 0.00042271443771292654 -0.00039341999026982268 0 0.00042791999413804898 -0.00041674751513226342 0 0.00038981702616193924 -0.00038913581498428251 0 0.00042271443771292654 -0.00039341999026982268 0 0.00042791999413804898 -0.00041674751513226342 0 0.00038981702616193924 -0.00038913581498428251 0 0.00039467902680292614 -0.00041069523044414492 0 0.00042791999413804898 -0.00041674751513226342 0 0.00038981702616193924 -0.00038913581498428251 0 0.00039467902680292614 -0.00041069523044414492 0 0.00034943736517964056 -0.00039054109189799459 0 0.00039467902680292614 -0.00041069523044414492 0 0.00034943736517964056 -0.00039054109189799459 0 0.00035102414691565577 -0.00042542181966342561 0 0.00034943736517964056 -0.00039054109189799459 0 0.00031475968076094942 -0.00037353629695593206 0 0.0003135057262228773 -0.00039700454298493128 0 0.00034943736517964056 -0.00039054109189799459 0 0.0003135057262228773 -0.00039700454298493128 0 0.00035102414691565577 -0.00042542181966342561 0 0.00034943736517964056 -0.00039054109189799459 0 0.00031475968076094942 -0.00037353629695593206 0 0.00034794286784467179 -0.00037298295683695949 0 0.00038981702616193924 -0.00038913581498428251 0 0.00034943736517964056 -0.00039054109189799459 0 0.00034794286784467179 -0.00037298295683695949 0 0.00034794286784467179 -0.00037298295683695949 0 0.00031671287126989328 -0.00036229212763412262 0 0.00034678176970226297 -0.00035480817808292717 0 0.00037974145586096536 -0.00036538632507287057 0 0.00034794286784467179 -0.00037298295683695949 0 0.00034678176970226297 -0.00035480817808292717 0 0.00031475968076094942 -0.00037353629695593206 0 0.00031671287126989328 -0.00036229212763412262 0 0.00029793768593613522 -0.00036104967837144301 0 0.00031475968076094942 -0.00037353629695593206 0 0.00034794286784467179 -0.00037298295683695949 0 0.00031671287126989328 -0.00036229212763412262 0 0.00031671287126989328 -0.00036229212763412262 0 0.00029760200933374873 -0.00035742632241403074 0 0.0003095843033750304 -0.00035442133791601489 0 0.00031671287126989328 -0.00036229212763412262 0 0.00029760200933374873 -0.00035742632241403074 0 0.00029793768593613522 -0.00036104967837144301 0 0.00028717490233820975 -0.00035296779016128524 0 0.0002825114248205218 -0.00035708051843188349 0 0.00029760200933374873 -0.00035742632241403074 0 0.00028717490233820975 -0.00035296779016128524 0 0.00029760200933374873 -0.00035742632241403074 0 0.0003095843033750304 -0.00035442133791601489 0 0.00031671287126989328 -0.00036229212763412262 0 0.0003095843033750304 -0.00035442133791601489 0 0.00034678176970226297 -0.00035480817808292717 0 0.00030046402067951134 -0.00035075081182033859 0 0.0003095843033750304 -0.00035442133791601489 0 0.00033211355689090393 -0.00034588280058179058 0 0.0003095843033750304 -0.00035442133791601489 0 0.00033211355689090393 -0.00034588280058179058 0 0.00034678176970226297 -0.00035480817808292717 0 0.00028454160231710198 -0.00036457729945355098 0 0.00031475968076094942 -0.00037353629695593206 0 0.00029793768593613522 -0.00036104967837144301 0 0.00028454160231710198 -0.00036457729945355098 0 0.00029299445675102956 -0.00036155839375799257 0 0.00029793768593613522 -0.00036104967837144301 0 0.0002825114248205218 -0.00035708051843188349 0 0.00029760200933374873 -0.00035742632241403074 0 0.00029793768593613522 -0.00036104967837144301 0 0.0002825114248205218 -0.00035708051843188349 0 0.00029299445675102956 -0.00036155839375799257 0 0.00029793768593613522 -0.00036104967837144301 0 0.00028454160231710198 -0.00036457729945355098 0 0.00031475968076094942 -0.00037353629695593206 0 0.0003135057262228773 -0.00039700454298493128 0 0.0003135057262228773 -0.00039700454298493128 0 0.0002626997315191851 -0.00046129802456877357 0 0.00035102414691565577 -0.00042542181966342561 0 0.00028454160231710198 -0.00036457729945355098 0 0.0003135057262228773 -0.00039700454298493128 0 0.0002626997315191851 -0.00046129802456877357 0 0.0002626997315191851 -0.00046129802456877357 0 0.00035102414691565577 -0.00042542181966342561 0 0.00037065264364044993 -0.00049224760894498593 0 0.00039467902680292614 -0.00041069523044414492 0 0.00035102414691565577 -0.00042542181966342561 0 0.000392882154978492 -0.00044382959889687065 0 0.00035102414691565577 -0.00042542181966342561 0 0.000392882154978492 -0.00044382959889687065 0 0.00037065264364044993 -0.00049224760894498593 0 0.00037065264364044993 -0.00049224760894498593 0 0.00032665499521354244 -0.00055050246581644176 0 0.0003918820051259766 -0.0005875643902912268 0 0.00037065264364044993 -0.00049224760894498593 0 0.00044793060062090384 -0.00055130783281474838 0 0.0003918820051259766 -0.0005875643902912268 0 0.000392882154978492 -0.00044382959889687065 0 0.00037065264364044993 -0.00049224760894498593 0 0.00042305387920047138 -0.00048197250353494291 0 0.00037065264364044993 -0.00049224760894498593 0 0.00042305387920047138 -0.00048197250353494291 0 0.00044793060062090384 -0.00055130783281474838 0 0.0004015752256722201 -0.00027129107014223192 0 0.00034842043210993811 -0.00029423220087831801 0 0.0002626997315191851 -0.00046129802456877357 0 0.00037065264364044993 -0.00049224760894498593 0 0.00032665499521354244 -0.00055050246581644176 0 0.0002626997315191851 -0.00046129802456877357 0 0.00032665499521354244 -0.00055050246581644176 0 0.00025814264342745481 -0.0006137546620039407 0 0.00046186409568858432 -0.00043850084961973782 0 0.00047108930912885636 -0.00042783231582201514 0 0.00045437291982178767 -0.00042198892631305538 0 0.00046186409568858432 -0.00043850084961973782 0 0.00047108930912885636 -0.00042783231582201514 0 0.00048066819844312328 -0.00043878002888376083 0 0.00048378445395444165 -0.0004237914083325103 0 0.00047108930912885636 -0.00042783231582201514 0 0.00048066819844312328 -0.00043878002888376083 0 0.00048378445395444165 -0.0004237914083325103 0 0.00047108930912885636 -0.00042783231582201514 0 0.00047171679190095243 -0.00041579110817853865 0 0.00047957964595869641 -0.0004013919423825159 0 0.00046528615685301314 -0.00040530805644009576 0 0.00047171679190095243 -0.00041579110817853865 0 0.00046528615685301314 -0.00040530805644009576 0 0.00047171679190095243 -0.00041579110817853865 0 0.00045437291982178767 -0.00042198892631305538 0 0.00047108930912885636 -0.00042783231582201514 0 0.00047171679190095243 -0.00041579110817853865 0 0.00045437291982178767 -0.00042198892631305538 0 0.0004430422901231166 -0.00040479431925457036 0 0.00046528615685301314 -0.00040530805644009576 0 0.00045437291982178767 -0.00042198892631305538 0 0.0004430422901231166 -0.00040479431925457036 0 0.00045437291982178767 -0.00042198892631305538 0 0.00042791999413804898 -0.00041674751513226342 0 0.00045437291982178767 -0.00042198892631305538 0 0.00044814297282694883 -0.00043811643062815602 0 0.00042791999413804898 -0.00041674751513226342 0 0.00046186409568858432 -0.00043850084961973782 0 0.00045437291982178767 -0.00042198892631305538 0 0.00044814297282694883 -0.00043811643062815602 0 0.00044814297282694883 -0.00043811643062815602 0 0.00042791999413804898 -0.00041674751513226342 0 0.00043582356032887933 -0.00044355357767919101 0 0.00039467902680292614 -0.00041069523044414492 0 0.00042791999413804898 -0.00041674751513226342 0 0.00043582356032887933 -0.00044355357767919101 0 0.000392882154978492 -0.00044382959889687065 0 0.00043582356032887933 -0.00044355357767919101 0 0.00042305387920047138 -0.00048197250353494291 0 0.00039467902680292614 -0.00041069523044414492 0 0.000392882154978492 -0.00044382959889687065 0 0.00043582356032887933 -0.00044355357767919101 0 0.00043582356032887933 -0.00044355357767919101 0 0.00046944440058842199 -0.00049510835799304652 0 0.00056080095453657389 -0.00049758680000156863 0 0.00043582356032887933 -0.00044355357767919101 0 0.00042305387920047138 -0.00048197250353494291 0 0.00046944440058842199 -0.00049510835799304652 0 0.00042305387920047138 -0.00048197250353494291 0 0.00046944440058842199 -0.00049510835799304652 0 0.00044793060062090384 -0.00055130783281474838 0 0.00046944440058842199 -0.00049510835799304652 0 0.00053009176179943701 -0.00056309533418629507 0 0.00044793060062090384 -0.00055130783281474838 0 0.00044814297282694883 -0.00043811643062815602 0 0.00043582356032887933 -0.00044355357767919101 0 0.0004602360618050668 -0.00045952476538184281 0 0.00048636117920258521 -0.00049825741856210262 0 0.00060348393919942378 -0.00055351282663806468 0 0.00046944440058842199 -0.00049510835799304652 0 0.00064582146076414806 -0.00055708230352714578 0 0.00053009176179943701 -0.00056309533418629507 0 0.00044472664214097852 -0.00044604040729532803 0 0.00050745058337736606 -0.00047830233754772751 0 0.00046944440058842199 -0.00049510835799304652 0 0.00056080095453657389 -0.00049758680000156863 0 0.00056950677298988348 -0.00054912158744865706 0 0.00046186409568858432 -0.00043850084961973782 0 0.00044814297282694883 -0.00043811643062815602 0 0.0004602360618050668 -0.00045952476538184281 0 0.00046186409568858432 -0.00043850084961973782 0 0.0004602360618050668 -0.00045952476538184281 0 0.00048066819844312328 -0.00043878002888376083 0 0.00049749450475820725 -0.00045288545443261967 0 0.0004602360618050668 -0.00045952476538184281 0 0.00048066819844312328 -0.00043878002888376083 0 0.00069714681485744481 -0.00064272685449114834 0 0.00062571049401870639 -0.00065789164757659062 0 0.00063798044120925285 -0.00061635685199355988 0 0.00069714681485744481 -0.00064272685449114834 0 0.00063798044120925285 -0.00061635685199355988 0 0.00064582146076414806 -0.00055708230352714578 0 0.00062571049401870639 -0.00065789164757659062 0 0.00063798044120925285 -0.00061635685199355988 0 0.00058256119487680165 -0.00060647174397403909 0 0.00063798044120925285 -0.00061635685199355988 0 0.00064582146076414806 -0.00055708230352714578 0 0.00058256119487680165 -0.00060647174397403909 0 0.00064582146076414806 -0.00055708230352714578 0 0.00058256119487680165 -0.00060647174397403909 0 0.00053009176179943701 -0.00056309533418629507 0 0.00062571049401870639 -0.00065789164757659062 0 0.00058256119487680165 -0.00060647174397403909 0 0.00054842177307779102 -0.00064708572774406622 0 0.00054842177307779102 -0.00064708572774406622 0 0.00050458201337365944 -0.00059653597748209617 0 0.00046222894294580452 -0.00064127815895584134 0 0.00054842177307779102 -0.00064708572774406622 0 0.00046222894294580452 -0.00064127815895584134 0 0.00050588401084757648 -0.00068743020670518492 0 0.00058256119487680165 -0.00060647174397403909 0 0.00054842177307779102 -0.00064708572774406622 0 0.00050458201337365944 -0.00059653597748209617 0 0.00058256119487680165 -0.00060647174397403909 0 0.00050458201337365944 -0.00059653597748209617 0 0.00053009176179943701 -0.00056309533418629507 0 0.00050458201337365944 -0.00059653597748209617 0 0.00053009176179943701 -0.00056309533418629507 0 0.00044793060062090384 -0.00055130783281474838 0 0.00044793060062090384 -0.00055130783281474838 0 0.00046222894294580452 -0.00064127815895584134 0 0.0003918820051259766 -0.0005875643902912268 0 0.00050458201337365944 -0.00059653597748209617 0 0.00044793060062090384 -0.00055130783281474838 0 0.00046222894294580452 -0.00064127815895584134 0 0.00046222894294580452 -0.00064127815895584134 0 0.00044544677140768703 -0.00070205067975603018 0 0.00050588401084757648 -0.00068743020670518492 0 0.00044544677140768703 -0.00070205067975603018 0 0.00049161153881134741 -0.00073128816482093183 0 0.00050588401084757648 -0.00068743020670518492 0 0.00044544677140768703 -0.00070205067975603018 0 0.00045470749453311714 -0.00075640567396288022 0 0.00049161153881134741 -0.00073128816482093183 0 0.00045470749453311714 -0.00075640567396288022 0 0.00049161153881134741 -0.00073128816482093183 0 0.00051448311893017651 -0.00078116042880076327 0 0.00055574217262407239 -0.00073457025404752242 0 0.00051448311893017651 -0.00078116042880076327 0 0.00058005599080949934 -0.00081346066670561087 0 0.00049161153881134741 -0.00073128816482093183 0 0.00055574217262407239 -0.00073457025404752242 0 0.00051448311893017651 -0.00078116042880076327 0 0.00049161153881134741 -0.00073128816482093183 0 0.00055574217262407239 -0.00073457025404752242 0 0.00050588401084757648 -0.00068743020670518492 0 0.00054842177307779102 -0.00064708572774406622 0 0.00055574217262407239 -0.00073457025404752242 0 0.00050588401084757648 -0.00068743020670518492 0 0.00062571049401870639 -0.00065789164757659062 0 0.00054842177307779102 -0.00064708572774406622 0 0.00060347350306057918 -0.0007027607591259653 0 0.00054842177307779102 -0.00064708572774406622 0 0.00055574217262407239 -0.00073457025404752242 0 0.00060347350306057918 -0.0007027607591259653 0 0.00055574217262407239 -0.00073457025404752242 0 0.00060347350306057918 -0.0007027607591259653 0 0.00063378148855496789 -0.0007739197244865198 0 0.00055574217262407239 -0.00073457025404752242 0 0.00063378148855496789 -0.0007739197244865198 0 0.00058005599080949934 -0.00081346066670561087 0 0.00071495295614567569 -0.00076341094968854716 0 0.00063378148855496789 -0.0007739197244865198 0 0.00065296954853677795 -0.00072435275177122518 0 0.00060347350306057918 -0.0007027607591259653 0 0.00063378148855496789 -0.0007739197244865198 0 0.00065296954853677795 -0.00072435275177122518 0 0.00069775315336820861 -0.00069680944188097306 0 0.00069714681485744481 -0.00064272685449114834 0 0.00062571049401870639 -0.00065789164757659062 0 0.00062571049401870639 -0.00065789164757659062 0 0.00060347350306057918 -0.0007027607591259653 0 0.00065296954853677795 -0.00072435275177122518 0 0.00069775315336820861 -0.00069680944188097306 0 0.00062571049401870639 -0.00065789164757659062 0 0.00065296954853677795 -0.00072435275177122518 0 0.00025814264342745481 -0.0006137546620039407 0 0.00034265231636647044 -0.0006184858638461475 0 0.00033485664679105119 -0.00067671117980790325 0 0.00032665499521354244 -0.00055050246581644176 0 0.00025814264342745481 -0.0006137546620039407 0 0.00034265231636647044 -0.0006184858638461475 0 0.00032665499521354244 -0.00055050246581644176 0 0.0003918820051259766 -0.0005875643902912268 0 0.00034265231636647044 -0.0006184858638461475 0 0.00046222894294580452 -0.00064127815895584134 0 0.0003918820051259766 -0.0005875643902912268 0 0.00039329307502584872 -0.00067137637945868334 0 0.00034265231636647044 -0.0006184858638461475 0 0.00033485664679105119 -0.00067671117980790325 0 0.00039329307502584872 -0.00067137637945868334 0 0.0003918820051259766 -0.0005875643902912268 0 0.00034265231636647044 -0.0006184858638461475 0 0.00039329307502584872 -0.00067137637945868334 0 0.00033485664679105119 -0.00067671117980790325 0 0.00039329307502584872 -0.00067137637945868334 0 0.00036185234403086653 -0.00073569899604823436 0 0.00046222894294580452 -0.00064127815895584134 0 0.00044544677140768703 -0.00070205067975603018 0 0.00039329307502584872 -0.00067137637945868334 0 0.00039329307502584872 -0.00067137637945868334 0 0.00041492129975307502 -0.00073856849056513744 0 0.00036185234403086653 -0.00073569899604823436 0 0.00044544677140768703 -0.00070205067975603018 0 0.00039329307502584872 -0.00067137637945868334 0 0.00041492129975307502 -0.00073856849056513744 0 0.00044544677140768703 -0.00070205067975603018 0 0.00045470749453311714 -0.00075640567396288022 0 0.00041492129975307502 -0.00073856849056513744 0 0.00041492129975307502 -0.00073856849056513744 0 0.00036185234403086653 -0.00073569899604823436 0 0.00039251645088319046 -0.00077897240537114882 0 0.00041492129975307502 -0.00073856849056513744 0 0.00043366541823525694 -0.00079321934325511472 0 0.00039251645088319046 -0.00077897240537114882 0 0.00045470749453311714 -0.00075640567396288022 0 0.00041492129975307502 -0.00073856849056513744 0 0.00043366541823525694 -0.00079321934325511472 0 0.00033485664679105119 -0.00067671117980790325 0 0.00036185234403086653 -0.00073569899604823436 0 0.00031121225446734065 -0.00074244637975995971 0 0.00036185234403086653 -0.00073569899604823436 0 0.0003596288639979606 -0.00077808291773691905 0 0.00039251645088319046 -0.00077897240537114882 0 0.00036185234403086653 -0.00073569899604823436 0 0.00033507914394663771 -0.00076822895759889409 0 0.00031121225446734065 -0.00074244637975995971 0 0.00036185234403086653 -0.00073569899604823436 0 0.00033507914394663771 -0.00076822895759889409 0 0.0003596288639979606 -0.00077808291773691905 0 0.00033507914394663771 -0.00076822895759889409 0 0.00031121225446734065 -0.00074244637975995971 0 0.00031902504849956685 -0.00079045689943701752 0 0.00025814264342745481 -0.0006137546620039407 0 0.00033485664679105119 -0.00067671117980790325 0 0.00031121225446734065 -0.00074244637975995971 0 0.00062926604044960511 0.00011385595158518845 0 0.00057674651790523405 4.4652834682675359e-05 0 0.00060121619034721934 0.00013519393001028266 0 0.00034842043210993811 -0.00029423220087831801 0 0.0010216203696081542 -0.00027449814093451382 0 0.00025814264342745481 -0.0006137546620039407 0 0.00031121225446734065 -0.00074244637975995971 0 0.00027517251230102394 -0.0008122695283873262 0 0.00062445636440291693 0.00013362233556269313 0 0.0006218898573931744 0.00015389662768840287 0 0.00065616332099321787 0.00014506876651395803 0 0.0006218898573931744 0.00015389662768840287 0 0.00060121619034721934 0.00013519393001028266 0 0.00063477151656083297 0.00022316132003068532 0 0.00062926604044960511 0.00011385595158518845 0 0.00062445636440291693 0.00013362233556269313 0 0.00060121619034721934 0.00013519393001028266 0 0.00061063496435173842 0.00014014792057929966 0 0.0006218898573931744 0.00015389662768840287 0 0.00060121619034721934 0.00013519393001028266 0 0.00062445636440291693 0.00013362233556269313 0 0.00061575523955079462 0.00013959358961511092 0 0.00060121619034721934 0.00013519393001028266 0 0.00061063496435173842 0.00014014792057929966 0 0.00061575523955079462 0.00013959358961511092 0 0.00060121619034721934 0.00013519393001028266 0 0.00061063496435173842 0.00014014792057929966 0 0.00061575523955079462 0.00013959358961511092 0 0.0006218898573931744 0.00015389662768840287 0 0.00062445636440291693 0.00013362233556269313 0 0.00061575523955079462 0.00013959358961511092 0 0.0006218898573931744 0.00015389662768840287 0 0.0006218898573931744 0.00015389662768840287 0 0.00063477151656083297 0.00022316132003068532 0 0.00066454689065248548 0.00017900017233416892 0 0.00030853938006952434 -0.00082592493497841567 0 0.00027517251230102394 -0.0008122695283873262 0 0.00035092723939220057 -0.00087837629677281048 0 0.00032688737068771294 -0.00083558020375444598 0 0.00030853938006952434 -0.00082592493497841567 0 0.00033796272571996234 -0.00083785766666485669 0 0.00032688737068771294 -0.00083558020375444598 0 0.00030853938006952434 -0.00082592493497841567 0 0.00032699056564823581 -0.00081701020488593652 0 0.00031121225446734065 -0.00074244637975995971 0 0.00027517251230102394 -0.0008122695283873262 0 0.00030265962341179608 -0.00079930823608926412 0 0.00030853938006952434 -0.00082592493497841567 0 0.00031425026860362721 -0.00080835909901064769 0 0.00030265962341179608 -0.00079930823608926412 0 0.00030853938006952434 -0.00082592493497841567 0 0.00032699056564823581 -0.00081701020488593652 0 0.00031425026860362721 -0.00080835909901064769 0 0.00030853938006952434 -0.00082592493497841567 0 0.00027517251230102394 -0.0008122695283873262 0 0.00030265962341179608 -0.00079930823608926412 0 0.00031121225446734065 -0.00074244637975995971 0 0.00030265962341179608 -0.00079930823608926412 0 0.00031902504849956685 -0.00079045689943701752 0 0.00032699056564823581 -0.00081701020488593652 0 0.00031425026860362721 -0.00080835909901064769 0 0.00031902504849956685 -0.00079045689943701752 0 0.00031425026860362721 -0.00080835909901064769 0 0.00030265962341179608 -0.00079930823608926412 0 0.00031902504849956685 -0.00079045689943701752 0 0.00027517251230102394 -0.0008122695283873262 0 0.00035092723939220057 -0.00087837629677281048 0 0.00040891729409691719 -0.00096162836417232377 0 0.00033507914394663771 -0.00076822895759889409 0 0.00031902504849956685 -0.00079045689943701752 0 0.00034148507357131206 -0.00079656326515228676 0 0.0010216203696081542 -0.00027449814093451382 0 0.0014506321246377392 -0.00095770836659604696 0 0.00032699056564823581 -0.00081701020488593652 0 0.00031902504849956685 -0.00079045689943701752 0 0.00034148507357131206 -0.00079656326515228676 0 0.00034148507357131206 -0.00079656326515228676 0 0.0003596288639979606 -0.00077808291773691905 0 0.00037037095641658197 -0.00080805805931004966 0 0.00033507914394663771 -0.00076822895759889409 0 0.00034148507357131206 -0.00079656326515228676 0 0.0003596288639979606 -0.00077808291773691905 0 0.0003596288639979606 -0.00077808291773691905 0 0.00037037095641658197 -0.00080805805931004966 0 0.00039251645088319046 -0.00077897240537114882 0 0.00037037095641658197 -0.00080805805931004966 0 0.00040413347027862945 -0.00082254681623561052 0 0.00037657494865589003 -0.00085005975795048288 0 0.00037037095641658197 -0.00080805805931004966 0 0.00035150706981747112 -0.00082743996794838791 0 0.00037657494865589003 -0.00085005975795048288 0 0.00035150706981747112 -0.00082743996794838791 0 0.00033796272571996234 -0.00083785766666485669 0 0.00035037779842226675 -0.00085096530040150984 0 0.00032688737068771294 -0.00083558020375444598 0 0.00032699056564823581 -0.00081701020488593652 0 0.00033796272571996234 -0.00083785766666485669 0 0.00032699056564823581 -0.00081701020488593652 0 0.00035150706981747112 -0.00082743996794838791 0 0.00033796272571996234 -0.00083785766666485669 0 0.00032699056564823581 -0.00081701020488593652 0 0.00034148507357131206 -0.00079656326515228676 0 0.00035150706981747112 -0.00082743996794838791 0 0.00034148507357131206 -0.00079656326515228676 0 0.00037037095641658197 -0.00080805805931004966 0 0.00035150706981747112 -0.00082743996794838791 0 0.00043366541823525694 -0.00079321934325511472 0 0.00039251645088319046 -0.00077897240537114882 0 0.00040413347027862945 -0.00082254681623561052 0 0.00037037095641658197 -0.00080805805931004966 0 0.00039251645088319046 -0.00077897240537114882 0 0.00040413347027862945 -0.00082254681623561052 0 0.00043366541823525694 -0.00079321934325511472 0 0.00040413347027862945 -0.00082254681623561052 0 0.00044140691347201665 -0.00083532791231596959 0 0.00040413347027862945 -0.00082254681623561052 0 0.00044140691347201665 -0.00083532791231596959 0 0.00041931610904010576 -0.00086561939271652389 0 0.00044140691347201665 -0.00083532791231596959 0 0.00041931610904010576 -0.00086561939271652389 0 0.00047226772540801882 -0.00088156326692452591 0 0.00040413347027862945 -0.00082254681623561052 0 0.00041931610904010576 -0.00086561939271652389 0 0.00037657494865589003 -0.00085005975795048288 0 0.00041931610904010576 -0.00086561939271652389 0 0.00039331780483044655 -0.00088701939767316942 0 0.00037657494865589003 -0.00085005975795048288 0 0.00041931610904010576 -0.00086561939271652389 0 0.00039331780483044655 -0.00088701939767316942 0 0.00042757846344862178 -0.00091561270527090201 0 0.00039331780483044655 -0.00088701939767316942 0 0.00042757846344862178 -0.00091561270527090201 0 0.00039513061714977008 -0.00091065655931056328 0 0.00041931610904010576 -0.00086561939271652389 0 0.00042757846344862178 -0.00091561270527090201 0 0.00047226772540801882 -0.00088156326692452591 0 0.00033796272571996234 -0.00083785766666485669 0 0.00035037779842226675 -0.00085096530040150984 0 0.00035092723939220057 -0.00087837629677281048 0 0.00030853938006952434 -0.00082592493497841567 0 0.00033796272571996234 -0.00083785766666485669 0 0.00035092723939220057 -0.00087837629677281048 0 0.00039331780483044655 -0.00088701939767316942 0 0.00037657494865589003 -0.00085005975795048288 0 0.00035092723939220057 -0.00087837629677281048 0 0.00035150706981747112 -0.00082743996794838791 0 0.00035037779842226675 -0.00085096530040150984 0 0.00037657494865589003 -0.00085005975795048288 0 0.00035037779842226675 -0.00085096530040150984 0 0.00037657494865589003 -0.00085005975795048288 0 0.00035092723939220057 -0.00087837629677281048 0 0.00039331780483044655 -0.00088701939767316942 0 0.00035092723939220057 -0.00087837629677281048 0 0.00039513061714977008 -0.00091065655931056328 0 0.0021294561852978262 -0.00048509797699690686 0 0.0023512594996148587 -0.0008473055239415526 0 0.0024636764636788515 -0.00083961104165424134 0 0.00035092723939220057 -0.00087837629677281048 0 0.00039513061714977008 -0.00091065655931056328 0 0.00040891729409691719 -0.00096162836417232377 0 0.00042757846344862178 -0.00091561270527090201 0 0.00040891729409691719 -0.00096162836417232377 0 0.00047347856149698156 -0.0009416398851355872 0 0.00042757846344862178 -0.00091561270527090201 0 0.00039513061714977008 -0.00091065655931056328 0 0.00040891729409691719 -0.00096162836417232377 0 0.0023512594996148587 -0.0008473055239415526 0 0.0024636764636788515 -0.00083961104165424134 0 0.0024491639320038958 -0.0010063321945785904 0 0.0023512594996148587 -0.0008473055239415526 0 0.002279428456695147 -0.00098679976114477591 0 0.0024491639320038958 -0.0010063321945785904 0 0.0022919860647035283 -0.00094469825072188434 0 0.0025136048367451957 -0.00064560800779138092 0 0.0010216203696081542 -0.00027449814093451382 0 0.0025136048367451957 -0.00064560800779138092 0 0.00060121619034721934 0.00013519393001028266 0 0.00063477151656083297 0.00022316132003068532 0 0.00057655937342784543 0.00026762207565184923 0 0.0021294561852978262 -0.00048509797699690686 0 0.0023512594996148587 -0.0008473055239415526 0 0.0022207920013365 -0.0010325014769872805 0 0.00071495295614567569 -0.00076341094968854716 0 0.00063378148855496789 -0.0007739197244865198 0 0.00067184765897026404 -0.00085063261533631254 0 0.00063378148855496789 -0.0007739197244865198 0 0.00067184765897026404 -0.00085063261533631254 0 0.00058005599080949934 -0.00081346066670561087 0 0.00067184765897026404 -0.00085063261533631254 0 0.00055864433695748466 -0.00090810853387273663 0 0.0006567606261428156 -0.00093929878813678953 0 0.00067184765897026404 -0.00085063261533631254 0 0.00058005599080949934 -0.00081346066670561087 0 0.00055864433695748466 -0.00090810853387273663 0 0.00055864433695748466 -0.00090810853387273663 0 0.00052363991043028618 -0.0008396599245875957 0 0.00047226772540801882 -0.00088156326692452591 0 0.00058005599080949934 -0.00081346066670561087 0 0.00055864433695748466 -0.00090810853387273663 0 0.00052363991043028618 -0.0008396599245875957 0 0.00051448311893017651 -0.00078116042880076327 0 0.00058005599080949934 -0.00081346066670561087 0 0.00052363991043028618 -0.0008396599245875957 0 0.00051448311893017651 -0.00078116042880076327 0 0.00052363991043028618 -0.0008396599245875957 0 0.0004784817514904159 -0.00081270003456848931 0 0.00044140691347201665 -0.00083532791231596959 0 0.0004784817514904159 -0.00081270003456848931 0 0.00047226772540801882 -0.00088156326692452591 0 0.00052363991043028618 -0.0008396599245875957 0 0.0004784817514904159 -0.00081270003456848931 0 0.00047226772540801882 -0.00088156326692452591 0 0.00045470749453311714 -0.00075640567396288022 0 0.00051448311893017651 -0.00078116042880076327 0 0.0004784817514904159 -0.00081270003456848931 0 0.00045470749453311714 -0.00075640567396288022 0 0.00043366541823525694 -0.00079321934325511472 0 0.0004784817514904159 -0.00081270003456848931 0 0.00043366541823525694 -0.00079321934325511472 0 0.00044140691347201665 -0.00083532791231596959 0 0.0004784817514904159 -0.00081270003456848931 0 0.00040891729409691719 -0.00096162836417232377 0 0.00051402336060955216 -0.00099756121945689981 0 0.00055046668702949362 -0.0011054168441463066 0 0.0014506321246377392 -0.00095770836659604696 0 0.0018260302988018968 -0.001079350073905398 0 0.00040891729409691719 -0.00096162836417232377 0 0.00047347856149698156 -0.0009416398851355872 0 0.00051402336060955216 -0.00099756121945689981 0 0.00055864433695748466 -0.00090810853387273663 0 0.00047226772540801882 -0.00088156326692452591 0 0.00047347856149698156 -0.0009416398851355872 0 0.00042757846344862178 -0.00091561270527090201 0 0.00047226772540801882 -0.00088156326692452591 0 0.00047347856149698156 -0.0009416398851355872 0 0.00051402336060955216 -0.00099756121945689981 0 0.00059537160198535406 -0.00099497157656152995 0 0.00055046668702949362 -0.0011054168441463066 0 0.00055864433695748466 -0.00090810853387273663 0 0.00051402336060955216 -0.00099756121945689981 0 0.00059537160198535406 -0.00099497157656152995 0 0.00055864433695748466 -0.00090810853387273663 0 0.00047347856149698156 -0.0009416398851355872 0 0.00051402336060955216 -0.00099756121945689981 0 0.00055864433695748466 -0.00090810853387273663 0 0.00059537160198535406 -0.00099497157656152995 0 0.0006567606261428156 -0.00093929878813678953 0 0.00059537160198535406 -0.00099497157656152995 0 0.00069637302096799483 -0.0010248462634933106 0 0.0006567606261428156 -0.00093929878813678953 0 0.00069637302096799483 -0.0010248462634933106 0 0.00055046668702949362 -0.0011054168441463066 0 0.00072832391181301996 -0.001168550264655982 0 0.0018260302988018968 -0.001079350073905398 0 0.0014763596576957807 -0.0014639378990896098 0 0.00059537160198535406 -0.00099497157656152995 0 0.00069637302096799483 -0.0010248462634933106 0 0.00055046668702949362 -0.0011054168441463066 0 0.0018260302988018968 -0.001079350073905398 0 0.0027498633883447639 -0.0010999766633879675 0 0.0026840631055004786 -0.0011030936265271733 0 0.0024491639320038958 -0.0010063321945785904 0 0.0025413461221027978 -0.0012181554395781921 0 0.0026840631055004786 -0.0011030936265271733 0 0.0026639078205994674 -0.0012910938313327703 0 0.0025413461221027978 -0.0012181554395781921 0 0.0026639078205994674 -0.0012910938313327703 0 0.0025470481629933047 -0.0013952617363486325 0 0.0027020899080010753 -0.0014456586083365886 0 0.0026639078205994674 -0.0012910938313327703 0 0.0025413461221027978 -0.0012181554395781921 0 0.0025470481629933047 -0.0013952617363486325 0 0.0026840631055004786 -0.0011030936265271733 0 0.0026639078205994674 -0.0012910938313327703 0 0.0028592382812005182 -0.0012982854477443684 0 0.0026639078205994674 -0.0012910938313327703 0 0.0028592382812005182 -0.0012982854477443684 0 0.0027020899080010753 -0.0014456586083365886 0 0.0018263322726853348 -0.0012753656235264669 0 0.0019233717181644852 -0.0013775173754923293 0 0.0019711843550155616 -0.0013304043078315618 0 0.0018260302988018968 -0.001079350073905398 0 0.0023976773832918652 -0.0015200853318750938 0 0.0023976773832918652 -0.0015200853318750938 0 0.0026367255528409734 -0.0015328306412102724 0 0.0023976773832918652 -0.0015200853318750938 0 0.0014763596576957807 -0.0014639378990896098 0 0.00063477151656083297 0.00022316132003068532 0 0.00057655937342784543 0.00026762207565184923 0 0.00069672865184946793 0.00031567446767658729 0 0.00057655937342784543 0.00026762207565184923 0 0.00066151177248084485 0.00044655879372409145 0 0.00069672865184946793 0.00031567446767658729 0 0.0025136048367451957 -0.00064560800779138092 0 0.0033863893170106582 -0.0012179106403942819 0 0.0042888107353148582 -0.0011446120606466955 0 0.0042901397611859356 -0.00097213206443702571 0 0.0044027722312451794 -0.00095801869245007313 0 0.0025136048367451957 -0.00064560800779138092 0 0.0025698979453753221 -0.00021643693737974067 0 0.0024636764636788515 -0.00083961104165424134 0 0.0026814781213784526 -0.0010971270682490911 0 0.0024491639320038958 -0.0010063321945785904 0 0.002279428456695147 -0.00098679976114477591 0 0.0024491639320038958 -0.0010063321945785904 0 0.0023573905985770694 -0.0012809838931910132 0 0.0024491639320038958 -0.0010063321945785904 0 0.0023573905985770694 -0.0012809838931910132 0 0.0025413461221027978 -0.0012181554395781921 0 0.0023573905985770694 -0.0012809838931910132 0 0.0025413461221027978 -0.0012181554395781921 0 0.0025470481629933047 -0.0013952617363486325 0 0.0042901397611859356 -0.00097213206443702571 0 0.0044027722312451794 -0.00095801869245007313 0 0.0043419341592922595 -0.0008971780179882038 0 0.0042888107353148582 -0.0011446120606466955 0 0.0044027722312451794 -0.00095801869245007313 0 0.0044542337767157292 -0.00096145626176783123 0 0.0044027722312451794 -0.00095801869245007313 0 0.004428513666182134 -0.00070265022834344341 0 0.0044542337767157292 -0.00096145626176783123 0 0.0044050936533530996 -0.000947532963923097 0 0.0044049136847987749 -0.00076800856400098506 0 0.0043815756639325283 -0.000825069661646431 0 0.0043419341592922595 -0.0008971780179882038 0 0.0042918923999697095 -0.00084407432422985954 0 0.0044027722312451794 -0.00095801869245007313 0 0.0043815756639325283 -0.000825069661646431 0 0.0043419341592922595 -0.0008971780179882038 0 0.0042901397611859356 -0.00097213206443702571 0 0.0043419341592922595 -0.0008971780179882038 0 0.0042918923999697095 -0.00084407432422985954 0 0.0044049136847987749 -0.00076800856400098506 0 0.0044242846953322377 -0.00059041923190130449 0 0.0043815756639325283 -0.000825069661646431 0 0.0043232602085852036 -0.00075819435526473941 0 0.0042918923999697095 -0.00084407432422985954 0 0.0043815756639325283 -0.000825069661646431 0 0.0043232602085852036 -0.00075819435526473941 0 0.0043894853931633112 -0.00070367026231673137 0 0.004428513666182134 -0.00070265022834344341 0 0.0044396657981773547 -0.00046931989152287397 0 0.0045559094654223876 -0.00057740406618540937 0 0.0043232602085852036 -0.00075819435526473941 0 0.0042918923999697095 -0.00084407432422985954 0 0.0042802955195745569 -0.0007340611342786322 0 0.0033405149813010549 -0.0011986012646505869 0 0.0038578832436046663 -0.00091750300038361703 0 0.0024530347296131726 -0.001530537464363094 0 0.0025490291125873656 -0.0015763674736128486 0 0.002543374277047808 -0.0015878530833454629 0 0.0042218532496958996 -0.00090703481338425668 0 0.0038578832436046663 -0.00091750300038361703 0 0.0023573905985770694 -0.0012809838931910132 0 0.0024530347296131726 -0.001530537464363094 0 0.0025470481629933047 -0.0013952617363486325 0 0.0033863893170106582 -0.0012179106403942819 0 0.0033405149813010549 -0.0011986012646505869 0 0.0024530347296131726 -0.001530537464363094 0 0.0025470481629933047 -0.0013952617363486325 0 0.0025490291125873656 -0.0015763674736128486 0 0.0025470481629933047 -0.0013952617363486325 0 0.0027020899080010753 -0.0014456586083365886 0 0.0025490291125873656 -0.0015763674736128486 0 0.0025263978239295952 -0.001668667936537499 0 0.0025490291125873656 -0.0015763674736128486 0 0.0025251700139794202 -0.001607010082017344 0 0.0026367255528409734 -0.0015328306412102724 0 0.00254968799665106 -0.0015896213101468588 0 0.0024728288231017806 -0.0017356384843096339 0 0.0025263978239295952 -0.001668667936537499 0 0.002476319517821385 -0.0016612820225412339 0 0.0024728288231017806 -0.0017356384843096339 0 0.002476319517821385 -0.0016612820225412339 0 0.0024134259891117876 -0.0017000339237318749 0 0.0025263978239295952 -0.001668667936537499 0 0.002476319517821385 -0.0016612820225412339 0 0.0025251700139794202 -0.001607010082017344 0 0.0024909242307070722 -0.001595558155544201 0 0.0024808683303556888 -0.0015424421531954238 0 0.0024201645127167023 -0.0016000313833582965 0 0.002476319517821385 -0.0016612820225412339 0 0.0024909242307070722 -0.001595558155544201 0 0.0024201645127167023 -0.0016000313833582965 0 0.002476319517821385 -0.0016612820225412339 0 0.0024909242307070722 -0.001595558155544201 0 0.0025251700139794202 -0.001607010082017344 0 0.0024909242307070722 -0.001595558155544201 0 0.0025338559827564363 -0.0015746761125159223 0 0.0024808683303556888 -0.0015424421531954238 0 0.0025490291125873656 -0.0015763674736128486 0 0.0025338559827564363 -0.0015746761125159223 0 0.002543374277047808 -0.0015878530833454629 0 0.0025490291125873656 -0.0015763674736128486 0 0.0025251700139794202 -0.001607010082017344 0 0.0025338559827564363 -0.0015746761125159223 0 0.0024909242307070722 -0.001595558155544201 0 0.0025251700139794202 -0.001607010082017344 0 0.0025338559827564363 -0.0015746761125159223 0 0.0025338559827564363 -0.0015746761125159223 0 0.0025410385052890422 -0.0015375032777435748 0 0.0024808683303556888 -0.0015424421531954238 0 0.0025338559827564363 -0.0015746761125159223 0 0.0025410385052890422 -0.0015375032777435748 0 0.002543374277047808 -0.0015878530833454629 0 0.0041406246405930472 -0.00068736079141203262 0 0.0042046191033341881 -0.00060004270627530263 0 0.0042666732336989494 -0.00067671623444127027 0 0.0025410385052890422 -0.0015375032777435748 0 0.0024808683303556888 -0.0015424421531954238 0 0.0024898111702414318 -0.0014821030243450065 0 0.0024808683303556888 -0.0015424421531954238 0 0.0024898111702414318 -0.0014821030243450065 0 0.0024109873324527583 -0.0015115315593236989 0 0.0041522830192820522 -0.00059311012236903178 0 0.0041861061935563795 -0.00048896373580350322 0 0.0040445971203547119 -0.00053134967012336833 0 0.0032766669422263153 -0.0010981943778021655 0 0.0033774567098210349 -0.00096472660803578736 0 0.0039976287022113425 -0.00060706509826823573 0 0.0042046191033341881 -0.00060004270627530263 0 0.0041853484001644174 -0.00049806696622147655 0 0.0041406246405930472 -0.00068736079141203262 0 0.0039976287022113425 -0.00060706509826823573 0 0.0042046191033341881 -0.00060004270627530263 0 0.0033774567098210349 -0.00096472660803578736 0 0.0043884004252193864 -0.0004112388947448389 0 0.0042046191033341881 -0.00060004270627530263 0 0.0043100857400570243 -0.00050631589502249548 0 0.0041853484001644174 -0.00049806696622147655 0 0.0042046191033341881 -0.00060004270627530263 0 0.0042872101100526212 -0.00060145316506579681 0 0.0043100857400570243 -0.00050631589502249548 0 0.0042046191033341881 -0.00060004270627530263 0 0.0042872101100526212 -0.00060145316506579681 0 0.0042666732336989494 -0.00067671623444127027 0 0.0042872101100526212 -0.00060145316506579681 0 0.0043406611443707922 -0.00063947261692529392 0 0.0042666732336989494 -0.00067671623444127027 0 0.0042872101100526212 -0.00060145316506579681 0 0.0044069796506823805 -0.00053911623406842498 0 0.0043100857400570243 -0.00050631589502249548 0 0.0043091591679384963 -0.00031225438608970419 0 0.0044242846953322377 -0.00059041923190130449 0 0.0044354268026031559 -0.00014871763945568733 0 0.0044396657981773547 -0.00046931989152287397 0 0.0045811710086292121 -0.00021274750156148682 0 0.0044069796506823805 -0.00053911623406842498 0 0.0043406611443707922 -0.00063947261692529392 0 0.0043894853931633112 -0.00070367026231673137 0 0.0042872101100526212 -0.00060145316506579681 0 0.0044069796506823805 -0.00053911623406842498 0 0.0043406611443707922 -0.00063947261692529392 0 0.0043406611443707922 -0.00063947261692529392 0 0.0043894853931633112 -0.00070367026231673137 0 0.0043223997053501067 -0.00070219554936442881 0 0.0043232602085852036 -0.00075819435526473941 0 0.0043894853931633112 -0.00070367026231673137 0 0.0043223997053501067 -0.00070219554936442881 0 0.0032766669422263153 -0.0010981943778021655 0 0.0038578832436046663 -0.00091750300038361703 0 0.0041406246405930472 -0.00068736079141203262 0 0.0042774175230705039 -0.00076519260221619991 0 0.0042666732336989494 -0.00067671623444127027 0 0.0043223997053501067 -0.00070219554936442881 0 0.004280239308006752 -0.00073460330115962774 0 0.0042666732336989494 -0.00067671623444127027 0 0.0038578832436046663 -0.00091750300038361703 0 0.0041101125583163541 -0.00070606991046252929 0 0.0043232602085852036 -0.00075819435526473941 0 0.0043223997053501067 -0.00070219554936442881 0 0.004280239308006752 -0.00073460330115962774 0 0.0043406611443707922 -0.00063947261692529392 0 0.0043223997053501067 -0.00070219554936442881 0 0.0042666732336989494 -0.00067671623444127027 0 0.0020802899374193894 -0.0014984734549948258 0 0.0022410525917066176 -0.001365058026457083 0 0.0023206447031547481 -0.0015393831887778192 0 0.0020802899374193894 -0.0014984734549948258 0 0.0020169177229158348 -0.0013676113713360981 0 0.0022410525917066176 -0.001365058026457083 0 0.0020802899374193894 -0.0014984734549948258 0 0.0020169177229158348 -0.0013676113713360981 0 0.0019477397847224714 -0.0015099038406256862 0 0.0020169177229158348 -0.0013676113713360981 0 0.0021379863442724757 -0.0012313453794887349 0 0.0020143794581459337 -0.0011759712142297312 0 0.0020169177229158348 -0.0013676113713360981 0 0.0021379863442724757 -0.0012313453794887349 0 0.0022410525917066176 -0.001365058026457083 0 0.0021379863442724757 -0.0012313453794887349 0 0.0022410525917066176 -0.001365058026457083 0 0.0022618646484625507 -0.0012316208458197284 0 0.0021379863442724757 -0.0012313453794887349 0 0.0022618646484625507 -0.0012316208458197284 0 0.0022439845581989333 -0.0011231329714477504 0 0.0022410525917066176 -0.001365058026457083 0 0.0022618646484625507 -0.0012316208458197284 0 0.0023914445928897177 -0.0013297817336228662 0 0.0023914445928897177 -0.0013297817336228662 0 0.0025656880896013745 -0.001173759877989762 0 0.0023498636483092164 -0.0011863229832705304 0 0.0022618646484625507 -0.0012316208458197284 0 0.0023914445928897177 -0.0013297817336228662 0 0.0023498636483092164 -0.0011863229832705304 0 0.0033774567098210349 -0.00096472660803578736 0 0.0023311657449243094 -0.0015562519237017518 0 0.0033774567098210349 -0.00096472660803578736 0 0.0033323907312396641 -0.00085196736861668863 0 0.0023914445928897177 -0.0013297817336228662 0 0.0025563078929683723 -0.0014202763891064392 0 0.0025656880896013745 -0.001173759877989762 0 0.0027704109330548054 -0.00129188403732283 0 0.0025563078929683723 -0.0014202763891064392 0 0.0025656880896013745 -0.001173759877989762 0 0.0024109873324527583 -0.0015115315593236989 0 0.0023206447031547481 -0.0015393831887778192 0 0.0024201645127167023 -0.0016000313833582965 0 0.0024808683303556888 -0.0015424421531954238 0 0.0024109873324527583 -0.0015115315593236989 0 0.0024201645127167023 -0.0016000313833582965 0 0.0022410525917066176 -0.001365058026457083 0 0.0023914445928897177 -0.0013297817336228662 0 0.0023206447031547481 -0.0015393831887778192 0 0.0023914445928897177 -0.0013297817336228662 0 0.0025563078929683723 -0.0014202763891064392 0 0.0023206447031547481 -0.0015393831887778192 0 0.0023311657449243094 -0.0015562519237017518 0 0.0023931139896918793 -0.0015021693606820129 0 0.0023206447031547481 -0.0015393831887778192 0 0.0024201645127167023 -0.0016000313833582965 0 0.0022999585712252359 -0.0016754976886497999 0 0.0024201645127167023 -0.0016000313833582965 0 0.0024134259891117876 -0.0017000339237318749 0 0.0022999585712252359 -0.0016754976886497999 0 0.002476319517821385 -0.0016612820225412339 0 0.0024201645127167023 -0.0016000313833582965 0 0.0024134259891117876 -0.0017000339237318749 0 0.0024134259891117876 -0.0017000339237318749 0 0.0022999585712252359 -0.0016754976886497999 0 0.0022894944893651586 -0.0018133613629489655 0 0.0022999585712252359 -0.0016754976886497999 0 0.0020863571748775396 -0.0017950786152388914 0 0.0022894944893651586 -0.0018133613629489655 0 0.0022999585712252359 -0.0016754976886497999 0 0.0021604364501270346 -0.0016314355581367684 0 0.0020863571748775396 -0.0017950786152388914 0 0.0020802899374193894 -0.0014984734549948258 0 0.0023206447031547481 -0.0015393831887778192 0 0.0021604364501270346 -0.0016314355581367684 0 0.0023206447031547481 -0.0015393831887778192 0 0.0022999585712252359 -0.0016754976886497999 0 0.0021604364501270346 -0.0016314355581367684 0 0.0020802899374193894 -0.0014984734549948258 0 0.0019850442562950208 -0.0016468396966425657 0 0.0019477397847224714 -0.0015099038406256862 0 0.0020802899374193894 -0.0014984734549948258 0 0.0021604364501270346 -0.0016314355581367684 0 0.0019850442562950208 -0.0016468396966425657 0 0.0021604364501270346 -0.0016314355581367684 0 0.0019850442562950208 -0.0016468396966425657 0 0.0020863571748775396 -0.0017950786152388914 0 0.0019850442562950208 -0.0016468396966425657 0 0.0020863571748775396 -0.0017950786152388914 0 0.0017941312807605197 -0.0016784988844991853 0 0.0018249209268381061 -0.0016903868309819747 0 0.0018075081417964708 -0.0016852067384036718 0 0.0016080819911421477 -0.0016103506623958814 0 0.0015608361965352056 -0.0014710233743120281 0 0.0016757629236321759 -0.0014408190269412447 0 0.0016080819911421477 -0.0016103506623958814 0 0.0016757629236321759 -0.0014408190269412447 0 0.001741373880022366 -0.0015472457164025116 0 0.0016080819911421477 -0.0016103506623958814 0 0.0015608361965352056 -0.0014710233743120281 0 0.0014649703537139419 -0.0015579372777791707 0 0.0018249209268381061 -0.0016903868309819747 0 0.0019650731316758164 -0.0017260631716768682 0 0.0015608361965352056 -0.0014710233743120281 0 0.0014449596812008668 -0.0013822830751519237 0 0.0015907598570025149 -0.0013848830954022702 0 0.0015608361965352056 -0.0014710233743120281 0 0.0016757629236321759 -0.0014408190269412447 0 0.0015907598570025149 -0.0013848830954022702 0 0.0024134259891117876 -0.0017000339237318749 0 0.002446302742406919 -0.0018521961360935734 0 0.0022894944893651586 -0.0018133613629489655 0 0.00250211549662445 -0.0017977204101687412 0 0.0024134259891117876 -0.0017000339237318749 0 0.002446302742406919 -0.0018521961360935734 0 0.0014763596576957807 -0.0014639378990896098 0 0.0019650731316758164 -0.0017260631716768682 0 0.0023976773832918652 -0.0015200853318750938 0 0.0024755848301642692 -0.0017683634605476202 0 0.0013223330831583537 -0.0015059570237768091 0 0.0014649703537139419 -0.0015579372777791707 0 0.0014449596812008668 -0.0013822830751519237 0 0.0015608361965352056 -0.0014710233743120281 0 0.0014649703537139419 -0.0015579372777791707 0 0.0014449596812008668 -0.0013822830751519237 0 0.0014763596576957807 -0.0014639378990896098 0 0.0010967712713896114 -0.0012091609102878622 0 0.00069637302096799483 -0.0010248462634933106 0 0.00072832391181301996 -0.001168550264655982 0 0.0008833425975425267 -0.0010122198634592687 0 0.00069637302096799483 -0.0010248462634933106 0 0.00076176013743076479 -0.00091622483429685576 0 0.0008833425975425267 -0.0010122198634592687 0 0.00069637302096799483 -0.0010248462634933106 0 0.0006567606261428156 -0.00093929878813678953 0 0.00076176013743076479 -0.00091622483429685576 0 0.00076176013743076479 -0.00091622483429685576 0 0.0008833425975425267 -0.0010122198634592687 0 0.00088071114441558144 -0.00086354288018985342 0 0.0008833425975425267 -0.0010122198634592687 0 0.00088071114441558144 -0.00086354288018985342 0 0.00095593518779238092 -0.00086387999571728316 0 0.00088235373814014905 -0.00077637114408909958 0 0.00088071114441558144 -0.00086354288018985342 0 0.00094490943503225627 -0.00079830093087278494 0 0.00088071114441558144 -0.00086354288018985342 0 0.00095593518779238092 -0.00086387999571728316 0 0.00094490943503225627 -0.00079830093087278494 0 0.00088235373814014905 -0.00077637114408909958 0 0.00088071114441558144 -0.00086354288018985342 0 0.0007969763079766801 -0.00081269813530331254 0 0.00067184765897026404 -0.00085063261533631254 0 0.00076176013743076479 -0.00091622483429685576 0 0.0007969763079766801 -0.00081269813530331254 0 0.00071495295614567569 -0.00076341094968854716 0 0.00067184765897026404 -0.00085063261533631254 0 0.0007969763079766801 -0.00081269813530331254 0 0.00076176013743076479 -0.00091622483429685576 0 0.00088071114441558144 -0.00086354288018985342 0 0.0007969763079766801 -0.00081269813530331254 0 0.00067184765897026404 -0.00085063261533631254 0 0.0006567606261428156 -0.00093929878813678953 0 0.00076176013743076479 -0.00091622483429685576 0 0.0016868615680099891 -0.0013447596095742006 0 0.0015907598570025149 -0.0013848830954022702 0 0.0015875339686448929 -0.0012857399470584108 0 0.0016757629236321759 -0.0014408190269412447 0 0.0016868615680099891 -0.0013447596095742006 0 0.0015907598570025149 -0.0013848830954022702 0 0.0010967712713896114 -0.0012091609102878622 0 0.0012444496158366056 -0.00095080719029883921 0 0.0014449596812008668 -0.0013822830751519237 0 0.0015907598570025149 -0.0013848830954022702 0 0.0015875339686448929 -0.0012857399470584108 0 0.0014449596812008668 -0.0013822830751519237 0 0.0015875339686448929 -0.0012857399470584108 0 0.001569364410137331 -0.0012526952822078548 0 0.0008833425975425267 -0.0010122198634592687 0 0.0010461194681046484 -0.00085494301526821111 0 0.00095593518779238092 -0.00086387999571728316 0 0.0014299005075569758 -0.0012119137653171367 0 0.0012444496158366056 -0.00095080719029883921 0 0.0015875339686448929 -0.0012857399470584108 0 0.0015677713102334769 -0.001249563183608318 0 0.0015805773700155383 -0.0012376194815992725 0 0.0010461194681046484 -0.00085494301526821111 0 0.00095593518779238092 -0.00086387999571728316 0 0.001015409458535925 -0.00079743681289665537 0 0.00095593518779238092 -0.00086387999571728316 0 0.00094490943503225627 -0.00079830093087278494 0 0.001015409458535925 -0.00079743681289665537 0 0.0009253983526467315 -0.000577090144081143 0 0.00095271523444637727 -0.00062798508388188404 0 0.0010517347007681921 -0.00065421507289109147 0 0.0010162068647830284 -0.00068863105710993179 0 0.00095271523444637727 -0.00062798508388188404 0 0.0010517347007681921 -0.00065421507289109147 0 0.0011638694459613819 -0.00084953761336199925 0 0.0011985697571969772 -0.00081611308513586736 0 0.0010905850148306214 -0.00071314638689413306 0 0.0012444496158366056 -0.00095080719029883921 0 0.0011609447944124027 -0.00078614401669878245 0 0.0012444496158366056 -0.00095080719029883921 0 0.00099978190046397892 -0.00071021497046043415 0 0.0011609447944124027 -0.00078614401669878245 0 0.00099978190046397892 -0.00071021497046043415 0 0.00090324947856591992 -0.00078295133807341414 0 0.00077506884366614136 -0.00050215029934512002 0 0.00090702432554840484 -0.00055472814927364769 0 0.00073192831435218389 -0.00047180682777092051 0 0.00077506884366614136 -0.00050215029934512002 0 0.00088625690301762095 -0.00045901534189667065 0 0.0012985041573983604 -0.0010774342020536765 0 0.0011609447944124027 -0.00078614401669878245 0 0.00090324947856591992 -0.00078295133807341414 0 0.00067820444056960073 -0.00051831170680191672 0 0.00077506884366614136 -0.00050215029934512002 0 0.0016868615680099891 -0.0013447596095742006 0 0.0015875339686448929 -0.0012857399470584108 0 0.0015805773700155383 -0.0012376194815992725 0 0.00067820444056960073 -0.00051831170680191672 0 0.00072663232666317628 -0.00047251350110703741 0 0.00077506884366614136 -0.00050215029934512002 0 0.0011609447944124027 -0.00078614401669878245 0 0.00090735023024976513 -0.00059824117868787527 0 0.00090735023024976513 -0.00059824117868787527 0 0.000845015592968943 -0.0005582177620119201 0 0.00077506884366614136 -0.00050215029934512002 0 0.00090702432554840484 -0.00055472814927364769 0 0.00088625690301762095 -0.00045901534189667065 0 0.00090702432554840484 -0.00055472814927364769 0 0.00088625690301762095 -0.00045901534189667065 0 0.0010503729626099791 -0.00048911880245901403 0 0.00090324947856591992 -0.00078295133807341414 0 0.0010503729626099791 -0.00048911880245901403 0 0.0013950153794452696 -0.00053153152818163235 0 0.00090324947856591992 -0.00078295133807341414 0 0.00090702432554840484 -0.00055472814927364769 0 0.0010503729626099791 -0.00048911880245901403 0 0.00090324947856591992 -0.00078295133807341414 0 0.0013950153794452696 -0.00053153152818163235 0 0.0012405613626146701 -0.0011374143156050683 0 0.0012985041573983604 -0.0010774342020536765 0 0.0015134176914241211 -0.0012877060094536989 0 0.0013950153794452696 -0.00053153152818163235 0 0.0016644216146451511 -0.0011309443464983119 0 0.0012405613626146701 -0.0011374143156050683 0 0.0012221746775105133 -0.000331202888702059 0 0.0013950153794452696 -0.00053153152818163235 0 0.001469662197958414 -0.00047084700939963459 0 0.0012221746775105133 -0.000331202888702059 0 0.0010503729626099791 -0.00048911880245901403 0 0.0013950153794452696 -0.00053153152818163235 0 0.001287060579128212 0.00011875186782838573 0 0.0013101718924343924 0.0001239521907367558 0 0.0014646122189331519 -0.00018570838345612176 0 0.0015846195471507967 -0.0003845994652567543 0 0.0015488782297741271 -0.0004663021395754117 0 0.0015941222465403139 -0.00050576855697938056 0 0.0015846195471507967 -0.0003845994652567543 0 0.0015941222465403139 -0.00050576855697938056 0 0.0016505182253460553 -0.00052560028325992179 0 0.0014272369566951863 -0.00014010191386030078 0 0.0015694055724244005 -0.0003563106603178111 0 0.0015846195471507967 -0.0003845994652567543 0 0.001469662197958414 -0.00047084700939963459 0 0.0015488782297741271 -0.0004663021395754117 0 0.0015488782297741271 -0.0004663021395754117 0 0.0015941222465403139 -0.00050576855697938056 0 0.0015539829517591649 -0.00051793308355312811 0 0.001469662197958414 -0.00047084700939963459 0 0.0015488782297741271 -0.0004663021395754117 0 0.0015539829517591649 -0.00051793308355312811 0 0.001469662197958414 -0.00047084700939963459 0 0.0015539829517591649 -0.00051793308355312811 0 0.0015340780346909798 -0.00059105142990637243 0 0.0015941222465403139 -0.00050576855697938056 0 0.0016015758156414375 -0.00056370057377737477 0 0.0016401157565616672 -0.00055430235121028265 0 0.0015941222465403139 -0.00050576855697938056 0 0.0015539829517591649 -0.00051793308355312811 0 0.0016015758156414375 -0.00056370057377737477 0 0.0015539829517591649 -0.00051793308355312811 0 0.0016015758156414375 -0.00056370057377737477 0 0.0015340780346909798 -0.00059105142990637243 0 0.0013950153794452696 -0.00053153152818163235 0 0.001469662197958414 -0.00047084700939963459 0 0.0015340780346909798 -0.00059105142990637243 0 0.0013950153794452696 -0.00053153152818163235 0 0.0016644216146451511 -0.0011309443464983119 0 0.0020164299380548158 -0.001042863684493195 0 0.0014217421643487689 -0.00054078665044588533 0 0.0017607804617863142 -0.00081659377712879242 0 0.0016644216146451511 -0.0011309443464983119 0 0.0020173026897142348 -0.0014291714919585686 0 0.001775595859072688 -0.001489086844603249 0 0.0016644216146451511 -0.0011309443464983119 0 0.0020164299380548158 -0.001042863684493195 0 0.0020173026897142348 -0.0014291714919585686 0 0.0020164299380548158 -0.001042863684493195 0 0.0020173026897142348 -0.0014291714919585686 0 0.0022839924779637462 -0.0014299248685166017 0 0.0015340780346909798 -0.00059105142990637243 0 0.0016565235068249395 -0.00060365066417795727 0 0.0016492282797883136 -0.00071381249088617055 0 0.0017607804617863142 -0.00081659377712879242 0 0.0019648514761809455 -0.001071219444080235 0 0.0016015758156414375 -0.00056370057377737477 0 0.0015340780346909798 -0.00059105142990637243 0 0.0016565235068249395 -0.00060365066417795727 0 0.0020173026897142348 -0.0014291714919585686 0 0.0022839924779637462 -0.0014299248685166017 0 0.0021147362464593858 -0.0015952514250883274 0 0.0020173026897142348 -0.0014291714919585686 0 0.0019127448632721431 -0.0015919617179792035 0 0.0021147362464593858 -0.0015952514250883274 0 0.0020173026897142348 -0.0014291714919585686 0 0.001775595859072688 -0.001489086844603249 0 0.0019127448632721431 -0.0015919617179792035 0 0.001775595859072688 -0.001489086844603249 0 0.0017989906556539145 -0.0015729657330024005 0 0.0019127448632721431 -0.0015919617179792035 0 0.001775595859072688 -0.001489086844603249 0 0.001774531028504817 -0.0014513425629794296 0 0.0017989906556539145 -0.0015729657330024005 0 0.001741373880022366 -0.0015472457164025116 0 0.001774531028504817 -0.0014513425629794296 0 0.0017989906556539145 -0.0015729657330024005 0 0.0016757629236321759 -0.0014408190269412447 0 0.0016868615680099891 -0.0013447596095742006 0 0.001774531028504817 -0.0014513425629794296 0 0.0016757629236321759 -0.0014408190269412447 0 0.001741373880022366 -0.0015472457164025116 0 0.001774531028504817 -0.0014513425629794296 0 0.0016644216146451511 -0.0011309443464983119 0 0.001775595859072688 -0.001489086844603249 0 0.0012405613626146701 -0.0011374143156050683 0 0.0017431434232624762 -0.0014740939910206639 0 0.0015134176914241211 -0.0012877060094536989 0 0.0018293916032276487 4.9850872964536533e-05 0 0.0019975077804613986 -3.5369151189920914e-05 0 0.0018270924686300085 6.3708203459308639e-05 0 0.0021301307067739766 -0.00014641155264968339 0 0.0023335279858380585 -0.00021518535036031509 0 0.0018799072632227178 0.0001028938681566419 0 0.0018270924686300085 6.3708203459308639e-05 0 0.0017244778239077709 0.00014301455204937324 0 0.0011729624684618911 0.00012832760467885388 0 0.0011595808818168187 0.00016859184953572814 0 0.0011875744875434972 7.5618872844754881e-05 0 0.0015086225458568227 0.00013324493912924375 0 0.0013595521545645261 3.0212020954690736e-05 0 0.0011729624684618911 0.00012832760467885388 0 0.0011595808818168187 0.00016859184953572814 0 0.0011759320463449029 0.00014372133842646532 0 0.0015086225458568227 0.00013324493912924375 0 0.0013915190942467963 0.00020111833983186054 0 0.0011595808818168187 0.00016859184953572814 0 0.0012186713321150817 0.00015679560638582159 0 0.0013843034509106878 0.00021155851525593537 0 0.0011595808818168187 0.00016859184953572814 0 0.0011759320463449029 0.00014372133842646532 0 0.0012186713321150817 0.00015679560638582159 0 0.0018799072632227178 0.0001028938681566419 0 0.0018270924686300085 6.3708203459308639e-05 0 0.0016079318321174779 9.2805721632077448e-05 0 0.0018270924686300085 6.3708203459308639e-05 0 0.0018927457436709709 -0.00010721263253158693 0 0.0021301307067739766 -0.00014641155264968339 0 0.0018270924686300085 6.3708203459308639e-05 0 0.0016754718087817631 -2.6896931845947347e-05 0 0.0018927457436709709 -0.00010721263253158693 0 0.0018799072632227178 0.0001028938681566419 0 0.0016079318321174779 9.2805721632077448e-05 0 0.0013843034509106878 0.00021155851525593537 0 0.0014596752249261202 2.9150960801528989e-05 0 0.001290026883153859 0.00017248709700133164 0 0.0015612757063328806 -0.00016892169761665687 0 0.0018270924686300085 6.3708203459308639e-05 0 0.0016754718087817631 -2.6896931845947347e-05 0 0.0016079318321174779 9.2805721632077448e-05 0 0.0015792418522765758 1.1815103495188092e-05 0 0.0016754718087817631 -2.6896931845947347e-05 0 0.0016079318321174779 9.2805721632077448e-05 0 0.0015792418522765758 1.1815103495188092e-05 0 0.0016754718087817631 -2.6896931845947347e-05 0 0.0015792207648615527 -5.078302391784064e-05 0 0.0015792418522765758 1.1815103495188092e-05 0 0.0015792207648615527 -5.078302391784064e-05 0 0.0014596752249261202 2.9150960801528989e-05 0 0.0015792418522765758 1.1815103495188092e-05 0 0.0014596752249261202 2.9150960801528989e-05 0 0.0016079318321174779 9.2805721632077448e-05 0 0.0013937353552494149 0.00013412945891819642 0 0.0016079318321174779 9.2805721632077448e-05 0 0.0013843034509106878 0.00021155851525593537 0 0.0014596752249261202 2.9150960801528989e-05 0 0.0013937353552494149 0.00013412945891819642 0 0.0016079318321174779 9.2805721632077448e-05 0 0.0013937353552494149 0.00013412945891819642 0 0.0013843034509106878 0.00021155851525593537 0 0.0013456497333641127 0.00018123698237370399 0 0.0012186713321150817 0.00015679560638582159 0 0.0012583012436913142 0.00016862736869658381 0 0.0013843034509106878 0.00021155851525593537 0 0.0012583012436913142 0.00016862736869658381 0 0.0013843034509106878 0.00021155851525593537 0 0.0013223479703296484 0.00018990476780858474 0 0.0012957351982977427 0.00016547366123168404 0 0.0012949692308345281 0.00014795922253999796 0 0.001290026883153859 0.00017248709700133164 0 0.0013223479703296484 0.00018990476780858474 0 0.0012957351982977427 0.00016547366123168404 0 0.001290026883153859 0.00017248709700133164 0 0.0013456497333641127 0.00018123698237370399 0 0.0013223479703296484 0.00018990476780858474 0 0.001290026883153859 0.00017248709700133164 0 0.0013155532644263987 0.00012130495462212788 0 0.0014097985447121327 3.7101137515545375e-06 0 0.0013101718924343924 0.0001239521907367558 0 0.0012949692308345281 0.00014795922253999796 0 0.001290026883153859 0.00017248709700133164 0 0.0013101718924343924 0.0001239521907367558 0 0.0014646122189331519 -0.00018570838345612176 0 0.0015162977060359832 -0.00014825210583292842 0 0.0013843034509106878 0.00021155851525593537 0 0.0013456497333641127 0.00018123698237370399 0 0.0013223479703296484 0.00018990476780858474 0 0.0012583012436913142 0.00016862736869658381 0 0.0013223479703296484 0.00018990476780858474 0 0.0012957351982977427 0.00016547366123168404 0 0.0014097985447121327 3.7101137515545375e-06 0 0.0016867004307251417 -0.00034814191473165034 0 0.0014646122189331519 -0.00018570838345612176 0 0.0015162977060359832 -0.00014825210583292842 0 0.00181436975703319 -0.00054903599458113817 0 0.0016505182253460553 -0.00052560028325992179 0 0.0016876968626249132 -0.00057639831218874924 0 0.0017858774645640454 -0.00060208137455353518 0 0.0015941222465403139 -0.00050576855697938056 0 0.0016505182253460553 -0.00052560028325992179 0 0.0016401157565616672 -0.00055430235121028265 0 0.0015694055724244005 -0.0003563106603178111 0 0.0017664825784498362 -0.00059321744481245287 0 0.0014596752249261202 2.9150960801528989e-05 0 0.0013937353552494149 0.00013412945891819642 0 0.001290026883153859 0.00017248709700133164 0 0.0013937353552494149 0.00013412945891819642 0 0.0013456497333641127 0.00018123698237370399 0 0.001290026883153859 0.00017248709700133164 0 0.0016505182253460553 -0.00052560028325992179 0 0.0016401157565616672 -0.00055430235121028265 0 0.0016876968626249132 -0.00057639831218874924 0 0.0016015758156414375 -0.00056370057377737477 0 0.0016401157565616672 -0.00055430235121028265 0 0.0016565235068249395 -0.00060365066417795727 0 0.0016565235068249395 -0.00060365066417795727 0 0.0017161288161419755 -0.00063665751096831692 0 0.0016492282797883136 -0.00071381249088617055 0 0.0016401157565616672 -0.00055430235121028265 0 0.0016565235068249395 -0.00060365066417795727 0 0.0016876968626249132 -0.00057639831218874924 0 0.0016876968626249132 -0.00057639831218874924 0 0.0017104950181950061 -0.00059900119765049541 0 0.0017858774645640454 -0.00060208137455353518 0 0.0016565235068249395 -0.00060365066417795727 0 0.0016876968626249132 -0.00057639831218874924 0 0.0017104950181950061 -0.00059900119765049541 0 0.0016565235068249395 -0.00060365066417795727 0 0.0017104950181950061 -0.00059900119765049541 0 0.0017161288161419755 -0.00063665751096831692 0 0.0017104950181950061 -0.00059900119765049541 0 0.0017161288161419755 -0.00063665751096831692 0 0.0017858774645640454 -0.00060208137455353518 0 0.0016492282797883136 -0.00071381249088617055 0 0.0017513181308994694 -0.00068175304094139318 0 0.0018292262078135539 -0.0007619729097979081 0 0.0017161288161419755 -0.00063665751096831692 0 0.0016492282797883136 -0.00071381249088617055 0 0.0017513181308994694 -0.00068175304094139318 0 0.0019648514761809455 -0.001071219444080235 0 0.0021834840063497674 -0.0013585457498641656 0 0.0016867004307251417 -0.00034814191473165034 0 0.0020031194265580816 -0.00066615558273414857 0 0.0018292262078135539 -0.0007619729097979081 0 0.0020716261176133817 -0.00078655317166288459 0 0.0018929277656327993 -0.0010607882657151838 0 0.0018292262078135539 -0.0007619729097979081 0 0.0017858774645640454 -0.00060208137455353518 0 0.0020716261176133817 -0.00078655317166288459 0 0.0016492282797883136 -0.00071381249088617055 0 0.0018292262078135539 -0.0007619729097979081 0 0.0018929277656327993 -0.0010607882657151838 0 0.0017513181308994694 -0.00068175304094139318 0 0.0018292262078135539 -0.0007619729097979081 0 0.0017858774645640454 -0.00060208137455353518 0 0.0015612757063328806 -0.00016892169761665687 0 0.0017824792900234315 -0.00017661788872229056 0 0.0018987398996702391 -0.00051165330685717198 0 0.0017858774645640454 -0.00060208137455353518 0 0.00181436975703319 -0.00054903599458113817 0 0.0020716261176133817 -0.00078655317166288459 0 0.0014646122189331519 -0.00018570838345612176 0 0.0017858774645640454 -0.00060208137455353518 0 0.00181436975703319 -0.00054903599458113817 0 0.0017161288161419755 -0.00063665751096831692 0 0.0017513181308994694 -0.00068175304094139318 0 0.0017858774645640454 -0.00060208137455353518 0 0.0015792207648615527 -5.078302391784064e-05 0 0.0014596752249261202 2.9150960801528989e-05 0 0.0015612757063328806 -0.00016892169761665687 0 0.0015792207648615527 -5.078302391784064e-05 0 0.0015612757063328806 -0.00016892169761665687 0 0.0016428501110604336 -0.00010780647123487785 0 0.0015612757063328806 -0.00016892169761665687 0 0.0016428501110604336 -0.00010780647123487785 0 0.0017824792900234315 -0.00017661788872229056 0 0.0016754718087817631 -2.6896931845947347e-05 0 0.0015792207648615527 -5.078302391784064e-05 0 0.0016428501110604336 -0.00010780647123487785 0 0.0016754718087817631 -2.6896931845947347e-05 0 0.0016428501110604336 -0.00010780647123487785 0 0.0017824792900234315 -0.00017661788872229056 0 0.0018927457436709709 -0.00010721263253158693 0 0.0020457222674211831 -0.00021984294554859969 0 0.0017824792900234315 -0.00017661788872229056 0 0.0016754718087817631 -2.6896931845947347e-05 0 0.0018927457436709709 -0.00010721263253158693 0 0.0017824792900234315 -0.00017661788872229056 0 0.0018927457436709709 -0.00010721263253158693 0 0.0020457222674211831 -0.00021984294554859969 0 0.0021301307067739766 -0.00014641155264968339 0 0.0020457222674211831 -0.00021984294554859969 0 0.0018987398996702391 -0.00051165330685717198 0 0.0023821588186397212 -0.00060504636113356807 0 0.0020457222674211831 -0.00021984294554859969 0 0.0017824792900234315 -0.00017661788872229056 0 0.0018987398996702391 -0.00051165330685717198 0 0.0020457222674211831 -0.00021984294554859969 0 0.002496030325818755 -0.00017869087031691073 0 0.0023821588186397212 -0.00060504636113356807 0 0.002496030325818755 -0.00017869087031691073 0 0.0023821588186397212 -0.00060504636113356807 0 0.0035486922061830858 -0.00092758499753915335 0 0.0020457222674211831 -0.00021984294554859969 0 0.002496030325818755 -0.00017869087031691073 0 0.0021301307067739766 -0.00014641155264968339 0 0.002496030325818755 -0.00017869087031691073 0 0.0021301307067739766 -0.00014641155264968339 0 0.0023335279858380585 -0.00021518535036031509 0 0.0030763143251493169 -0.0014911353386371444 0 0.0025086754421136462 -0.0012178532026507571 0 0.0035486922061830858 -0.00092758499753915335 0 0.0030763143251493169 -0.0014911353386371444 0 0.0026103496197445197 -0.0017411682892358126 0 0.0031569177069515034 -0.0019073240513395866 0 0.0030763143251493169 -0.0014911353386371444 0 0.0026103496197445197 -0.0017411682892358126 0 0.0025086754421136462 -0.0012178532026507571 0 0.0023821588186397212 -0.00060504636113356807 0 0.0025086754421136462 -0.0012178532026507571 0 0.0035486922061830858 -0.00092758499753915335 0 0.0018987398996702391 -0.00051165330685717198 0 0.0023821588186397212 -0.00060504636113356807 0 0.0025086754421136462 -0.0012178532026507571 0 0.0020031194265580816 -0.00066615558273414857 0 0.0024563933359704627 -0.0011859603786570883 0 0.0020716261176133817 -0.00078655317166288459 0 0.0025086754421136462 -0.0012178532026507571 0 0.0018929277656327993 -0.0010607882657151838 0 0.0026103496197445197 -0.0017411682892358126 0 0.0025086754421136462 -0.0012178532026507571 0 0.0018929277656327993 -0.0010607882657151838 0 0.0026103496197445197 -0.0017411682892358126 0 0.0024527046901853425 -0.0017571605441437847 0 0.0024784555339030069 -0.0018590366402011821 0 0.0026103496197445197 -0.0017411682892358126 0 0.0024527046901853425 -0.0017571605441437847 0 0.0024425559033572921 -0.0016486135243500241 0 0.0025846033456949137 -0.0017262494886927204 0 0.0021834840063497674 -0.0013585457498641656 0 0.0024527046901853425 -0.0017571605441437847 0 0.0023696747561170162 -0.0018326624531091996 0 0.0024784555339030069 -0.0018590366402011821 0 0.0024527046901853425 -0.0017571605441437847 0 0.0023696747561170162 -0.0018326624531091996 0 0.0023635405760528277 -0.0017215387902613951 0 0.0024527046901853425 -0.0017571605441437847 0 0.0023635405760528277 -0.0017215387902613951 0 0.0024425559033572921 -0.0016486135243500241 0 0.0023635405760528277 -0.0017215387902613951 0 0.0024425559033572921 -0.0016486135243500241 0 0.0022878915179895 -0.0016368906320792379 0 0.0022839924779637462 -0.0014299248685166017 0 0.0022878915179895 -0.0016368906320792379 0 0.0021147362464593858 -0.0015952514250883274 0 0.0022839924779637462 -0.0014299248685166017 0 0.0024425559033572921 -0.0016486135243500241 0 0.0022878915179895 -0.0016368906320792379 0 0.0022878915179895 -0.0016368906320792379 0 0.002277060083669992 -0.0017741534642847015 0 0.0021479656260513947 -0.0017245240331770755 0 0.0023635405760528277 -0.0017215387902613951 0 0.0022878915179895 -0.0016368906320792379 0 0.002277060083669992 -0.0017741534642847015 0 0.0023696747561170162 -0.0018326624531091996 0 0.002277060083669992 -0.0017741534642847015 0 0.0022889702685775556 -0.0019133967075515821 0 0.0023696747561170162 -0.0018326624531091996 0 0.0023635405760528277 -0.0017215387902613951 0 0.002277060083669992 -0.0017741534642847015 0 0.002277060083669992 -0.0017741534642847015 0 0.0022889702685775556 -0.0019133967075515821 0 0.0021776234716747328 -0.0018372872719532439 0 0.002277060083669992 -0.0017741534642847015 0 0.0021479656260513947 -0.0017245240331770755 0 0.0021776234716747328 -0.0018372872719532439 0 0.0022889702685775556 -0.0019133967075515821 0 0.0022032737769727339 -0.0019486768082612146 0 0.0021776234716747328 -0.0018372872719532439 0 0.0022889702685775556 -0.0019133967075515821 0 0.0022802232329653944 -0.0020437640942744277 0 0.0023985121532931054 -0.001994191715249212 0 0.0022889702685775556 -0.0019133967075515821 0 0.0022032737769727339 -0.0019486768082612146 0 0.0022802232329653944 -0.0020437640942744277 0 0.0022468572844900146 -0.0021231789981555941 0 0.0022802232329653944 -0.0020437640942744277 0 0.0021713266390297236 -0.002036859614433372 0 0.0022032737769727339 -0.0019486768082612146 0 0.0022802232329653944 -0.0020437640942744277 0 0.0021713266390297236 -0.002036859614433372 0 0.0022468572844900146 -0.0021231789981555941 0 0.0023132953002833337 -0.0021324852072570595 0 0.0022802232329653944 -0.0020437640942744277 0 0.0023132953002833337 -0.0021324852072570595 0 0.0022802232329653944 -0.0020437640942744277 0 0.0023673521734269196 -0.002112909808051506 0 0.0023132953002833337 -0.0021324852072570595 0 0.0023673521734269196 -0.002112909808051506 0 0.0023706289418325998 -0.0021913238571872116 0 0.0022468572844900146 -0.0021231789981555941 0 0.0023132953002833337 -0.0021324852072570595 0 0.0023117465858444801 -0.0021873169701599774 0 0.0023673521734269196 -0.002112909808051506 0 0.0024405982333910912 -0.0021091667279584322 0 0.0023985121532931054 -0.001994191715249212 0 0.0022802232329653944 -0.0020437640942744277 0 0.0023673521734269196 -0.002112909808051506 0 0.0023985121532931054 -0.001994191715249212 0 0.0023673521734269196 -0.002112909808051506 0 0.0024214694150009896 -0.0021814647185531364 0 0.0023706289418325998 -0.0021913238571872116 0 0.0023673521734269196 -0.002112909808051506 0 0.0024214694150009896 -0.0021814647185531364 0 0.0024405982333910912 -0.0021091667279584322 0 0.0024214694150009896 -0.0021814647185531364 0 0.0024759296645612359 -0.002184134434825325 0 0.0024405982333910912 -0.0021091667279584322 0 0.0024759296645612359 -0.002184134434825325 0 0.0025402999492476911 -0.0022299564866693983 0 0.0024973679144633019 -0.0022382623942171871 0 0.0024214694150009896 -0.0021814647185531364 0 0.0024759296645612359 -0.002184134434825325 0 0.0024973679144633019 -0.0022382623942171871 0 0.0024759296645612359 -0.002184134434825325 0 0.0024405982333910912 -0.0021091667279584322 0 0.0025129945239485423 -0.0021623228382070211 0 0.0024405982333910912 -0.0021091667279584322 0 0.0024974108103884523 -0.0020814075175597411 0 0.0025129945239485423 -0.0021623228382070211 0 0.0024405982333910912 -0.0021091667279584322 0 0.0023985121532931054 -0.001994191715249212 0 0.0024974108103884523 -0.0020814075175597411 0 0.0023985121532931054 -0.001994191715249212 0 0.0024784555339030069 -0.0018590366402011821 0 0.0025063794520774531 -0.0019813216252043469 0 0.0023985121532931054 -0.001994191715249212 0 0.0025063794520774531 -0.0019813216252043469 0 0.0024974108103884523 -0.0020814075175597411 0 0.0023696747561170162 -0.0018326624531091996 0 0.0022889702685775556 -0.0019133967075515821 0 0.0023985121532931054 -0.001994191715249212 0 0.0023696747561170162 -0.0018326624531091996 0 0.0023985121532931054 -0.001994191715249212 0 0.0024784555339030069 -0.0018590366402011821 0 0.0026103496197445197 -0.0017411682892358126 0 0.0024784555339030069 -0.0018590366402011821 0 0.0025741297369212494 -0.0019432247301044382 0 0.0024784555339030069 -0.0018590366402011821 0 0.0025741297369212494 -0.0019432247301044382 0 0.0025063794520774531 -0.0019813216252043469 0 0.0026103496197445197 -0.0017411682892358126 0 0.0025741297369212494 -0.0019432247301044382 0 0.0027631624782396896 -0.0020657072797659447 0 0.0025741297369212494 -0.0019432247301044382 0 0.0026001835958329171 -0.0020962369046553428 0 0.0027631624782396896 -0.0020657072797659447 0 0.0025741297369212494 -0.0019432247301044382 0 0.0025063794520774531 -0.0019813216252043469 0 0.0026001835958329171 -0.0020962369046553428 0 0.0025063794520774531 -0.0019813216252043469 0 0.0024974108103884523 -0.0020814075175597411 0 0.0026001835958329171 -0.0020962369046553428 0 0.0024974108103884523 -0.0020814075175597411 0 0.002561210188758426 -0.0021524048277620856 0 0.0026001835958329171 -0.0020962369046553428 0 0.002561210188758426 -0.0021524048277620856 0 0.0025814795004320493 -0.0022161439376644177 0 0.0026216950181876843 -0.0021967722281851882 0 0.0024974108103884523 -0.0020814075175597411 0 0.002561210188758426 -0.0021524048277620856 0 0.0025129945239485423 -0.0021623228382070211 0 0.0024759296645612359 -0.002184134434825325 0 0.0025129945239485423 -0.0021623228382070211 0 0.0025402999492476911 -0.0022299564866693983 0 0.0025129945239485423 -0.0021623228382070211 0 0.0025814795004320493 -0.0022161439376644177 0 0.0025402999492476911 -0.0022299564866693983 0 0.002561210188758426 -0.0021524048277620856 0 0.0025129945239485423 -0.0021623228382070211 0 0.0025814795004320493 -0.0022161439376644177 0 0.0025814795004320493 -0.0022161439376644177 0 0.0025402999492476911 -0.0022299564866693983 0 0.0025994508876752416 -0.0022610521444100919 0 0.0025402999492476911 -0.0022299564866693983 0 0.0025994508876752416 -0.0022610521444100919 0 0.0025616989287859659 -0.0022729443411676534 0 0.0027252183630806942 -0.0022515351993548992 0 0.0027040476113987639 -0.0023215936878650191 0 0.0026645999386841722 -0.0023153858857864703 0 0.0026402075197205742 -0.0022518479467909568 0 0.0027252183630806942 -0.0022515351993548992 0 0.0026645999386841722 -0.0023153858857864703 0 0.00424792710959398 -0.0022658414949599695 0 0.0043778149825987982 -0.0022990755666081383 0 0.0025994508876752416 -0.0022610521444100919 0 0.0026402075197205742 -0.0022518479467909568 0 0.0026645999386841722 -0.0023153858857864703 0 0.0025814795004320493 -0.0022161439376644177 0 0.0025994508876752416 -0.0022610521444100919 0 0.0026402075197205742 -0.0022518479467909568 0 0.0025814795004320493 -0.0022161439376644177 0 0.0026402075197205742 -0.0022518479467909568 0 0.0026216950181876843 -0.0021967722281851882 0 0.0026402075197205742 -0.0022518479467909568 0 0.0026216950181876843 -0.0021967722281851882 0 0.0027252183630806942 -0.0022515351993548992 0 0.0026001835958329171 -0.0020962369046553428 0 0.0027252183630806942 -0.0022515351993548992 0 0.0027631624782396896 -0.0020657072797659447 0 0.0026216950181876843 -0.0021967722281851882 0 0.0026001835958329171 -0.0020962369046553428 0 0.0027252183630806942 -0.0022515351993548992 0 0.002561210188758426 -0.0021524048277620856 0 0.0026216950181876843 -0.0021967722281851882 0 0.0026001835958329171 -0.0020962369046553428 0 0.0027252183630806942 -0.0022515351993548992 0 0.0030905201456991275 -0.0023837933308703588 0 0.0027631624782396896 -0.0020657072797659447 0 0.00424792710959398 -0.0022658414949599695 0 0.0040602913458690111 -0.0022229635306342524 0 0.0027252183630806942 -0.0022515351993548992 0 0.0027040476113987639 -0.0023215936878650191 0 0.0030905201456991275 -0.0023837933308703588 0 0.0049519863108469665 -0.0021677594664606067 0 0.005223325243195443 -0.0019202637908088131 0 0.0049616376721717337 -0.0018490567430185323 0 0.0055026313444784675 -0.0020011895280837035 0 0.0049519863108469665 -0.0021677594664606067 0 0.005223325243195443 -0.0019202637908088131 0 0.0030905201456991275 -0.0023837933308703588 0 0.0027631624782396896 -0.0020657072797659447 0 0.0031569177069515034 -0.0019073240513395866 0 0.0026103496197445197 -0.0017411682892358126 0 0.0027631624782396896 -0.0020657072797659447 0 0.0031569177069515034 -0.0019073240513395866 0 0.0018218232446744298 -0.0016744526095623042 0 0.0018796167547261375 -0.0017583851646393619 0 0.001810788220553317 -0.0016622572738970167 0 0.0018218232446744298 -0.0016744526095623042 0 0.0018796167547261375 -0.0017583851646393619 0 0.0018925662490809749 -0.0016805061057141898 0 0.0018796167547261375 -0.0017583851646393619 0 0.0018925662490809749 -0.0016805061057141898 0 0.0019638108519323474 -0.0017680948894464438 0 0.0019850442562950208 -0.0016468396966425657 0 0.001810788220553317 -0.0016622572738970167 0 0.0019477397847224714 -0.0015099038406256862 0 0.0019850442562950208 -0.0016468396966425657 0 0.001810788220553317 -0.0016622572738970167 0 0.0017941312807605197 -0.0016784988844991853 0 0.0018218232446744298 -0.0016744526095623042 0 0.001810788220553317 -0.0016622572738970167 0 0.0017941312807605197 -0.0016784988844991853 0 0.001741373880022366 -0.0015472457164025116 0 0.0017941312807605197 -0.0016784988844991853 0 0.0017989906556539145 -0.0015729657330024005 0 0.0016080819911421477 -0.0016103506623958814 0 0.001741373880022366 -0.0015472457164025116 0 0.0017941312807605197 -0.0016784988844991853 0 0.0017989906556539145 -0.0015729657330024005 0 0.0018925662490809749 -0.0016805061057141898 0 0.0019127448632721431 -0.0015919617179792035 0 0.0018218232446744298 -0.0016744526095623042 0 0.0017941312807605197 -0.0016784988844991853 0 0.0017989906556539145 -0.0015729657330024005 0 0.0018218232446744298 -0.0016744526095623042 0 0.0017989906556539145 -0.0015729657330024005 0 0.0018925662490809749 -0.0016805061057141898 0 0.0019127448632721431 -0.0015919617179792035 0 0.0021147362464593858 -0.0015952514250883274 0 0.0020020526887669526 -0.0016970615016422001 0 0.0018925662490809749 -0.0016805061057141898 0 0.0019127448632721431 -0.0015919617179792035 0 0.0020020526887669526 -0.0016970615016422001 0 0.0022878915179895 -0.0016368906320792379 0 0.0021147362464593858 -0.0015952514250883274 0 0.0021479656260513947 -0.0017245240331770755 0 0.0021147362464593858 -0.0015952514250883274 0 0.0021479656260513947 -0.0017245240331770755 0 0.0020020526887669526 -0.0016970615016422001 0 0.0021479656260513947 -0.0017245240331770755 0 0.0020706759390166189 -0.0017865134350145751 0 0.0020020526887669526 -0.0016970615016422001 0 0.0021479656260513947 -0.0017245240331770755 0 0.0020706759390166189 -0.0017865134350145751 0 0.0021776234716747328 -0.0018372872719532439 0 0.0018925662490809749 -0.0016805061057141898 0 0.0020020526887669526 -0.0016970615016422001 0 0.0019638108519323474 -0.0017680948894464438 0 0.0020706759390166189 -0.0017865134350145751 0 0.0020020526887669526 -0.0016970615016422001 0 0.0019638108519323474 -0.0017680948894464438 0 0.0020706759390166189 -0.0017865134350145751 0 0.0019638108519323474 -0.0017680948894464438 0 0.0020890429715890728 -0.0019005473469309252 0 0.0019638108519323474 -0.0017680948894464438 0 0.0019547384318632489 -0.0018945740168901646 0 0.0020890429715890728 -0.0019005473469309252 0 0.0019547384318632489 -0.0018945740168901646 0 0.0020890429715890728 -0.0019005473469309252 0 0.0020617851155194543 -0.002001012296505322 0 0.0022032737769727339 -0.0019486768082612146 0 0.0021776234716747328 -0.0018372872719532439 0 0.0020890429715890728 -0.0019005473469309252 0 0.0020706759390166189 -0.0017865134350145751 0 0.0021776234716747328 -0.0018372872719532439 0 0.0020890429715890728 -0.0019005473469309252 0 0.0022032737769727339 -0.0019486768082612146 0 0.0020890429715890728 -0.0019005473469309252 0 0.0021713266390297236 -0.002036859614433372 0 0.0020890429715890728 -0.0019005473469309252 0 0.0021713266390297236 -0.002036859614433372 0 0.0020617851155194543 -0.002001012296505322 0 0.0021713266390297236 -0.002036859614433372 0 0.0020617851155194543 -0.002001012296505322 0 0.0021440916041613788 -0.002126551267765783 0 0.0022468572844900146 -0.0021231789981555941 0 0.0021713266390297236 -0.002036859614433372 0 0.0021440916041613788 -0.002126551267765783 0 0.0020617851155194543 -0.002001012296505322 0 0.001989673793737462 -0.0021068144260440731 0 0.0021440916041613788 -0.002126551267765783 0 0.0019547384318632489 -0.0018945740168901646 0 0.0020617851155194543 -0.002001012296505322 0 0.001989673793737462 -0.0021068144260440731 0 0.0019547384318632489 -0.0018945740168901646 0 0.0018101926563599822 -0.0019905780522473382 0 0.001989673793737462 -0.0021068144260440731 0 0.0018796167547261375 -0.0017583851646393619 0 0.0019547384318632489 -0.0018945740168901646 0 0.0018101926563599822 -0.0019905780522473382 0 0.0018796167547261375 -0.0017583851646393619 0 0.001810788220553317 -0.0016622572738970167 0 0.0018101926563599822 -0.0019905780522473382 0 0.0018796167547261375 -0.0017583851646393619 0 0.0019638108519323474 -0.0017680948894464438 0 0.0019547384318632489 -0.0018945740168901646 0 0.001810788220553317 -0.0016622572738970167 0 0.0019477397847224714 -0.0015099038406256862 0 0.0018218930181227227 -0.0013358433629707738 0 0.0020169177229158348 -0.0013676113713360981 0 0.0019477397847224714 -0.0015099038406256862 0 0.0018218930181227227 -0.0013358433629707738 0 0.0017962566821001134 -0.0016702126142209639 0 0.0018749428939564708 -0.0016568514533237516 0 0.0020169177229158348 -0.0013676113713360981 0 0.0018218930181227227 -0.0013358433629707738 0 0.0020143794581459337 -0.0011759712142297312 0 0.0018218930181227227 -0.0013358433629707738 0 0.0020143794581459337 -0.0011759712142297312 0 0.0017098367589377095 -0.00092786521037602936 0 0.0020143794581459337 -0.0011759712142297312 0 0.0017098367589377095 -0.00092786521037602936 0 0.0021311190915513241 -0.0009825072539331244 0 0.0017098367589377095 -0.00092786521037602936 0 0.0020088744698934674 -0.00051882814921562091 0 0.0021311190915513241 -0.0009825072539331244 0 0.0019025721054590672 -0.002238959019724299 0 0.0020313560253584248 -0.0022767715012653768 0 0.0019869223367701997 -0.0024121033080447291 0 0.0018749428939564708 -0.0016568514533237516 0 0.0013916396823736583 -0.0016213017321954611 0 0.0018101926563599822 -0.0019905780522473382 0 0.0019025721054590672 -0.002238959019724299 0 0.001989673793737462 -0.0021068144260440731 0 0.0019025721054590672 -0.002238959019724299 0 0.001989673793737462 -0.0021068144260440731 0 0.0020313560253584248 -0.0022767715012653768 0 0.001989673793737462 -0.0021068144260440731 0 0.0020964877405487995 -0.0022022630552170799 0 0.0021440916041613788 -0.002126551267765783 0 0.001989673793737462 -0.0021068144260440731 0 0.0020964877405487995 -0.0022022630552170799 0 0.0020313560253584248 -0.0022767715012653768 0 0.0021440916041613788 -0.002126551267765783 0 0.0022047826209006995 -0.002227819796994125 0 0.0022434680763370679 -0.0021817070412321628 0 0.0022468572844900146 -0.0021231789981555941 0 0.0021440916041613788 -0.002126551267765783 0 0.0022434680763370679 -0.0021817070412321628 0 0.0020964877405487995 -0.0022022630552170799 0 0.0021440916041613788 -0.002126551267765783 0 0.0022047826209006995 -0.002227819796994125 0 0.0046422718929243047 -0.001858230732633337 0 0.0045275488279650491 -0.0018995354651970056 0 0.0021406789542275056 -0.0022743089652639175 0 0.0021095295468704493 -0.0023546762252903406 0 0.0022621003743875964 -0.0023055432904188961 0 0.0022047826209006995 -0.002227819796994125 0 0.0021406789542275056 -0.0022743089652639175 0 0.0022621003743875964 -0.0023055432904188961 0 0.0020964877405487995 -0.0022022630552170799 0 0.0022047826209006995 -0.002227819796994125 0 0.0021406789542275056 -0.0022743089652639175 0 0.0020964877405487995 -0.0022022630552170799 0 0.0021406789542275056 -0.0022743089652639175 0 0.0020313560253584248 -0.0022767715012653768 0 0.0021406789542275056 -0.0022743089652639175 0 0.0020313560253584248 -0.0022767715012653768 0 0.0021095295468704493 -0.0023546762252903406 0 0.0020313560253584248 -0.0022767715012653768 0 0.0021095295468704493 -0.0023546762252903406 0 0.0019869223367701997 -0.0024121033080447291 0 0.0046422718929243047 -0.001858230732633337 0 0.0047015063795339184 -0.00086640691808019673 0 0.0072263732056198227 -0.0011598082124929798 0 0.00686687719080509 -0.0011878696221130477 0 0.0067408853931771873 -0.0015448683301966463 0 0.0072263732056198227 -0.0011598082124929798 0 0.00686687719080509 -0.0011878696221130477 0 0.0069732772879021734 -0.00095957193880077116 0 0.0072263732056198227 -0.0011598082124929798 0 0.0069732772879021734 -0.00095957193880077116 0 0.0071798271947825475 -0.00068465510632310781 0 0.00686687719080509 -0.0011878696221130477 0 0.0069732772879021734 -0.00095957193880077116 0 0.0067209521320604152 -0.0010500361535324091 0 0.0071798271947825475 -0.00068465510632310781 0 0.0068229504049661174 -0.00075663027181639806 0 0.0068684651827070307 -0.0004646876880761369 0 0.0069732772879021734 -0.00095957193880077116 0 0.0071798271947825475 -0.00068465510632310781 0 0.0068229504049661174 -0.00075663027181639806 0 0.0069732772879021734 -0.00095957193880077116 0 0.0067209521320604152 -0.0010500361535324091 0 0.0068229504049661174 -0.00075663027181639806 0 0.0072263732056198227 -0.0011598082124929798 0 0.0071798271947825475 -0.00068465510632310781 0 0.0076281269250705703 -0.00089527955409637666 0 0.0071798271947825475 -0.00068465510632310781 0 0.0076281269250705703 -0.00089527955409637666 0 0.0075368222925289424 -0.00035913605360476621 0 0.0047015063795339184 -0.00086640691808019673 0 0.0081692666548652849 -0.00034434010567196066 0 0.0047015063795339184 -0.00086640691808019673 0 0.0047200208145387456 0.00014547996200573335 0 0.0075030490118119225 -0.00028647382618490351 0 0.0075051979274298932 -0.00032728573176880535 0 0.0074500712720756059 -0.00029503501615097457 0 0.001544155024826974 -9.2376507182263633e-05 0 0.0020833486863517693 -0.00010272123296248579 0 0.0023072383835498573 0.0003948457536411033 0 0.001544155024826974 -9.2376507182263633e-05 0 0.0020833486863517693 -0.00010272123296248579 0 0.0020088744698934674 -0.00051882814921562091 0 0.0020833486863517693 -0.00010272123296248579 0 0.0020088744698934674 -0.00051882814921562091 0 0.0024860040423875457 -0.00019443265451710994 0 0.0017098367589377095 -0.00092786521037602936 0 0.001544155024826974 -9.2376507182263633e-05 0 0.0020088744698934674 -0.00051882814921562091 0 0.0013916396823736583 -0.0016213017321954611 0 0.0047015063795339184 -0.00086640691808019673 0 0.0055103549525550351 -0.0012794374693454625 0 0.0052956333686427874 -0.0014287131815970467 0 0.0052472006505117135 -0.0011965882548601384 0 0.0055103549525550351 -0.0012794374693454625 0 0.0055156445214691345 -0.0014853118517819252 0 0.0057049085449875055 -0.0013865454998155582 0 0.0055103549525550351 -0.0012794374693454625 0 0.0055156445214691345 -0.0014853118517819252 0 0.0052956333686427874 -0.0014287131815970467 0 0.0055156445214691345 -0.0014853118517819252 0 0.0052956333686427874 -0.0014287131815970467 0 0.0053627119708733123 -0.0015997188702466256 0 0.0055156445214691345 -0.0014853118517819252 0 0.0053627119708733123 -0.0015997188702466256 0 0.0055750061615894349 -0.0016427920446566364 0 0.0052956333686427874 -0.0014287131815970467 0 0.0053627119708733123 -0.0015997188702466256 0 0.005061081407524216 -0.0016050862092904926 0 0.0052339569431974157 -0.0017544697109278229 0 0.0053627119708733123 -0.0015997188702466256 0 0.005061081407524216 -0.0016050862092904926 0 0.0052339569431974157 -0.0017544697109278229 0 0.005223325243195443 -0.0019202637908088131 0 0.0049616376721717337 -0.0018490567430185323 0 0.0052339569431974157 -0.0017544697109278229 0 0.005223325243195443 -0.0019202637908088131 0 0.005353109573544023 -0.0018422706815386055 0 0.0055026313444784675 -0.0020011895280837035 0 0.005223325243195443 -0.0019202637908088131 0 0.0053900299215972683 -0.0019054856716329165 0 0.0055026313444784675 -0.0020011895280837035 0 0.0054893206864107362 -0.0018729246563427831 0 0.0053900299215972683 -0.0019054856716329165 0 0.0054893206864107362 -0.0018729246563427831 0 0.0053900299215972683 -0.0019054856716329165 0 0.005353109573544023 -0.0018422706815386055 0 0.005223325243195443 -0.0019202637908088131 0 0.0053900299215972683 -0.0019054856716329165 0 0.005353109573544023 -0.0018422706815386055 0 0.0052339569431974157 -0.0017544697109278229 0 0.005353109573544023 -0.0018422706815386055 0 0.0054212735552525712 -0.001744125893910288 0 0.0054893206864107362 -0.0018729246563427831 0 0.005353109573544023 -0.0018422706815386055 0 0.0054212735552525712 -0.001744125893910288 0 0.0054893206864107362 -0.0018729246563427831 0 0.0054212735552525712 -0.001744125893910288 0 0.0055503498035126058 -0.0017735096029216667 0 0.0054212735552525712 -0.001744125893910288 0 0.0055750061615894349 -0.0016427920446566364 0 0.0055503498035126058 -0.0017735096029216667 0 0.0052339569431974157 -0.0017544697109278229 0 0.0054212735552525712 -0.001744125893910288 0 0.0053627119708733123 -0.0015997188702466256 0 0.0054212735552525712 -0.001744125893910288 0 0.0053627119708733123 -0.0015997188702466256 0 0.0055750061615894349 -0.0016427920446566364 0 0.0056840719614796344 -0.0017673320171024938 0 0.0055907055063948363 -0.0019573811354553746 0 0.0061924151835177268 -0.0016164501691240583 0 0.0026645999386841722 -0.0023153858857864703 0 0.0024271403163949531 -0.0022793942178723583 0 0.0025076570748464736 -0.0022708205948286917 0 0.0055750061615894349 -0.0016427920446566364 0 0.0056840719614796344 -0.0017673320171024938 0 0.005815142888260791 -0.0015972497771104901 0 0.0043778149825987982 -0.0022990755666081383 0 0.0061157046208522572 -0.0017026584254897111 0 0.0056840719614796344 -0.0017673320171024938 0 0.005815142888260791 -0.0015972497771104901 0 0.0061924151835177268 -0.0016164501691240583 0 0.0043778149825987982 -0.0022990755666081383 0 0.0039853205482267579 -0.0022300430571497703 0 0.0055750061615894349 -0.0016427920446566364 0 0.0056840719614796344 -0.0017673320171024938 0 0.0055503498035126058 -0.0017735096029216667 0 0.0056840719614796344 -0.0017673320171024938 0 0.0055503498035126058 -0.0017735096029216667 0 0.005579612836696936 -0.0018440008842144162 0 0.0056840719614796344 -0.0017673320171024938 0 0.005579612836696936 -0.0018440008842144162 0 0.0055907055063948363 -0.0019573811354553746 0 0.0025994508876752416 -0.0022610521444100919 0 0.0026645999386841722 -0.0023153858857864703 0 0.0025616989287859659 -0.0022729443411676534 0 0.0054893206864107362 -0.0018729246563427831 0 0.0055503498035126058 -0.0017735096029216667 0 0.005579612836696936 -0.0018440008842144162 0 0.0055026313444784675 -0.0020011895280837035 0 0.0054893206864107362 -0.0018729246563427831 0 0.0055907055063948363 -0.0019573811354553746 0 0.0054893206864107362 -0.0018729246563427831 0 0.005579612836696936 -0.0018440008842144162 0 0.0055907055063948363 -0.0019573811354553746 0 0.0026645999386841722 -0.0023153858857864703 0 0.0025616989287859659 -0.0022729443411676534 0 0.0025076570748464736 -0.0022708205948286917 0 0.0025616989287859659 -0.0022729443411676534 0 0.0025076570748464736 -0.0022708205948286917 0 0.0024973679144633019 -0.0022382623942171871 0 0.0025402999492476911 -0.0022299564866693983 0 0.0025616989287859659 -0.0022729443411676534 0 0.0024973679144633019 -0.0022382623942171871 0 0.0059874418489684203 -0.0014914443975589701 0 0.005815142888260791 -0.0015972497771104901 0 0.0061924151835177268 -0.0016164501691240583 0 0.0059874418489684203 -0.0014914443975589701 0 0.0058230132540058929 -0.0014756821880273451 0 0.005815142888260791 -0.0015972497771104901 0 0.0055750061615894349 -0.0016427920446566364 0 0.005815142888260791 -0.0015972497771104901 0 0.0056861985177386713 -0.00151662123659935 0 0.0058230132540058929 -0.0014756821880273451 0 0.005815142888260791 -0.0015972497771104901 0 0.0056861985177386713 -0.00151662123659935 0 0.0055156445214691345 -0.0014853118517819252 0 0.0055750061615894349 -0.0016427920446566364 0 0.0056861985177386713 -0.00151662123659935 0 0.0055156445214691345 -0.0014853118517819252 0 0.0056861985177386713 -0.00151662123659935 0 0.0057049085449875055 -0.0013865454998155582 0 0.0058230132540058929 -0.0014756821880273451 0 0.0056861985177386713 -0.00151662123659935 0 0.0057049085449875055 -0.0013865454998155582 0 0.0057049085449875055 -0.0013865454998155582 0 0.0059461852574473409 -0.0013419287731856423 0 0.0057856325562733414 -0.0011567817257392423 0 0.0055103549525550351 -0.0012794374693454625 0 0.0057049085449875055 -0.0013865454998155582 0 0.0057856325562733414 -0.0011567817257392423 0 0.0058230132540058929 -0.0014756821880273451 0 0.0057049085449875055 -0.0013865454998155582 0 0.0059461852574473409 -0.0013419287731856423 0 0.0059874418489684203 -0.0014914443975589701 0 0.0059461852574473409 -0.0013419287731856423 0 0.006115859116037627 -0.0014034633622481271 0 0.0059874418489684203 -0.0014914443975589701 0 0.0058230132540058929 -0.0014756821880273451 0 0.0059461852574473409 -0.0013419287731856423 0 0.0057411850006258746 -0.0018926976573488217 0 0.0057988859899724809 -0.0020677209443736807 0 0.0067408853931771873 -0.0015448683301966463 0 0.0059461852574473409 -0.0013419287731856423 0 0.006115859116037627 -0.0014034633622481271 0 0.0061560714027611594 -0.0012438266013198029 0 0.006115859116037627 -0.0014034633622481271 0 0.0062890645451432695 -0.0013345207758990465 0 0.0061560714027611594 -0.0012438266013198029 0 0.0062890645451432695 -0.0013345207758990465 0 0.0061924151835177268 -0.0016164501691240583 0 0.00644571324182968 -0.00128097089764525 0 0.0059874418489684203 -0.0014914443975589701 0 0.006115859116037627 -0.0014034633622481271 0 0.0061924151835177268 -0.0016164501691240583 0 0.006115859116037627 -0.0014034633622481271 0 0.0062890645451432695 -0.0013345207758990465 0 0.0061924151835177268 -0.0016164501691240583 0 0.0047346051784325138 -0.0026324749466784102 0 0.0057411850006258746 -0.0018926976573488217 0 0.0057988859899724809 -0.0020677209443736807 0 0.0024271403163949531 -0.0022793942178723583 0 0.0024484833822534628 -0.002261052311114631 0 0.0024135240121322412 -0.0022466504850426269 0 0.0024271403163949531 -0.0022793942178723583 0 0.0025076570748464736 -0.0022708205948286917 0 0.0024484833822534628 -0.002261052311114631 0 0.0025076570748464736 -0.0022708205948286917 0 0.0024484833822534628 -0.002261052311114631 0 0.0024476719847839412 -0.002237743932312377 0 0.0024484833822534628 -0.002261052311114631 0 0.0024476719847839412 -0.002237743932312377 0 0.0024135240121322412 -0.0022466504850426269 0 0.0024214694150009896 -0.0021814647185531364 0 0.0024476719847839412 -0.002237743932312377 0 0.0024973679144633019 -0.0022382623942171871 0 0.0025076570748464736 -0.0022708205948286917 0 0.0024476719847839412 -0.002237743932312377 0 0.0024973679144633019 -0.0022382623942171871 0 0.0024214694150009896 -0.0021814647185531364 0 0.0024476719847839412 -0.002237743932312377 0 0.0023706289418325998 -0.0021913238571872116 0 0.0024476719847839412 -0.002237743932312377 0 0.0023706289418325998 -0.0021913238571872116 0 0.0024135240121322412 -0.0022466504850426269 0 0.0023706289418325998 -0.0021913238571872116 0 0.0024135240121322412 -0.0022466504850426269 0 0.0023699494969774814 -0.0022344069786528996 0 0.0024271403163949531 -0.0022793942178723583 0 0.0023699494969774814 -0.0022344069786528996 0 0.0023113671551402955 -0.0022422682271847566 0 0.0024271403163949531 -0.0022793942178723583 0 0.0024135240121322412 -0.0022466504850426269 0 0.0023699494969774814 -0.0022344069786528996 0 0.0023699494969774814 -0.0022344069786528996 0 0.0023113671551402955 -0.0022422682271847566 0 0.0023117465858444801 -0.0021873169701599774 0 0.0023706289418325998 -0.0021913238571872116 0 0.0023699494969774814 -0.0022344069786528996 0 0.0023117465858444801 -0.0021873169701599774 0 0.0023132953002833337 -0.0021324852072570595 0 0.0023706289418325998 -0.0021913238571872116 0 0.0023117465858444801 -0.0021873169701599774 0 0.0023113671551402955 -0.0022422682271847566 0 0.0023117465858444801 -0.0021873169701599774 0 0.0022434680763370679 -0.0021817070412321628 0 0.0022468572844900146 -0.0021231789981555941 0 0.0023117465858444801 -0.0021873169701599774 0 0.0022434680763370679 -0.0021817070412321628 0 0.0022047826209006995 -0.002227819796994125 0 0.0023113671551402955 -0.0022422682271847566 0 0.0022434680763370679 -0.0021817070412321628 0 0.0057411850006258746 -0.0018926976573488217 0 0.0067408853931771873 -0.0015448683301966463 0 0.0066573005979163793 -0.0012782693015333949 0 0.0061157046208522572 -0.0017026584254897111 0 0.0065555474211352691 -0.0013324657375961692 0 0.0024271403163949531 -0.0022793942178723583 0 0.0023113671551402955 -0.0022422682271847566 0 0.0022621003743875964 -0.0023055432904188961 0 0.0061924151835177268 -0.0016164501691240583 0 0.0066573005979163793 -0.0012782693015333949 0 0.00644571324182968 -0.00128097089764525 0 0.0022047826209006995 -0.002227819796994125 0 0.0023113671551402955 -0.0022422682271847566 0 0.0022621003743875964 -0.0023055432904188961 0 0.0039853205482267579 -0.0022300430571497703 0 0.0045275488279650491 -0.0018995354651970056 0 0.00686687719080509 -0.0011878696221130477 0 0.0067408853931771873 -0.0015448683301966463 0 0.0066573005979163793 -0.0012782693015333949 0 0.00686687719080509 -0.0011878696221130477 0 0.0066573005979163793 -0.0012782693015333949 0 0.0067209521320604152 -0.0010500361535324091 0 0.0066573005979163793 -0.0012782693015333949 0 0.0065197419604169906 -0.0011016099400235229 0 0.0067209521320604152 -0.0010500361535324091 0 0.0066573005979163793 -0.0012782693015333949 0 0.00644571324182968 -0.00128097089764525 0 0.0065197419604169906 -0.0011016099400235229 0 0.0065197419604169906 -0.0011016099400235229 0 0.0067209521320604152 -0.0010500361535324091 0 0.0065494904296343167 -0.00087738162606378317 0 0.0065197419604169906 -0.0011016099400235229 0 0.0065494904296343167 -0.00087738162606378317 0 0.0063733725272975923 -0.00099085693597159301 0 0.0067209521320604152 -0.0010500361535324091 0 0.0068229504049661174 -0.00075663027181639806 0 0.0065494904296343167 -0.00087738162606378317 0 0.0068229504049661174 -0.00075663027181639806 0 0.0065554937059151327 -0.00061027137005154237 0 0.0068684651827070307 -0.0004646876880761369 0 0.0068229504049661174 -0.00075663027181639806 0 0.0065494904296343167 -0.00087738162606378317 0 0.0065554937059151327 -0.00061027137005154237 0 0.0065494904296343167 -0.00087738162606378317 0 0.0063186463006418003 -0.00081410955068571516 0 0.0063733725272975923 -0.00099085693597159301 0 0.0065494904296343167 -0.00087738162606378317 0 0.0063186463006418003 -0.00081410955068571516 0 0.0065554937059151327 -0.00061027137005154237 0 0.0063186463006418003 -0.00081410955068571516 0 0.0062528995980039902 -0.00056863456247810754 0 0.0065554937059151327 -0.00061027137005154237 0 0.0063186463006418003 -0.00081410955068571516 0 0.0060533289788154785 -0.00083365090366327595 0 0.0062528995980039902 -0.00056863456247810754 0 0.0063186463006418003 -0.00081410955068571516 0 0.0061546903377262064 -0.00103722868167532 0 0.0060533289788154785 -0.00083365090366327595 0 0.0063186463006418003 -0.00081410955068571516 0 0.0061546903377262064 -0.00103722868167532 0 0.0063733725272975923 -0.00099085693597159301 0 0.0061546903377262064 -0.00103722868167532 0 0.0063733725272975923 -0.00099085693597159301 0 0.0063248920563564459 -0.0011577397586881944 0 0.0065197419604169906 -0.0011016099400235229 0 0.0063733725272975923 -0.00099085693597159301 0 0.0063248920563564459 -0.0011577397586881944 0 0.0062890645451432695 -0.0013345207758990465 0 0.0063248920563564459 -0.0011577397586881944 0 0.0061560714027611594 -0.0012438266013198029 0 0.00644571324182968 -0.00128097089764525 0 0.0065197419604169906 -0.0011016099400235229 0 0.0063248920563564459 -0.0011577397586881944 0 0.0062890645451432695 -0.0013345207758990465 0 0.00644571324182968 -0.00128097089764525 0 0.0063248920563564459 -0.0011577397586881944 0 0.0061546903377262064 -0.00103722868167532 0 0.0061560714027611594 -0.0012438266013198029 0 0.0059989061898957216 -0.0011621957597092118 0 0.0061546903377262064 -0.00103722868167532 0 0.0063248920563564459 -0.0011577397586881944 0 0.0061560714027611594 -0.0012438266013198029 0 0.0059461852574473409 -0.0013419287731856423 0 0.0059989061898957216 -0.0011621957597092118 0 0.0057856325562733414 -0.0011567817257392423 0 0.0059989061898957216 -0.0011621957597092118 0 0.0057856325562733414 -0.0011567817257392423 0 0.0059567233747370493 -0.0010177167774589524 0 0.0059461852574473409 -0.0013419287731856423 0 0.0061560714027611594 -0.0012438266013198029 0 0.0059989061898957216 -0.0011621957597092118 0 0.0057856325562733414 -0.0011567817257392423 0 0.0059567233747370493 -0.0010177167774589524 0 0.0057926837891236829 -0.00090297558616337975 0 0.0061546903377262064 -0.00103722868167532 0 0.0059989061898957216 -0.0011621957597092118 0 0.0059567233747370493 -0.0010177167774589524 0 0.0061546903377262064 -0.00103722868167532 0 0.0059567233747370493 -0.0010177167774589524 0 0.0060533289788154785 -0.00083365090366327595 0 0.0059567233747370493 -0.0010177167774589524 0 0.0060533289788154785 -0.00083365090366327595 0 0.0057926837891236829 -0.00090297558616337975 0 0.0060533289788154785 -0.00083365090366327595 0 0.0059296754063435913 -0.00064287670491316464 0 0.0062528995980039902 -0.00056863456247810754 0 0.0060533289788154785 -0.00083365090366327595 0 0.0059296754063435913 -0.00064287670491316464 0 0.0057926837891236829 -0.00090297558616337975 0 0.0057926837891236829 -0.00090297558616337975 0 0.0055811567808481399 -0.00076566371481607176 0 0.0055188596868751497 -0.0010308691921284098 0 0.0059296754063435913 -0.00064287670491316464 0 0.0057926837891236829 -0.00090297558616337975 0 0.0055811567808481399 -0.00076566371481607176 0 0.0055811567808481399 -0.00076566371481607176 0 0.0055188596868751497 -0.0010308691921284098 0 0.0052155054076408148 -0.00094998442411522435 0 0.0057856325562733414 -0.0011567817257392423 0 0.0057926837891236829 -0.00090297558616337975 0 0.0055188596868751497 -0.0010308691921284098 0 0.0055103549525550351 -0.0012794374693454625 0 0.0057856325562733414 -0.0011567817257392423 0 0.0055188596868751497 -0.0010308691921284098 0 0.0055103549525550351 -0.0012794374693454625 0 0.0055188596868751497 -0.0010308691921284098 0 0.0052472006505117135 -0.0011965882548601384 0 0.0059379023723147937 -5.0707932692275891e-05 0 0.0055572535276155336 -0.00027905065121482467 0 0.0057598048482877945 -0.00047374585188718517 0 0.0059379023723147937 -5.0707932692275891e-05 0 0.0055572535276155336 -0.00027905065121482467 0 0.0056932577055327054 0.00014689081675391032 0 0.0055811567808481399 -0.00076566371481607176 0 0.0057598048482877945 -0.00047374585188718517 0 0.0052901602455751899 -0.00058001107078328609 0 0.0055572535276155336 -0.00027905065121482467 0 0.0057598048482877945 -0.00047374585188718517 0 0.0052901602455751899 -0.00058001107078328609 0 0.0059296754063435913 -0.00064287670491316464 0 0.0055811567808481399 -0.00076566371481607176 0 0.0057598048482877945 -0.00047374585188718517 0 0.0059296754063435913 -0.00064287670491316464 0 0.0061325451664658867 -0.0003166549903229921 0 0.0062528995980039902 -0.00056863456247810754 0 0.0059296754063435913 -0.00064287670491316464 0 0.0057598048482877945 -0.00047374585188718517 0 0.0061325451664658867 -0.0003166549903229921 0 0.0059379023723147937 -5.0707932692275891e-05 0 0.0061325451664658867 -0.0003166549903229921 0 0.0063777838797941903 0.00012372096513400829 0 0.0059379023723147937 -5.0707932692275891e-05 0 0.0057598048482877945 -0.00047374585188718517 0 0.0061325451664658867 -0.0003166549903229921 0 0.0065369737654529915 -0.00028037742703277145 0 0.006695236723785759 3.1124641197044613e-05 0 0.0063777838797941903 0.00012372096513400829 0 0.0061325451664658867 -0.0003166549903229921 0 0.0065369737654529915 -0.00028037742703277145 0 0.0063777838797941903 0.00012372096513400829 0 0.0065369737654529915 -0.00028037742703277145 0 0.0062528995980039902 -0.00056863456247810754 0 0.0065554937059151327 -0.00061027137005154237 0 0.0061325451664658867 -0.0003166549903229921 0 0.0065369737654529915 -0.00028037742703277145 0 0.0062528995980039902 -0.00056863456247810754 0 0.0065369737654529915 -0.00028037742703277145 0 0.0068684651827070307 -0.0004646876880761369 0 0.0068434779944848978 -0.00020567036409564545 0 0.0065369737654529915 -0.00028037742703277145 0 0.0065554937059151327 -0.00061027137005154237 0 0.0068684651827070307 -0.0004646876880761369 0 0.0065369737654529915 -0.00028037742703277145 0 0.0068434779944848978 -0.00020567036409564545 0 0.006695236723785759 3.1124641197044613e-05 0 0.0068434779944848978 -0.00020567036409564545 0 0.0069922555185849174 7.9978038178162914e-05 0 0.006695236723785759 3.1124641197044613e-05 0 0.0069922555185849174 7.9978038178162914e-05 0 0.006695236723785759 3.1124641197044613e-05 0 0.0067217423145323309 0.00044985845087153995 0 0.0067217423145323309 0.00044985845087153995 0 0.0071779792138101702 0.00051144800815568605 0 0.0068823251796802376 0.00093425193359580883 0 0.0069922555185849174 7.9978038178162914e-05 0 0.0067217423145323309 0.00044985845087153995 0 0.0071779792138101702 0.00051144800815568605 0 0.0067217423145323309 0.00044985845087153995 0 0.0063777838797941903 0.00012372096513400829 0 0.0063727131895619385 0.00053931115066749443 0 0.0067217423145323309 0.00044985845087153995 0 0.0063727131895619385 0.00053931115066749443 0 0.0065367139966121318 0.00092624012684494519 0 0.006695236723785759 3.1124641197044613e-05 0 0.0067217423145323309 0.00044985845087153995 0 0.0063777838797941903 0.00012372096513400829 0 0.0059379023723147937 -5.0707932692275891e-05 0 0.0063777838797941903 0.00012372096513400829 0 0.0060583009596509195 0.00034987196914668323 0 0.0063777838797941903 0.00012372096513400829 0 0.0063727131895619385 0.00053931115066749443 0 0.0060583009596509195 0.00034987196914668323 0 0.0063727131895619385 0.00053931115066749443 0 0.0060583009596509195 0.00034987196914668323 0 0.0062009488066687643 0.00074325292074432228 0 0.0058527897351580037 0.00057388726417723166 0 0.0060583009596509195 0.00034987196914668323 0 0.0062009488066687643 0.00074325292074432228 0 0.0058527897351580037 0.00057388726417723166 0 0.0060583009596509195 0.00034987196914668323 0 0.0056932577055327054 0.00014689081675391032 0 0.0059379023723147937 -5.0707932692275891e-05 0 0.0060583009596509195 0.00034987196914668323 0 0.0056932577055327054 0.00014689081675391032 0 0.0076201606655099292 -0.00025585523917586215 0 0.0075040864683764801 -0.00015732876585850114 0 0.0075452425602010927 -0.00031521847326801416 0 0.0075368222925289424 -0.00035913605360476621 0 0.0074600308147788237 -0.00012011473598128771 0 0.0078948765317707233 -0.00026035132328557217 0 0.0074600308147788237 -0.00012011473598128771 0 0.0078250975386861717 7.7458945661675245e-05 0 0.0078948765317707233 -0.00026035132328557217 0 0.0081612939659546652 -5.258153055824127e-06 0 0.0083457714294082261 -0.00040503155791512033 0 0.0075452425602010927 -0.00031521847326801416 0 0.0075051979274298932 -0.00032728573176880535 0 0.007442441093197312 -0.00035880333677091193 0 0.0076201606655099292 -0.00025585523917586215 0 0.0083160356926258259 -0.00048003758231042671 0 0.0075051979274298932 -0.00032728573176880535 0 0.007442441093197312 -0.00035880333677091193 0 0.0074500712720756059 -0.00029503501615097457 0 0.0075452425602010927 -0.00031521847326801416 0 0.0075051979274298932 -0.00032728573176880535 0 0.0075368222925289424 -0.00035913605360476621 0 0.0075030490118119225 -0.00028647382618490351 0 0.0075051979274298932 -0.00032728573176880535 0 0.0075368222925289424 -0.00035913605360476621 0 0.0071798271947825475 -0.00068465510632310781 0 0.0075368222925289424 -0.00035913605360476621 0 0.0071847741983234207 -0.00026542604786521459 0 0.0071798271947825475 -0.00068465510632310781 0 0.0068684651827070307 -0.0004646876880761369 0 0.0071847741983234207 -0.00026542604786521459 0 0.0068684651827070307 -0.0004646876880761369 0 0.0068434779944848978 -0.00020567036409564545 0 0.0071847741983234207 -0.00026542604786521459 0 0.0068434779944848978 -0.00020567036409564545 0 0.0069922555185849174 7.9978038178162914e-05 0 0.0071847741983234207 -0.00026542604786521459 0 0.0069922555185849174 7.9978038178162914e-05 0 0.0071847741983234207 -0.00026542604786521459 0 0.0072677250179409821 8.6286929089486424e-05 0 0.0071847741983234207 -0.00026542604786521459 0 0.0074600308147788237 -0.00012011473598128771 0 0.0072677250179409821 8.6286929089486424e-05 0 0.0075368222925289424 -0.00035913605360476621 0 0.0071847741983234207 -0.00026542604786521459 0 0.0074600308147788237 -0.00012011473598128771 0 0.0074600308147788237 -0.00012011473598128771 0 0.0072677250179409821 8.6286929089486424e-05 0 0.0074268346320329245 0.00031803561295581863 0 0.0074600308147788237 -0.00012011473598128771 0 0.0074268346320329245 0.00031803561295581863 0 0.0076298219483397212 0.00022401727163274111 0 0.0069922555185849174 7.9978038178162914e-05 0 0.0072677250179409821 8.6286929089486424e-05 0 0.0071779792138101702 0.00051144800815568605 0 0.0071779792138101702 0.00051144800815568605 0 0.0074268346320329245 0.00031803561295581863 0 0.0074424111505232938 0.00057907411219476537 0 0.0072677250179409821 8.6286929089486424e-05 0 0.0071779792138101702 0.00051144800815568605 0 0.0074268346320329245 0.00031803561295581863 0 0.0074268346320329245 0.00031803561295581863 0 0.0076468278397629893 0.00048457113520871775 0 0.0076298219483397212 0.00022401727163274111 0 0.0074268346320329245 0.00031803561295581863 0 0.0076468278397629893 0.00048457113520871775 0 0.0074424111505232938 0.00057907411219476537 0 0.0076468278397629893 0.00048457113520871775 0 0.0077873749199892485 0.00031153241827108416 0 0.007882162250762232 0.00047307186002458327 0 0.0076468278397629893 0.00048457113520871775 0 0.0077873749199892485 0.00031153241827108416 0 0.0076298219483397212 0.00022401727163274111 0 0.0074600308147788237 -0.00012011473598128771 0 0.0076298219483397212 0.00022401727163274111 0 0.0078250975386861717 7.7458945661675245e-05 0 0.0077873749199892485 0.00031153241827108416 0 0.0076298219483397212 0.00022401727163274111 0 0.0078250975386861717 7.7458945661675245e-05 0 0.0077873749199892485 0.00031153241827108416 0 0.0078250975386861717 7.7458945661675245e-05 0 0.0080091256324233469 0.00026615740770032971 0 0.0078948765317707233 -0.00026035132328557217 0 0.0078250975386861717 7.7458945661675245e-05 0 0.0081612939659546652 -5.258153055824127e-06 0 0.0078250975386861717 7.7458945661675245e-05 0 0.0081612939659546652 -5.258153055824127e-06 0 0.0080091256324233469 0.00026615740770032971 0 0.0077873749199892485 0.00031153241827108416 0 0.0080091256324233469 0.00026615740770032971 0 0.007882162250762232 0.00047307186002458327 0 0.0080091256324233469 0.00026615740770032971 0 0.007882162250762232 0.00047307186002458327 0 0.0080837630606598251 0.00048222552373581651 0 0.0080091256324233469 0.00026615740770032971 0 0.0080837630606598251 0.00048222552373581651 0 0.0085079502048231743 0.00038228518330924067 0 0.0089344276630468292 7.1831608250014296e-06 0 0.0090594778674622529 3.5796334189389521e-05 0 0.0089719511073292242 0.00014151142333587664 0 0.0089344276630468292 7.1831608250014296e-06 0 0.0089414736081265649 -0.00015181405634859626 0 0.0090594778674622529 3.5796334189389521e-05 0 0.0085079502048231743 0.00038228518330924067 0 0.008507516338549086 -6.9349311259435763e-05 0 0.0089414736081265649 -0.00015181405634859626 0 0.0086948427869535383 0.0001931774489634008 0 0.0089452636381483677 -0.00014531375524298075 0 0.0081612939659546652 -5.258153055824127e-06 0 0.0085079502048231743 0.00038228518330924067 0 0.008507516338549086 -6.9349311259435763e-05 0 0.0081612939659546652 -5.258153055824127e-06 0 0.0080091256324233469 0.00026615740770032971 0 0.0085079502048231743 0.00038228518330924067 0 0.0081612939659546652 -5.258153055824127e-06 0 0.008507516338549086 -6.9349311259435763e-05 0 0.0083457714294082261 -0.00040503155791512033 0 0.008507516338549086 -6.9349311259435763e-05 0 0.0083457714294082261 -0.00040503155791512033 0 0.0086731659932005913 -0.00029175555288849984 0 0.0083457714294082261 -0.00040503155791512033 0 0.0086731659932005913 -0.00029175555288849984 0 0.0088267963166120591 -0.00051534453154224581 0 0.008507516338549086 -6.9349311259435763e-05 0 0.0086731659932005913 -0.00029175555288849984 0 0.0089414736081265649 -0.00015181405634859626 0 0.0086731659932005913 -0.00029175555288849984 0 0.0089414736081265649 -0.00015181405634859626 0 0.0088758725383542621 -0.0003283774626510244 0 0.0086731659932005913 -0.00029175555288849984 0 0.0088758725383542621 -0.0003283774626510244 0 0.0088267963166120591 -0.00051534453154224581 0 0.0031591760679448135 0.00087801778835942259 0 0.0030044075679884763 0.00017207267215940618 0 0.0034262418611155005 0.00040571054564175264 0 0.0031591760679448135 0.00087801778835942259 0 0.0023072383835498573 0.0003948457536411033 0 0.0030044075679884763 0.00017207267215940618 0 0.0083160356926258259 -0.00048003758231042671 0 0.0060128776957863719 0.00011712518507917216 0 0.007442441093197312 -0.00035880333677091193 0 0.0073241229353143457 -0.00033248423816238681 0 0.0074500712720756059 -0.00029503501615097457 0 0.0060128776957863719 0.00011712518507917216 0 0.0047200208145387456 0.00014547996200573335 0 0.0058558931416356468 0.00049625321862363839 0 0.0060860518391912021 0.0006599081315858252 0 0.0060965348087218332 0.00042050339901845621 0 0.0057346938955774506 0.0005125543566790714 0 0.0060965348087218332 0.00042050339901845621 0 0.0058861655179123073 0.00023010167845692741 0 0.0050776583510110324 0.00071302057141280398 0 0.0063114808167225528 0.00037258891731788396 0 0.0056089888284797107 0.00058316788604248883 0 0.0058785820339764374 0.00051921762762034012 0 0.0057204941661755729 0.00060252654335227781 0 0.0031591760679448135 0.00087801778835942259 0 0.0038762873998290184 0.00070854600922855596 0 0.0034262418611155005 0.00040571054564175264 0 0.0060128776957863719 0.00011712518507917216 0 0.0050776583510110324 0.00071302057141280398 0 0.0056089888284797107 0.00058316788604248883 0 0.0057204941661755729 0.00060252654335227781 0 0.0057415880768813665 0.0006547867612842626 0 0.0058785820339764374 0.00051921762762034012 0 0.0057204941661755729 0.00060252654335227781 0 0.0057346973529832715 0.00065870165748284815 0 0.0058785820339764374 0.00051921762762034012 0 0.0057346973529832715 0.00065870165748284815 0 0.0059315445759949093 0.0007456016176078231 0 0.0089414736081265649 -0.00015181405634859626 0 0.0090386976328307358 -0.00036031534102516427 0 0.0091119214551891991 -8.6025965923327614e-05 0 0.0073124886425915249 0.00023651478394628899 0 0.0086790104160333632 2.3737073576698299e-05 0 0.0088758725383542621 -0.0003283774626510244 0 0.0088267963166120591 -0.00051534453154224581 0 0.0090386976328307358 -0.00036031534102516427 0 0.0060128776957863719 0.00011712518507917216 0 0.0073124886425915249 0.00023651478394628899 0 0.007005188186480482 0.00025987733752114752 0 0.0073124886425915249 0.00023651478394628899 0 0.0089414736081265649 -0.00015181405634859626 0 0.0088758725383542621 -0.0003283774626510244 0 0.0090386976328307358 -0.00036031534102516427 0 0.0058558931416356468 0.00049625321862363839 0 0.0059315445759949093 0.0007456016176078231 0 0.0060860518391912021 0.0006599081315858252 0 0.0057346973529832715 0.00065870165748284815 0 0.0059315445759949093 0.0007456016176078231 0 0.0060704568531717113 0.00087861167083899314 0 0.0073124886425915249 0.00023651478394628899 0 0.0069375384088984004 0.00041772978743607098 0 0.0050776583510110324 0.00071302057141280398 0 0.0058997253060320519 0.00071218099099366341 0 0.0079906938010258777 -0.00011993440985404826 0 0.0081158960199063691 0.00021987217559114709 0 0.0084342082509725885 0.00011909118886592327 0 0.0059315445759949093 0.0007456016176078231 0 0.0060704568531717113 0.00087861167083899314 0 0.0060860518391912021 0.0006599081315858252 0 0.0083156121148133585 0.00023816979351083415 0 0.0081158960199063691 0.00021987217559114709 0 0.0082457300858783129 0.00055183396416983355 0 0.0083156121148133585 0.00023816979351083415 0 0.0081158960199063691 0.00021987217559114709 0 0.0084342082509725885 0.00011909118886592327 0 0.0089414736081265649 -0.00015181405634859626 0 0.0091119214551891991 -8.6025965923327614e-05 0 0.0090594778674622529 3.5796334189389521e-05 0 0.0091119214551891991 -8.6025965923327614e-05 0 0.0090594778674622529 3.5796334189389521e-05 0 0.0091879099379603927 4.6151139029991857e-05 0 0.0090594778674622529 3.5796334189389521e-05 0 0.0091879099379603927 4.6151139029991857e-05 0 0.0091442915264834269 0.00011961060480322871 0 0.0086790104160333632 2.3737073576698299e-05 0 0.008700198972149336 0.00032692733131542954 0 0.0083156121148133585 0.00023816979351083415 0 0.0082457300858783129 0.00055183396416983355 0 0.008484271978473696 0.00054221552319177546 0 0.0083475628875981298 0.0002938043845087967 0 0.0084189537360202706 0.00049198448356651701 0 0.0082457300858783129 0.00055183396416983355 0 0.008484271978473696 0.00054221552319177546 0 0.0084699500589580715 0.00073942954156891981 0 0.0083156121148133585 0.00023816979351083415 0 0.0084736206796240804 0.00057138158852798376 0 0.0085480302295908514 0.00034379539860333468 0 0.0084736206796240804 0.00057138158852798376 0 0.0086721408467405302 0.00048119882874046927 0 0.0087689787199717404 0.00063647387509540535 0 0.0086721408467405302 0.00048119882874046927 0 0.0088965195340725226 0.00037398695159521309 0 0.0085480302295908514 0.00034379539860333468 0 0.01038602356578835 0.0010168217355811327 0 0.010533269333865549 0.00070903903099458771 0 0.011057238637137467 0.00099561811164479127 0 0.0084736206796240804 0.00057138158852798376 0 0.0086721408467405302 0.00048119882874046927 0 0.0085480302295908514 0.00034379539860333468 0 0.0086721408467405302 0.00048119882874046927 0 0.0087689787199717404 0.00063647387509540535 0 0.0088965195340725226 0.00037398695159521309 0 0.0096104637077592293 0.00072088434436051252 0 0.0088299807849559573 0.0009499637774998365 0 0.0088299807849559573 0.0009499637774998365 0 0.0082000480362966789 0.0010738484740961385 0 0.0088299807849559573 0.0009499637774998365 0 0.0069375384088984004 0.00041772978743607098 0 0.0088965195340725226 0.00037398695159521309 0 0.0084342082509725885 0.00011909118886592327 0 0.0085480302295908514 0.00034379539860333468 0 0.006509197595890694 0.0011226299744412252 0 0.0060704568531717113 0.00087861167083899314 0 0.0063286516933634476 0.00066467329128525369 0 0.0083156121148133585 0.00023816979351083415 0 0.0084342082509725885 0.00011909118886592327 0 0.0085480302295908514 0.00034379539860333468 0 0.0099042314317051988 0.0012845067253226372 0 0.0099119905727870373 0.0012480756546946207 0 0.0099506989330314603 0.0012402714344941774 0 0.0098649694998337225 0.00125947274425512 0 0.0099042314317051988 0.0012845067253226372 0 0.0099119905727870373 0.0012480756546946207 0 0.0088299807849559573 0.0009499637774998365 0 0.010779280104863094 0.0012148918277314388 0 0.0098649694998337225 0.00125947274425512 0 0.0099119905727870373 0.0012480756546946207 0 0.0098905103370517684 0.0012377146171285939 0 0.0099119905727870373 0.0012480756546946207 0 0.0099336392085372146 0.0012423385627021231 0 0.0099506989330314603 0.0012402714344941774 0 0.0099119905727870373 0.0012480756546946207 0 0.0098905103370517684 0.0012377146171285939 0 0.0099336392085372146 0.0012423385627021231 0 0.0098905103370517684 0.0012377146171285939 0 0.0099025599909396619 0.0012374708354608531 0 0.0099336392085372146 0.0012423385627021231 0 0.0082000480362966789 0.0010738484740961385 0 0.0083688078381822049 0.00081046348079264168 0 0.0066800112084634926 0.00076391570024900493 0 0.006863052614648985 0.00038803680446737382 0 0.0065592106121747347 0.00039662764346227189 0 0.0099025599909396619 0.0012374708354608531 0 0.0099336392085372146 0.0012423385627021231 0 0.0099184491137973927 0.0012474757621408396 0 0.0060704568531717113 0.00087861167083899314 0 0.0060860518391912021 0.0006599081315858252 0 0.0063286516933634476 0.00066467329128525369 0 0.0066800112084634926 0.00076391570024900493 0 0.0063286516933634476 0.00066467329128525369 0 0.0065592106121747347 0.00039662764346227189 0 0.006509197595890694 0.0011226299744412252 0 0.0066800112084634926 0.00076391570024900493 0 0.0063286516933634476 0.00066467329128525369 0 0.0063286516933634476 0.00066467329128525369 0 0.0065592106121747347 0.00039662764346227189 0 0.0063142603936186155 0.00028035430592804312 0 0.0063286516933634476 0.00066467329128525369 0 0.0060965348087218332 0.00042050339901845621 0 0.0063142603936186155 0.00028035430592804312 0 0.0060860518391912021 0.0006599081315858252 0 0.0063286516933634476 0.00066467329128525369 0 0.0060965348087218332 0.00042050339901845621 0 0.0060965348087218332 0.00042050339901845621 0 0.0063142603936186155 0.00028035430592804312 0 0.0060939608334917138 -7.1413787678732127e-06 0 0.0060965348087218332 0.00042050339901845621 0 0.0060939608334917138 -7.1413787678732127e-06 0 0.0058861655179123073 0.00023010167845692741 0 0.0063142603936186155 0.00028035430592804312 0 0.0065327559712090207 4.8920359868003539e-05 0 0.0060939608334917138 -7.1413787678732127e-06 0 0.0065592106121747347 0.00039662764346227189 0 0.0063142603936186155 0.00028035430592804312 0 0.0065327559712090207 4.8920359868003539e-05 0 0.0065327559712090207 4.8920359868003539e-05 0 0.0060939608334917138 -7.1413787678732127e-06 0 0.0065093875562848777 -0.0004190998511334726 0 0.0099025599909396619 0.0012374708354608531 0 0.0098919932346306499 0.0012308838473507903 0 0.0099184491137973927 0.0012474757621408396 0 0.006863052614648985 0.00038803680446737382 0 0.00696654375077564 0.00014203684143656049 0 0.0070349729779213147 3.3361866162199833e-05 0 0.0083688078381822049 0.00081046348079264168 0 0.0086712025715750939 0.0006012085557326732 0 0.006863052614648985 0.00038803680446737382 0 0.00696654375077564 0.00014203684143656049 0 0.0067496276092051241 0.0002019259104760569 0 0.0065592106121747347 0.00039662764346227189 0 0.0065327559712090207 4.8920359868003539e-05 0 0.0067496276092051241 0.0002019259104760569 0 0.006863052614648985 0.00038803680446737382 0 0.0065592106121747347 0.00039662764346227189 0 0.0067496276092051241 0.0002019259104760569 0 0.00696654375077564 0.00014203684143656049 0 0.0067496276092051241 0.0002019259104760569 0 0.0067973625875046061 -1.4397302684515859e-05 0 0.0065327559712090207 4.8920359868003539e-05 0 0.0067496276092051241 0.0002019259104760569 0 0.0067973625875046061 -1.4397302684515859e-05 0 0.0065327559712090207 4.8920359868003539e-05 0 0.0067118141472575134 -0.00018086663124707958 0 0.0065093875562848777 -0.0004190998511334726 0 0.0067118141472575134 -0.00018086663124707958 0 0.0067973625875046061 -1.4397302684515859e-05 0 0.0069879103293054657 -0.00038900052209141629 0 0.0065327559712090207 4.8920359868003539e-05 0 0.0067118141472575134 -0.00018086663124707958 0 0.0067973625875046061 -1.4397302684515859e-05 0 0.00696654375077564 0.00014203684143656049 0 0.0067973625875046061 -1.4397302684515859e-05 0 0.0069879103293054657 -0.00038900052209141629 0 0.0073130134399231562 5.5249697217057714e-05 0 0.005713844992547892 -0.00022382214377634303 0 0.00696654375077564 0.00014203684143656049 0 0.0070349729779213147 3.3361866162199833e-05 0 0.0069810630756298713 -0.00030753451635109696 0 0.0070349729779213147 3.3361866162199833e-05 0 0.0069810630756298713 -0.00030753451635109696 0 0.0071864562158264443 -0.00029484511062905557 0 0.005713844992547892 -0.00022382214377634303 0 0.0066705563182463392 0.00018743899788737359 0 0.0067118141472575134 -0.00018086663124707958 0 0.0069879103293054657 -0.00038900052209141629 0 0.0065093875562848777 -0.0004190998511334726 0 0.005713844992547892 -0.00022382214377634303 0 0.0053551976237307163 -0.00043656513301606608 0 0.0043753230832235561 -0.00041664619642840946 0 0.0044098830943148041 -0.000386316398177324 0 0.0042883333511806654 -0.00040501725639119693 0 0.0043753230832235561 -0.00041664619642840946 0 0.0043100857400570243 -0.00050631589502249548 0 0.0041853484001644174 -0.00049806696622147655 0 0.0043009259713353851 -0.00046030514977480773 0 0.0043884004252193864 -0.0004112388947448389 0 0.0043753230832235561 -0.00041664619642840946 0 0.0042883333511806654 -0.00040501725639119693 0 0.0042843713975503255 -0.0004995949082651287 0 0.0044069796506823805 -0.00053911623406842498 0 0.0043753230832235561 -0.00041664619642840946 0 0.0044098830943148041 -0.000386316398177324 0 0.0044069796506823805 -0.00053911623406842498 0 0.0043753230832235561 -0.00041664619642840946 0 0.0043100857400570243 -0.00050631589502249548 0 0.0044354268026031559 -0.00014871763945568733 0 0.0044405799835931584 0.00016735072535729631 0 0.0045575582171229955 -2.9678179984482935e-06 0 0.0043091591679384963 -0.00031225438608970419 0 0.005713844992547892 -0.00022382214377634303 0 0.0041283497895622454 -0.00040743912877495337 0 0.0042883333511806654 -0.00040501725639119693 0 0.0041861061935563795 -0.00048896373580350322 0 0.0060939608334917138 -7.1413787678732127e-06 0 0.0060126355192451396 -0.00045927197413033442 0 0.0065093875562848777 -0.0004190998511334726 0 0.0052509692362374179 -0.00039636413463370362 0 0.0053551976237307163 -0.00043656513301606608 0 0.0042883333511806654 -0.00040501725639119693 0 0.0042843713975503255 -0.0004995949082651287 0 0.0041861061935563795 -0.00048896373580350322 0 0.0041522830192820522 -0.00059311012236903178 0 0.0042843713975503255 -0.0004995949082651287 0 0.0041861061935563795 -0.00048896373580350322 0 0.0041283497895622454 -0.00040743912877495337 0 0.0041861061935563795 -0.00048896373580350322 0 0.0040445971203547119 -0.00053134967012336833 0 0.0041283497895622454 -0.00040743912877495337 0 0.0040445971203547119 -0.00053134967012336833 0 0.0039427099277561436 -0.00041669260299903864 0 0.0060126355192451396 -0.00045927197413033442 0 0.0054827470002251589 -0.00049169705268340411 0 0.005614070908959325 5.9273065770153453e-06 0 0.0052509692362374179 -0.00039636413463370362 0 0.0039031697794267555 -0.00070986263695018142 0 0.0033323907312396641 -0.00085196736861668863 0 0.0029470961351086176 -0.00098546965236130006 0 0.002400890836005302 -0.0010099322781047856 0 0.0023821894071978703 -0.0010810640014031351 0 0.0023084924669812927 -0.0010698465548727135 0 0.0025656880896013745 -0.001173759877989762 0 0.0023798316876971959 -0.0010651762386380177 0 0.0023498636483092164 -0.0011863229832705304 0 0.0040445971203547119 -0.00053134967012336833 0 0.0039427099277561436 -0.00041669260299903864 0 0.00392942705634859 -0.00046678780364768462 0 0.0039031697794267555 -0.00070986263695018142 0 0.0029470961351086176 -0.00098546965236130006 0 0.0023821894071978703 -0.0010810640014031351 0 0.00232720218653795 -0.0011257767409125388 0 0.0023084924669812927 -0.0010698465548727135 0 0.0029470961351086176 -0.00098546965236130006 0 0.0025246193311612777 -0.0012274379898678754 0 0.0023821894071978703 -0.0010810640014031351 0 0.0023498636483092164 -0.0011863229832705304 0 0.00232720218653795 -0.0011257767409125388 0 0.0022618646484625507 -0.0012316208458197284 0 0.0023498636483092164 -0.0011863229832705304 0 0.00232720218653795 -0.0011257767409125388 0 0.0022618646484625507 -0.0012316208458197284 0 0.00232720218653795 -0.0011257767409125388 0 0.0022439845581989333 -0.0011231329714477504 0 0.0022439845581989333 -0.0011231329714477504 0 0.0023084924669812927 -0.0010698465548727135 0 0.00222685020378517 -0.0010234637838192737 0 0.0022439845581989333 -0.0011231329714477504 0 0.0021595081743408283 -0.0010978891124991249 0 0.00222685020378517 -0.0010234637838192737 0 0.00232720218653795 -0.0011257767409125388 0 0.0022439845581989333 -0.0011231329714477504 0 0.0023084924669812927 -0.0010698465548727135 0 0.0021595081743408283 -0.0010978891124991249 0 0.0021311190915513241 -0.0009825072539331244 0 0.00222685020378517 -0.0010234637838192737 0 0.0021379863442724757 -0.0012313453794887349 0 0.0020143794581459337 -0.0011759712142297312 0 0.0021595081743408283 -0.0010978891124991249 0 0.0021379863442724757 -0.0012313453794887349 0 0.0022439845581989333 -0.0011231329714477504 0 0.0021595081743408283 -0.0010978891124991249 0 0.0020143794581459337 -0.0011759712142297312 0 0.0021595081743408283 -0.0010978891124991249 0 0.0021311190915513241 -0.0009825072539331244 0 0.0020088744698934674 -0.00051882814921562091 0 0.0021311190915513241 -0.0009825072539331244 0 0.0024717329549675789 -0.00062702977455302467 0 0.002238859161340884 -0.00099453248307337211 0 0.0023371151900888542 -0.0010228393374852353 0 0.0021311190915513241 -0.0009825072539331244 0 0.0024717329549675789 -0.00062702977455302467 0 0.002825850620679925 -0.001014489979834862 0 0.0024717329549675789 -0.00062702977455302467 0 0.002825850620679925 -0.001014489979834862 0 0.0029860566822520287 -0.00047379544463282052 0 0.003456561710679366 -0.0009908104225622924 0 0.002825850620679925 -0.001014489979834862 0 0.0029860566822520287 -0.00047379544463282052 0 0.0039031697794267555 -0.00070986263695018142 0 0.0023371151900888542 -0.0010228393374852353 0 0.002400890836005302 -0.0010099322781047856 0 0.0023084924669812927 -0.0010698465548727135 0 0.00222685020378517 -0.0010234637838192737 0 0.0029860566822520287 -0.00047379544463282052 0 0.0030044075679884763 0.00017207267215940618 0 0.0036626435200821229 -0.00013573994837251613 0 0.0029860566822520287 -0.00047379544463282052 0 0.0024860040423875457 -0.00019443265451710994 0 0.0030044075679884763 0.00017207267215940618 0 0.0020088744698934674 -0.00051882814921562091 0 0.0024717329549675789 -0.00062702977455302467 0 0.0024860040423875457 -0.00019443265451710994 0 0.0024717329549675789 -0.00062702977455302467 0 0.0029860566822520287 -0.00047379544463282052 0 0.0024860040423875457 -0.00019443265451710994 0 0.0020833486863517693 -0.00010272123296248579 0 0.0024860040423875457 -0.00019443265451710994 0 0.0023072383835498573 0.0003948457536411033 0 0.0024860040423875457 -0.00019443265451710994 0 0.0023072383835498573 0.0003948457536411033 0 0.0030044075679884763 0.00017207267215940618 0 0.0030044075679884763 0.00017207267215940618 0 0.0034262418611155005 0.00040571054564175264 0 0.0036626435200821229 -0.00013573994837251613 0 0.0038762873998290184 0.00070854600922855596 0 0.0034262418611155005 0.00040571054564175264 0 0.0036626435200821229 -0.00013573994837251613 0 0.0050776583510110324 0.00071302057141280398 0 0.0046715502002081912 -8.6352746478139057e-05 0 0.0057346938955774506 0.0005125543566790714 0 0.0058861655179123073 0.00023010167845692741 0 0.005614070908959325 5.9273065770153453e-06 0 0.0060939608334917138 -7.1413787678732127e-06 0 0.0058861655179123073 0.00023010167845692741 0 0.005614070908959325 5.9273065770153453e-06 0 0.0060939608334917138 -7.1413787678732127e-06 0 0.0060126355192451396 -0.00045927197413033442 0 0.005614070908959325 5.9273065770153453e-06 0 0.003456561710679366 -0.0009908104225622924 0 0.0029860566822520287 -0.00047379544463282052 0 0.0036626435200821229 -0.00013573994837251613 0 0.0039031697794267555 -0.00070986263695018142 0 0.0046715502002081912 -8.6352746478139057e-05 0 0.0039614785151060013 0.00068945202503803925 0 0.0036573056668054351 0.00051923823989913755 0 0.0039242709797482067 0.00035097025111362033 0 0.0039614785151060013 0.00068945202503803925 0 0.0036573056668054351 0.00051923823989913755 0 0.003972164897678771 0.00077370263001289225 0 0.0036573056668054351 0.00051923823989913755 0 0.003972164897678771 0.00077370263001289225 0 0.0028376270516730757 8.3227097051965607e-05 0 0.0028412993218436852 3.132562579631733e-07 0 0.0031495387120838744 2.8440029731760303e-05 0 0.0037294927103136161 -3.7286921178391756e-08 0 0.0035528836626645857 0.00035681696147575012 0 0.00298361710337552 7.0235914530810382e-05 0 0.0028412993218436852 3.132562579631733e-07 0 0.0031495387120838744 2.8440029731760303e-05 0 0.0028376270516730757 8.3227097051965607e-05 0 0.0031495387120838744 2.8440029731760303e-05 0 0.0037294927103136161 -3.7286921178391756e-08 0 0.0038996872917817097 -5.4549998785676985e-06 0 0.0035528836626645857 0.00035681696147575012 0 0.0043556653754822199 0.00021393268343961852 0 0.003972164897678771 0.00077370263001289225 0 0.0044495593982734633 0.00052931087913336253 0 0.004834454671492917 0.00041514503220018556 0 0.0039614785151060013 0.00068945202503803925 0 0.003972164897678771 0.00077370263001289225 0 0.0041662265878526904 0.00064310828936517666 0 0.003972164897678771 0.00077370263001289225 0 0.0041662265878526904 0.00064310828936517666 0 0.0044495593982734633 0.00052931087913336253 0 0.0039887634847285526 0.00062553677088064913 0 0.0038926656732442811 0.00060172918046033587 0 0.0040321322911922126 0.00047651320237030944 0 0.0041662265878526904 0.00064310828936517666 0 0.0039887634847285526 0.00062553677088064913 0 0.0040321322911922126 0.00047651320237030944 0 0.0039614785151060013 0.00068945202503803925 0 0.0041662265878526904 0.00064310828936517666 0 0.0039887634847285526 0.00062553677088064913 0 0.0039614785151060013 0.00068945202503803925 0 0.0039887634847285526 0.00062553677088064913 0 0.0040244578196889022 0.00065632509279208763 0 0.0039887634847285526 0.00062553677088064913 0 0.0038926656732442811 0.00060172918046033587 0 0.0040244578196889022 0.00065632509279208763 0 0.0021264101361601986 0.00032463411441555518 0 0.0021234703339618019 0.00022091969860042 0 0.0020372781476021579 0.00019600425723341244 0 0.0030836529387842362 0.00025586925958885409 0 0.0030185438242181731 0.00043178223521723108 0 0.0030836529387842362 0.00025586925958885409 0 0.0019710533813317543 -0.00019742309600916604 0 0.0021264101361601986 0.00032463411441555518 0 0.0021234703339618019 0.00022091969860042 0 0.0022010541134855556 0.00029102412080873912 0 0.0021234703339618019 0.00022091969860042 0 0.0021715432138969741 0.00012265970002646006 0 0.0022010541134855556 0.00029102412080873912 0 0.0020846761635422446 0.00016709983665831834 0 0.0020372781476021579 0.00019600425723341244 0 0.0020378822237221358 7.1847066032046386e-05 0 0.0021234703339618019 0.00022091969860042 0 0.0020846761635422446 0.00016709983665831834 0 0.0020372781476021579 0.00019600425723341244 0 0.0021234703339618019 0.00022091969860042 0 0.0020846761635422446 0.00016709983665831834 0 0.0021715432138969741 0.00012265970002646006 0 0.0039614785151060013 0.00068945202503803925 0 0.0040244578196889022 0.00065632509279208763 0 0.0039242709797482067 0.00035097025111362033 0 0.0030185438242181731 0.00043178223521723108 0 0.0030042716441568158 0.00024848841026126251 0 0.0020372781476021579 0.00019600425723341244 0 0.0020378822237221358 7.1847066032046386e-05 0 0.0019518667513039999 7.5860067009442573e-05 0 0.0020378822237221358 7.1847066032046386e-05 0 0.0019518667513039999 7.5860067009442573e-05 0 0.0020066460843732987 -4.2690415122961965e-05 0 0.0020846761635422446 0.00016709983665831834 0 0.0021388549297385547 -5.7599246171287248e-05 0 0.0021715432138969741 0.00012265970002646006 0 0.0020846761635422446 0.00016709983665831834 0 0.0020378822237221358 7.1847066032046386e-05 0 0.0021190674005310498 -2.1686523777048056e-05 0 0.0021331118782058037 0.00016781034433822702 0 0.0019576352874097402 -7.7057232636166655e-05 0 0.0019576352874097402 -7.7057232636166655e-05 0 0.0019894457103670224 -8.9195139300512669e-05 0 0.0019576352874097402 -7.7057232636166655e-05 0 0.0014905828711932003 4.7758922204365063e-05 0 0.0021190674005310498 -2.1686523777048056e-05 0 0.0020066460843732987 -4.2690415122961965e-05 0 0.0020912065930333073 -0.00014895369512999074 0 0.0020378822237221358 7.1847066032046386e-05 0 0.0021190674005310498 -2.1686523777048056e-05 0 0.0020066460843732987 -4.2690415122961965e-05 0 0.0019518667513039999 7.5860067009442573e-05 0 0.0020066460843732987 -4.2690415122961965e-05 0 0.0018668931474651476 -4.5485780515329352e-05 0 0.0030042716441568158 0.00024848841026126251 0 0.0017950023991567816 -0.00035894819269075262 0 0.003283032797882644 -0.00063052595889778382 0 0.0026816355910216586 -1.2164766795019278e-05 0 0.0028376270516730757 8.3227097051965607e-05 0 0.003283032797882644 -0.00063052595889778382 0 0.0034173643024351203 0.00013064177067659752 0 0.0028376270516730757 8.3227097051965607e-05 0 0.0017950023991567816 -0.00035894819269075262 0 0.0025935046015059106 -0.00028895802128631719 0 0.0039242709797482067 0.00035097025111362033 0 0.003283032797882644 -0.00063052595889778382 0 0.0034173643024351203 0.00013064177067659752 0 0.0036573056668054351 0.00051923823989913755 0 0.0034173643024351203 0.00013064177067659752 0 0.0028376270516730757 8.3227097051965607e-05 0 0.0036573056668054351 0.00051923823989913755 0 0.0039242709797482067 0.00035097025111362033 0 0.0034173643024351203 0.00013064177067659752 0 0.0028412993218436852 3.132562579631733e-07 0 0.0026816355910216586 -1.2164766795019278e-05 0 0.0028376270516730757 8.3227097051965607e-05 0 0.0028412993218436852 3.132562579631733e-07 0 0.0026816355910216586 -1.2164766795019278e-05 0 0.0019530816038266562 -7.8312884190707268e-08 0 0.0024153682662172247 -1.9935551484917447e-05 0 0.0022698902279533186 -1.6051317004610725e-05 0 0.0019103997388802351 -5.8278106237463583e-05 0 0.0024153682662172247 -1.9935551484917447e-05 0 0.0026816355910216586 -1.2164766795019278e-05 0 0.0022698902279533186 -1.6051317004610725e-05 0 0.0026816355910216586 -1.2164766795019278e-05 0 0.0022698902279533186 -1.6051317004610725e-05 0 0.0019530816038266562 -7.8312884190707268e-08 0 0.0022698902279533186 -1.6051317004610725e-05 0 0.0019530816038266562 -7.8312884190707268e-08 0 0.0019103997388802351 -5.8278106237463583e-05 0 0.0019530816038266562 -7.8312884190707268e-08 0 0.0019103997388802351 -5.8278106237463583e-05 0 0.0010648404155889095 -3.2841415956523526e-07 0 0.00015898308165636051 -0.0013791277655636198 0 8.5384072232226894e-05 -0.00081296099502230267 0 -0.00045813182515822969 -0.0006220667695471079 0 0.0017950023991567816 -0.00035894819269075262 0 0.0011707256484960824 -0.00045853398452062405 0 8.5384072232226894e-05 -0.00081296099502230267 0 0.00010856877130618307 -0.000427862072742048 0 -0.00045813182515822969 -0.0006220667695471079 0 0.0017950023991567816 -0.00035894819269075262 0 0.0005356532205445997 -0.00039887766980868883 0 0.00015898308165636051 -0.0013791277655636198 0 0.00054539382780318074 -0.00081221310580923008 0 8.5384072232226894e-05 -0.00081296099502230267 0 0.00054539382780318074 -0.00081221310580923008 0 8.5384072232226894e-05 -0.00081296099502230267 0 0.00010856877130618307 -0.000427862072742048 0 5.3751778323678891e-05 -0.00047470448791051857 0 0.00030290174997311525 -4.6494788382830264e-05 0 -0.00026429059487789459 -0.0002089309831129138 0 -5.4433798460981515e-05 -0.00047931573178597737 0 0.0005356532205445997 -0.00039887766980868883 0 0.00054539382780318074 -0.00081221310580923008 0 0.00010856877130618307 -0.000427862072742048 0 0.00074347483713753826 -0.00017055239439574843 0 -5.4433798460981515e-05 -0.00047931573178597737 0 0.00071293932906968448 -0.00020625566760592838 0 0.0011707256484960824 -0.00045853398452062405 0 0.0010644846092996054 3.2702849957183322e-08 0 0.00054539382780318074 -0.00081221310580923008 0 0.001062699494810406 -1.2642045683471223e-06 0 0.00074347483713753826 -0.00017055239439574843 0 5.3751778323678891e-05 -0.00047470448791051857 0 0.00074347483713753826 -0.00017055239439574843 0 0.00030290174997311525 -4.6494788382830264e-05 0 0.001062699494810406 -1.2642045683471223e-06 0 0.00074347483713753826 -0.00017055239439574843 0 0.00030290174997311525 -4.6494788382830264e-05 0 0.00030290174997311525 -4.6494788382830264e-05 0 -0.00010553067853822192 2.8147183604580629e-05 0 0.00023946994702925319 5.3976516442360155e-07 0 0.001062699494810406 -1.2642045683471223e-06 0 0.00030290174997311525 -4.6494788382830264e-05 0 0.00023946994702925319 5.3976516442360155e-07 0 0.00030290174997311525 -4.6494788382830264e-05 0 -0.00010553067853822192 2.8147183604580629e-05 0 -0.00026429059487789459 -0.0002089309831129138 0 -0.00040791543474605671 0.00013836237646304653 0 -0.00010553067853822192 2.8147183604580629e-05 0 -0.00040735370300981247 0.0001061729144768109 0 -0.00040791543474605671 0.00013836237646304653 0 -0.00010553067853822192 2.8147183604580629e-05 0 0.00023946994702925319 5.3976516442360155e-07 0 -0.00021002068168340024 0.00090165124121583057 0 -0.00050993845939379366 0.0012446462428259411 0 -6.0328245780815982e-06 0.0013835506159865503 0 -0.00065036106505891736 0.00020592687238204962 0 -0.00055441566549696401 8.5837896613016415e-05 0 -0.00040735370300981247 0.0001061729144768109 0 -0.00010553067853822192 2.8147183604580629e-05 0 -0.00040735370300981247 0.0001061729144768109 0 -0.00039813331715121182 -2.3516441145550651e-05 0 -0.00055441566549696401 8.5837896613016415e-05 0 -0.00040735370300981247 0.0001061729144768109 0 -0.00039813331715121182 -2.3516441145550651e-05 0 -0.00039813331715121182 -2.3516441145550651e-05 0 -0.00026429059487789459 -0.0002089309831129138 0 -0.00061644780969290225 -0.00019440557318362427 0 -0.00010553067853822192 2.8147183604580629e-05 0 -0.00039813331715121182 -2.3516441145550651e-05 0 -0.00026429059487789459 -0.0002089309831129138 0 -0.00057675117241965214 0.00072450028381865997 0 0.00022877423048386469 0.00043640178614608421 0 -0.00055441566549696401 8.5837896613016415e-05 0 -0.00039813331715121182 -2.3516441145550651e-05 0 -0.00061644780969290225 -0.00019440557318362427 0 0.00022877423048386469 0.00043640178614608421 0 0.00050801575589787045 0.0010038439755900824 0 -0.00050993845939379366 0.0012446462428259411 0 -0.00039625796320961418 0.0018412268211480942 0 -6.0328245780815982e-06 0.0013835506159865503 0 0.0012364953030683419 0.00029342561270357325 0 0.0010408098140831058 0.00022618910362441107 0 0.0011092613366167424 0.00035249863269987922 0 0.0012364953030683419 0.00029342561270357325 0 0.0011092613366167424 0.00035249863269987922 0 0.0010893597442687829 0.0005043764313314564 0 0.00022877423048386469 0.00043640178614608421 0 0.00152418927219606 2.0624118162705668e-05 0 0.0012364953030683419 0.00029342561270357325 0 0.0011944882912710557 2.6413928237474734e-05 0 0.0010408098140831058 0.00022618910362441107 0 0.00073548210370506665 0.00012758889216311532 0 0.00081875607541331092 2.2969109887018335e-05 0 0.00071954254673608771 -7.1342650976723709e-06 0 5.3751778323678891e-05 -0.00047470448791051857 0 -0.00026429059487789459 -0.0002089309831129138 0 -0.00035634804286310319 -0.0005681855779315311 0 0.00022877423048386469 0.00043640178614608421 0 0.0005356532205445997 -0.00039887766980868883 0 -0.00026429059487789459 -0.0002089309831129138 0 -0.00061644780969290225 -0.00019440557318362427 0 -0.00035634804286310319 -0.0005681855779315311 0 0.0020066460843732987 -4.2690415122961965e-05 0 0.0019708644229242929 -0.0001859253281277446 0 0.0020912065930333073 -0.00014895369512999074 0 0.0020066460843732987 -4.2690415122961965e-05 0 0.0018668931474651476 -4.5485780515329352e-05 0 0.0019708644229242929 -0.0001859253281277446 0 0.001691210465920926 -6.1096700084623586e-05 0 0.0017017199777052381 2.0068019377179045e-05 0 0.0016695714836524975 1.0162164022448617e-05 0 0.0005356532205445997 -0.00039887766980868883 0 0.00152418927219606 2.0624118162705668e-05 0 0.0019576352874097402 -7.7057232636166655e-05 0 0.00152418927219606 2.0624118162705668e-05 0 0.00152418927219606 2.0624118162705668e-05 0 0.0014905828711932003 4.7758922204365063e-05 0 0.0014905828711932003 4.7758922204365063e-05 0 0.0014851945774876638 1.8084838652341954e-05 0 0.0011944882912710557 2.6413928237474734e-05 0 0.0011056672648510713 -8.4112591959436999e-07 0 0.0010408098140831058 0.00022618910362441107 0 0.0013992923162712714 5.9111191236276621e-05 0 0.0014388975892087651 -5.3857295650187859e-06 0 0.0012794154445094634 0.00012392468658544513 0 0.0018011468646837424 0.00010036251655739615 0 0.0014388975892087651 -5.3857295650187859e-06 0 0.0016874234270762411 -8.629339546229996e-05 0 0.0014388975892087651 -5.3857295650187859e-06 0 0.0012274702013103083 6.695292132260533e-05 0 0.0014391899171261602 -0.00010337775252683483 0 0.0014388975892087651 -5.3857295650187859e-06 0 0.0012794154445094634 0.00012392468658544513 0 0.0012274702013103083 6.695292132260533e-05 0 0.0012794154445094634 0.00012392468658544513 0 0.0010060112603361212 0.00029972368262182685 0 0.0012274702013103083 6.695292132260533e-05 0 0.0012794154445094634 0.00012392468658544513 0 0.0010892885145251455 0.00030808715086470367 0 0.0010060112603361212 0.00029972368262182685 0 0.0013992923162712714 5.9111191236276621e-05 0 0.0012794154445094634 0.00012392468658544513 0 0.001304147239260462 0.00021174467703698055 0 0.0012794154445094634 0.00012392468658544513 0 0.001304147239260462 0.00021174467703698055 0 0.0010892885145251455 0.00030808715086470367 0 0.0014905828711932003 4.7758922204365063e-05 0 0.0011422309033313123 0.00021940019949928706 0 0.001304147239260462 0.00021174467703698055 0 0.00095877377274314432 0.00046231805778234919 0 0.0010892885145251455 0.00030808715086470367 0 0.0010408098140831058 0.00022618910362441107 0 0.0011092613366167424 0.00035249863269987922 0 0.00095877377274314432 0.00046231805778234919 0 0.0011422309033313123 0.00021940019949928706 0 0.0010110794341376766 0.00042610566127274189 0 0.0011092613366167424 0.00035249863269987922 0 0.00095877377274314432 0.00046231805778234919 0 0.0010893597442687829 0.0005043764313314564 0 0.0009565115818429994 0.00040166162248329493 0 0.00077035665952256355 0.00053627696273692363 0 0.0010060112603361212 0.00029972368262182685 0 0.0010892885145251455 0.00030808715086470367 0 0.0009565115818429994 0.00040166162248329493 0 0.0010060112603361212 0.00029972368262182685 0 0.00095877377274314432 0.00046231805778234919 0 0.0010892885145251455 0.00030808715086470367 0 0.0009565115818429994 0.00040166162248329493 0 0.00052003601234390604 0.00074265405636077936 0 0.00095877377274314432 0.00046231805778234919 0 0.00077035665952256355 0.00053627696273692363 0 0.00095877377274314432 0.00046231805778234919 0 0.0009565115818429994 0.00040166162248329493 0 0.00077035665952256355 0.00053627696273692363 0 0.00052003601234390604 0.00074265405636077936 0 -0.00021002068168340024 0.00090165124121583057 0 -6.0328245780815982e-06 0.0013835506159865503 0 0.00052003601234390604 0.00074265405636077936 0 0.00095877377274314432 0.00046231805778234919 0 0.0010893597442687829 0.0005043764313314564 0 0.00057186780480460555 0.00073316118492190957 0 0.00050801575589787045 0.0010038439755900824 0 0.00061955976196296429 0.00053231253915393564 0 0.000791520175306598 0.00045469562304071719 0 0.00063863264529387073 0.0004322908124847172 0 0.00064416329793852564 0.00058433060669202711 0 0.00077035665952256355 0.00053627696273692363 0 0.000791520175306598 0.00045469562304071719 0 0.000791520175306598 0.00045469562304071719 0 0.0010060112603361212 0.00029972368262182685 0 0.00098590204775509706 0.00021735542434653477 0 0.00077035665952256355 0.00053627696273692363 0 0.000791520175306598 0.00045469562304071719 0 0.0010060112603361212 0.00029972368262182685 0 0.000791520175306598 0.00045469562304071719 0 0.00098590204775509706 0.00021735542434653477 0 0.00063863264529387073 0.0004322908124847172 0 0.00098590204775509706 0.00021735542434653477 0 0.0012274702013103083 6.695292132260533e-05 0 0.0011233851379013554 5.8786608044584208e-05 0 0.00098590204775509706 0.00021735542434653477 0 0.0011233851379013554 5.8786608044584208e-05 0 0.00092709898076565923 0.00010135934153324007 0 0.0010060112603361212 0.00029972368262182685 0 0.00098590204775509706 0.00021735542434653477 0 0.0012274702013103083 6.695292132260533e-05 0 0.0011233851379013554 5.8786608044584208e-05 0 0.0013653887187808822 -0.00011123296363506692 0 0.0011649206387824682 1.5208824342323063e-05 0 0.0012274702013103083 6.695292132260533e-05 0 0.0011233851379013554 5.8786608044584208e-05 0 0.0013653887187808822 -0.00011123296363506692 0 0.0013653887187808822 -0.00011123296363506692 0 0.0016600946580749858 -0.00037607294852729374 0 0.0014816765240973037 -0.00024614232715915196 0 0.0013653887187808822 -0.00011123296363506692 0 0.0016244380916582014 -0.00029715684566533867 0 0.0016600946580749858 -0.00037607294852729374 0 0.0013653887187808822 -0.00011123296363506692 0 0.0016244380916582014 -0.00029715684566533867 0 0.0014391899171261602 -0.00010337775252683483 0 0.0012274702013103083 6.695292132260533e-05 0 0.0013653887187808822 -0.00011123296363506692 0 0.0014391899171261602 -0.00010337775252683483 0 0.0014388975892087651 -5.3857295650187859e-06 0 0.0014391899171261602 -0.00010337775252683483 0 0.0016662850173351697 -0.00023871074931670032 0 0.0014388975892087651 -5.3857295650187859e-06 0 0.0016874234270762411 -8.629339546229996e-05 0 0.0016662850173351697 -0.00023871074931670032 0 0.001835688152322699 -0.00015803479636073209 0 0.0018011468646837424 0.00010036251655739615 0 0.0016874234270762411 -8.629339546229996e-05 0 0.001835688152322699 -0.00015803479636073209 0 0.0016874234270762411 -8.629339546229996e-05 0 0.0016662850173351697 -0.00023871074931670032 0 0.0016662850173351697 -0.00023871074931670032 0 0.0017472081123232734 -0.00036863602241465622 0 0.0017957306303701293 -0.00035750305416514281 0 0.001835688152322699 -0.00015803479636073209 0 0.0016662850173351697 -0.00023871074931670032 0 0.0017957306303701293 -0.00035750305416514281 0 0.0016244380916582014 -0.00029715684566533867 0 0.0014391899171261602 -0.00010337775252683483 0 0.0016662850173351697 -0.00023871074931670032 0 0.0016244380916582014 -0.00029715684566533867 0 0.0016662850173351697 -0.00023871074931670032 0 0.0017472081123232734 -0.00036863602241465622 0 0.0017472081123232734 -0.00036863602241465622 0 0.0018081009073605157 -0.00040786869029367393 0 0.0017688891926725357 -0.00038700322470190424 0 0.0016244380916582014 -0.00029715684566533867 0 0.0017472081123232734 -0.00036863602241465622 0 0.0018081009073605157 -0.00040786869029367393 0 0.0019894457103670224 -8.9195139300512669e-05 0 0.0019710533813317543 -0.00019742309600916604 0 0.0017472081123232734 -0.00036863602241465622 0 0.0017957306303701293 -0.00035750305416514281 0 0.0017688891926725357 -0.00038700322470190424 0 0.0020868918149632596 -0.00045344001050189351 0 0.0019651290612279992 -0.00050403729697729295 0 0.0020423837035295333 -0.00050054200518153877 0 0.0021728396462602239 -0.00042776848660148255 0 0.0020832650533860225 -0.00038697052334267198 0 0.0020954062592825375 -0.00047769458597943373 0 0.0018081009073605157 -0.00040786869029367393 0 0.0020868918149632596 -0.00045344001050189351 0 0.0019651290612279992 -0.00050403729697729295 0 0.0018175880694982086 -0.0004628262018768753 0 0.0019710533813317543 -0.00019742309600916604 0 0.0018081009073605157 -0.00040786869029367393 0 0.0019651290612279992 -0.00050403729697729295 0 0.0020107432738915346 -0.00055677336536393907 0 0.0018081009073605157 -0.00040786869029367393 0 0.0018682361309435382 -0.00051107176345993404 0 0.0020107432738915346 -0.00055677336536393907 0 0.0018682361309435382 -0.00051107176345993404 0 0.0016600946580749858 -0.00037607294852729374 0 0.0016612399055000455 -0.00049044890502193445 0 0.0018081009073605157 -0.00040786869029367393 0 0.0018682361309435382 -0.00051107176345993404 0 0.0016600946580749858 -0.00037607294852729374 0 0.0016244380916582014 -0.00029715684566533867 0 0.0018081009073605157 -0.00040786869029367393 0 0.0016600946580749858 -0.00037607294852729374 0 0.0016639850012659569 -0.00051287270953585514 0 0.0017695226756312568 -0.00057914660758559425 0 0.0016612399055000455 -0.00049044890502193445 0 0.0011883583732162019 -0.00050810683408081443 0 0.0011454335341515103 -0.00019001833010805818 0 0.0016612399055000455 -0.00049044890502193445 0 0.0021949001554788885 -0.000567187311513 0 0.0022147117845081991 -0.00069077105791700091 0 0.0018682361309435382 -0.00051107176345993404 0 0.0016612399055000455 -0.00049044890502193445 0 0.0020501373321657355 -0.00054834723677579973 0 0.0016612399055000455 -0.00049044890502193445 0 0.0021949001554788885 -0.000567187311513 0 0.0020501373321657355 -0.00054834723677579973 0 0.0021949001554788885 -0.000567187311513 0 0.0023277065106083153 -0.00061187352742853723 0 0.0022147117845081991 -0.00069077105791700091 0 0.0021949001554788885 -0.000567187311513 0 0.0023277065106083153 -0.00061187352742853723 0 0.0023654683322668346 -0.00057949901539478172 0 0.0023277065106083153 -0.00061187352742853723 0 0.0024120400942650943 -0.00067168708685305081 0 0.0024029409988470677 -0.00058992683114735206 0 0.0023277065106083153 -0.00061187352742853723 0 0.0024120400942650943 -0.00067168708685305081 0 0.0022147117845081991 -0.00069077105791700091 0 0.00089660367030453697 -0.00048821365058410957 0 0.0010001250125202313 -0.00036853143794593474 0 0.00080577821702245355 -0.00039119982415679772 0 0.0013798113902999429 -0.00054725918656292204 0 0.0017695226756312568 -0.00057914660758559425 0 0.00089660367030453697 -0.00048821365058410957 0 0.0010001250125202313 -0.00036853143794593474 0 0.0011883583732162019 -0.00050810683408081443 0 0.0010001250125202313 -0.00036853143794593474 0 0.0011883583732162019 -0.00050810683408081443 0 0.0011454335341515103 -0.00019001833010805818 0 0.0010001250125202313 -0.00036853143794593474 0 0.00090966756532110283 -0.00018664303233689269 0 0.00080577821702245355 -0.00039119982415679772 0 0.0010001250125202313 -0.00036853143794593474 0 0.0011454335341515103 -0.00019001833010805818 0 0.00090966756532110283 -0.00018664303233689269 0 0.0011077325707485352 0.00010043258904014914 0 0.0010924738029996735 7.9709714705900262e-05 0 0.0012600552636018907 0.00038973545368702387 0 0.0010971473892687344 7.0276716254392903e-05 0 0.0014248848122558042 0.00020102659989562911 0 0.0011454335341515103 -0.00019001833010805818 0 0.00090966756532110283 -0.00018664303233689269 0 0.0010971473892687344 7.0276716254392903e-05 0 0.0011454335341515103 -0.00019001833010805818 0 0.0010971473892687344 7.0276716254392903e-05 0 0.001165166382276238 2.932309707044468e-05 0 0.0011454335341515103 -0.00019001833010805818 0 0.001165166382276238 2.932309707044468e-05 0 0.001292271597538248 -0.00010533922708022286 0 0.001165166382276238 2.932309707044468e-05 0 0.001292271597538248 -0.00010533922708022286 0 0.0011649206387824682 1.5208824342323063e-05 0 0.0016612399055000455 -0.00049044890502193445 0 0.0011454335341515103 -0.00019001833010805818 0 0.001292271597538248 -0.00010533922708022286 0 0.0016600946580749858 -0.00037607294852729374 0 0.0016612399055000455 -0.00049044890502193445 0 0.0014816765240973037 -0.00024614232715915196 0 0.0016612399055000455 -0.00049044890502193445 0 0.001292271597538248 -0.00010533922708022286 0 0.0014816765240973037 -0.00024614232715915196 0 0.001292271597538248 -0.00010533922708022286 0 0.0014816765240973037 -0.00024614232715915196 0 0.0011649206387824682 1.5208824342323063e-05 0 0.0013653887187808822 -0.00011123296363506692 0 0.0014816765240973037 -0.00024614232715915196 0 0.0011649206387824682 1.5208824342323063e-05 0 0.0011233851379013554 5.8786608044584208e-05 0 0.0011649206387824682 1.5208824342323063e-05 0 0.00092709898076565923 0.00010135934153324007 0 0.001165166382276238 2.932309707044468e-05 0 0.0011649206387824682 1.5208824342323063e-05 0 0.001113662578892498 4.9770374505763423e-05 0 0.0011649206387824682 1.5208824342323063e-05 0 0.00092709898076565923 0.00010135934153324007 0 0.001113662578892498 4.9770374505763423e-05 0 0.00092709898076565923 0.00010135934153324007 0 0.0011153898974731388 -6.0424568278902711e-05 0 0.001113662578892498 4.9770374505763423e-05 0 0.00098590204775509706 0.00021735542434653477 0 0.00092709898076565923 0.00010135934153324007 0 0.00063863264529387073 0.0004322908124847172 0 0.00090708039838871351 9.7641216470528279e-05 0 0.0007921555470820098 0.00014901542013289298 0 0.00092709898076565923 0.00010135934153324007 0 0.00043859227744624189 0.0003350144638635105 0 0.00063863264529387073 0.0004322908124847172 0 0.00041188428866650747 0.0005148950034178164 0 0.00043859227744624189 0.0003350144638635105 0 0.00063863264529387073 0.0004322908124847172 0 0.00064281193370090692 0.00045267259730827683 0 0.00080350275013770401 0.00025703686862734972 0 0.0012604056711713154 -1.0480555295209835e-05 0 0.0011749573455912079 -6.2571592573083031e-05 0 0.0010079420037396145 1.3626248492104621e-05 0 0.00036391974016110632 0.00052582145118825396 0 0.00041188428866650747 0.0005148950034178164 0 0.00043859227744624189 0.0003350144638635105 0 0.00036391974016110632 0.00052582145118825396 0 0.00043859227744624189 0.0003350144638635105 0 0.00036923163356922581 0.00051860758349441417 0 0.0007921555470820098 0.00014901542013289298 0 0.00080350275013770401 0.00025703686862734972 0 0.0011153898974731388 -6.0424568278902711e-05 0 0.0012604056711713154 -1.0480555295209835e-05 0 0.0011905511947576512 -5.7192793299825479e-05 0 0.0011905511947576512 -5.7192793299825479e-05 0 0.0011749573455912079 -6.2571592573083031e-05 0 0.0012380913412561574 -0.00010114896409249605 0 0.0012604056711713154 -1.0480555295209835e-05 0 0.0011905511947576512 -5.7192793299825479e-05 0 0.0011749573455912079 -6.2571592573083031e-05 0 0.0011905511947576512 -5.7192793299825479e-05 0 0.001113662578892498 4.9770374505763423e-05 0 0.0012571554733089522 -3.9393129097524548e-06 0 0.0011905511947576512 -5.7192793299825479e-05 0 0.0012571554733089522 -3.9393129097524548e-06 0 0.0012380913412561574 -0.00010114896409249605 0 0.0011153898974731388 -6.0424568278902711e-05 0 0.0011905511947576512 -5.7192793299825479e-05 0 0.001113662578892498 4.9770374505763423e-05 0 0.0010971473892687344 7.0276716254392903e-05 0 0.001113662578892498 4.9770374505763423e-05 0 0.0012571554733089522 -3.9393129097524548e-06 0 0.0010971473892687344 7.0276716254392903e-05 0 0.001165166382276238 2.932309707044468e-05 0 0.001113662578892498 4.9770374505763423e-05 0 0.0010971473892687344 7.0276716254392903e-05 0 0.0012571554733089522 -3.9393129097524548e-06 0 0.0014248848122558042 0.00020102659989562911 0 0.0012571554733089522 -3.9393129097524548e-06 0 0.0016005338542040195 6.3129233107507294e-05 0 0.0014248848122558042 0.00020102659989562911 0 0.0012571554733089522 -3.9393129097524548e-06 0 0.0016005338542040195 6.3129233107507294e-05 0 0.0015611725256017958 -9.0031561054420458e-05 0 0.0016005338542040195 6.3129233107507294e-05 0 0.0015611725256017958 -9.0031561054420458e-05 0 0.0019972249912537632 -7.6888873903546235e-05 0 0.0016005338542040195 6.3129233107507294e-05 0 0.0019972249912537632 -7.6888873903546235e-05 0 0.0017599260756524294 0.00023873157857489326 0 0.0015611725256017958 -9.0031561054420458e-05 0 0.0012380913412561574 -0.00010114896409249605 0 0.0018560543266931101 -0.00032704587501092682 0 0.0012571554733089522 -3.9393129097524548e-06 0 0.0015611725256017958 -9.0031561054420458e-05 0 0.0012380913412561574 -0.00010114896409249605 0 0.0011749573455912079 -6.2571592573083031e-05 0 0.0012380913412561574 -0.00010114896409249605 0 0.0010079420037396145 1.3626248492104621e-05 0 0.0012380913412561574 -0.00010114896409249605 0 0.0011785967546330291 1.4121219613615792e-06 0 0.0010079420037396145 1.3626248492104621e-05 0 0.0012757079217747167 -0.00010322833716116385 0 0.0015980622517173207 -0.0001050173238538437 0 0.0012380913412561574 -0.00010114896409249605 0 0.0011785967546330291 1.4121219613615792e-06 0 0.0013169956430346985 0.00010250701967089957 0 0.0011785967546330291 1.4121219613615792e-06 0 0.0011928441132855031 1.8084627645562456e-06 0 0.0011891050213027317 4.9242008846858048e-05 0 0.00078725291257655805 0.00015861575436599282 0 0.00099592219553189579 3.2436236660020959e-05 0 0.0011785967546330291 1.4121219613615792e-06 0 0.0011928441132855031 1.8084627645562456e-06 0 0.0010079420037396145 1.3626248492104621e-05 0 0.00063049046610346717 0.00047834212598223819 0 0.0012604056711713154 -1.0480555295209835e-05 0 0.0010079420037396145 1.3626248492104621e-05 0 0.00063049046610346717 0.00047834212598223819 0 0.00035187695898219524 0.00031215085700028213 0 0.0010079420037396145 1.3626248492104621e-05 0 0.0011832796132206019 9.6731689479364152e-05 0 0.0011729624684618911 0.00012832760467885388 0 0.0011875744875434972 7.5618872844754881e-05 0 0.0011785967546330291 1.4121219613615792e-06 0 0.0011875744875434972 7.5618872844754881e-05 0 0.0011891050213027317 4.9242008846858048e-05 0 0.0011832796132206019 9.6731689479364152e-05 0 0.0011875744875434972 7.5618872844754881e-05 0 0.0011891050213027317 4.9242008846858048e-05 0 0.0011832796132206019 9.6731689479364152e-05 0 0.0011928441132855031 1.8084627645562456e-06 0 0.0011891050213027317 4.9242008846858048e-05 0 0.00075030209771692797 0.00029310795281952242 0 0.00078725291257655805 0.00015861575436599282 0 0.0011920392270148819 3.0768035116076047e-06 0 0.0013595521545645261 3.0212020954690736e-05 0 0.0011785967546330291 1.4121219613615792e-06 0 0.0015299448839776245 -2.8966164243084743e-05 0 0.0013169956430346985 0.00010250701967089957 0 0.0018799072632227178 0.0001028938681566419 0 0.0015299448839776245 -2.8966164243084743e-05 0 0.0017244778239077709 0.00014301455204937324 0 0.0015299448839776245 -2.8966164243084743e-05 0 0.0013169956430346985 0.00010250701967089957 0 0.0017244778239077709 0.00014301455204937324 0 0.0015980622517173207 -0.0001050173238538437 0 0.0019975077804613986 -3.5369151189920914e-05 0 0.002496030325818755 -0.00017869087031691073 0 0.0023335279858380585 -0.00021518535036031509 0 0.0019972249912537632 -7.6888873903546235e-05 0 0.0015611725256017958 -9.0031561054420458e-05 0 0.0018560543266931101 -0.00032704587501092682 0 0.0019972249912537632 -7.6888873903546235e-05 0 0.0018560543266931101 -0.00032704587501092682 0 0.0023335279858380585 -0.00021518535036031509 0 0.0019972249912537632 -7.6888873903546235e-05 0 0.002496030325818755 -0.00017869087031691073 0 0.0019972249912537632 -7.6888873903546235e-05 0 0.0021578722695841015 0.00030308614419364329 0 0.0025574543050092343 -0.00018387377922458374 0 0.0028558659515327996 -0.00036233732618160284 0 0.0030763143251493169 -0.0014911353386371444 0 0.0035486922061830858 -0.00092758499753915335 0 0.0036568959920535026 -0.0016538113307414215 0 0.0035486922061830858 -0.00092758499753915335 0 0.0036568959920535026 -0.0016538113307414215 0 0.0043793037388993551 -0.0019111146452547895 0 0.0030763143251493169 -0.0014911353386371444 0 0.0031569177069515034 -0.0019073240513395866 0 0.0036568959920535026 -0.0016538113307414215 0 0.0021578722695841015 0.00030308614419364329 0 0.0018246743490283241 0.00042966979586588457 0 0.0018965342607565288 0.00059478392078921439 0 0.0028558659515327996 -0.00036233732618160284 0 0.003106990373548051 -0.00056907793785041265 0 0.0018246743490283241 0.00042966979586588457 0 0.0017407541591353175 0.00054922767542113092 0 0.0018965342607565288 0.00059478392078921439 0 0.0019972249912537632 -7.6888873903546235e-05 0 0.0021578722695841015 0.00030308614419364329 0 0.0017599260756524294 0.00023873157857489326 0 0.0021578722695841015 0.00030308614419364329 0 0.0018246743490283241 0.00042966979586588457 0 0.0017599260756524294 0.00023873157857489326 0 0.0016005338542040195 6.3129233107507294e-05 0 0.0017599260756524294 0.00023873157857489326 0 0.0014248848122558042 0.00020102659989562911 0 0.0017599260756524294 0.00023873157857489326 0 0.0014248848122558042 0.00020102659989562911 0 0.0016008646106902265 0.0004453536875801282 0 0.0012600552636018907 0.00038973545368702387 0 0.0014248848122558042 0.00020102659989562911 0 0.0016008646106902265 0.0004453536875801282 0 0.0011077325707485352 0.00010043258904014914 0 0.00099238909953256274 0.00021276284097691183 0 0.0012600552636018907 0.00038973545368702387 0 0.0016008646106902265 0.0004453536875801282 0 0.0014780090247335058 0.00065401065786731456 0 0.0018246743490283241 0.00042966979586588457 0 0.0017599260756524294 0.00023873157857489326 0 0.0016008646106902265 0.0004453536875801282 0 0.0016008646106902265 0.0004453536875801282 0 0.0017407541591353175 0.00054922767542113092 0 0.001633062486378103 0.00060607079699595133 0 0.0016008646106902265 0.0004453536875801282 0 0.001633062486378103 0.00060607079699595133 0 0.0014780090247335058 0.00065401065786731456 0 0.0018246743490283241 0.00042966979586588457 0 0.0016008646106902265 0.0004453536875801282 0 0.0017407541591353175 0.00054922767542113092 0 0.0016480025412821621 0.00071094722361977533 0 0.0014780090247335058 0.00065401065786731456 0 0.00170740724475761 0.00086927130533598319 0 0.0017407541591353175 0.00054922767542113092 0 0.0017205656949248916 0.00065472931374034463 0 0.0018965342607565288 0.00059478392078921439 0 0.0017205656949248916 0.00065472931374034463 0 0.0017198387963774688 0.00077141776630970064 0 0.0018965342607565288 0.00059478392078921439 0 0.0017407541591353175 0.00054922767542113092 0 0.0017205656949248916 0.00065472931374034463 0 0.001633062486378103 0.00060607079699595133 0 0.00099238909953256274 0.00021276284097691183 0 0.0029112604249971453 -0.0010633537417653542 0 0.0017198387963774688 0.00077141776630970064 0 0.00170740724475761 0.00086927130533598319 0 0.0018965342607565288 0.00059478392078921439 0 0.0017205656949248916 0.00065472931374034463 0 0.001633062486378103 0.00060607079699595133 0 0.0016480025412821621 0.00071094722361977533 0 0.001633062486378103 0.00060607079699595133 0 0.0016480025412821621 0.00071094722361977533 0 0.0014780090247335058 0.00065401065786731456 0 0.0016480025412821621 0.00071094722361977533 0 0.0017198387963774688 0.00077141776630970064 0 0.00170740724475761 0.00086927130533598319 0 0.0017205656949248916 0.00065472931374034463 0 0.0016480025412821621 0.00071094722361977533 0 0.0017198387963774688 0.00077141776630970064 0 0.00089660367030453697 -0.00048821365058410957 0 0.00080577821702245355 -0.00039119982415679772 0 0.00073518938898346959 -0.00051068356171684725 0 0.0024120400942650943 -0.00067168708685305081 0 0.0024710405157807253 -0.00061491701654095392 0 0.0025236474187339108 -0.00065058643777561218 0 0.0013798113902999429 -0.00054725918656292204 0 0.0029112604249971453 -0.0010633537417653542 0 0.0024120400942650943 -0.00067168708685305081 0 0.0024710405157807253 -0.00061491701654095392 0 0.0024029409988470677 -0.00058992683114735206 0 0.0029112604249971453 -0.0010633537417653542 0 0.0044960338395015542 -0.0017103013930808719 0 0.0042658634710191021 -0.00198142914451518 0 0.004543627136595267 -0.0019638201231848324 0 0.004394301183526724 -0.0018318348944775312 0 0.0029112604249971453 -0.0010633537417653542 0 0.0050268863814631731 -0.0020889490595590587 0 0.0042788179494019189 -0.0020959497981699179 0 0.004543627136595267 -0.0019638201231848324 0 0.0043184677547922663 -0.0020725460536933421 0 0.0043705003852966646 -0.0020740950358397307 0 0.004543627136595267 -0.0019638201231848324 0 0.0043184677547922663 -0.0020725460536933421 0 0.0049519863108469665 -0.0021677594664606067 0 0.0043705003852966646 -0.0020740950358397307 0 0.004543627136595267 -0.0019638201231848324 0 0.0049519863108469665 -0.0021677594664606067 0 0.004543627136595267 -0.0019638201231848324 0 0.0049616376721717337 -0.0018490567430185323 0 0.0030905201456991275 -0.0023837933308703588 0 0.0031569177069515034 -0.0019073240513395866 0 0.0041130011067074456 -0.0021116997365126463 0 0.0040602913458690111 -0.0022229635306342524 0 0.0041601895298468963 -0.0021019550319640117 0 0.0049519863108469665 -0.0021677594664606067 0 0.0043705003852966646 -0.0020740950358397307 0 0.0041130011067074456 -0.0021116997365126463 0 0.0031569177069515034 -0.0019073240513395866 0 0.0036568959920535026 -0.0016538113307414215 0 0.0041130011067074456 -0.0021116997365126463 0 0.0036568959920535026 -0.0016538113307414215 0 0.0041130011067074456 -0.0021116997365126463 0 0.0043793037388993551 -0.0019111146452547895 0 0.0042788179494019189 -0.0020959497981699179 0 0.0043793037388993551 -0.0019111146452547895 0 0.0043184677547922663 -0.0020725460536933421 0 0.0029112604249971453 -0.0010633537417653542 0 0.003106990373548051 -0.00056907793785041265 0 0.0041130011067074456 -0.0021116997365126463 0 0.0043793037388993551 -0.0019111146452547895 0 0.0042779364509008206 -0.0020808203010787051 0 0.0043793037388993551 -0.0019111146452547895 0 0.0043184677547922663 -0.0020725460536933421 0 0.0042779364509008206 -0.0020808203010787051 0 0.0043705003852966646 -0.0020740950358397307 0 0.0041130011067074456 -0.0021116997365126463 0 0.0042779364509008206 -0.0020808203010787051 0 0.0043705003852966646 -0.0020740950358397307 0 0.0043184677547922663 -0.0020725460536933421 0 0.0042779364509008206 -0.0020808203010787051 0 0.004741189228633042 -0.0015615037963898253 0 0.0045504889761635702 -0.0014884410829851353 0 0.004860477224514304 -0.0012497366336713573 0 0.0050373270448804781 -0.0014004296380094605 0 0.004860477224514304 -0.0012497366336713573 0 0.0052472006505117135 -0.0011965882548601384 0 0.0050373270448804781 -0.0014004296380094605 0 0.004741189228633042 -0.0015615037963898253 0 0.004860477224514304 -0.0012497366336713573 0 0.0052956333686427874 -0.0014287131815970467 0 0.0050373270448804781 -0.0014004296380094605 0 0.0052472006505117135 -0.0011965882548601384 0 0.0052956333686427874 -0.0014287131815970467 0 0.0050373270448804781 -0.0014004296380094605 0 0.005061081407524216 -0.0016050862092904926 0 0.0050373270448804781 -0.0014004296380094605 0 0.005061081407524216 -0.0016050862092904926 0 0.004741189228633042 -0.0015615037963898253 0 0.005061081407524216 -0.0016050862092904926 0 0.0047396791468138806 -0.0017605714488769097 0 0.004741189228633042 -0.0015615037963898253 0 0.0052339569431974157 -0.0017544697109278229 0 0.005061081407524216 -0.0016050862092904926 0 0.0049616376721717337 -0.0018490567430185323 0 0.005061081407524216 -0.0016050862092904926 0 0.0049616376721717337 -0.0018490567430185323 0 0.0047396791468138806 -0.0017605714488769097 0 0.004543627136595267 -0.0019638201231848324 0 0.0049616376721717337 -0.0018490567430185323 0 0.0047396791468138806 -0.0017605714488769097 0 0.004543627136595267 -0.0019638201231848324 0 0.0047396791468138806 -0.0017605714488769097 0 0.004394301183526724 -0.0018318348944775312 0 0.004741189228633042 -0.0015615037963898253 0 0.0046200579892343675 -0.0017062683655653958 0 0.0045504889761635702 -0.0014884410829851353 0 0.0047396791468138806 -0.0017605714488769097 0 0.004741189228633042 -0.0015615037963898253 0 0.004394301183526724 -0.0018318348944775312 0 0.0046850247773945336 -0.0015958662048090506 0 0.0044960338395015542 -0.0017103013930808719 0 0.0024710405157807253 -0.00061491701654095392 0 0.0025236474187339108 -0.00065058643777561218 0 0.0024602451402205411 -0.00055914015102316876 0 0.0029112604249971453 -0.0010633537417653542 0 0.0034743568622997156 -0.0011077706792426943 0 0.0044822553282431576 -0.0018805676842350361 0 0.0044796426020382524 -0.0016564692156290613 0 0.0042669525049485822 -0.0015553352101036824 0 0.0044796426020382524 -0.0016564692156290613 0 0.0042669525049485822 -0.0015553352101036824 0 0.0045504889761635702 -0.0014884410829851353 0 0.0044822553282431576 -0.0018805676842350361 0 0.0046200579892343675 -0.0017062683655653958 0 0.0044796426020382524 -0.0016564692156290613 0 0.0046200579892343675 -0.0017062683655653958 0 0.0044796426020382524 -0.0016564692156290613 0 0.0045504889761635702 -0.0014884410829851353 0 0.0024710405157807253 -0.00061491701654095392 0 0.0024602451402205411 -0.00055914015102316876 0 0.0024029409988470677 -0.00058992683114735206 0 0.0042669525049485822 -0.0015553352101036824 0 0.004464449114227536 -0.0011746517373240144 0 0.0040015157807205444 -0.0011513426694337496 0 0.0034743568622997156 -0.0011077706792426943 0 0.0031075022929189611 -0.00090328663755088068 0 0.0042669525049485822 -0.0015553352101036824 0 0.0045504889761635702 -0.0014884410829851353 0 0.004464449114227536 -0.0011746517373240144 0 0.0045504889761635702 -0.0014884410829851353 0 0.004464449114227536 -0.0011746517373240144 0 0.004860477224514304 -0.0012497366336713573 0 0.004464449114227536 -0.0011746517373240144 0 0.0042126335171698255 -0.00068778279754518295 0 0.0040015157807205444 -0.0011513426694337496 0 0.0041417650954483137 -0.00072332956994005813 0 0.0031075022929189611 -0.00090328663755088068 0 0.004464449114227536 -0.0011746517373240144 0 0.0045870571737907486 -0.00082162278317607427 0 0.0048957887609248317 -0.0008993497505824789 0 0.004464449114227536 -0.0011746517373240144 0 0.0042126335171698255 -0.00068778279754518295 0 0.0045870571737907486 -0.00082162278317607427 0 0.0045870571737907486 -0.00082162278317607427 0 0.0048957887609248317 -0.0008993497505824789 0 0.0048145719303586843 -0.00049957528781674227 0 0.004464449114227536 -0.0011746517373240144 0 0.0048957887609248317 -0.0008993497505824789 0 0.004860477224514304 -0.0012497366336713573 0 0.0048957887609248317 -0.0008993497505824789 0 0.004860477224514304 -0.0012497366336713573 0 0.0052155054076408148 -0.00094998442411522435 0 0.004860477224514304 -0.0012497366336713573 0 0.0052472006505117135 -0.0011965882548601384 0 0.0052155054076408148 -0.00094998442411522435 0 0.0055188596868751497 -0.0010308691921284098 0 0.0052472006505117135 -0.0011965882548601384 0 0.0052155054076408148 -0.00094998442411522435 0 0.0048957887609248317 -0.0008993497505824789 0 0.0052155054076408148 -0.00094998442411522435 0 0.0052901602455751899 -0.00058001107078328609 0 0.0055811567808481399 -0.00076566371481607176 0 0.0052155054076408148 -0.00094998442411522435 0 0.0052901602455751899 -0.00058001107078328609 0 0.0048957887609248317 -0.0008993497505824789 0 0.0052901602455751899 -0.00058001107078328609 0 0.0048145719303586843 -0.00049957528781674227 0 0.0052901602455751899 -0.00058001107078328609 0 0.0048145719303586843 -0.00049957528781674227 0 0.00532106160302137 -7.1997711853799901e-05 0 0.0048145719303586843 -0.00049957528781674227 0 0.0048851082700294259 -0.00013055785286602035 0 0.00532106160302137 -7.1997711853799901e-05 0 0.0055572535276155336 -0.00027905065121482467 0 0.0056932577055327054 0.00014689081675391032 0 0.00532106160302137 -7.1997711853799901e-05 0 0.0055572535276155336 -0.00027905065121482467 0 0.0052901602455751899 -0.00058001107078328609 0 0.00532106160302137 -7.1997711853799901e-05 0 0.0056932577055327054 0.00014689081675391032 0 0.00532106160302137 -7.1997711853799901e-05 0 0.0054185710155620946 0.00036267668578982861 0 0.0048851082700294259 -0.00013055785286602035 0 0.00532106160302137 -7.1997711853799901e-05 0 0.0049408611476179556 0.00020594149676667287 0 0.00532106160302137 -7.1997711853799901e-05 0 0.0049408611476179556 0.00020594149676667287 0 0.0054185710155620946 0.00036267668578982861 0 0.0052130570863833867 0.00065482167839613819 0 0.0054185710155620946 0.00036267668578982861 0 0.0056648550782706824 0.00079472278284455761 0 0.0049408611476179556 0.00020594149676667287 0 0.0052130570863833867 0.00065482167839613819 0 0.0048093301216921838 0.00048357024482062249 0 0.0049408611476179556 0.00020594149676667287 0 0.0052130570863833867 0.00065482167839613819 0 0.0054185710155620946 0.00036267668578982861 0 0.0058527897351580037 0.00057388726417723166 0 0.0056932577055327054 0.00014689081675391032 0 0.0054185710155620946 0.00036267668578982861 0 0.0058527897351580037 0.00057388726417723166 0 0.0054185710155620946 0.00036267668578982861 0 0.0056648550782706824 0.00079472278284455761 0 0.0044218451574022767 0.0003442280992121703 0 0.0040561390702266225 0.00053946539614926458 0 0.0046525199283880738 0.00076778450441426739 0 0.0049408611476179556 0.00020594149676667287 0 0.0044218451574022767 0.0003442280992121703 0 0.0048093301216921838 0.00048357024482062249 0 0.0044218451574022767 0.0003442280992121703 0 0.0048093301216921838 0.00048357024482062249 0 0.0046525199283880738 0.00076778450441426739 0 0.0052130570863833867 0.00065482167839613819 0 0.0048093301216921838 0.00048357024482062249 0 0.0046525199283880738 0.00076778450441426739 0 0.0049408611476179556 0.00020594149676667287 0 0.0044218451574022767 0.0003442280992121703 0 0.0044442721666024991 -0.00016170678881601323 0 0.0044218451574022767 0.0003442280992121703 0 0.0040561390702266225 0.00053946539614926458 0 0.0038621318677105987 0.00010762464364246258 0 0.0044218451574022767 0.0003442280992121703 0 0.0044442721666024991 -0.00016170678881601323 0 0.0038621318677105987 0.00010762464364246258 0 0.0044442721666024991 -0.00016170678881601323 0 0.0037661108946829484 -0.00031703173936129252 0 0.0038621318677105987 0.00010762464364246258 0 0.0048145719303586843 -0.00049957528781674227 0 0.0048851082700294259 -0.00013055785286602035 0 0.0044442721666024991 -0.00016170678881601323 0 0.0048851082700294259 -0.00013055785286602035 0 0.0049408611476179556 0.00020594149676667287 0 0.0044442721666024991 -0.00016170678881601323 0 0.0042126335171698255 -0.00068778279754518295 0 0.0048145719303586843 -0.00049957528781674227 0 0.0044442721666024991 -0.00016170678881601323 0 0.0042126335171698255 -0.00068778279754518295 0 0.0045870571737907486 -0.00082162278317607427 0 0.0048145719303586843 -0.00049957528781674227 0 0.0041417650954483137 -0.00072332956994005813 0 0.0043972386308724076 -0.00014923442356174318 0 0.0038931062732213422 -0.00066246800527702983 0 0.0044442721666024991 -0.00016170678881601323 0 0.0037661108946829484 -0.00031703173936129252 0 0.0038931062732213422 -0.00066246800527702983 0 0.0037661108946829484 -0.00031703173936129252 0 0.0030123199905303525 -0.00071171252084579215 0 0.0037661108946829484 -0.00031703173936129252 0 0.0030292882465554182 -0.00040816626438599195 0 0.0030123199905303525 -0.00071171252084579215 0 0.0030292882465554182 -0.00040816626438599195 0 0.0030325662066357771 -0.00019442463301961728 0 0.0027229287907501584 -0.00049447428566218126 0 0.0030292882465554182 -0.00040816626438599195 0 0.0027229287907501584 -0.00049447428566218126 0 0.0030123199905303525 -0.00071171252084579215 0 0.0030292882465554182 -0.00040816626438599195 0 0.0030325662066357771 -0.00019442463301961728 0 0.0034045192296823798 -0.00016627473216548314 0 0.0030325662066357771 -0.00019442463301961728 0 0.0034045192296823798 -0.00016627473216548314 0 0.003487229269951939 8.5353712846445318e-05 0 0.0037661108946829484 -0.00031703173936129252 0 0.0034045192296823798 -0.00016627473216548314 0 0.0038621318677105987 0.00010762464364246258 0 0.0037661108946829484 -0.00031703173936129252 0 0.0030292882465554182 -0.00040816626438599195 0 0.0034045192296823798 -0.00016627473216548314 0 0.0038621318677105987 0.00010762464364246258 0 0.003487229269951939 8.5353712846445318e-05 0 0.0036078959993588789 0.00039268805924131756 0 0.0034045192296823798 -0.00016627473216548314 0 0.0038621318677105987 0.00010762464364246258 0 0.003487229269951939 8.5353712846445318e-05 0 0.003487229269951939 8.5353712846445318e-05 0 0.0031832968321952172 0.00011446059555205083 0 0.0033795951826848577 0.00027266517576868331 0 0.0030325662066357771 -0.00019442463301961728 0 0.003487229269951939 8.5353712846445318e-05 0 0.0031832968321952172 0.00011446059555205083 0 0.0031832968321952172 0.00011446059555205083 0 0.003201588006711358 0.00030704340902529189 0 0.0030570098052252886 0.00018741278917492558 0 0.0031832968321952172 0.00011446059555205083 0 0.003201588006711358 0.00030704340902529189 0 0.0033795951826848577 0.00027266517576868331 0 0.003487229269951939 8.5353712846445318e-05 0 0.0033795951826848577 0.00027266517576868331 0 0.0036078959993588789 0.00039268805924131756 0 0.0033396364606093115 0.0004842417963453543 0 0.0034849804109660654 0.00060856869604661139 0 0.0036078959993588789 0.00039268805924131756 0 0.0033795951826848577 0.00027266517576868331 0 0.0033396364606093115 0.0004842417963453543 0 0.0036078959993588789 0.00039268805924131756 0 0.0033396364606093115 0.0004842417963453543 0 0.0031925780463691526 0.00055280724842936193 0 0.003161952872247313 0.0004719767980211054 0 0.003201588006711358 0.00030704340902529189 0 0.0033396364606093115 0.0004842417963453543 0 0.003161952872247313 0.0004719767980211054 0 0.003201588006711358 0.00030704340902529189 0 0.0033795951826848577 0.00027266517576868331 0 0.0033396364606093115 0.0004842417963453543 0 0.0033396364606093115 0.0004842417963453543 0 0.0034849804109660654 0.00060856869604661139 0 0.0033091717122595934 0.00073089881045509952 0 0.0033396364606093115 0.0004842417963453543 0 0.0031925780463691526 0.00055280724842936193 0 0.0033091717122595934 0.00073089881045509952 0 0.0034849804109660654 0.00060856869604661139 0 0.0036078959993588789 0.00039268805924131756 0 0.0036841278550554871 0.0007454715684007936 0 0.0040561390702266225 0.00053946539614926458 0 0.0038621318677105987 0.00010762464364246258 0 0.0036078959993588789 0.00039268805924131756 0 0.0040561390702266225 0.00053946539614926458 0 0.0036078959993588789 0.00039268805924131756 0 0.0036841278550554871 0.0007454715684007936 0 0.0030308410873573694 0.00056902187110551364 0 0.002916096748630307 0.00036691963507292638 0 0.0023200689512018267 0.00027671527202379804 0 0.0026304813276335254 0.00050919296420285547 0 0.0032648046731828129 0.00013363739138206582 0 0.0023019410788192702 0.00020349842370237888 0 0.0022163879573061356 0.00090943842548900887 0 0.0026599751355761161 0.00076409912731968471 0 0.0030308410873573694 0.00056902187110551364 0 0.0023019410788192702 0.00020349842370237888 0 0.0026599751355761161 0.00076409912731968471 0 0.0030308410873573694 0.00056902187110551364 0 0.0029089060349709235 0.00075927860652100535 0 0.0026599751355761161 0.00076409912731968471 0 0.0030262366550751719 0.00070851388990643025 0 0.0030308410873573694 0.00056902187110551364 0 0.0029089060349709235 0.00075927860652100535 0 0.0030262366550751719 0.00070851388990643025 0 0.0030702573428284482 0.00055560515802369984 0 0.0031318397434867227 0.00084576961459512947 0 0.0030262366550751719 0.00070851388990643025 0 0.0030308410873573694 0.00056902187110551364 0 0.0030702573428284482 0.00055560515802369984 0 0.0030308410873573694 0.00056902187110551364 0 0.0030702573428284482 0.00055560515802369984 0 0.00310462835181337 0.0005108018500217397 0 0.0030308410873573694 0.00056902187110551364 0 0.00310462835181337 0.0005108018500217397 0 0.0030231993019311249 0.00049293490744485851 0 0.0030702573428284482 0.00055560515802369984 0 0.0031925780463691526 0.00055280724842936193 0 0.0033091717122595934 0.00073089881045509952 0 0.0030702573428284482 0.00055560515802369984 0 0.00310462835181337 0.0005108018500217397 0 0.0031925780463691526 0.00055280724842936193 0 0.00310462835181337 0.0005108018500217397 0 0.0031925780463691526 0.00055280724842936193 0 0.003161952872247313 0.0004719767980211054 0 0.003161952872247313 0.0004719767980211054 0 0.0030553661960493069 0.00043589393331650391 0 0.0030586247092541661 0.00033210908833145015 0 0.00310462835181337 0.0005108018500217397 0 0.003161952872247313 0.0004719767980211054 0 0.0030553661960493069 0.00043589393331650391 0 0.00310462835181337 0.0005108018500217397 0 0.0030553661960493069 0.00043589393331650391 0 0.0030231993019311249 0.00049293490744485851 0 0.003201588006711358 0.00030704340902529189 0 0.003161952872247313 0.0004719767980211054 0 0.0030586247092541661 0.00033210908833145015 0 0.0030308410873573694 0.00056902187110551364 0 0.0030231993019311249 0.00049293490744485851 0 0.002916096748630307 0.00036691963507292638 0 0.0030553661960493069 0.00043589393331650391 0 0.0030231993019311249 0.00049293490744485851 0 0.002916096748630307 0.00036691963507292638 0 0.0030553661960493069 0.00043589393331650391 0 0.0030586247092541661 0.00033210908833145015 0 0.002916096748630307 0.00036691963507292638 0 0.002916096748630307 0.00036691963507292638 0 0.0029390983164854214 0.00021374749781870764 0 0.0026343147283040351 9.8722105018464852e-05 0 0.0029213169479360107 2.3654530320453896e-05 0 0.0026343147283040351 9.8722105018464852e-05 0 0.0026951133269912208 -0.00027686933649423022 0 0.0030586247092541661 0.00033210908833145015 0 0.002916096748630307 0.00036691963507292638 0 0.0029390983164854214 0.00021374749781870764 0 0.0029390983164854214 0.00021374749781870764 0 0.0030570098052252886 0.00018741278917492558 0 0.0029213169479360107 2.3654530320453896e-05 0 0.003201588006711358 0.00030704340902529189 0 0.0030586247092541661 0.00033210908833145015 0 0.0030570098052252886 0.00018741278917492558 0 0.0030586247092541661 0.00033210908833145015 0 0.0029390983164854214 0.00021374749781870764 0 0.0030570098052252886 0.00018741278917492558 0 0.0030325662066357771 -0.00019442463301961728 0 0.0031832968321952172 0.00011446059555205083 0 0.0029213169479360107 2.3654530320453896e-05 0 0.0031832968321952172 0.00011446059555205083 0 0.0030570098052252886 0.00018741278917492558 0 0.0029213169479360107 2.3654530320453896e-05 0 0.0029390983164854214 0.00021374749781870764 0 0.0029213169479360107 2.3654530320453896e-05 0 0.0026343147283040351 9.8722105018464852e-05 0 0.002916096748630307 0.00036691963507292638 0 0.0026343147283040351 9.8722105018464852e-05 0 0.0023200689512018267 0.00027671527202379804 0 0.0026343147283040351 9.8722105018464852e-05 0 0.0024182003600535457 -0.00040915120094016686 0 0.0023200689512018267 0.00027671527202379804 0 0.0026951133269912208 -0.00027686933649423022 0 0.0024673894325514148 -0.00044928724598989787 0 0.0024182003600535457 -0.00040915120094016686 0 0.0026343147283040351 9.8722105018464852e-05 0 0.0026951133269912208 -0.00027686933649423022 0 0.0024182003600535457 -0.00040915120094016686 0 0.0030325662066357771 -0.00019442463301961728 0 0.0026951133269912208 -0.00027686933649423022 0 0.0027229287907501584 -0.00049447428566218126 0 0.0030325662066357771 -0.00019442463301961728 0 0.0029213169479360107 2.3654530320453896e-05 0 0.0026951133269912208 -0.00027686933649423022 0 0.0026951133269912208 -0.00027686933649423022 0 0.0027229287907501584 -0.00049447428566218126 0 0.0024673894325514148 -0.00044928724598989787 0 0.0024627265732887391 -0.00054382750974801136 0 0.0023273297028202269 -0.00056628237496681637 0 0.0024088113016221204 -0.00048339586372016843 0 0.0027229287907501584 -0.00049447428566218126 0 0.0024673894325514148 -0.00044928724598989787 0 0.0024627265732887391 -0.00054382750974801136 0 0.0024673894325514148 -0.00044928724598989787 0 0.0024627265732887391 -0.00054382750974801136 0 0.0024088113016221204 -0.00048339586372016843 0 0.0024627265732887391 -0.00054382750974801136 0 0.0023273297028202269 -0.00056628237496681637 0 0.0025945307423379414 -0.00060919310578655807 0 0.0023273297028202269 -0.00056628237496681637 0 0.0025945307423379414 -0.00060919310578655807 0 0.0024495470140432933 -0.00059531993737161704 0 0.0027229287907501584 -0.00049447428566218126 0 0.0024627265732887391 -0.00054382750974801136 0 0.0025945307423379414 -0.00060919310578655807 0 0.0027229287907501584 -0.00049447428566218126 0 0.0025945307423379414 -0.00060919310578655807 0 0.0030123199905303525 -0.00071171252084579215 0 0.0029856357394188971 -0.00076329511123235491 0 0.0031075022929189611 -0.00090328663755088068 0 0.0038931062732213422 -0.00066246800527702983 0 0.0030123199905303525 -0.00071171252084579215 0 0.0034359489657854025 -0.001427406334318866 0 0.0030123199905303525 -0.00071171252084579215 0 0.0026534969040144106 -0.00063139341467495882 0 0.0026773470855797664 -0.00062752491482327276 0 0.0026534969040144106 -0.00063139341467495882 0 0.0026773470855797664 -0.00062752491482327276 0 0.0025591331290997282 -0.00059612127789293427 0 0.0025945307423379414 -0.00060919310578655807 0 0.0026773470855797664 -0.00062752491482327276 0 0.0024495470140432933 -0.00059531993737161704 0 0.0025945307423379414 -0.00060919310578655807 0 0.0030123199905303525 -0.00071171252084579215 0 0.0026773470855797664 -0.00062752491482327276 0 0.0025591331290997282 -0.00059612127789293427 0 0.002317866660908894 -0.00057421411234873879 0 0.0024495470140432933 -0.00059531993737161704 0 0.0026773470855797664 -0.00062752491482327276 0 0.0025591331290997282 -0.00059612127789293427 0 0.0024495470140432933 -0.00059531993737161704 0 0.0024602451402205411 -0.00055914015102316876 0 0.0024194807551463833 -0.00049831924426107957 0 0.0023920115641299657 -0.00053827607529305529 0 0.0031075022929189611 -0.00090328663755088068 0 0.0024808678782110719 -0.00054872302197252827 0 0.0024602451402205411 -0.00055914015102316876 0 0.0023920115641299657 -0.00053827607529305529 0 0.0024029409988470677 -0.00058992683114735206 0 0.0023920115641299657 -0.00053827607529305529 0 0.0024029409988470677 -0.00058992683114735206 0 0.0023654683322668346 -0.00057949901539478172 0 0.0024808678782110719 -0.00054872302197252827 0 0.0024020153527323264 -0.00057728017036174381 0 0.0023277065106083153 -0.00061187352742853723 0 0.0024029409988470677 -0.00058992683114735206 0 0.0023654683322668346 -0.00057949901539478172 0 0.0025591331290997282 -0.00059612127789293427 0 0.0023654683322668346 -0.00057949901539478172 0 0.002317866660908894 -0.00057421411234873879 0 0.0021949001554788885 -0.000567187311513 0 0.0023654683322668346 -0.00057949901539478172 0 0.002317866660908894 -0.00057421411234873879 0 0.0021949001554788885 -0.000567187311513 0 0.002317866660908894 -0.00057421411234873879 0 0.0020501373321657355 -0.00054834723677579973 0 0.002317866660908894 -0.00057421411234873879 0 0.0020501373321657355 -0.00054834723677579973 0 0.0022500535804779536 -0.00057406840272824166 0 0.0020501373321657355 -0.00054834723677579973 0 0.0022500535804779536 -0.00057406840272824166 0 0.0021127249330024668 -0.00056226046408339343 0 0.0018682361309435382 -0.00051107176345993404 0 0.0020501373321657355 -0.00054834723677579973 0 0.0021127249330024668 -0.00056226046408339343 0 0.0023273297028202269 -0.00056628237496681637 0 0.0022500535804779536 -0.00057406840272824166 0 0.0021127249330024668 -0.00056226046408339343 0 0.002317866660908894 -0.00057421411234873879 0 0.0022500535804779536 -0.00057406840272824166 0 0.0024495470140432933 -0.00059531993737161704 0 0.0023273297028202269 -0.00056628237496681637 0 0.0022500535804779536 -0.00057406840272824166 0 0.0024495470140432933 -0.00059531993737161704 0 0.0021085577966281186 -0.00055471007998289014 0 0.0020107432738915346 -0.00055677336536393907 0 0.0022018163128959011 -0.00054851499481897085 0 0.0023273297028202269 -0.00056628237496681637 0 0.0021127249330024668 -0.00056226046408339343 0 0.0022018163128959011 -0.00054851499481897085 0 0.0021127249330024668 -0.00056226046408339343 0 0.0020107432738915346 -0.00055677336536393907 0 0.0022018163128959011 -0.00054851499481897085 0 0.0018682361309435382 -0.00051107176345993404 0 0.0021127249330024668 -0.00056226046408339343 0 0.0020107432738915346 -0.00055677336536393907 0 0.0019651290612279992 -0.00050403729697729295 0 0.0020107432738915346 -0.00055677336536393907 0 0.0020398813128763437 -0.00055857617665102581 0 0.0019651290612279992 -0.00050403729697729295 0 0.0020282745939607452 -0.00053566083731462365 0 0.0020398813128763437 -0.00055857617665102581 0 0.0019651290612279992 -0.00050403729697729295 0 0.0020423837035295333 -0.00050054200518153877 0 0.0020282745939607452 -0.00053566083731462365 0 0.0020282745939607452 -0.00053566083731462365 0 0.0020440540287637167 -0.00055554195945847827 0 0.0020398813128763437 -0.00055857617665102581 0 0.0030836529387842362 0.00025586925958885409 0 0.002763149281974595 -7.4354157423811915e-05 0 0.0020868918149632596 -0.00045344001050189351 0 0.0020423837035295333 -0.00050054200518153877 0 0.0020557638173813457 -0.0005370686842790435 0 0.0021728396462602239 -0.00042776848660148255 0 0.0020954062592825375 -0.00047769458597943373 0 0.0020567854577165359 -0.00056274677932087371 0 0.0019710533813317543 -0.00019742309600916604 0 0.0020561004756562136 -0.00059596510223272224 0 0.0020832650533860225 -0.00038697052334267198 0 0.0020954062592825375 -0.00047769458597943373 0 0.0020557638173813457 -0.0005370686842790435 0 0.0020423837035295333 -0.00050054200518153877 0 0.0020282745939607452 -0.00053566083731462365 0 0.0020557638173813457 -0.0005370686842790435 0 0.0020440540287637167 -0.00055554195945847827 0 0.0020557638173813457 -0.0005370686842790435 0 0.0020567854577165359 -0.00056274677932087371 0 0.0020282745939607452 -0.00053566083731462365 0 0.0020440540287637167 -0.00055554195945847827 0 0.0020557638173813457 -0.0005370686842790435 0 0.0020954062592825375 -0.00047769458597943373 0 0.0020557638173813457 -0.0005370686842790435 0 0.0020567854577165359 -0.00056274677932087371 0 0.0020440540287637167 -0.00055554195945847827 0 0.0020567854577165359 -0.00056274677932087371 0 0.0020720254434267935 -0.00053918445542866034 0 0.0034977901271460725 0.00042312305144568649 0 0.003229172457287403 0.00011415412704006898 0 0.0037031892563713967 0.00028519281746567293 0 0.002763149281974595 -7.4354157423811915e-05 0 0.0026514976782655822 -0.00021474625562030539 0 0.0020440540287637167 -0.00055554195945847827 0 0.0020398813128763437 -0.00055857617665102581 0 0.0020720254434267935 -0.00053918445542866034 0 0.0021085577966281186 -0.00055471007998289014 0 0.0020107432738915346 -0.00055677336536393907 0 0.0020398813128763437 -0.00055857617665102581 0 0.0021085577966281186 -0.00055471007998289014 0 0.0020398813128763437 -0.00055857617665102581 0 0.0020720254434267935 -0.00053918445542866034 0 0.0026514976782655822 -0.00021474625562030539 0 0.002564233585424121 -0.00032538821621052379 0 0.0021085577966281186 -0.00055471007998289014 0 0.0020720254434267935 -0.00053918445542866034 0 0.002217803870959368 -0.00047415842137927394 0 0.003229172457287403 0.00011415412704006898 0 0.0036141137279267505 -0.00015693917334133568 0 0.0037560446472044429 3.3418463710653356e-05 0 0.003229172457287403 0.00011415412704006898 0 0.0037560446472044429 3.3418463710653356e-05 0 0.0037031892563713967 0.00028519281746567293 0 0.003229172457287403 0.00011415412704006898 0 0.0033379581414449875 -0.00020345609620575452 0 0.0036141137279267505 -0.00015693917334133568 0 0.0033379581414449875 -0.00020345609620575452 0 0.0035418318527003791 -0.00033487480661316117 0 0.0032551677330305085 -0.00043899455276053288 0 0.0033379581414449875 -0.00020345609620575452 0 0.0035418318527003791 -0.00033487480661316117 0 0.0036141137279267505 -0.00015693917334133568 0 0.0033379581414449875 -0.00020345609620575452 0 0.0029261990241361028 -0.00013822665978180563 0 0.0032551677330305085 -0.00043899455276053288 0 0.003229172457287403 0.00011415412704006898 0 0.0033379581414449875 -0.00020345609620575452 0 0.0029261990241361028 -0.00013822665978180563 0 0.002217803870959368 -0.00047415842137927394 0 0.0023208872356734324 -0.00048930180284828843 0 0.0025210846146148354 -0.0004179294418203842 0 0.0021085577966281186 -0.00055471007998289014 0 0.002217803870959368 -0.00047415842137927394 0 0.0022018163128959011 -0.00054851499481897085 0 0.002217803870959368 -0.00047415842137927394 0 0.0022018163128959011 -0.00054851499481897085 0 0.0023208872356734324 -0.00048930180284828843 0 0.0023273297028202269 -0.00056628237496681637 0 0.0022018163128959011 -0.00054851499481897085 0 0.0023208872356734324 -0.00048930180284828843 0 0.0023208872356734324 -0.00048930180284828843 0 0.0024088113016221204 -0.00048339586372016843 0 0.0025210846146148354 -0.0004179294418203842 0 0.0023273297028202269 -0.00056628237496681637 0 0.0023208872356734324 -0.00048930180284828843 0 0.0024088113016221204 -0.00048339586372016843 0 0.0024673894325514148 -0.00044928724598989787 0 0.0025210846146148354 -0.0004179294418203842 0 0.0024182003600535457 -0.00040915120094016686 0 0.0024673894325514148 -0.00044928724598989787 0 0.0024088113016221204 -0.00048339586372016843 0 0.0025210846146148354 -0.0004179294418203842 0 0.0029261990241361028 -0.00013822665978180563 0 0.0025210846146148354 -0.0004179294418203842 0 0.0029153776959374481 -0.00049099726968142017 0 0.002564233585424121 -0.00032538821621052379 0 0.0025087538163959819 -0.00042815825223506816 0 0.0025210846146148354 -0.0004179294418203842 0 0.0026895046656372178 -0.00074018350511439221 0 0.0029153776959374481 -0.00049099726968142017 0 0.0025210846146148354 -0.0004179294418203842 0 0.0024182003600535457 -0.00040915120094016686 0 0.0026895046656372178 -0.00074018350511439221 0 0.0024182003600535457 -0.00040915120094016686 0 0.0024259793629361347 -0.00083159347496791845 0 0.0026895046656372178 -0.00074018350511439221 0 0.002215807153471546 -0.00055977491568714609 0 0.0032648046731828129 0.00013363739138206582 0 0.0062387439109519082 0.00012698451858007584 0 0.0064776086908333265 0.00020595915553367659 0 0.0063926950614166603 4.0142566260469968e-05 0 0.0032648046731828129 0.00013363739138206582 0 0.0047776767381539258 -0.00027203623868331332 0 0.0064776086908333265 0.00020595915553367659 0 0.0065525866530017881 5.1877653858566816e-05 0 0.006628528088371409 0.00015520350094638648 0 0.0064776086908333265 0.00020595915553367659 0 0.0063926950614166603 4.0142566260469968e-05 0 0.0065525866530017881 5.1877653858566816e-05 0 0.0063926950614166603 4.0142566260469968e-05 0 0.0065525866530017881 5.1877653858566816e-05 0 0.0064792956557066768 -0.00010266873942664186 0 0.0062387439109519082 0.00012698451858007584 0 0.0063926950614166603 4.0142566260469968e-05 0 0.0062587702266498459 -7.8429467300992136e-05 0 0.0032648046731828129 0.00013363739138206582 0 0.0042524902113602533 0.00040538327649190315 0 0.0068071647958058831 7.2225790910426866e-05 0 0.0066866624078974913 -7.2044690765406199e-06 0 0.0068487915561918017 -5.1502919697891556e-05 0 0.0068071647958058831 7.2225790910426866e-05 0 0.0068993489656633466 5.3946787777496063e-05 0 0.0068487915561918017 -5.1502919697891556e-05 0 0.0068071647958058831 7.2225790910426866e-05 0 0.0067116243227302481 0.00010141796138366865 0 0.0067871305786564922 0.00014149735082957167 0 0.0068071647958058831 7.2225790910426866e-05 0 0.0067116243227302481 0.00010141796138366865 0 0.0066866624078974913 -7.2044690765406199e-06 0 0.0065525866530017881 5.1877653858566816e-05 0 0.0066866624078974913 -7.2044690765406199e-06 0 0.0064792956557066768 -0.00010266873942664186 0 0.0065525866530017881 5.1877653858566816e-05 0 0.0067116243227302481 0.00010141796138366865 0 0.0066866624078974913 -7.2044690765406199e-06 0 0.0065525866530017881 5.1877653858566816e-05 0 0.0067116243227302481 0.00010141796138366865 0 0.006628528088371409 0.00015520350094638648 0 0.0064776086908333265 0.00020595915553367659 0 0.006628528088371409 0.00015520350094638648 0 0.0066631723920028722 0.00020768912694152481 0 0.006628528088371409 0.00015520350094638648 0 0.0067230075837271565 0.00016109945489018297 0 0.0066631723920028722 0.00020768912694152481 0 0.0067116243227302481 0.00010141796138366865 0 0.0067230075837271565 0.00016109945489018297 0 0.0067871305786564922 0.00014149735082957167 0 0.0067116243227302481 0.00010141796138366865 0 0.006628528088371409 0.00015520350094638648 0 0.0067230075837271565 0.00016109945489018297 0 0.0067233029057474115 0.00016689547563195691 0 0.0066631723920028722 0.00020768912694152481 0 0.0067422019486479716 0.00019001269809504977 0 0.004789046354233161 -0.00026374313923007114 0 0.0055607261446594227 -0.00024740564622510334 0 0.0067230075837271565 0.00016109945489018297 0 0.0067233029057474115 0.00016689547563195691 0 0.0067101506403708941 0.00016432535358020179 0 0.0067230075837271565 0.00016109945489018297 0 0.0067233029057474115 0.00016689547563195691 0 0.0066631723920028722 0.00020768912694152481 0 0.0067440706923670522 0.00042255688666151768 0 0.0055607261446594227 -0.00024740564622510334 0 0.0026895046656372178 -0.00074018350511439221 0 0.0031171595647696308 -0.00070640379563750258 0 0.0029153776959374481 -0.00049099726968142017 0 0.0047776767381539258 -0.00027203623868331332 0 0.004789046354233161 -0.00026374313923007114 0 0.0029261990241361028 -0.00013822665978180563 0 0.0029153776959374481 -0.00049099726968142017 0 0.0032551677330305085 -0.00043899455276053288 0 0.0031171595647696308 -0.00070640379563750258 0 0.0029153776959374481 -0.00049099726968142017 0 0.0032551677330305085 -0.00043899455276053288 0 0.0035418318527003791 -0.00033487480661316117 0 0.0032551677330305085 -0.00043899455276053288 0 0.0035855851646162482 -0.00058173686902453713 0 0.0031171595647696308 -0.00070640379563750258 0 0.0032551677330305085 -0.00043899455276053288 0 0.0035855851646162482 -0.00058173686902453713 0 0.0067051446144765952 6.8736032518800316e-05 0 0.0065227011866773798 -3.4585638024088343e-05 0 0.0065622509600108941 0.00012321777803708654 0 0.0035418318527003791 -0.00033487480661316117 0 0.0035855851646162482 -0.00058173686902453713 0 0.0038667229098906879 -0.00028858068866883423 0 0.0055607261446594227 -0.00024740564622510334 0 0.0046937459305429119 -0.00023194970543405065 0 0.0056385351929613111 -0.00023968652866975657 0 0.0057985426156112203 -0.00016134476832049065 0 0.005778627186636417 -1.9731894403655842e-05 0 0.0055607261446594227 -0.00024740564622510334 0 0.0062311102656430455 -3.2463720574878944e-05 0 0.0059681685522921905 -6.0110098052137697e-05 0 0.0057985426156112203 -0.00016134476832049065 0 0.005778627186636417 -1.9731894403655842e-05 0 0.0059681685522921905 -6.0110098052137697e-05 0 0.0065227011866773798 -3.4585638024088343e-05 0 0.0062900071807751364 5.7729822277951962e-05 0 0.006000877467918218 -9.2605323932251721e-05 0 0.0062311102656430455 -3.2463720574878944e-05 0 0.0065227011866773798 -3.4585638024088343e-05 0 0.0062900071807751364 5.7729822277951962e-05 0 0.0065622509600108941 0.00012321777803708654 0 0.0065622509600108941 0.00012321777803708654 0 0.0067101506403708941 0.00016432535358020179 0 0.0067145092420034958 0.00015483498123416029 0 0.0065622509600108941 0.00012321777803708654 0 0.0067145092420034958 0.00015483498123416029 0 0.0064443392111530069 0.00011309100583890013 0 0.0062900071807751364 5.7729822277951962e-05 0 0.0065622509600108941 0.00012321777803708654 0 0.0064443392111530069 0.00011309100583890013 0 0.0067233029057474115 0.00016689547563195691 0 0.0067051446144765952 6.8736032518800316e-05 0 0.0067101506403708941 0.00016432535358020179 0 0.0067051446144765952 6.8736032518800316e-05 0 0.0065622509600108941 0.00012321777803708654 0 0.0067101506403708941 0.00016432535358020179 0 0.0067101506403708941 0.00016432535358020179 0 0.0067871305786564922 0.00014149735082957167 0 0.0067145092420034958 0.00015483498123416029 0 0.0067230075837271565 0.00016109945489018297 0 0.0067101506403708941 0.00016432535358020179 0 0.0067871305786564922 0.00014149735082957167 0 0.0067871305786564922 0.00014149735082957167 0 0.0067145092420034958 0.00015483498123416029 0 0.006927125348000723 0.0001048726033468907 0 0.0067145092420034958 0.00015483498123416029 0 0.006927125348000723 0.0001048726033468907 0 0.0071178321770330004 0.00010460487520461022 0 0.0068071647958058831 7.2225790910426866e-05 0 0.0067871305786564922 0.00014149735082957167 0 0.0068993489656633466 5.3946787777496063e-05 0 0.0067871305786564922 0.00014149735082957167 0 0.006927125348000723 0.0001048726033468907 0 0.0068993489656633466 5.3946787777496063e-05 0 0.0070743235569945429 1.1397872696357443e-07 0 0.0071178321770330004 0.00010460487520461022 0 0.0066278770256902285 9.6686874852059911e-05 0 0.0070743235569945429 1.1397872696357443e-07 0 0.0071178321770330004 0.00010460487520461022 0 0.0078583107011503846 4.8569915901273565e-07 0 0.0067145092420034958 0.00015483498123416029 0 0.0066278770256902285 9.6686874852059911e-05 0 0.0064443392111530069 0.00011309100583890013 0 0.0067145092420034958 0.00015483498123416029 0 0.0071178321770330004 0.00010460487520461022 0 0.0066278770256902285 9.6686874852059911e-05 0 0.0070743235569945429 1.1397872696357443e-07 0 0.0066278770256902285 9.6686874852059911e-05 0 0.0062902594698826531 2.3588697627490702e-07 0 0.0066278770256902285 9.6686874852059911e-05 0 0.0062902594698826531 2.3588697627490702e-07 0 0.0061177867664665327 4.7678987790118405e-05 0 0.0066278770256902285 9.6686874852059911e-05 0 0.0064443392111530069 0.00011309100583890013 0 0.0061177867664665327 4.7678987790118405e-05 0 0.0062900071807751364 5.7729822277951962e-05 0 0.0064443392111530069 0.00011309100583890013 0 0.0061177867664665327 4.7678987790118405e-05 0 0.0059681685522921905 -6.0110098052137697e-05 0 0.0061177867664665327 4.7678987790118405e-05 0 0.0057772989463465343 -1.3238118729358038e-05 0 0.0059681685522921905 -6.0110098052137697e-05 0 0.0062900071807751364 5.7729822277951962e-05 0 0.0061177867664665327 4.7678987790118405e-05 0 0.0061177867664665327 4.7678987790118405e-05 0 0.0055077680538889676 -2.1262798212375006e-07 0 0.0057772989463465343 -1.3238118729358038e-05 0 0.0062902594698826531 2.3588697627490702e-07 0 0.0061177867664665327 4.7678987790118405e-05 0 0.0055077680538889676 -2.1262798212375006e-07 0 0.0055077680538889676 -2.1262798212375006e-07 0 0.0055059238948793592 -2.6959396264202533e-05 0 0.0057772989463465343 -1.3238118729358038e-05 0 0.0055064023247085037 8.8132989647309486e-08 0 0.0050129131150879122 2.9620435402883511e-05 0 0.005506456447211731 -2.1534878315799676e-08 0 0.0047039622542450641 -2.466192766850546e-06 0 0.0046179952759735276 -1.5058498299958393e-08 0 0.0055077680538889676 -2.1262798212375006e-07 0 0.0053484809754882571 -2.0482676004673989e-05 0 0.0055059238948793592 -2.6959396264202533e-05 0 0.0055077680538889676 -2.1262798212375006e-07 0 0.0053484809754882571 -2.0482676004673989e-05 0 0.005358541337341447 -9.3754794654945485e-06 0 0.0053484809754882571 -2.0482676004673989e-05 0 0.005358541337341447 -9.3754794654945485e-06 0 0.0052285097013635177 4.2944477568829278e-05 0 0.0053484809754882571 -2.0482676004673989e-05 0 0.0052339456026544735 2.5340724496235691e-05 0 0.0052285097013635177 4.2944477568829278e-05 0 0.0055059238948793592 -2.6959396264202533e-05 0 0.0057264621382664468 -1.8389094159005733e-05 0 0.0055446604733212891 -2.7165619783381313e-05 0 0.0052831620208185267 2.2710539098331701e-05 0 0.0055059238948793592 -2.6959396264202533e-05 0 0.0055446604733212891 -2.7165619783381313e-05 0 0.0053484809754882571 -2.0482676004673989e-05 0 0.0052339456026544735 2.5340724496235691e-05 0 0.0055059238948793592 -2.6959396264202533e-05 0 0.0052831620208185267 2.2710539098331701e-05 0 0.0052339456026544735 2.5340724496235691e-05 0 0.0055059238948793592 -2.6959396264202533e-05 0 0.0055059238948793592 -2.6959396264202533e-05 0 0.0057264621382664468 -1.8389094159005733e-05 0 0.0057772989463465343 -1.3238118729358038e-05 0 0.0059681685522921905 -6.0110098052137697e-05 0 0.0057264621382664468 -1.8389094159005733e-05 0 0.0057772989463465343 -1.3238118729358038e-05 0 0.0046937459305429119 -0.00023194970543405065 0 0.0048983267390692821 4.7502880429724562e-05 0 0.0059681685522921905 -6.0110098052137697e-05 0 0.0057264621382664468 -1.8389094159005733e-05 0 0.005778627186636417 -1.9731894403655842e-05 0 0.0057264621382664468 -1.8389094159005733e-05 0 0.005778627186636417 -1.9731894403655842e-05 0 0.0055446604733212891 -2.7165619783381313e-05 0 0.0038667229098906879 -0.00028858068866883423 0 0.0036141137279267505 -0.00015693917334133568 0 0.0037560446472044429 3.3418463710653356e-05 0 0.0035418318527003791 -0.00033487480661316117 0 0.0038667229098906879 -0.00028858068866883423 0 0.0036141137279267505 -0.00015693917334133568 0 0.0038667229098906879 -0.00028858068866883423 0 0.0037560446472044429 3.3418463710653356e-05 0 0.0042156329003510832 -3.0878012638445139e-05 0 0.0037560446472044429 3.3418463710653356e-05 0 0.0042156329003510832 -3.0878012638445139e-05 0 0.0039704050028406233 0.00018534291880634548 0 0.0042156329003510832 -3.0878012638445139e-05 0 0.0042377254341691489 0.00026359056483172134 0 0.0047477913589442401 0.00024555722940940514 0 0.0042156329003510832 -3.0878012638445139e-05 0 0.0042377254341691489 0.00026359056483172134 0 0.0039704050028406233 0.00018534291880634548 0 0.0042377254341691489 0.00026359056483172134 0 0.0039704050028406233 0.00018534291880634548 0 0.0039335304037206092 0.00042124571500411082 0 0.0037560446472044429 3.3418463710653356e-05 0 0.0039704050028406233 0.00018534291880634548 0 0.0037031892563713967 0.00028519281746567293 0 0.0039704050028406233 0.00018534291880634548 0 0.0039335304037206092 0.00042124571500411082 0 0.0037031892563713967 0.00028519281746567293 0 0.0034977901271460725 0.00042312305144568649 0 0.0037031892563713967 0.00028519281746567293 0 0.0037212429723062121 0.00044514052404094905 0 0.0039335304037206092 0.00042124571500411082 0 0.0037031892563713967 0.00028519281746567293 0 0.0037212429723062121 0.00044514052404094905 0 0.003772151957725445 0.00088113313945184805 0 0.0034977901271460725 0.00042312305144568649 0 0.0037968755473014515 0.00061029211869760818 0 0.003772151957725445 0.00088113313945184805 0 0.0037968755473014515 0.00061029211869760818 0 0.0043168561685854121 0.00065788291311387307 0 0.0039335304037206092 0.00042124571500411082 0 0.0037968755473014515 0.00061029211869760818 0 0.0043168561685854121 0.00065788291311387307 0 0.0039335304037206092 0.00042124571500411082 0 0.0037968755473014515 0.00061029211869760818 0 0.0037212429723062121 0.00044514052404094905 0 0.0034977901271460725 0.00042312305144568649 0 0.0037968755473014515 0.00061029211869760818 0 0.0037212429723062121 0.00044514052404094905 0 0.0030836529387842362 0.00025586925958885409 0 0.0043038288549938526 0.00056292096283361 0 0.0042377254341691489 0.00026359056483172134 0 0.0043168561685854121 0.00065788291311387307 0 0.0045189616780282839 0.00039040922976755452 0 0.0042377254341691489 0.00026359056483172134 0 0.0039335304037206092 0.00042124571500411082 0 0.0043168561685854121 0.00065788291311387307 0 0.0043038288549938526 0.00056292096283361 0 0.0046610327019056558 0.00033988500337130308 0 0.0040321322911922126 0.00047651320237030944 0 0.0047719889199219195 0.00029428868375613231 0 0.0044495593982734633 0.00052931087913336253 0 0.0041662265878526904 0.00064310828936517666 0 0.0040321322911922126 0.00047651320237030944 0 0.0044495593982734633 0.00052931087913336253 0 0.0043168561685854121 0.00065788291311387307 0 0.0045189616780282839 0.00039040922976755452 0 0.0047719889199219195 0.00029428868375613231 0 0.0045189616780282839 0.00039040922976755452 0 0.0047719889199219195 0.00029428868375613231 0 0.0047477913589442401 0.00024555722940940514 0 0.0037294927103136161 -3.7286921178391756e-08 0 0.0038996872917817097 -5.4549998785676985e-06 0 0.0046179952759735276 -1.5058498299958393e-08 0 0.0047719889199219195 0.00029428868375613231 0 0.0044495593982734633 0.00052931087913336253 0 0.004834454671492917 0.00041514503220018556 0 0.0047719889199219195 0.00029428868375613231 0 0.004834454671492917 0.00041514503220018556 0 0.0049101307869498347 0.0002019076474423074 0 0.004834454671492917 0.00041514503220018556 0 0.0050882414691783154 0.00010669645160888065 0 0.0049101307869498347 0.0002019076474423074 0 0.0047039622542450641 -2.466192766850546e-06 0 0.0038996872917817097 -5.4549998785676985e-06 0 0.0046179952759735276 -1.5058498299958393e-08 0 0.005358541337341447 -9.3754794654945485e-06 0 0.004834454671492917 0.00041514503220018556 0 0.0052285097013635177 4.2944477568829278e-05 0 0.004834454671492917 0.00041514503220018556 0 0.0050882414691783154 0.00010669645160888065 0 0.0052285097013635177 4.2944477568829278e-05 0 0.0050129131150879122 2.9620435402883511e-05 0 0.0043556653754822199 0.00021393268343961852 0 0.0052339456026544735 2.5340724496235691e-05 0 0.0050882414691783154 0.00010669645160888065 0 0.0052285097013635177 4.2944477568829278e-05 0 0.0052831620208185267 2.2710539098331701e-05 0 0.0055446604733212891 -2.7165619783381313e-05 0 0.0047477913589442401 0.00024555722940940514 0 0.0052831620208185267 2.2710539098331701e-05 0 0.0050518483097059365 0.00011097545091214248 0 0.0047477913589442401 0.00024555722940940514 0 0.0048983267390692821 4.7502880429724562e-05 0 0.0048215719296752103 0.00025124858167770495 0 0.0052339456026544735 2.5340724496235691e-05 0 0.0050882414691783154 0.00010669645160888065 0 0.0050518483097059365 0.00011097545091214248 0 0.0052831620208185267 2.2710539098331701e-05 0 0.0052339456026544735 2.5340724496235691e-05 0 0.0050518483097059365 0.00011097545091214248 0 0.0042377254341691489 0.00026359056483172134 0 0.0045189616780282839 0.00039040922976755452 0 0.0047477913589442401 0.00024555722940940514 0 0.0050518483097059365 0.00011097545091214248 0 0.0047477913589442401 0.00024555722940940514 0 0.0049101307869498347 0.0002019076474423074 0 0.0047719889199219195 0.00029428868375613231 0 0.0047477913589442401 0.00024555722940940514 0 0.0049101307869498347 0.0002019076474423074 0 0.0050882414691783154 0.00010669645160888065 0 0.0050518483097059365 0.00011097545091214248 0 0.0049101307869498347 0.0002019076474423074 0 0.010616287477800497 4.1553258385349493e-05 0 0.010996033011825323 0.0001039523466887544 0 0.010915221747614308 -1.1270008475875243e-06 0 0.010616287477800497 4.1553258385349493e-05 0 0.010380347593348931 -1.1972912425813991e-07 0 0.011249046087455168 3.6213039320313382e-07 0 0.010616287477800497 4.1553258385349493e-05 0 0.011249046087455168 3.6213039320313382e-07 0 0.010996033011825323 0.0001039523466887544 0 0.011249046087455168 3.6213039320313382e-07 0 0.010996033011825323 0.0001039523466887544 0 0.011338527209203999 8.8605032542647542e-05 0 0.010996033011825323 0.0001039523466887544 0 0.011182782403739837 4.9388756507487048e-05 0 0.011235079499769285 0.00011264924975175328 0 0.010996033011825323 0.0001039523466887544 0 0.011235079499769285 0.00011264924975175328 0 0.011338527209203999 8.8605032542647542e-05 0 0.011182782403739837 4.9388756507487048e-05 0 0.011263103669806653 5.8782795956456779e-05 0 0.011248375877869549 8.011049763932736e-05 0 0.011182782403739837 4.9388756507487048e-05 0 0.011248375877869549 8.011049763932736e-05 0 0.011235079499769285 0.00011264924975175328 0 0.011182782403739837 4.9388756507487048e-05 0 0.010915221747614308 -1.1270008475875243e-06 0 0.011180040490753246 -0.00012961095862100742 0 0.010996033011825323 0.0001039523466887544 0 0.011182782403739837 4.9388756507487048e-05 0 0.010915221747614308 -1.1270008475875243e-06 0 0.010915221747614308 -1.1270008475875243e-06 0 0.011180040490753246 -0.00012961095862100742 0 0.010951325417702643 -0.00033049843227051439 0 0.010915221747614308 -1.1270008475875243e-06 0 0.010951325417702643 -0.00033049843227051439 0 0.010156503682659034 -0.00012477502232370407 0 0.011180040490753246 -0.00012961095862100742 0 0.010951325417702643 -0.00033049843227051439 0 0.011184615872108297 -0.00029299517541129307 0 0.0093724414503642169 -0.00025447845649515248 0 0.0091521494701904266 -7.0044530241225095e-05 0 0.0086609250474061795 -0.00028739097631232954 0 0.010141930245400563 -0.00027434440358016499 0 0.0098829529530262885 -0.0002743125420828386 0 0.0093724414503642169 -0.00025447845649515248 0 0.0096069748098094026 4.3785709578081163e-05 0 0.0091521494701904266 -7.0044530241225095e-05 0 0.0093724414503642169 -0.00025447845649515248 0 0.010156503682659034 -0.00012477502232370407 0 0.0096069748098094026 4.3785709578081163e-05 0 0.010141930245400563 -0.00027434440358016499 0 0.010126871868339955 -0.00014528680787230649 0 0.010616287477800497 4.1553258385349493e-05 0 0.010915221747614308 -1.1270008475875243e-06 0 0.010156503682659034 -0.00012477502232370407 0 0.010380347593348931 -1.1972912425813991e-07 0 0.010156503682659034 -0.00012477502232370407 0 0.0095110846314295488 4.5134110133663918e-08 0 0.010616287477800497 4.1553258385349493e-05 0 0.010380347593348931 -1.1972912425813991e-07 0 0.010156503682659034 -0.00012477502232370407 0 0.010156503682659034 -0.00012477502232370407 0 0.0095110846314295488 4.5134110133663918e-08 0 0.0096069748098094026 4.3785709578081163e-05 0 0.0095110846314295488 4.5134110133663918e-08 0 0.0096069748098094026 4.3785709578081163e-05 0 0.0086438215831816309 -2.7998086639869789e-07 0 0.0096069748098094026 4.3785709578081163e-05 0 0.0094319788370387965 -2.4955143529379754e-05 0 0.0092349160781249068 0.00024284893899986459 0 0.0096069748098094026 4.3785709578081163e-05 0 0.0094319788370387965 -2.4955143529379754e-05 0 0.0086438215831816309 -2.7998086639869789e-07 0 0.0075046927780397605 -0.00037711582830938768 0 0.0086405842439571945 -1.1885137026868665e-06 0 0.0074807595501254383 1.1779215536412125e-05 0 0.0084514533301515184 -0.00015729773952855583 0 0.0086421727429874737 -1.0007743994540759e-07 0 0.0086405842439571945 -1.1885137026868665e-06 0 0.0074807595501254383 1.1779215536412125e-05 0 0.0078583107011503846 4.8569915901273565e-07 0 0.0075046927780397605 -0.00037711582830938768 0 0.0074807595501254383 1.1779215536412125e-05 0 0.0070979987075036766 -0.00010652982130333107 0 0.0071178321770330004 0.00010460487520461022 0 0.0074807595501254383 1.1779215536412125e-05 0 0.0070691163168391802 4.5844601412373458e-05 0 0.0071178321770330004 0.00010460487520461022 0 0.0074807595501254383 1.1779215536412125e-05 0 0.0078583107011503846 4.8569915901273565e-07 0 0.0068993489656633466 5.3946787777496063e-05 0 0.0069368752434897122 -5.660365576002936e-05 0 0.0068487915561918017 -5.1502919697891556e-05 0 0.0068993489656633466 5.3946787777496063e-05 0 0.0070691163168391802 4.5844601412373458e-05 0 0.0069368752434897122 -5.660365576002936e-05 0 0.006927125348000723 0.0001048726033468907 0 0.0068993489656633466 5.3946787777496063e-05 0 0.0070691163168391802 4.5844601412373458e-05 0 0.006927125348000723 0.0001048726033468907 0 0.0071178321770330004 0.00010460487520461022 0 0.0070691163168391802 4.5844601412373458e-05 0 0.0070691163168391802 4.5844601412373458e-05 0 0.0070979987075036766 -0.00010652982130333107 0 0.0069368752434897122 -5.660365576002936e-05 0 0.0074807595501254383 1.1779215536412125e-05 0 0.0070691163168391802 4.5844601412373458e-05 0 0.0070979987075036766 -0.00010652982130333107 0 0.0070979987075036766 -0.00010652982130333107 0 0.0069368752434897122 -5.660365576002936e-05 0 0.0069770950685222677 -0.00011006147721372383 0 0.0069368752434897122 -5.660365576002936e-05 0 0.0069770950685222677 -0.00011006147721372383 0 0.0069935895582646243 -7.6618858301219652e-05 0 0.0081355458816950634 -4.7887547872475236e-06 0 0.0077289236506843878 0.00013948534049667416 0 0.0070979987075036766 -0.00010652982130333107 0 0.0069770950685222677 -0.00011006147721372383 0 0.0070403973989679935 -0.00024278965702053258 0 0.0069770950685222677 -0.00011006147721372383 0 0.0070403973989679935 -0.00024278965702053258 0 0.00698357037308727 -4.3051629303900645e-06 0 0.0084514533301515184 -0.00015729773952855583 0 0.0081355458816950634 -4.7887547872475236e-06 0 0.0075046927780397605 -0.00037711582830938768 0 0.0070979987075036766 -0.00010652982130333107 0 0.0070403973989679935 -0.00024278965702053258 0 0.0096069748098094026 4.3785709578081163e-05 0 0.0092349160781249068 0.00024284893899986459 0 0.0091521494701904266 -7.0044530241225095e-05 0 0.0091521494701904266 -7.0044530241225095e-05 0 0.0084607488876660211 0.00033412147504175338 0 0.0086609250474061795 -0.00028739097631232954 0 0.0092349160781249068 0.00024284893899986459 0 0.0091521494701904266 -7.0044530241225095e-05 0 0.0084607488876660211 0.00033412147504175338 0 0.007483732667557092 -4.5787841824820627e-05 0 0.0084607488876660211 0.00033412147504175338 0 0.0086609250474061795 -0.00028739097631232954 0 0.0094659887828665596 -0.00018793167426041249 0 0.0098829529530262885 -0.0002743125420828386 0 0.011299085986072665 -0.00027004177175746745 0 0.01126240301115842 -0.00024586578989021384 0 0.011184615872108297 -0.00029299517541129307 0 0.007407239914401796 0.00011357644388404798 0 0.0077289236506843878 0.00013948534049667416 0 0.0073746798057218324 9.9728393983749384e-05 0 0.007483732667557092 -4.5787841824820627e-05 0 0.0084607488876660211 0.00033412147504175338 0 0.011299085986072665 -0.00027004177175746745 0 0.011300471971746929 -0.0002353479894598565 0 0.01126240301115842 -0.00024586578989021384 0 0.011299085986072665 -0.00027004177175746745 0 0.011327896508391297 -0.00023951442871207455 0 0.011300471971746929 -0.0002353479894598565 0 0.0073746798057218324 9.9728393983749384e-05 0 0.0071351719408082855 -7.0340552076676347e-06 0 0.00698357037308727 -4.3051629303900645e-06 0 0.0073746798057218324 9.9728393983749384e-05 0 0.0072650126580027221 5.3818889522832426e-05 0 0.0071351719408082855 -7.0340552076676347e-06 0 0.0071351719408082855 -7.0340552076676347e-06 0 0.0071856784552210571 -9.4548582866379721e-06 0 0.0070905537396930649 -5.127723127610965e-05 0 0.0072650126580027221 5.3818889522832426e-05 0 0.0071351719408082855 -7.0340552076676347e-06 0 0.0071856784552210571 -9.4548582866379721e-06 0 0.0072650126580027221 5.3818889522832426e-05 0 0.0071856784552210571 -9.4548582866379721e-06 0 0.0072620072188161171 1.5696996500791189e-05 0 0.0071856784552210571 -9.4548582866379721e-06 0 0.0071452741935989841 -8.1531266081793022e-05 0 0.0072620072188161171 1.5696996500791189e-05 0 0.0069770950685222677 -0.00011006147721372383 0 0.00698357037308727 -4.3051629303900645e-06 0 0.0069935895582646243 -7.6618858301219652e-05 0 0.0071351719408082855 -7.0340552076676347e-06 0 0.00698357037308727 -4.3051629303900645e-06 0 0.0069935895582646243 -7.6618858301219652e-05 0 0.0071351719408082855 -7.0340552076676347e-06 0 0.0069935895582646243 -7.6618858301219652e-05 0 0.0070905537396930649 -5.127723127610965e-05 0 0.0069368752434897122 -5.660365576002936e-05 0 0.0069610436291774169 -7.8496798215513898e-05 0 0.0069935895582646243 -7.6618858301219652e-05 0 0.0069610436291774169 -7.8496798215513898e-05 0 0.0069935895582646243 -7.6618858301219652e-05 0 0.0070537762877693009 -8.4042665288703501e-05 0 0.0069935895582646243 -7.6618858301219652e-05 0 0.0070905537396930649 -5.127723127610965e-05 0 0.0070537762877693009 -8.4042665288703501e-05 0 0.0070905537396930649 -5.127723127610965e-05 0 0.0071452741935989841 -8.1531266081793022e-05 0 0.0070537762877693009 -8.4042665288703501e-05 0 0.0071856784552210571 -9.4548582866379721e-06 0 0.0070905537396930649 -5.127723127610965e-05 0 0.0071452741935989841 -8.1531266081793022e-05 0 0.0068413598430640075 -0.0001621475264682206 0 0.0069532161888377032 -4.3327945992034443e-05 0 0.0071452741935989841 -8.1531266081793022e-05 0 0.0070733070871469928 -0.00012790447724823984 0 0.0072226572581513791 -8.7394248334614127e-05 0 0.0069610436291774169 -7.8496798215513898e-05 0 0.0070537762877693009 -8.4042665288703501e-05 0 0.0070733070871469928 -0.00012790447724823984 0 0.0071452741935989841 -8.1531266081793022e-05 0 0.0070537762877693009 -8.4042665288703501e-05 0 0.0070733070871469928 -0.00012790447724823984 0 0.0066866624078974913 -7.2044690765406199e-06 0 0.0066540692786969113 -0.00019140876908090989 0 0.0068487915561918017 -5.1502919697891556e-05 0 0.0066866624078974913 -7.2044690765406199e-06 0 0.0066540692786969113 -0.00019140876908090989 0 0.0064792956557066768 -0.00010266873942664186 0 0.0069368752434897122 -5.660365576002936e-05 0 0.0069610436291774169 -7.8496798215513898e-05 0 0.0068487915561918017 -5.1502919697891556e-05 0 0.0069610436291774169 -7.8496798215513898e-05 0 0.0070733070871469928 -0.00012790447724823984 0 0.0068487915561918017 -5.1502919697891556e-05 0 0.0068413598430640075 -0.0001621475264682206 0 0.0068821765830400592 -6.5279111890683564e-05 0 0.0063926950614166603 4.0142566260469968e-05 0 0.0062587702266498459 -7.8429467300992136e-05 0 0.0064792956557066768 -0.00010266873942664186 0 0.0042524902113602533 0.00040538327649190315 0 0.0049854124723042953 0.0008051809624711726 0 0.0022163879573061356 0.00090943842548900887 0 0.002139067959508812 0.001720429642775554 0 0.0026558509480926005 0.0013282839616741986 0 0.0063731972227719143 -0.00019269854457777829 0 0.0062587702266498459 -7.8429467300992136e-05 0 0.0062705532483385206 -0.00029177864096748452 0 0.0063731972227719143 -0.00019269854457777829 0 0.0062587702266498459 -7.8429467300992136e-05 0 0.0064792956557066768 -0.00010266873942664186 0 0.0063731972227719143 -0.00019269854457777829 0 0.0064792956557066768 -0.00010266873942664186 0 0.006487899274929358 -0.00030086585180657117 0 0.0066540692786969113 -0.00019140876908090989 0 0.0064792956557066768 -0.00010266873942664186 0 0.006487899274929358 -0.00030086585180657117 0 0.0071452741935989841 -8.1531266081793022e-05 0 0.0073025730824679523 -0.00010106774224695872 0 0.0072620072188161171 1.5696996500791189e-05 0 0.0072164013702994637 -7.1689709548501034e-05 0 0.0069532161888377032 -4.3327945992034443e-05 0 0.0063731972227719143 -0.00019269854457777829 0 0.006487899274929358 -0.00030086585180657117 0 0.0062705532483385206 -0.00029177864096748452 0 0.0069532161888377032 -4.3327945992034443e-05 0 0.0049854124723042953 0.0008051809624711726 0 0.0066194271108578045 0.00044920698548692032 0 0.006383092713103858 0.00045574829690826188 0 0.0063999660077744287 0.00030015498069599171 0 0.0052652273194142354 0.0019072747495955736 0 0.0051784066270017309 0.0017096116368652675 0 0.0052927563626034022 0.0016399862979931349 0 0.0049854124723042953 0.0008051809624711726 0 0.0072415472761466846 0.00065115990957607733 0 0.0051784066270017309 0.0017096116368652675 0 0.0052927563626034022 0.0016399862979931349 0 0.0052106469098031124 0.0015840567833574693 0 0.0075540251569222693 6.3885133399287902e-05 0 0.0074977808839980778 0.00014820034140662131 0 0.0075522186978037682 0.00012703021411798461 0 0.0075540251569222693 6.3885133399287902e-05 0 0.0074977808839980778 0.00014820034140662131 0 0.0073781101274706896 5.0235149057590763e-05 0 0.0091220477922261158 -0.00015783293818781018 0 0.009372558413006285 -0.00014106239255891835 0 0.0093816122156211487 -0.00025741309657879852 0 0.0089081726221572153 0.00011523481642800576 0 0.0088954657627176928 0.00044146422048523784 0 0.0089081726221572153 0.00011523481642800576 0 0.010031979994119852 0.00022325052244580575 0 0.0086460333651772678 0.0010436361591354799 0 0.0086586219153448156 0.00087857342047145931 0 0.0090596941277758733 0.00072392851888379833 0 0.0086460333651772678 0.0010436361591354799 0 0.0090596941277758733 0.00072392851888379833 0 0.0096039028057945033 0.0011113030306242784 0 0.010031979994119852 0.00022325052244580575 0 0.010365195920271159 0.0015431397097933656 0 0.010031979994119852 0.00022325052244580575 0 0.0088954657627176928 0.00044146422048523784 0 0.0077766622712339374 0.00088887083789480632 0 0.0077658761954383249 0.001047028150157364 0 0.0079162922686621343 0.00098846303677756317 0 0.0072415472761466846 0.00065115990957607733 0 0.0088954657627176928 0.00044146422048523784 0 0.0088954657627176928 0.00044146422048523784 0 0.0073101592807317886 0.0009358721061032819 0 0.0072415472761466846 0.00065115990957607733 0 0.0073101592807317886 0.0009358721061032819 0 0.0073746798057218324 9.9728393983749384e-05 0 0.007026192418084028 0.00014188141132420008 0 0.0072840207145420978 0.00013470312690616522 0 0.0073025730824679523 -0.00010106774224695872 0 0.0075540251569222693 6.3885133399287902e-05 0 0.0073781101274706896 5.0235149057590763e-05 0 0.0069532161888377032 -4.3327945992034443e-05 0 0.0072415472761466846 0.00065115990957607733 0 0.0072620072188161171 1.5696996500791189e-05 0 0.0073781101274706896 5.0235149057590763e-05 0 0.0072840207145420978 0.00013470312690616522 0 0.0073025730824679523 -0.00010106774224695872 0 0.0072620072188161171 1.5696996500791189e-05 0 0.0073781101274706896 5.0235149057590763e-05 0 0.0089081726221572153 0.00011523481642800576 0 0.0068129013879799907 9.6231035903846662e-05 0 0.0074977808839980778 0.00014820034140662131 0 0.0073781101274706896 5.0235149057590763e-05 0 0.0072840207145420978 0.00013470312690616522 0 0.0073746798057218324 9.9728393983749384e-05 0 0.0072650126580027221 5.3818889522832426e-05 0 0.0072840207145420978 0.00013470312690616522 0 0.0072650126580027221 5.3818889522832426e-05 0 0.0072620072188161171 1.5696996500791189e-05 0 0.0072840207145420978 0.00013470312690616522 0 0.011299085986072665 -0.00027004177175746745 0 0.011373820231443919 -0.00028722516441506788 0 0.011357437612521042 -0.00025311516908378695 0 0.0073746798057218324 9.9728393983749384e-05 0 0.007483732667557092 -4.5787841824820627e-05 0 0.007026192418084028 0.00014188141132420008 0 0.011299085986072665 -0.00027004177175746745 0 0.011357437612521042 -0.00025311516908378695 0 0.011327896508391297 -0.00023951442871207455 0 0.0094659887828665596 -0.00018793167426041249 0 0.0089081726221572153 0.00011523481642800576 0 0.010031979994119852 0.00022325052244580575 0 0.012601676874709337 0.00020819919717584214 0 0.011385467325084222 -0.00028724520513292659 0 0.011357437612521042 -0.00025311516908378695 0 0.011382640630989326 -0.00023420858431711652 0 0.013167525706420533 0.0006614238885016264 0 0.01319055971060773 0.00066159101308423834 0 0.013210915627092978 0.00065572873355208621 0 0.011385467325084222 -0.00028724520513292659 0 0.011382640630989326 -0.00023420858431711652 0 0.011416335605045139 -0.00019124271572242238 0 0.013181391030385663 0.00066231623137677812 0 0.01319055971060773 0.00066159101308423834 0 0.013186797627999959 0.00066381904939354791 0 0.013167525706420533 0.0006614238885016264 0 0.013181391030385663 0.00066231623137677812 0 0.013182486672510691 0.00065884005655267254 0 0.013167525706420533 0.0006614238885016264 0 0.013181391030385663 0.00066231623137677812 0 0.01319055971060773 0.00066159101308423834 0 0.011373820231443919 -0.00028722516441506788 0 0.011385467325084222 -0.00028724520513292659 0 0.011357437612521042 -0.00025311516908378695 0 0.01319055971060773 0.00066159101308423834 0 0.013200254047346829 0.00065873889329161903 0 0.013210915627092978 0.00065572873355208621 0 0.011382640630989326 -0.00023420858431711652 0 0.011416335605045139 -0.00019124271572242238 0 0.011367488372545269 -0.00020206945278368319 0 0.013200254047346829 0.00065873889329161903 0 0.013210915627092978 0.00065572873355208621 0 0.013198508451097499 0.00064684905797634932 0 0.012601676874709337 0.00020819919717584214 0 0.012278648643786591 0.00025989816449843603 0 0.013210915627092978 0.00065572873355208621 0 0.01321199761979365 0.00057110858968436814 0 0.013198508451097499 0.00064684905797634932 0 0.011416335605045139 -0.00019124271572242238 0 0.011374788830064099 -0.00013036683815150144 0 0.011422242949481434 -5.4243658771019183e-05 0 0.011374788830064099 -0.00013036683815150144 0 0.011314519449761777 -0.00013101274562845439 0 0.011345068197943415 -5.7527015014931877e-05 0 0.011374788830064099 -0.00013036683815150144 0 0.011343122324599561 -0.00016946739251468468 0 0.011314519449761777 -0.00013101274562845439 0 0.011343122324599561 -0.00016946739251468468 0 0.011367488372545269 -0.00020206945278368319 0 0.011322717108722574 -0.00021090098428738673 0 0.011374788830064099 -0.00013036683815150144 0 0.011343122324599561 -0.00016946739251468468 0 0.011367488372545269 -0.00020206945278368319 0 0.011416335605045139 -0.00019124271572242238 0 0.011374788830064099 -0.00013036683815150144 0 0.011367488372545269 -0.00020206945278368319 0 0.011357437612521042 -0.00025311516908378695 0 0.011382640630989326 -0.00023420858431711652 0 0.011367488372545269 -0.00020206945278368319 0 0.011357437612521042 -0.00025311516908378695 0 0.011327896508391297 -0.00023951442871207455 0 0.011367488372545269 -0.00020206945278368319 0 0.011327896508391297 -0.00023951442871207455 0 0.011367488372545269 -0.00020206945278368319 0 0.011322717108722574 -0.00021090098428738673 0 0.011327896508391297 -0.00023951442871207455 0 0.011322717108722574 -0.00021090098428738673 0 0.011300471971746929 -0.0002353479894598565 0 0.011322717108722574 -0.00021090098428738673 0 0.011300471971746929 -0.0002353479894598565 0 0.011297217951705477 -0.00019487804872855632 0 0.011300471971746929 -0.0002353479894598565 0 0.01126240301115842 -0.00024586578989021384 0 0.011297217951705477 -0.00019487804872855632 0 0.01126240301115842 -0.00024586578989021384 0 0.011297217951705477 -0.00019487804872855632 0 0.011254098568552589 -0.00017351600481590884 0 0.011343122324599561 -0.00016946739251468468 0 0.011322717108722574 -0.00021090098428738673 0 0.011297217951705477 -0.00019487804872855632 0 0.011180040490753246 -0.00012961095862100742 0 0.011184615872108297 -0.00029299517541129307 0 0.011254098568552589 -0.00017351600481590884 0 0.01126240301115842 -0.00024586578989021384 0 0.011184615872108297 -0.00029299517541129307 0 0.011254098568552589 -0.00017351600481590884 0 0.011180040490753246 -0.00012961095862100742 0 0.011254098568552589 -0.00017351600481590884 0 0.011269882516270459 -5.6067392590917177e-05 0 0.011254098568552589 -0.00017351600481590884 0 0.011314519449761777 -0.00013101274562845439 0 0.011269882516270459 -5.6067392590917177e-05 0 0.011343122324599561 -0.00016946739251468468 0 0.011297217951705477 -0.00019487804872855632 0 0.011314519449761777 -0.00013101274562845439 0 0.011297217951705477 -0.00019487804872855632 0 0.011254098568552589 -0.00017351600481590884 0 0.011314519449761777 -0.00013101274562845439 0 0.011269882516270459 -5.6067392590917177e-05 0 0.011306880742777239 1.7828880867438303e-05 0 0.011345068197943415 -5.7527015014931877e-05 0 0.011269882516270459 -5.6067392590917177e-05 0 0.01125654921189072 2.1147951271620241e-05 0 0.011306880742777239 1.7828880867438303e-05 0 0.011314519449761777 -0.00013101274562845439 0 0.011269882516270459 -5.6067392590917177e-05 0 0.011345068197943415 -5.7527015014931877e-05 0 0.011182782403739837 4.9388756507487048e-05 0 0.011269882516270459 -5.6067392590917177e-05 0 0.01125654921189072 2.1147951271620241e-05 0 0.011182782403739837 4.9388756507487048e-05 0 0.011180040490753246 -0.00012961095862100742 0 0.011269882516270459 -5.6067392590917177e-05 0 0.011182782403739837 4.9388756507487048e-05 0 0.01125654921189072 2.1147951271620241e-05 0 0.011263103669806653 5.8782795956456779e-05 0 0.01125654921189072 2.1147951271620241e-05 0 0.011263103669806653 5.8782795956456779e-05 0 0.011306880742777239 1.7828880867438303e-05 0 0.011263103669806653 5.8782795956456779e-05 0 0.011306880742777239 1.7828880867438303e-05 0 0.011297152535627375 5.5197544712514806e-05 0 0.011306880742777239 1.7828880867438303e-05 0 0.011361230593576074 4.4942275986026864e-06 0 0.011335678546967192 5.1418990783061315e-05 0 0.011306880742777239 1.7828880867438303e-05 0 0.011335678546967192 5.1418990783061315e-05 0 0.011297152535627375 5.5197544712514806e-05 0 0.011361230593576074 4.4942275986026864e-06 0 0.011401159380718633 4.9762043779485925e-05 0 0.011335678546967192 5.1418990783061315e-05 0 0.011361230593576074 4.4942275986026864e-06 0 0.011422242949481434 -5.4243658771019183e-05 0 0.011401159380718633 4.9762043779485925e-05 0 0.011306880742777239 1.7828880867438303e-05 0 0.011361230593576074 4.4942275986026864e-06 0 0.011345068197943415 -5.7527015014931877e-05 0 0.01321199761979365 0.00057110858968436814 0 0.013157828299633285 0.00054537605974171004 0 0.013212434061495163 0.00044335065191664893 0 0.012278648643786591 0.00025989816449843603 0 0.01231030270421748 0.00027166615346879073 0 0.013157828299633285 0.00054537605974171004 0 0.01314172010323451 0.00040829391869023185 0 0.013212434061495163 0.00044335065191664893 0 0.01321199761979365 0.00057110858968436814 0 0.013157828299633285 0.00054537605974171004 0 0.013198508451097499 0.00064684905797634932 0 0.011361230593576074 4.4942275986026864e-06 0 0.011422242949481434 -5.4243658771019183e-05 0 0.011345068197943415 -5.7527015014931877e-05 0 0.011374788830064099 -0.00013036683815150144 0 0.011422242949481434 -5.4243658771019183e-05 0 0.011345068197943415 -5.7527015014931877e-05 0 0.013199670946584861 0.00057989613570145755 0 0.013178128920916571 0.00061489826832248696 0 0.013199372788675176 0.00063103380604847062 0 0.013199670946584861 0.00057989613570145755 0 0.013175994469645418 0.00054437515773389424 0 0.013178128920916571 0.00061489826832248696 0 0.013152678174804902 0.00030604967775354423 0 0.01320962609282067 0.0005080498900524882 0 0.013199670946584861 0.00057989613570145755 0 0.013233792528371669 0.00058115707938472894 0 0.013199372788675176 0.00063103380604847062 0 0.013199670946584861 0.00057989613570145755 0 0.013233792528371669 0.00058115707938472894 0 0.013211849921169933 0.00054438229418980776 0 0.013233792528371669 0.00058115707938472894 0 0.013211849921169933 0.00054438229418980776 0 0.013240004000799777 0.00051352772626607555 0 0.013199016182391027 0.00055424850668266362 0 0.013167602967396016 0.00049041019969403544 0 0.013199670946584861 0.00057989613570145755 0 0.013211849921169933 0.00054438229418980776 0 0.013175994469645418 0.00054437515773389424 0 0.013134337587576927 4.9698623687967792e-05 0 0.012969768614994064 6.154727315245382e-05 0 0.01307999359400451 4.6453578391287383e-05 0 0.012969768614994064 6.154727315245382e-05 0 0.013086669284711788 7.2638737262795766e-06 0 0.013122783287963567 4.3316234636258241e-05 0 0.012969768614994064 6.154727315245382e-05 0 0.01307999359400451 4.6453578391287383e-05 0 0.013122783287963567 4.3316234636258241e-05 0 0.012969768614994064 6.154727315245382e-05 0 0.012811063981224087 0.00020138419803565369 0 0.013027617142235309 0.00031973554186495934 0 0.012969768614994064 6.154727315245382e-05 0 0.012811063981224087 0.00020138419803565369 0 0.012845132508765658 -2.1260552316957587e-05 0 0.012811063981224087 0.00020138419803565369 0 0.013027617142235309 0.00031973554186495934 0 0.012496929278298661 0.00058307068340642464 0 0.013134337587576927 4.9698623687967792e-05 0 0.013027617142235309 0.00031973554186495934 0 0.013251034066964665 0.00040622893667641808 0 0.013134337587576927 4.9698623687967792e-05 0 0.012969768614994064 6.154727315245382e-05 0 0.013027617142235309 0.00031973554186495934 0 0.013027617142235309 0.00031973554186495934 0 0.01312249464905014 0.00050010769561387462 0 0.013251034066964665 0.00040622893667641808 0 0.013027617142235309 0.00031973554186495934 0 0.01312249464905014 0.00050010769561387462 0 0.013008009745543912 0.00067683043845352187 0 0.012542545324319018 0.0010002195262211718 0 0.012464231867844336 0.00064389343194703054 0 0.012072357097903674 0.0012967249401912807 0 0.012300378786063874 0.0015275056935411624 0 0.012496929278298661 0.00058307068340642464 0 0.013027617142235309 0.00031973554186495934 0 0.013008009745543912 0.00067683043845352187 0 0.012496929278298661 0.00058307068340642464 0 0.012072357097903674 0.0012967249401912807 0 0.012095757804585303 0.0019236124568307467 0 0.012300378786063874 0.0015275056935411624 0 0.012095757804585303 0.0019236124568307467 0 0.012281500104195122 0.0019087361382307717 0 0.012243052665728081 0.0021477207563143385 0 0.012072357097903674 0.0012967249401912807 0 0.012095757804585303 0.0019236124568307467 0 0.011590703571977392 0.002053188026056339 0 0.012095757804585303 0.0019236124568307467 0 0.011590703571977392 0.002053188026056339 0 0.011805126386631188 0.0022402838763872866 0 0.01312249464905014 0.00050010769561387462 0 0.013008009745543912 0.00067683043845352187 0 0.013169558375946787 0.0005922400171073475 0 0.012300378786063874 0.0015275056935411624 0 0.01291600172862052 0.0021623276595401299 0 0.01249631060104458 0.0020409167449354222 0 0.012542545324319018 0.0010002195262211718 0 0.013557206791773952 0.0015702110099884423 0 0.013008009745543912 0.00067683043845352187 0 0.013185963927896243 0.00064501835169083544 0 0.013169558375946787 0.0005922400171073475 0 0.012300378786063874 0.0015275056935411624 0 0.012281500104195122 0.0019087361382307717 0 0.01249631060104458 0.0020409167449354222 0 0.012095757804585303 0.0019236124568307467 0 0.012300378786063874 0.0015275056935411624 0 0.012281500104195122 0.0019087361382307717 0 0.013169558375946787 0.0005922400171073475 0 0.013251034066964665 0.00040622893667641808 0 0.013212835616434803 0.00067017292288708698 0 0.013008009745543912 0.00067683043845352187 0 0.013185963927896243 0.00064501835169083544 0 0.013198011865333958 0.00068557621307447465 0 0.013185963927896243 0.00064501835169083544 0 0.013212835616434803 0.00067017292288708698 0 0.013198011865333958 0.00068557621307447465 0 0.013185963927896243 0.00064501835169083544 0 0.013169558375946787 0.0005922400171073475 0 0.013212835616434803 0.00067017292288708698 0 0.01312249464905014 0.00050010769561387462 0 0.013169558375946787 0.0005922400171073475 0 0.013251034066964665 0.00040622893667641808 0 0.013178128920916571 0.00061489826832248696 0 0.013199372788675176 0.00063103380604847062 0 0.013212835616434803 0.00067017292288708698 0 0.01320962609282067 0.0005080498900524882 0 0.013217384016042163 0.0006540096227814836 0 0.013233792528371669 0.00058115707938472894 0 0.013199372788675176 0.00063103380604847062 0 0.013198508451097499 0.00064684905797634932 0 0.013199016182391027 0.00055424850668266362 0 0.013197110493008351 0.00064228379250215613 0 0.013199372788675176 0.00063103380604847062 0 0.013198508451097499 0.00064684905797634932 0 0.013203169505666204 0.00065368158339376161 0 0.013199372788675176 0.00063103380604847062 0 0.013203169505666204 0.00065368158339376161 0 0.013212835616434803 0.00067017292288708698 0 0.013200254047346829 0.00065873889329161903 0 0.013198508451097499 0.00064684905797634932 0 0.013199463617592012 0.00066231182488547282 0 0.013198508451097499 0.00064684905797634932 0 0.013203169505666204 0.00065368158339376161 0 0.013199463617592012 0.00066231182488547282 0 0.013203169505666204 0.00065368158339376161 0 0.013212835616434803 0.00067017292288708698 0 0.013199463617592012 0.00066231182488547282 0 0.013212835616434803 0.00067017292288708698 0 0.013199463617592012 0.00066231182488547282 0 0.013193908117616336 0.00066779198999731833 0 0.01319055971060773 0.00066159101308423834 0 0.013200254047346829 0.00065873889329161903 0 0.013199463617592012 0.00066231182488547282 0 0.013193908117616336 0.00066779198999731833 0 0.013198011865333958 0.00068557621307447465 0 0.013182486672510691 0.00065884005655267254 0 0.01319055971060773 0.00066159101308423834 0 0.013199463617592012 0.00066231182488547282 0 0.013193908117616336 0.00066779198999731833 0 0.013557206791773952 0.0015702110099884423 0 0.010365195920271159 0.0015431397097933656 0 0.01319055971060773 0.00066159101308423834 0 0.013193908117616336 0.00066779198999731833 0 0.013186797627999959 0.00066381904939354791 0 0.013193908117616336 0.00066779198999731833 0 0.013186797627999959 0.00066381904939354791 0 0.013182486672510691 0.00065884005655267254 0 0.013181391030385663 0.00066231623137677812 0 0.013186797627999959 0.00066381904939354791 0 0.013182486672510691 0.00065884005655267254 0 0.01291600172862052 0.0021623276595401299 0 0.012851206331745373 0.0024643075797877749 0 0.01322801609907154 0.0024521021905837973 0 0.01291600172862052 0.0021623276595401299 0 0.012709603213532081 0.002269370425479862 0 0.01249631060104458 0.0020409167449354222 0 0.013212835616434803 0.00067017292288708698 0 0.013193908117616336 0.00066779198999731833 0 0.013198011865333958 0.00068557621307447465 0 0.012709603213532081 0.002269370425479862 0 0.012851206331745373 0.0024643075797877749 0 0.012548741537239633 0.0023793333535392061 0 0.01291600172862052 0.0021623276595401299 0 0.012709603213532081 0.002269370425479862 0 0.012851206331745373 0.0024643075797877749 0 0.0045906235540289905 0.0016922436112009466 0 0.0047175525698281099 0.0018883904140156599 0 0.0044401024682455522 0.0016869119775864195 0 0.0046250366284346523 0.0015656865942013645 0 0.0048151190018735027 0.0016601066996006378 0 0.0045906235540289905 0.0016922436112009466 0 0.0046250366284346523 0.0015656865942013645 0 0.0045906235540289905 0.0016922436112009466 0 0.0045071369013042475 0.0016908897408561868 0 0.0048151190018735027 0.0016601066996006378 0 0.0045906235540289905 0.0016922436112009466 0 0.0047175525698281099 0.0018883904140156599 0 0.0048151190018735027 0.0016601066996006378 0 0.0050747709703345715 0.0016428879649078808 0 0.0047175525698281099 0.0018883904140156599 0 0.0084519098857721766 0.0020540623165483684 0 0.010365195920271159 0.0015431397097933656 0 0.0051784066270017309 0.0017096116368652675 0 0.0050747709703345715 0.0016428879649078808 0 0.0047175525698281099 0.0018883904140156599 0 0.0046250366284346523 0.0015656865942013645 0 0.0048151190018735027 0.0016601066996006378 0 0.0050948259434299243 0.0014995213340813932 0 0.0073101592807317886 0.0009358721061032819 0 0.0054844406944978951 0.0015880623572485338 0 0.0052400549608144715 0.0015859347044949084 0 0.0050948259434299243 0.0014995213340813932 0 0.0050747709703345715 0.0016428879649078808 0 0.0073101592807317886 0.0009358721061032819 0 0.010365195920271159 0.0015431397097933656 0 0.0048151190018735027 0.0016601066996006378 0 0.0050948259434299243 0.0014995213340813932 0 0.0050747709703345715 0.0016428879649078808 0 0.0051784066270017309 0.0017096116368652675 0 0.0052106469098031124 0.0015840567833574693 0 0.0050747709703345715 0.0016428879649078808 0 0.002139067959508812 0.001720429642775554 0 0.0031551025836643459 0.0017688610253283462 0 0.0026558509480926005 0.0013282839616741986 0 0.0052652273194142354 0.0019072747495955736 0 0.0051784066270017309 0.0017096116368652675 0 0.0047175525698281099 0.0018883904140156599 0 0.0049854124723042953 0.0008051809624711726 0 0.0036546783845517973 0.0019233373610718916 0 0.0031551025836643459 0.0017688610253283462 0 0.0031335720975847517 0.0012619607758340167 0 0.0040386980636555082 0.001282155535303323 0 0.0031551025836643459 0.0017688610253283462 0 0.0031335720975847517 0.0012619607758340167 0 0.0026558509480926005 0.0013282839616741986 0 0.0031335720975847517 0.0012619607758340167 0 0.0031318397434867227 0.00084576961459512947 0 0.0040386980636555082 0.001282155535303323 0 0.0030702573428284482 0.00055560515802369984 0 0.0031318397434867227 0.00084576961459512947 0 0.0040386980636555082 0.001282155535303323 0 0.0031163328773865634 0.00058035871793147762 0 0.0037715065091954501 0.0011776487115592569 0 0.0031335720975847517 0.0012619607758340167 0 0.0031318397434867227 0.00084576961459512947 0 0.002895878287240917 0.00098729669026951356 0 0.0030262366550751719 0.00070851388990643025 0 0.0031318397434867227 0.00084576961459512947 0 0.0029089060349709235 0.00075927860652100535 0 0.0031318397434867227 0.00084576961459512947 0 0.0029089060349709235 0.00075927860652100535 0 0.002895878287240917 0.00098729669026951356 0 0.002895878287240917 0.00098729669026951356 0 0.0026599751355761161 0.00076409912731968471 0 0.0026558509480926005 0.0013282839616741986 0 0.0029089060349709235 0.00075927860652100535 0 0.002895878287240917 0.00098729669026951356 0 0.0026599751355761161 0.00076409912731968471 0 0.0022163879573061356 0.00090943842548900887 0 0.0026599751355761161 0.00076409912731968471 0 0.0026558509480926005 0.0013282839616741986 0 0.0031335720975847517 0.0012619607758340167 0 0.002895878287240917 0.00098729669026951356 0 0.0026558509480926005 0.0013282839616741986 0 0.0040561390702266225 0.00053946539614926458 0 0.0036841278550554871 0.0007454715684007936 0 0.0041356051943132717 0.00090211587516253748 0 0.0036841278550554871 0.0007454715684007936 0 0.0034210458462275092 0.0010061488913615439 0 0.003871770752269695 0.0010733285670491341 0 0.0036841278550554871 0.0007454715684007936 0 0.003871770752269695 0.0010733285670491341 0 0.0041356051943132717 0.00090211587516253748 0 0.003871770752269695 0.0010733285670491341 0 0.0041972330029749622 0.0011931020923029933 0 0.0041356051943132717 0.00090211587516253748 0 0.0030702573428284482 0.00055560515802369984 0 0.0033091717122595934 0.00073089881045509952 0 0.0034210458462275092 0.0010061488913615439 0 0.0034849804109660654 0.00060856869604661139 0 0.0036841278550554871 0.0007454715684007936 0 0.0033091717122595934 0.00073089881045509952 0 0.0036841278550554871 0.0007454715684007936 0 0.0033091717122595934 0.00073089881045509952 0 0.0034210458462275092 0.0010061488913615439 0 0.0047175525698281099 0.0018883904140156599 0 0.0043292818005228311 0.0016399062723059996 0 0.0044401024682455522 0.0016869119775864195 0 0.0031551025836643459 0.0017688610253283462 0 0.0040386980636555082 0.001282155535303323 0 0.0043292818005228311 0.0016399062723059996 0 0.0036546783845517973 0.0019233373610718916 0 0.004436108675680177 0.0016522753627338149 0 0.0037715065091954501 0.0011776487115592569 0 0.0039678245312313497 0.0015277248503313254 0 0.0034210458462275092 0.0010061488913615439 0 0.003871770752269695 0.0010733285670491341 0 0.0039256102623553314 0.0014999918108095105 0 0.003871770752269695 0.0010733285670491341 0 0.0039256102623553314 0.0014999918108095105 0 0.0041972330029749622 0.0011931020923029933 0 0.0043292818005228311 0.0016399062723059996 0 0.0045843643326610147 0.0017771742961031466 0 0.0044401024682455522 0.0016869119775864195 0 0.0040386980636555082 0.001282155535303323 0 0.0043292818005228311 0.0016399062723059996 0 0.0045843643326610147 0.0017771742961031466 0 0.0045843643326610147 0.0017771742961031466 0 0.0045556725379671112 0.0017519260423137909 0 0.004577583918152715 0.0017630305904090954 0 0.0045843643326610147 0.0017771742961031466 0 0.004577583918152715 0.0017630305904090954 0 0.0046149735058031941 0.0017706553912271751 0 0.0045843643326610147 0.0017771742961031466 0 0.0044401024682455522 0.0016869119775864195 0 0.004527665687787388 0.0017392124567937291 0 0.0045843643326610147 0.0017771742961031466 0 0.0045556725379671112 0.0017519260423137909 0 0.004527665687787388 0.0017392124567937291 0 0.0045556725379671112 0.0017519260423137909 0 0.004577583918152715 0.0017630305904090954 0 0.0045416145739667355 0.0017548577402187444 0 0.0045556725379671112 0.0017519260423137909 0 0.0045373677210398724 0.0017373913364928453 0 0.004527665687787388 0.0017392124567937291 0 0.0045556725379671112 0.0017519260423137909 0 0.0045373677210398724 0.0017373913364928453 0 0.0045416145739667355 0.0017548577402187444 0 0.0046250366284346523 0.0015656865942013645 0 0.0045381234643803682 0.0017053561208248593 0 0.0045416145739667355 0.0017548577402187444 0 0.0045906235540289905 0.0016922436112009466 0 0.0045071369013042475 0.0016908897408561868 0 0.0044401024682455522 0.0016869119775864195 0 0.0045071369013042475 0.0016908897408561868 0 0.0044401024682455522 0.0016869119775864195 0 0.004527665687787388 0.0017392124567937291 0 0.0045071369013042475 0.0016908897408561868 0 0.004527665687787388 0.0017392124567937291 0 0.0045381234643803682 0.0017053561208248593 0 0.0045373677210398724 0.0017373913364928453 0 0.004527665687787388 0.0017392124567937291 0 0.0045381234643803682 0.0017053561208248593 0 0.0045373677210398724 0.0017373913364928453 0 0.0045381234643803682 0.0017053561208248593 0 0.0045416145739667355 0.0017548577402187444 0 0.0046250366284346523 0.0015656865942013645 0 0.0045071369013042475 0.0016908897408561868 0 0.0045381234643803682 0.0017053561208248593 0 0.0084519098857721766 0.0020540623165483684 0 0.0085315365478138092 0.0021764931891695015 0 0.012851206331745373 0.0024643075797877749 0 0.012548741537239633 0.0023793333535392061 0 0.01201892617510374 0.0025928675543617895 0 0.012548741537239633 0.0023793333535392061 0 0.012188059187737618 0.0024870378817300086 0 0.01201892617510374 0.0025928675543617895 0 0.012548741537239633 0.0023793333535392061 0 0.012188059187737618 0.0024870378817300086 0 0.012330232694263797 0.0022787952180515722 0 0.012188059187737618 0.0024870378817300086 0 0.012191530283980101 0.0023166152703866308 0 0.012330232694263797 0.0022787952180515722 0 0.012191530283980101 0.0023166152703866308 0 0.012243052665728081 0.0021477207563143385 0 0.012330232694263797 0.0022787952180515722 0 0.012243052665728081 0.0021477207563143385 0 0.012330232694263797 0.0022787952180515722 0 0.01249631060104458 0.0020409167449354222 0 0.012281500104195122 0.0019087361382307717 0 0.012243052665728081 0.0021477207563143385 0 0.01249631060104458 0.0020409167449354222 0 0.012709603213532081 0.002269370425479862 0 0.012548741537239633 0.0023793333535392061 0 0.01249631060104458 0.0020409167449354222 0 0.012548741537239633 0.0023793333535392061 0 0.012330232694263797 0.0022787952180515722 0 0.01249631060104458 0.0020409167449354222 0 0.011986785413683565 0.0024847007554281045 0 0.01143124300338874 0.0024518041399857354 0 0.012188059187737618 0.0024870378817300086 0 0.011530764618920789 0.0026314514905779046 0 0.011999377494561911 0.0023407790786006888 0 0.011015733758869438 0.0021957821695486046 0 0.01201892617510374 0.0025928675543617895 0 0.010183409467944521 0.0024849523024612816 0 0.004577583918152715 0.0017630305904090954 0 0.0045416145739667355 0.0017548577402187444 0 0.0046149735058031941 0.0017706553912271751 0 0.012188059187737618 0.0024870378817300086 0 0.011015733758869438 0.0021957821695486046 0 0.01201892617510374 0.0025928675543617895 0 0.0085315365478138092 0.0021764931891695015 0 0.0063693951228473173 0.0019262575502081735 0 0.012188059187737618 0.0024870378817300086 0 0.012191530283980101 0.0023166152703866308 0 0.011999377494561911 0.0023407790786006888 0 0.012095757804585303 0.0019236124568307467 0 0.012243052665728081 0.0021477207563143385 0 0.011999377494561911 0.0023407790786006888 0 0.012095757804585303 0.0019236124568307467 0 0.011999377494561911 0.0023407790786006888 0 0.011805126386631188 0.0022402838763872866 0 0.012191530283980101 0.0023166152703866308 0 0.012243052665728081 0.0021477207563143385 0 0.011999377494561911 0.0023407790786006888 0 0.011530764618920789 0.0026314514905779046 0 0.011999377494561911 0.0023407790786006888 0 0.011805126386631188 0.0022402838763872866 0 0.011590703571977392 0.002053188026056339 0 0.011530764618920789 0.0026314514905779046 0 0.011805126386631188 0.0022402838763872866 0 0.011015733758869438 0.0021957821695486046 0 0.0096997172042920209 0.0019540375477447849 0 0.010183409467944521 0.0024849523024612816 0 0.011590703571977392 0.002053188026056339 0 0.011530764618920789 0.0026314514905779046 0 0.010984357701388876 0.0022654000519742173 0 0.01143124300338874 0.0024518041399857354 0 0.0088533342496701535 0.0022522066129618259 0 0.011530764618920789 0.0026314514905779046 0 0.010984357701388876 0.0022654000519742173 0 0.010341424922463073 0.0026576251077499585 0 0.010984357701388876 0.0022654000519742173 0 0.010341424922463073 0.0026576251077499585 0 0.010509225825003977 0.0021836786534768929 0 0.0088533342496701535 0.0022522066129618259 0 0.0063693951228473173 0.0019262575502081735 0 0.0062237796147567954 0.0017664005752981589 0 0.0062145319432611312 0.0017557320978017208 0 0.0062540097878943284 0.0017506875949738307 0 0.0063693951228473173 0.0019262575502081735 0 0.0055634011753250808 0.0018624911755132638 0 0.010267068975224268 0.0026601476453952206 0 0.0099868541307378909 0.0023393447128565933 0 0.0086511529208363903 0.002325507657303509 0 0.0062237796147567954 0.0017664005752981589 0 0.0062540097878943284 0.0017506875949738307 0 0.0062916609336057371 0.0018084937692635862 0 0.0088533342496701535 0.0022522066129618259 0 0.0073493919214043767 0.0020130620570128891 0 0.0044716951323169321 0.0020441685269147465 0 0.0048825673303915179 0.0017457702056031634 0 0.0052924907553573665 0.0020595544266675979 0 0.010341424922463073 0.0026576251077499585 0 0.0099868541307378909 0.0023393447128565933 0 0.010509225825003977 0.0021836786534768929 0 0.0088533342496701535 0.0022522066129618259 0 0.0095285229449784646 0.00263580389003057 0 0.0048825673303915179 0.0017457702056031634 0 0.0052912181373446724 0.0016460654895103213 0 0.0052924907553573665 0.0020595544266675979 0 0.0048825673303915179 0.0017457702056031634 0 0.0045538829052404299 0.0014042337166420334 0 0.0050721827424164813 0.0013838318078123759 0 0.0048825673303915179 0.0017457702056031634 0 0.0050721827424164813 0.0013838318078123759 0 0.0052912181373446724 0.0016460654895103213 0 0.0039256102623553314 0.0014999918108095105 0 0.0044530948593483914 0.001672441004726292 0 0.0045538829052404299 0.0014042337166420334 0 0.0039256102623553314 0.0014999918108095105 0 0.0044716951323169321 0.0020441685269147465 0 0.0044530948593483914 0.001672441004726292 0 0.0039678245312313497 0.0015277248503313254 0 0.0063693951228473173 0.0019262575502081735 0 0.0044716951323169321 0.0020441685269147465 0 0.0048825673303915179 0.0017457702056031634 0 0.0044530948593483914 0.001672441004726292 0 0.0048825673303915179 0.0017457702056031634 0 0.0044530948593483914 0.001672441004726292 0 0.0045538829052404299 0.0014042337166420334 0 0.0039256102623553314 0.0014999918108095105 0 0.0041972330029749622 0.0011931020923029933 0 0.0045538829052404299 0.0014042337166420334 0 0.0041972330029749622 0.0011931020923029933 0 0.0045538829052404299 0.0014042337166420334 0 0.0044823043656730312 0.0010486670121595777 0 0.0045538829052404299 0.0014042337166420334 0 0.0048434986164606533 0.0011660786054830694 0 0.0044823043656730312 0.0010486670121595777 0 0.0045538829052404299 0.0014042337166420334 0 0.0050721827424164813 0.0013838318078123759 0 0.0048434986164606533 0.0011660786054830694 0 0.0050721827424164813 0.0013838318078123759 0 0.0048434986164606533 0.0011660786054830694 0 0.0052797341163500697 0.001038660505354002 0 0.0052130570863833867 0.00065482167839613819 0 0.0046525199283880738 0.00076778450441426739 0 0.0052797341163500697 0.001038660505354002 0 0.0048434986164606533 0.0011660786054830694 0 0.0046525199283880738 0.00076778450441426739 0 0.0052797341163500697 0.001038660505354002 0 0.0048434986164606533 0.0011660786054830694 0 0.0046525199283880738 0.00076778450441426739 0 0.0044823043656730312 0.0010486670121595777 0 0.0046525199283880738 0.00076778450441426739 0 0.0041356051943132717 0.00090211587516253748 0 0.0044823043656730312 0.0010486670121595777 0 0.0040561390702266225 0.00053946539614926458 0 0.0046525199283880738 0.00076778450441426739 0 0.0041356051943132717 0.00090211587516253748 0 0.0041972330029749622 0.0011931020923029933 0 0.0041356051943132717 0.00090211587516253748 0 0.0044823043656730312 0.0010486670121595777 0 0.0056648550782706824 0.00079472278284455761 0 0.0052797341163500697 0.001038660505354002 0 0.0058689881245892828 0.0011639123700392393 0 0.0056648550782706824 0.00079472278284455761 0 0.0058689881245892828 0.0011639123700392393 0 0.0060371748687300924 0.00098160175621881882 0 0.0058527897351580037 0.00057388726417723166 0 0.0056648550782706824 0.00079472278284455761 0 0.0060371748687300924 0.00098160175621881882 0 0.0052130570863833867 0.00065482167839613819 0 0.0056648550782706824 0.00079472278284455761 0 0.0052797341163500697 0.001038660505354002 0 0.0052797341163500697 0.001038660505354002 0 0.0058689881245892828 0.0011639123700392393 0 0.0055666832569518186 0.0013970476951199262 0 0.0050721827424164813 0.0013838318078123759 0 0.0052797341163500697 0.001038660505354002 0 0.0055666832569518186 0.0013970476951199262 0 0.0058689881245892828 0.0011639123700392393 0 0.0060371748687300924 0.00098160175621881882 0 0.0063556062848563492 0.0013447411482455506 0 0.0058689881245892828 0.0011639123700392393 0 0.0060984686640999982 0.0014538174782228594 0 0.0055666832569518186 0.0013970476951199262 0 0.0058689881245892828 0.0011639123700392393 0 0.0060984686640999982 0.0014538174782228594 0 0.0063556062848563492 0.0013447411482455506 0 0.0060984686640999982 0.0014538174782228594 0 0.0057630282315904897 0.0016303189013450133 0 0.0064738498066218347 0.0016864538802349161 0 0.0055666832569518186 0.0013970476951199262 0 0.0057630282315904897 0.0016303189013450133 0 0.0052912181373446724 0.0016460654895103213 0 0.0050721827424164813 0.0013838318078123759 0 0.0055666832569518186 0.0013970476951199262 0 0.0052912181373446724 0.0016460654895103213 0 0.0060984686640999982 0.0014538174782228594 0 0.0055666832569518186 0.0013970476951199262 0 0.0057630282315904897 0.0016303189013450133 0 0.0057630282315904897 0.0016303189013450133 0 0.0052912181373446724 0.0016460654895103213 0 0.0052924907553573665 0.0020595544266675979 0 0.0055634011753250808 0.0018624911755132638 0 0.0064786048322651758 0.0017511360653540181 0 0.0062540097878943284 0.0017506875949738307 0 0.0062916609336057371 0.0018084937692635862 0 0.0064738498066218347 0.0016864538802349161 0 0.0057630282315904897 0.0016303189013450133 0 0.0052924907553573665 0.0020595544266675979 0 0.0064738498066218347 0.0016864538802349161 0 0.0062916609336057371 0.0018084937692635862 0 0.0064738498066218347 0.0016864538802349161 0 0.0070012769693216679 0.0016637749807285579 0 0.0060984686640999982 0.0014538174782228594 0 0.0064738498066218347 0.0016864538802349161 0 0.0067056834484481073 0.0015602277446963714 0 0.0073493919214043767 0.0020130620570128891 0 0.0070786014891613801 0.0017485423981157225 0 0.0086511529208363903 0.002325507657303509 0 0.0080118567786033167 0.0015879853905926384 0 0.0070012769693216679 0.0016637749807285579 0 0.0080118567786033167 0.0015879853905926384 0 0.007678272645970893 0.0013270202656387323 0 0.0070012769693216679 0.0016637749807285579 0 0.0080118567786033167 0.0015879853905926384 0 0.0081055121351248198 0.0012624676962070282 0 0.007678272645970893 0.0013270202656387323 0 0.007678272645970893 0.0013270202656387323 0 0.0074156861260953159 0.0012379057316809828 0 0.0070012769693216679 0.0016637749807285579 0 0.007678272645970893 0.0013270202656387323 0 0.0078014745539445622 0.0009612526575068684 0 0.0074156861260953159 0.0012379057316809828 0 0.0078014745539445622 0.0009612526575068684 0 0.0074404951831828822 0.0010134162599415544 0 0.0074156861260953159 0.0012379057316809828 0 0.0081055121351248198 0.0012624676962070282 0 0.007678272645970893 0.0013270202656387323 0 0.0078014745539445622 0.0009612526575068684 0 0.0081055121351248198 0.0012624676962070282 0 0.0078014745539445622 0.0009612526575068684 0 0.0085572567141167996 0.00092181009429614436 0 0.0078014745539445622 0.0009612526575068684 0 0.0078664325018497384 0.00056502702538153906 0 0.0076307604143843553 0.00076038810347150737 0 0.0085572567141167996 0.00092181009429614436 0 0.0091849832802578541 0.00056549843638173218 0 0.0083689431005850839 0.00045283029793072511 0 0.0085572567141167996 0.00092181009429614436 0 0.0092312402104169321 0.0011684762340968976 0 0.0091849832802578541 0.00056549843638173218 0 0.0078014745539445622 0.0009612526575068684 0 0.0085572567141167996 0.00092181009429614436 0 0.0083689431005850839 0.00045283029793072511 0 0.0081055121351248198 0.0012624676962070282 0 0.0085572567141167996 0.00092181009429614436 0 0.0086402785208599224 0.0014570898545457449 0 0.0085572567141167996 0.00092181009429614436 0 0.0086402785208599224 0.0014570898545457449 0 0.0092312402104169321 0.0011684762340968976 0 0.0086402785208599224 0.0014570898545457449 0 0.0092258312703936713 0.0017214057750404045 0 0.0092312402104169321 0.0011684762340968976 0 0.0080118567786033167 0.0015879853905926384 0 0.0081055121351248198 0.0012624676962070282 0 0.0086402785208599224 0.0014570898545457449 0 0.0086511529208363903 0.002325507657303509 0 0.0080118567786033167 0.0015879853905926384 0 0.0086402785208599224 0.0014570898545457449 0 0.0086511529208363903 0.002325507657303509 0 0.0086402785208599224 0.0014570898545457449 0 0.0092258312703936713 0.0017214057750404045 0 0.0086511529208363903 0.002325507657303509 0 0.0095944273305632391 0.0019750234325049349 0 0.0092258312703936713 0.0017214057750404045 0 0.0099868541307378909 0.0023393447128565933 0 0.0086511529208363903 0.002325507657303509 0 0.0095944273305632391 0.0019750234325049349 0 0.0095944273305632391 0.0019750234325049349 0 0.0099614551993777462 0.0015279587762707365 0 0.0092258312703936713 0.0017214057750404045 0 0.0099868541307378909 0.0023393447128565933 0 0.0095944273305632391 0.0019750234325049349 0 0.010178491763429571 0.0019570416603768934 0 0.0095944273305632391 0.0019750234325049349 0 0.010178491763429571 0.0019570416603768934 0 0.0099614551993777462 0.0015279587762707365 0 0.0099868541307378909 0.0023393447128565933 0 0.010178491763429571 0.0019570416603768934 0 0.010509225825003977 0.0021836786534768929 0 0.0099614551993777462 0.0015279587762707365 0 0.0092258312703936713 0.0017214057750404045 0 0.0092312402104169321 0.0011684762340968976 0 0.012072357097903674 0.0012967249401912807 0 0.010862786771351243 0.001799630767457749 0 0.010568726975872713 0.0011702428823961405 0 0.011590703571977392 0.002053188026056339 0 0.010984357701388876 0.0022654000519742173 0 0.010862786771351243 0.001799630767457749 0 0.012072357097903674 0.0012967249401912807 0 0.011590703571977392 0.002053188026056339 0 0.010862786771351243 0.001799630767457749 0 0.010178491763429571 0.0019570416603768934 0 0.0099614551993777462 0.0015279587762707365 0 0.010862786771351243 0.001799630767457749 0 0.010984357701388876 0.0022654000519742173 0 0.010862786771351243 0.001799630767457749 0 0.010509225825003977 0.0021836786534768929 0 0.010178491763429571 0.0019570416603768934 0 0.010862786771351243 0.001799630767457749 0 0.010509225825003977 0.0021836786534768929 0 0.0099614551993777462 0.0015279587762707365 0 0.010862786771351243 0.001799630767457749 0 0.010568726975872713 0.0011702428823961405 0 0.012072357097903674 0.0012967249401912807 0 0.012496929278298661 0.00058307068340642464 0 0.012567843934208385 0.00033421143581140492 0 0.012072357097903674 0.0012967249401912807 0 0.010568726975872713 0.0011702428823961405 0 0.010245208114997094 0.00032567400484167591 0 0.01215861196656523 0.0013077251242614766 0 0.011334952881625485 0.00033950420231525712 0 0.010568726975872713 0.0011702428823961405 0 0.010245208114997094 0.00032567400484167591 0 0.0098576625082785335 0.00091458118322568541 0 0.010245208114997094 0.00032567400484167591 0 0.0098576625082785335 0.00091458118322568541 0 0.0091849832802578541 0.00056549843638173218 0 0.0092312402104169321 0.0011684762340968976 0 0.0098576625082785335 0.00091458118322568541 0 0.0091849832802578541 0.00056549843638173218 0 0.0099614551993777462 0.0015279587762707365 0 0.0092312402104169321 0.0011684762340968976 0 0.0098576625082785335 0.00091458118322568541 0 0.0099614551993777462 0.0015279587762707365 0 0.010568726975872713 0.0011702428823961405 0 0.0098576625082785335 0.00091458118322568541 0 0.012567843934208385 0.00033421143581140492 0 0.012845132508765658 -2.1260552316957587e-05 0 0.012066047171023666 -0.00019272432871342569 0 0.011334952881625485 0.00033950420231525712 0 0.010951045160458282 0.00016408135851793542 0 0.013585007022286884 -3.4885586250194842e-05 0 0.010951045160458282 0.00016408135851793542 0 0.010245208114997094 0.00032567400484167591 0 0.0091849832802578541 0.00056549843638173218 0 0.0089985714099824962 -0.00014472762732305091 0 0.012811063981224087 0.00020138419803565369 0 0.012496929278298661 0.00058307068340642464 0 0.012567843934208385 0.00033421143581140492 0 0.012811063981224087 0.00020138419803565369 0 0.012567843934208385 0.00033421143581140492 0 0.012845132508765658 -2.1260552316957587e-05 0 0.012969768614994064 6.154727315245382e-05 0 0.012845132508765658 -2.1260552316957587e-05 0 0.013086669284711788 7.2638737262795766e-06 0 0.013086669284711788 7.2638737262795766e-06 0 0.013546491753643201 -0.00022943315080437615 0 0.013423808890709855 1.7994612225630548e-05 0 0.012845132508765658 -2.1260552316957587e-05 0 0.013086669284711788 7.2638737262795766e-06 0 0.013546491753643201 -0.00022943315080437615 0 0.013546491753643201 -0.00022943315080437615 0 0.013676918151617748 1.2433151669870629e-06 0 0.013423808890709855 1.7994612225630548e-05 0 0.0094872717146670029 0.00095375747924637691 0 0.009161344038803176 0.00088599232252373325 0 0.0092633836782166027 0.00077438022446011301 0 0.010951045160458282 0.00016408135851793542 0 0.011711894092247458 0.00044621282534609472 0 0.010951045160458282 0.00016408135851793542 0 0.0082199270906212034 0.00053435375638405239 0 0.013546491753643201 -0.00022943315080437615 0 0.013965245071391455 -3.4166988358919404e-05 0 0.013676918151617748 1.2433151669870629e-06 0 0.009161344038803176 0.00088599232252373325 0 0.0092633836782166027 0.00077438022446011301 0 0.009098047550018867 0.00077681945324487337 0 0.0078997454793011193 0.00018381439123674661 0 0.0078664325018497384 0.00056502702538153906 0 0.0083689431005850839 0.00045283029793072511 0 0.0078997454793011193 0.00018381439123674661 0 0.0078664325018497384 0.00056502702538153906 0 0.0076776831197261815 0.00056005821320328055 0 0.0078014745539445622 0.0009612526575068684 0 0.0078664325018497384 0.00056502702538153906 0 0.0083689431005850839 0.00045283029793072511 0 0.0091849832802578541 0.00056549843638173218 0 0.0089985714099824962 -0.00014472762732305091 0 0.0083689431005850839 0.00045283029793072511 0 0.0089985714099824962 -0.00014472762732305091 0 0.0078997454793011193 0.00018381439123674661 0 0.0083689431005850839 0.00045283029793072511 0 0.013818701970940549 0.00015368239648896428 0 0.01372711422384661 0.00022009887572061384 0 0.014022671449677939 0.00031860430240642092 0 0.013818701970940549 0.00015368239648896428 0 0.014073717469261044 0.00021056826377428668 0 0.014022671449677939 0.00031860430240642092 0 0.014073717469261044 0.00021056826377428668 0 0.014290262802553631 0.00036838011820326583 0 0.014270119831101286 0.00018361931471337831 0 0.011711894092247458 0.00044621282534609472 0 0.011632076988314486 0.00043508374660977477 0 0.0092633836782166027 0.00077438022446011301 0 0.0090182945694376824 0.00067524506865824922 0 0.009098047550018867 0.00077681945324487337 0 0.014073717469261044 0.00021056826377428668 0 0.013965245071391455 -3.4166988358919404e-05 0 0.014270119831101286 0.00018361931471337831 0 0.013818701970940549 0.00015368239648896428 0 0.014073717469261044 0.00021056826377428668 0 0.013965245071391455 -3.4166988358919404e-05 0 0.013818701970940549 0.00015368239648896428 0 0.013965245071391455 -3.4166988358919404e-05 0 0.013676918151617748 1.2433151669870629e-06 0 0.013676918151617748 1.2433151669870629e-06 0 0.013423808890709855 1.7994612225630548e-05 0 0.013570432179432268 0.00011415538584039762 0 0.013570432179432268 0.00011415538584039762 0 0.013317103960573617 8.0069997744963942e-05 0 0.013506923216439908 0.00018074192893307092 0 0.013423808890709855 1.7994612225630548e-05 0 0.013570432179432268 0.00011415538584039762 0 0.013317103960573617 8.0069997744963942e-05 0 0.013818701970940549 0.00015368239648896428 0 0.013676918151617748 1.2433151669870629e-06 0 0.013570432179432268 0.00011415538584039762 0 0.013086669284711788 7.2638737262795766e-06 0 0.013317103960573617 8.0069997744963942e-05 0 0.013122783287963567 4.3316234636258241e-05 0 0.013086669284711788 7.2638737262795766e-06 0 0.013423808890709855 1.7994612225630548e-05 0 0.013317103960573617 8.0069997744963942e-05 0 0.013317103960573617 8.0069997744963942e-05 0 0.013297776544788325 0.00013883983367330574 0 0.013122783287963567 4.3316234636258241e-05 0 0.013317103960573617 8.0069997744963942e-05 0 0.013297776544788325 0.00013883983367330574 0 0.013506923216439908 0.00018074192893307092 0 0.013297776544788325 0.00013883983367330574 0 0.013506923216439908 0.00018074192893307092 0 0.01346793139608172 0.00027105441981237828 0 0.013506923216439908 0.00018074192893307092 0 0.013776572793098227 0.00031128086379109382 0 0.01346793139608172 0.00027105441981237828 0 0.013297776544788325 0.00013883983367330574 0 0.01346793139608172 0.00027105441981237828 0 0.013240400173262975 0.00021494321119826002 0 0.013818701970940549 0.00015368239648896428 0 0.013570432179432268 0.00011415538584039762 0 0.01372711422384661 0.00022009887572061384 0 0.013570432179432268 0.00011415538584039762 0 0.013506923216439908 0.00018074192893307092 0 0.01372711422384661 0.00022009887572061384 0 0.013506923216439908 0.00018074192893307092 0 0.01372711422384661 0.00022009887572061384 0 0.013776572793098227 0.00031128086379109382 0 0.013776572793098227 0.00031128086379109382 0 0.014004941562541983 0.00044827779615395908 0 0.014022671449677939 0.00031860430240642092 0 0.013776572793098227 0.00031128086379109382 0 0.013588803941150581 0.00042031219292121329 0 0.014004941562541983 0.00044827779615395908 0 0.01372711422384661 0.00022009887572061384 0 0.013776572793098227 0.00031128086379109382 0 0.014022671449677939 0.00031860430240642092 0 0.01346793139608172 0.00027105441981237828 0 0.013374902516761357 0.00037336276041188485 0 0.013240400173262975 0.00021494321119826002 0 0.013776572793098227 0.00031128086379109382 0 0.01346793139608172 0.00027105441981237828 0 0.013588803941150581 0.00042031219292121329 0 0.01346793139608172 0.00027105441981237828 0 0.013588803941150581 0.00042031219292121329 0 0.013374902516761357 0.00037336276041188485 0 0.013588803941150581 0.00042031219292121329 0 0.013415447666763688 0.00058401708183214581 0 0.013736121047269761 0.00081584275311991734 0 0.013588803941150581 0.00042031219292121329 0 0.013415447666763688 0.00058401708183214581 0 0.013374902516761357 0.00037336276041188485 0 0.014004941562541983 0.00044827779615395908 0 0.014378359449563524 0.00057061851215361482 0 0.013736121047269761 0.00081584275311991734 0 0.013588803941150581 0.00042031219292121329 0 0.014004941562541983 0.00044827779615395908 0 0.013736121047269761 0.00081584275311991734 0 0.014004941562541983 0.00044827779615395908 0 0.014309339106606441 0.00047324923610939768 0 0.014378359449563524 0.00057061851215361482 0 0.014004941562541983 0.00044827779615395908 0 0.014309339106606441 0.00047324923610939768 0 0.014022671449677939 0.00031860430240642092 0 0.014073717469261044 0.00021056826377428668 0 0.014022671449677939 0.00031860430240642092 0 0.014290262802553631 0.00036838011820326583 0 0.014309339106606441 0.00047324923610939768 0 0.014022671449677939 0.00031860430240642092 0 0.014290262802553631 0.00036838011820326583 0 0.014309339106606441 0.00047324923610939768 0 0.014290262802553631 0.00036838011820326583 0 0.01438383327162223 0.00043173158141259334 0 0.014309339106606441 0.00047324923610939768 0 0.01438383327162223 0.00043173158141259334 0 0.014530332125372242 0.0003651627866937957 0 0.014530332125372242 0.0003651627866937957 0 0.014378359449563524 0.00057061851215361482 0 0.01463215608354144 0.00032452277160196065 0 0.014309339106606441 0.00047324923610939768 0 0.014530332125372242 0.0003651627866937957 0 0.014378359449563524 0.00057061851215361482 0 0.014530332125372242 0.0003651627866937957 0 0.01463215608354144 0.00032452277160196065 0 0.014744359810830472 0.00017491341966561637 0 0.014530332125372242 0.0003651627866937957 0 0.014744359810830472 0.00017491341966561637 0 0.014719438183627268 0.00010592648013210201 0 0.014744359810830472 0.00017491341966561637 0 0.014892729767565107 5.2542988926342636e-05 0 0.014719438183627268 0.00010592648013210201 0 0.014744359810830472 0.00017491341966561637 0 0.014892729767565107 5.2542988926342636e-05 0 0.014915328726251585 7.7145289625081317e-05 0 0.014892729767565107 5.2542988926342636e-05 0 0.014999710098496767 4.9732689042765181e-08 0 0.01499986413557119 8.2961774035701254e-09 0 0.014892729767565107 5.2542988926342636e-05 0 0.014999710098496767 4.9732689042765181e-08 0 0.014719438183627268 0.00010592648013210201 0 0.01499986413557119 8.2961774035701254e-09 0 0.014995349705021732 4.1160701540569261e-05 0 0.015000119060273844 5.0698148365814799e-08 0 0.01499986413557119 8.2961774035701254e-09 0 0.014915328726251585 7.7145289625081317e-05 0 0.014995349705021732 4.1160701540569261e-05 0 0.014892729767565107 5.2542988926342636e-05 0 0.01499986413557119 8.2961774035701254e-09 0 0.014915328726251585 7.7145289625081317e-05 0 0.014744359810830472 0.00017491341966561637 0 0.014915328726251585 7.7145289625081317e-05 0 0.014857663282800559 0.00021269100323829073 0 0.014915328726251585 7.7145289625081317e-05 0 0.01497742165541077 0.0001478347450645211 0 0.014857663282800559 0.00021269100323829073 0 0.014915328726251585 7.7145289625081317e-05 0 0.01497742165541077 0.0001478347450645211 0 0.014995349705021732 4.1160701540569261e-05 0 0.014857663282800559 0.00021269100323829073 0 0.014882169309567799 0.00048472324896973686 0 0.015060627600198811 0.00025042723419528887 0 0.01497742165541077 0.0001478347450645211 0 0.014857663282800559 0.00021269100323829073 0 0.015060627600198811 0.00025042723419528887 0 0.01463215608354144 0.00032452277160196065 0 0.014857663282800559 0.00021269100323829073 0 0.014882169309567799 0.00048472324896973686 0 0.01463215608354144 0.00032452277160196065 0 0.014744359810830472 0.00017491341966561637 0 0.014857663282800559 0.00021269100323829073 0 0.014378359449563524 0.00057061851215361482 0 0.01463215608354144 0.00032452277160196065 0 0.014882169309567799 0.00048472324896973686 0 0.014362117907012724 0.0005920471212447902 0 0.014313522350758029 0.00064536519880758765 0 0.014882169309567799 0.00048472324896973686 0 0.015115003239904078 0.00042688854238883133 0 0.015060627600198811 0.00025042723419528887 0 0.014313522350758029 0.00064536519880758765 0 0.014155322950874214 0.00052973690148095949 0 0.013415447666763688 0.00058401708183214581 0 0.013736121047269761 0.00081584275311991734 0 0.013328008328670688 0.00089069832703929776 0 0.015085195666993539 0.00034719965387653849 0 0.015213648627557388 0.0003269677503866344 0 0.015130802403788855 0.00026622417988792142 0 0.014155322950874214 0.00052973690148095949 0 0.014216698164134952 0.00030211886907903431 0 0.015000063222573199 -2.3165232987674848e-08 0 0.014992192139925968 3.1275902343736388e-06 0 0.014999857685350693 3.7537791567182789e-08 0 0.013233266933459241 0.00051211439729792398 0 0.013252791081886206 0.00052157373557659551 0 0.013228622868740396 0.00052394913148354877 0 0.013228622868740396 0.00052394913148354877 0 0.013215682524335302 0.00050110560917613104 0 0.01322360713898417 0.00050597858100273315 0 0.013966066830853141 0.00045913101199782937 0 0.013751647917207869 0.00030844697286102073 0 0.013868920745666652 0.00017071304918245969 0 0.013233266933459241 0.00051211439729792398 0 0.013228622868740396 0.00052394913148354877 0 0.01322360713898417 0.00050597858100273315 0 0.014216698164134952 0.00030211886907903431 0 0.013344674464718334 0.00043385865359895834 0 0.014216698164134952 0.00030211886907903431 0 0.01403871806475919 0.00032929395818975013 0 0.015213648627557388 0.0003269677503866344 0 0.015130802403788855 0.00026622417988792142 0 0.015167655825928288 0.00013482224154612844 0 0.014556203807782404 0.00013601139557477051 0 0.014609762414249973 0.0002850966330414677 0 0.014488003271489316 0.00022690561565937289 0 0.014216698164134952 0.00030211886907903431 0 0.014963486133630423 0.00013406564913843473 0 0.014556203807782404 0.00013601139557477051 0 0.014488003271489316 0.00022690561565937289 0 0.014462293425323914 0.00015244430654241413 0 0.015130802403788855 0.00026622417988792142 0 0.015060627600198811 0.00025042723419528887 0 0.015167655825928288 0.00013482224154612844 0 0.015085195666993539 0.00034719965387653849 0 0.015130802403788855 0.00026622417988792142 0 0.015060627600198811 0.00025042723419528887 0 0.014155322950874214 0.00052973690148095949 0 0.014954326655967491 0.00035089347728312368 0 0.01497742165541077 0.0001478347450645211 0 0.015060627600198811 0.00025042723419528887 0 0.015167655825928288 0.00013482224154612844 0 0.01500019763975423 -1.0912203531370138e-05 0 0.015000063222573199 -2.3165232987674848e-08 0 0.014994183960428266 -3.7686049982314597e-06 0 0.015044978423126326 5.0305033127867054e-05 0 0.014963486133630423 0.00013406564913843473 0 0.01497742165541077 0.0001478347450645211 0 0.014995349705021732 4.1160701540569261e-05 0 0.015167655825928288 0.00013482224154612844 0 0.015005175827775325 -1.1645440255902577e-05 0 0.01500019763975423 -1.0912203531370138e-05 0 0.015000063222573199 -2.3165232987674848e-08 0 0.014963486133630423 0.00013406564913843473 0 0.014749305633906891 9.6630112615543574e-05 0 0.015005175827775325 -1.1645440255902577e-05 0 0.01500019763975423 -1.0912203531370138e-05 0 0.01499979638333101 -2.8676676149656827e-05 0 0.014995349705021732 4.1160701540569261e-05 0 0.015028029386832901 5.7454879441510456e-05 0 0.015000119060273844 5.0698148365814799e-08 0 0.014963486133630423 0.00013406564913843473 0 0.015000002970387573 -1.4612561158745601e-07 0 0.015000063222573199 -2.3165232987674848e-08 0 0.014992192139925968 3.1275902343736388e-06 0 0.014994183960428266 -3.7686049982314597e-06 0 0.014992192139925968 3.1275902343736388e-06 0 0.014994183960428266 -3.7686049982314597e-06 0 0.014982179702156971 -6.4960938049296885e-06 0 0.014992192139925968 3.1275902343736388e-06 0 0.014982179702156971 -6.4960938049296885e-06 0 0.014954314020342899 -9.6160479786535352e-06 0 0.01500019763975423 -1.0912203531370138e-05 0 0.014994183960428266 -3.7686049982314597e-06 0 0.014985836171693889 -2.1826135036243662e-05 0 0.01500019763975423 -1.0912203531370138e-05 0 0.014985836171693889 -2.1826135036243662e-05 0 0.01499979638333101 -2.8676676149656827e-05 0 0.014994183960428266 -3.7686049982314597e-06 0 0.014985836171693889 -2.1826135036243662e-05 0 0.014982179702156971 -6.4960938049296885e-06 0 0.014985836171693889 -2.1826135036243662e-05 0 0.014982179702156971 -6.4960938049296885e-06 0 0.01496310969638814 -2.0381463170740846e-05 0 0.014982179702156971 -6.4960938049296885e-06 0 0.01496310969638814 -2.0381463170740846e-05 0 0.014954314020342899 -9.6160479786535352e-06 0 0.01496310969638814 -2.0381463170740846e-05 0 0.014949118720292805 -4.6668108101305794e-05 0 0.014926957415523629 -3.1214007934300497e-05 0 0.014985836171693889 -2.1826135036243662e-05 0 0.01496310969638814 -2.0381463170740846e-05 0 0.014949118720292805 -4.6668108101305794e-05 0 0.014949118720292805 -4.6668108101305794e-05 0 0.014971928583594266 -6.7017258327094998e-05 0 0.014899864459200069 -7.3533791633444197e-05 0 0.014458721505132386 9.8369922137180491e-05 0 0.015100548588577501 -0.0001103611687369482 0 0.014985836171693889 -2.1826135036243662e-05 0 0.014949118720292805 -4.6668108101305794e-05 0 0.014971928583594266 -6.7017258327094998e-05 0 0.014458721505132386 9.8369922137180491e-05 0 0.014749305633906891 9.6630112615543574e-05 0 0.014985836171693889 -2.1826135036243662e-05 0 0.014971928583594266 -6.7017258327094998e-05 0 0.01499979638333101 -2.8676676149656827e-05 0 0.014369453806255889 0.00016781727144511385 0 0.014488003271489316 0.00022690561565937289 0 0.014462293425323914 0.00015244430654241413 0 0.014458721505132386 9.8369922137180491e-05 0 0.01403871806475919 0.00032929395818975013 0 0.013966066830853141 0.00045913101199782937 0 0.013758190756302564 0.00049632922566731372 0 0.013751647917207869 0.00030844697286102073 0 0.013550459583097798 0.00053433967693028678 0 0.013758190756302564 0.00049632922566731372 0 0.013574556942943995 0.00032771631506321931 0 0.013758190756302564 0.00049632922566731372 0 0.013751647917207869 0.00030844697286102073 0 0.013574556942943995 0.00032771631506321931 0 0.013550459583097798 0.00053433967693028678 0 0.013574556942943995 0.00032771631506321931 0 0.013341971172179116 0.00043552444251700986 0 0.013574556942943995 0.00032771631506321931 0 0.013450775585413768 0.00022984034318358884 0 0.013341971172179116 0.00043552444251700986 0 0.014458721505132386 9.8369922137180491e-05 0 0.014272888039696487 0.0002173856598588964 0 0.013574556942943995 0.00032771631506321931 0 0.013450775585413768 0.00022984034318358884 0 0.013638338970900164 5.3953033862565594e-05 0 0.013450775585413768 0.00022984034318358884 0 0.013401479307736608 9.5308273404142902e-05 0 0.013638338970900164 5.3953033862565594e-05 0 0.013401479307736608 9.5308273404142902e-05 0 0.013404613427618339 -6.2265191976688318e-05 0 0.013638338970900164 5.3953033862565594e-05 0 0.013242761140002475 0.00046234169271432363 0 0.013213483279054656 0.00047041144715649549 0 0.013220433940563525 0.00048952440187354635 0 0.01336369240370733 0.00023525441870211151 0 0.013436929723641826 0.00025210636056752223 0 0.013242761140002475 0.00046234169271432363 0 0.013213483279054656 0.00047041144715649549 0 0.013214897814599693 0.00044898938841105837 0 0.01339186204513264 1.2007767537035807e-05 0 0.01336369240370733 0.00023525441870211151 0 0.013201740656711716 0.00047344142384134349 0 0.013202510507893212 0.0004891516364267524 0 0.01320235052332437 0.00048957103332206652 0 0.013202305403628843 0.00048948408792766275 0 0.01320238815473904 0.00049069539203494214 0 0.013213483279054656 0.00047041144715649549 0 0.013195096596578179 0.00046148735719279656 0 0.01320238815473904 0.00049069539203494214 0 0.013213483279054656 0.00047041144715649549 0 0.013214897814599693 0.00044898938841105837 0 0.013195096596578179 0.00046148735719279656 0 0.013436929723641826 0.00025210636056752223 0 0.013344674464718334 0.00043385865359895834 0 0.013751647917207869 0.00030844697286102073 0 0.013638338970900164 5.3953033862565594e-05 0 0.013868920745666652 0.00017071304918245969 0 0.013751647917207869 0.00030844697286102073 0 0.013574556942943995 0.00032771631506321931 0 0.013638338970900164 5.3953033862565594e-05 0 0.013201740656711716 0.00047344142384134349 0 0.013344674464718334 0.00043385865359895834 0 0.013214897814599693 0.00044898938841105837 0 0.013195096596578179 0.00046148735719279656 0 0.013188593336678238 0.00043560047433706335 0 0.013233266933459241 0.00051211439729792398 0 0.01322360713898417 0.00050597858100273315 0 0.013222345338679499 0.00049136973153916384 0 0.013344674464718334 0.00043385865359895834 0 0.013237937145475085 0.0004559794455434484 0 0.01322360713898417 0.00050597858100273315 0 0.013222345338679499 0.00049136973153916384 0 0.013210124141121547 0.00049320484341511923 0 0.013208830302467943 0.00050157370757805241 0 0.01322360713898417 0.00050597858100273315 0 0.013210124141121547 0.00049320484341511923 0 0.013415447666763688 0.00058401708183214581 0 0.013328008328670688 0.00089069832703929776 0 0.013168637107620292 0.0004275581571304312 0 0.013233266933459241 0.00051211439729792398 0 0.013252791081886206 0.00052157373557659551 0 0.013222345338679499 0.00049136973153916384 0 0.014155322950874214 0.00052973690148095949 0 0.013080655015084928 0.00047547536070581049 0 0.013415447666763688 0.00058401708183214581 0 0.013374902516761357 0.00037336276041188485 0 0.013168637107620292 0.0004275581571304312 0 0.013168637107620292 0.0004275581571304312 0 0.013060419441866861 0.0001069260293571911 0 0.013240400173262975 0.00021494321119826002 0 0.013374902516761357 0.00037336276041188485 0 0.013168637107620292 0.0004275581571304312 0 0.013240400173262975 0.00021494321119826002 0 0.013080655015084928 0.00047547536070581049 0 0.013146027241532649 0.00030461907733075481 0 0.013222345338679499 0.00049136973153916384 0 0.013202305403628843 0.00048948408792766275 0 0.013188089033818063 0.00049227036302827275 0 0.01320235052332437 0.00048957103332206652 0 0.013208830302467943 0.00050157370757805241 0 0.013210124141121547 0.00049320484341511923 0 0.01320235052332437 0.00048957103332206652 0 0.013210124141121547 0.00049320484341511923 0 0.013202305403628843 0.00048948408792766275 0 0.013222345338679499 0.00049136973153916384 0 0.013210124141121547 0.00049320484341511923 0 0.013202305403628843 0.00048948408792766275 0 0.013202305403628843 0.00048948408792766275 0 0.013188089033818063 0.00049227036302827275 0 0.01320238815473904 0.00049069539203494214 0 0.013060419441866861 0.0001069260293571911 0 0.013240400173262975 0.00021494321119826002 0 0.013149694605151486 9.3154468811858118e-05 0 0.013297776544788325 0.00013883983367330574 0 0.013240400173262975 0.00021494321119826002 0 0.013149694605151486 9.3154468811858118e-05 0 0.013060419441866861 0.0001069260293571911 0 0.013149694605151486 9.3154468811858118e-05 0 0.01307999359400451 4.6453578391287383e-05 0 0.013297776544788325 0.00013883983367330574 0 0.013149694605151486 9.3154468811858118e-05 0 0.013122783287963567 4.3316234636258241e-05 0 0.013149694605151486 9.3154468811858118e-05 0 0.01307999359400451 4.6453578391287383e-05 0 0.013122783287963567 4.3316234636258241e-05 0 0.013134337587576927 4.9698623687967792e-05 0 0.013060419441866861 0.0001069260293571911 0 0.01307999359400451 4.6453578391287383e-05 0 0.013152678174804902 0.00030604967775354423 0 0.013146027241532649 0.00030461907733075481 0 0.013175994469645418 0.00054437515773389424 0 0.013188089033818063 0.00049227036302827275 0 0.013204727726110402 0.0005108762447777423 0 0.013211849921169933 0.00054438229418980776 0 0.013175994469645418 0.00054437515773389424 0 0.013204727726110402 0.0005108762447777423 0 0.013204727726110402 0.0005108762447777423 0 0.013240004000799777 0.00051352772626607555 0 0.013220433940563525 0.00048952440187354635 0 0.013211849921169933 0.00054438229418980776 0 0.013204727726110402 0.0005108762447777423 0 0.013240004000799777 0.00051352772626607555 0 0.01336369240370733 0.00023525441870211151 0 0.013167602967396016 0.00049041019969403544 0 0.013242761140002475 0.00046234169271432363 0 0.013240004000799777 0.00051352772626607555 0 0.013220433940563525 0.00048952440187354635 0 0.013213483279054656 0.00047041144715649549 0 0.013220433940563525 0.00048952440187354635 0 0.01320238815473904 0.00049069539203494214 0 0.013188089033818063 0.00049227036302827275 0 0.013204727726110402 0.0005108762447777423 0 0.01320238815473904 0.00049069539203494214 0 0.013204727726110402 0.0005108762447777423 0 0.013220433940563525 0.00048952440187354635 0 0.01320238815473904 0.00049069539203494214 0 0.011393424751985579 0.00012672805944828437 0 0.011401159380718633 4.9762043779485925e-05 0 0.011368717887888305 8.2622872221125413e-05 0 0.011307084130216047 3.0359045116754373e-05 0 0.01130543655117002 2.0900666177813657e-05 0 0.01132343778197121 7.9457806155370061e-06 0 0.011345541440312234 0.00010205354272281484 0 0.011393424751985579 0.00012672805944828437 0 0.011368717887888305 8.2622872221125413e-05 0 0.011212492746461456 -7.2772940481856766e-06 0 0.0123147689184013 9.5514166702351082e-05 0 0.013139809018186429 0.00026669694287951646 0 0.01314172010323451 0.00040829391869023185 0 0.013217322931359498 0.00030665153795442928 0 0.0123147689184013 9.5514166702351082e-05 0 0.01231030270421748 0.00027166615346879073 0 0.01314172010323451 0.00040829391869023185 0 0.013217322931359498 0.00030665153795442928 0 0.013212434061495163 0.00044335065191664893 0 0.011401159380718633 4.9762043779485925e-05 0 0.011368717887888305 8.2622872221125413e-05 0 0.011335678546967192 5.1418990783061315e-05 0 0.011345541440312234 0.00010205354272281484 0 0.011368717887888305 8.2622872221125413e-05 0 0.011335678546967192 5.1418990783061315e-05 0 0.011345541440312234 0.00010205354272281484 0 0.011335678546967192 5.1418990783061315e-05 0 0.01129784425681353 6.280265410009337e-05 0 0.011335678546967192 5.1418990783061315e-05 0 0.011297152535627375 5.5197544712514806e-05 0 0.01129784425681353 6.280265410009337e-05 0 0.011263103669806653 5.8782795956456779e-05 0 0.011278503056439628 6.4756421820922838e-05 0 0.011248375877869549 8.011049763932736e-05 0 0.011263103669806653 5.8782795956456779e-05 0 0.011297152535627375 5.5197544712514806e-05 0 0.011278503056439628 6.4756421820922838e-05 0 0.011297152535627375 5.5197544712514806e-05 0 0.011278503056439628 6.4756421820922838e-05 0 0.01129784425681353 6.280265410009337e-05 0 0.011278503056439628 6.4756421820922838e-05 0 0.01129749779040741 3.9055277858382907e-05 0 0.011283713719423247 5.83267093920713e-05 0 0.011278503056439628 6.4756421820922838e-05 0 0.01129749779040741 3.9055277858382907e-05 0 0.01129784425681353 6.280265410009337e-05 0 0.01129749779040741 3.9055277858382907e-05 0 0.011308071655537483 2.7008322275403151e-05 0 0.011316688402018243 6.5515512106749005e-06 0 0.01129749779040741 3.9055277858382907e-05 0 0.011316688402018243 6.5515512106749005e-06 0 0.011306888288766559 1.0850020454245744e-05 0 0.01129749779040741 3.9055277858382907e-05 0 0.011306888288766559 1.0850020454245744e-05 0 0.011283713719423247 5.83267093920713e-05 0 0.011307084130216047 3.0359045116754373e-05 0 0.011308071655537483 2.7008322275403151e-05 0 0.01132343778197121 7.9457806155370061e-06 0 0.011307084130216047 3.0359045116754373e-05 0 0.01129784425681353 6.280265410009337e-05 0 0.011308071655537483 2.7008322275403151e-05 0 0.011212492746461456 -7.2772940481856766e-06 0 0.011343515364312842 8.0390012896814063e-05 0 0.01129749779040741 3.9055277858382907e-05 0 0.01129784425681353 6.280265410009337e-05 0 0.011308071655537483 2.7008322275403151e-05 0 0.011308071655537483 2.7008322275403151e-05 0 0.01132343778197121 7.9457806155370061e-06 0 0.011316688402018243 6.5515512106749005e-06 0 0.01132343778197121 7.9457806155370061e-06 0 0.011316688402018243 6.5515512106749005e-06 0 0.011334515283111548 -8.8144857644832447e-06 0 0.011316688402018243 6.5515512106749005e-06 0 0.011320871006934217 -1.0411910049551931e-05 0 0.011306888288766559 1.0850020454245744e-05 0 0.011316688402018243 6.5515512106749005e-06 0 0.011327471214856912 -8.2242409038022213e-06 0 0.011334515283111548 -8.8144857644832447e-06 0 0.011316688402018243 6.5515512106749005e-06 0 0.011320871006934217 -1.0411910049551931e-05 0 0.011327471214856912 -8.2242409038022213e-06 0 0.011510528412004308 -0.00014294026573742334 0 0.011467269681362541 -0.00010234327213142851 0 0.011541968491588162 -0.00017983724362577861 0 0.011320871006934217 -1.0411910049551931e-05 0 0.011335755850826046 -9.8978652182348301e-06 0 0.01131636677994608 -2.2137750515728028e-05 0 0.011320871006934217 -1.0411910049551931e-05 0 0.011327471214856912 -8.2242409038022213e-06 0 0.011335755850826046 -9.8978652182348301e-06 0 0.011327471214856912 -8.2242409038022213e-06 0 0.011335755850826046 -9.8978652182348301e-06 0 0.011334515283111548 -8.8144857644832447e-06 0 0.01132343778197121 7.9457806155370061e-06 0 0.011357053875354612 -2.5738422162606837e-05 0 0.011334515283111548 -8.8144857644832447e-06 0 0.011335755850826046 -9.8978652182348301e-06 0 0.011357053875354612 -2.5738422162606837e-05 0 0.011334515283111548 -8.8144857644832447e-06 0 0.011357053875354612 -2.5738422162606837e-05 0 0.011312712179341542 -3.3496367897283565e-06 0 0.011325488299342228 -4.3931706611881742e-05 0 0.01221794721473058 5.0189432843825347e-05 0 0.012716552758008768 -7.0123875774707114e-05 0 0.01132343778197121 7.9457806155370061e-06 0 0.011357053875354612 -2.5738422162606837e-05 0 0.011312712179341542 -3.3496367897283565e-06 0 0.010945444212223935 -0.00018204099618972924 0 0.012716552758008768 -7.0123875774707114e-05 0 0.01130543655117002 2.0900666177813657e-05 0 0.01132343778197121 7.9457806155370061e-06 0 0.011312712179341542 -3.3496367897283565e-06 0 0.0123147689184013 9.5514166702351082e-05 0 0.01221794721473058 5.0189432843825347e-05 0 0.01336369240370733 0.00023525441870211151 0 0.0123147689184013 9.5514166702351082e-05 0 0.01316086265072532 -0.00018150975927852325 0 0.013145587278460373 7.6369134265687178e-05 0 0.013277127079360273 1.2640455649836988e-05 0 0.013401225619365078 -6.4689972001724501e-05 0 0.01316086265072532 -0.00018150975927852325 0 0.013277127079360273 1.2640455649836988e-05 0 0.013401479307736608 9.5308273404142902e-05 0 0.013401225619365078 -6.4689972001724501e-05 0 0.013277127079360273 1.2640455649836988e-05 0 0.013145587278460373 7.6369134265687178e-05 0 0.013277127079360273 1.2640455649836988e-05 0 0.013296960047942168 0.00023734492670340985 0 0.013401479307736608 9.5308273404142902e-05 0 0.013277127079360273 1.2640455649836988e-05 0 0.013296960047942168 0.00023734492670340985 0 0.013145587278460373 7.6369134265687178e-05 0 0.013296960047942168 0.00023734492670340985 0 0.013128878670019609 0.00033320066203142173 0 0.013450775585413768 0.00022984034318358884 0 0.013401479307736608 9.5308273404142902e-05 0 0.013296960047942168 0.00023734492670340985 0 0.013450775585413768 0.00022984034318358884 0 0.013296960047942168 0.00023734492670340985 0 0.013341971172179116 0.00043552444251700986 0 0.013296960047942168 0.00023734492670340985 0 0.013341971172179116 0.00043552444251700986 0 0.013128878670019609 0.00033320066203142173 0 0.014272888039696487 0.0002173856598588964 0 0.012716552758008768 -7.0123875774707114e-05 0 0.014922828244254845 -0.00015153826224730999 0 0.014756610777727053 -0.00024433076743802531 0 0.014887083047349734 -9.8398439765627331e-05 0 0.012716552758008768 -7.0123875774707114e-05 0 0.013731103814222493 0.00018942484232131228 0 0.011357053875354612 -2.5738422162606837e-05 0 0.011394689273288022 -4.7351413343170626e-05 0 0.011406341029800843 -5.8876566324338109e-05 0 0.011394689273288022 -4.7351413343170626e-05 0 0.011406431317003333 -6.3634528115637086e-05 0 0.011406341029800843 -5.8876566324338109e-05 0 0.014756610777727053 -0.00024433076743802531 0 0.014745510747966588 -5.2187141879075085e-05 0 0.014887083047349734 -9.8398439765627331e-05 0 0.014877881183618491 -5.4290049897942457e-05 0 0.014884069936561245 -3.8282339307552835e-07 0 0.014776751437849091 -6.5988864790398735e-05 0 0.014844483329560674 -8.5324423732277292e-05 0 0.014877881183618491 -5.4290049897942457e-05 0 0.014776751437849091 -6.5988864790398735e-05 0 0.013731103814222493 0.00018942484232131228 0 0.013394496861921415 -2.8921111975706075e-05 0 0.011406431317003333 -6.3634528115637086e-05 0 0.011409363918850009 -6.9208391204162887e-05 0 0.011406341029800843 -5.8876566324338109e-05 0 0.015016565000414218 -9.8374292558314262e-05 0 0.014922828244254845 -0.00015153826224730999 0 0.014899864459200069 -7.3533791633444197e-05 0 0.014922828244254845 -0.00015153826224730999 0 0.014887083047349734 -9.8398439765627331e-05 0 0.014899864459200069 -7.3533791633444197e-05 0 0.013731103814222493 0.00018942484232131228 0 0.015038997753056777 -0.00016638473687916906 0 0.014844483329560674 -8.5324423732277292e-05 0 0.014887083047349734 -9.8398439765627331e-05 0 0.014877881183618491 -5.4290049897942457e-05 0 0.014887083047349734 -9.8398439765627331e-05 0 0.014899864459200069 -7.3533791633444197e-05 0 0.014877881183618491 -5.4290049897942457e-05 0 0.014899864459200069 -7.3533791633444197e-05 0 0.014877881183618491 -5.4290049897942457e-05 0 0.014926957415523629 -3.1214007934300497e-05 0 0.014949118720292805 -4.6668108101305794e-05 0 0.014899864459200069 -7.3533791633444197e-05 0 0.014926957415523629 -3.1214007934300497e-05 0 0.014926957415523629 -3.1214007934300497e-05 0 0.014954314020342899 -9.6160479786535352e-06 0 0.014884069936561245 -3.8282339307552835e-07 0 0.014992192139925968 3.1275902343736388e-06 0 0.014954314020342899 -9.6160479786535352e-06 0 0.014884069936561245 -3.8282339307552835e-07 0 0.01496310969638814 -2.0381463170740846e-05 0 0.014926957415523629 -3.1214007934300497e-05 0 0.014954314020342899 -9.6160479786535352e-06 0 0.014877881183618491 -5.4290049897942457e-05 0 0.014926957415523629 -3.1214007934300497e-05 0 0.014884069936561245 -3.8282339307552835e-07 0 0.01499465042784137 1.0878142117716739e-06 0 0.014988980953294682 -7.4087618960840205e-07 0 0.014982284437384596 -2.7482638269020307e-06 0 0.015166240915096598 9.5127342482500705e-05 0 0.013394496861921415 -2.8921111975706075e-05 0 0.01499465042784137 1.0878142117716739e-06 0 0.014993351597483192 2.4654493661379109e-07 0 0.014988980953294682 -7.4087618960840205e-07 0 0.01499465042784137 1.0878142117716739e-06 0 0.014999857685350693 3.7537791567182789e-08 0 0.014993351597483192 2.4654493661379109e-07 0 0.014992192139925968 3.1275902343736388e-06 0 0.01499465042784137 1.0878142117716739e-06 0 0.014999857685350693 3.7537791567182789e-08 0 0.0149043287867757 -4.9607019709936328e-05 0 0.015166240915096598 9.5127342482500705e-05 0 0.014999857685350693 3.7537791567182789e-08 0 0.015000261307262275 -8.4215445941213352e-08 0 0.014993351597483192 2.4654493661379109e-07 0 0.015000261307262275 -8.4215445941213352e-08 0 0.014993351597483192 2.4654493661379109e-07 0 0.014991833593752309 -9.9095354798981334e-07 0 0.014993351597483192 2.4654493661379109e-07 0 0.014987259365696035 -1.2722507080590227e-06 0 0.014988651652227736 -1.1237815742789519e-06 0 0.014993351597483192 2.4654493661379109e-07 0 0.014991833593752309 -9.9095354798981334e-07 0 0.014988651652227736 -1.1237815742789519e-06 0 0.014993351597483192 2.4654493661379109e-07 0 0.014988980953294682 -7.4087618960840205e-07 0 0.014987259365696035 -1.2722507080590227e-06 0 0.014988980953294682 -7.4087618960840205e-07 0 0.014987259365696035 -1.2722507080590227e-06 0 0.014982284437384596 -2.7482638269020307e-06 0 0.014987259365696035 -1.2722507080590227e-06 0 0.014988651652227736 -1.1237815742789519e-06 0 0.014983890664591222 -1.9002383691153032e-06 0 0.014991833593752309 -9.9095354798981334e-07 0 0.014988651652227736 -1.1237815742789519e-06 0 0.014983890664591222 -1.9002383691153032e-06 0 0.012429277118846675 4.3876011984029171e-05 0 0.012393492923251757 -3.466438983678224e-06 0 0.012358757621127819 -1.2971485262981665e-05 0 0.012377698926545189 -2.8569874934199229e-05 0 0.012429277118846675 4.3876011984029171e-05 0 0.012393492923251757 -3.466438983678224e-06 0 0.012402028232458466 -2.2847381734747521e-05 0 0.012358757621127819 -1.2971485262981665e-05 0 0.012397898258748163 -0.00011050907654244268 0 0.012393492923251757 -3.466438983678224e-06 0 0.012402028232458466 -2.2847381734747521e-05 0 0.012358757621127819 -1.2971485262981665e-05 0 0.012429277118846675 4.3876011984029171e-05 0 0.012358757621127819 -1.2971485262981665e-05 0 0.01219659335980864 -5.9667032386352304e-05 0 0.011409363918850009 -6.9208391204162887e-05 0 0.011406341029800843 -5.8876566324338109e-05 0 0.011467269681362541 -0.00010234327213142851 0 0.013394496861921415 -2.8921111975706075e-05 0 0.011717376217469386 -0.00019611820082875275 0 0.014987259365696035 -1.2722507080590227e-06 0 0.014983890664591222 -1.9002383691153032e-06 0 0.014982284437384596 -2.7482638269020307e-06 0 0.012377698926545189 -2.8569874934199229e-05 0 0.012393492923251757 -3.466438983678224e-06 0 0.012469062598957041 2.1110683966016222e-05 0 0.012402028232458466 -2.2847381734747521e-05 0 0.012469062598957041 2.1110683966016222e-05 0 0.012397898258748163 -0.00011050907654244268 0 0.012393492923251757 -3.466438983678224e-06 0 0.012402028232458466 -2.2847381734747521e-05 0 0.012469062598957041 2.1110683966016222e-05 0 0.013763666879829158 -2.4787269129271889e-05 0 0.013394496861921415 -2.8921111975706075e-05 0 0.011510528412004308 -0.00014294026573742334 0 0.011406341029800843 -5.8876566324338109e-05 0 0.011467269681362541 -0.00010234327213142851 0 0.011417207843192157 -8.8721327337252945e-05 0 0.011401628247354377 -6.7179353252781669e-05 0 0.011335755850826046 -9.8978652182348301e-06 0 0.011357053875354612 -2.5738422162606837e-05 0 0.011406341029800843 -5.8876566324338109e-05 0 0.011717376217469386 -0.00019611820082875275 0 0.0118362877933925 -0.00019035022364426326 0 0.012397898258748163 -0.00011050907654244268 0 0.01219659335980864 -5.9667032386352304e-05 0 0.012044107945665451 -0.00030502653050476573 0 0.012358757621127819 -1.2971485262981665e-05 0 0.012397898258748163 -0.00011050907654244268 0 0.01219659335980864 -5.9667032386352304e-05 0 0.015000261307262275 -8.4215445941213352e-08 0 0.014998851206132287 3.1821148213290049e-07 0 0.014973038857939479 -8.3534661017670101e-08 0 0.011874474635033218 -8.0853279012232812e-05 0 0.01219659335980864 -5.9667032386352304e-05 0 0.012044107945665451 -0.00030502653050476573 0 0.013094495355872968 0.00024455797784952565 0 0.013303660492516106 0.00014904655851908307 0 0.013169034375435467 7.6162152241801326e-05 0 0.012470341407997543 5.1776434665368315e-05 0 0.012404377506939217 -9.7718482284157924e-05 0 0.013094495355872968 0.00024455797784952565 0 0.013251132299171615 2.8236354588124009e-05 0 0.012962254991615425 3.7116815090704291e-05 0 0.013094495355872968 0.00024455797784952565 0 0.013251132299171615 2.8236354588124009e-05 0 0.013303660492516106 0.00014904655851908307 0 0.013251132299171615 2.8236354588124009e-05 0 0.012962254991615425 3.7116815090704291e-05 0 0.013063598975167482 -0.00024926262761350656 0 0.012429277118846675 4.3876011984029171e-05 0 0.011874474635033218 -8.0853279012232812e-05 0 0.01219659335980864 -5.9667032386352304e-05 0 0.012429277118846675 4.3876011984029171e-05 0 0.012962254991615425 3.7116815090704291e-05 0 0.013063598975167482 -0.00024926262761350656 0 0.012429277118846675 4.3876011984029171e-05 0 0.013094495355872968 0.00024455797784952565 0 0.012962254991615425 3.7116815090704291e-05 0 0.012410920445048528 2.7232408080926438e-05 0 0.012470341407997543 5.1776434665368315e-05 0 0.012377698926545189 -2.8569874934199229e-05 0 0.012429277118846675 4.3876011984029171e-05 0 0.013063598975167482 -0.00024926262761350656 0 0.014991833593752309 -9.9095354798981334e-07 0 0.014983890664591222 -1.9002383691153032e-06 0 0.014982140753657522 -3.963629337330827e-06 0 0.013763666879829158 -2.4787269129271889e-05 0 0.014004137140194559 -0.00011026688847247822 0 0.015000261307262275 -8.4215445941213352e-08 0 0.014982140753657522 -3.963629337330827e-06 0 0.014973038857939479 -8.3534661017670101e-08 0 0.013251132299171615 2.8236354588124009e-05 0 0.013063598975167482 -0.00024926262761350656 0 0.013687301367734729 -0.00019751985230193503 0 0.014004137140194559 -0.00011026688847247822 0 0.014311236023699261 -8.4177854032794886e-05 0 0.015000261307262275 -8.4215445941213352e-08 0 0.014991833593752309 -9.9095354798981334e-07 0 0.014982140753657522 -3.963629337330827e-06 0 0.014726895658586182 -5.0203509488829495e-07 0 0.014998851206132287 3.1821148213290049e-07 0 0.014973038857939479 -8.3534661017670101e-08 0 0.014724847866912411 -3.3512595412805163e-08 0 0.014311236023699261 -8.4177854032794886e-05 0 0.014723314905723595 -1.1735425917207303e-06 0 0.013687301367734729 -0.00019751985230193503 0 0.013856309355639921 5.6770564850773085e-07 0 0.013251132299171615 2.8236354588124009e-05 0 0.013687301367734729 -0.00019751985230193503 0 0.013303660492516106 0.00014904655851908307 0 0.013687301367734729 -0.00019751985230193503 0 0.013856309355639921 5.6770564850773085e-07 0 0.013303660492516106 0.00014904655851908307 0 0.013856309355639921 5.6770564850773085e-07 0 0.013303660492516106 0.00014904655851908307 0 0.012986965341046002 1.0104324978624808e-07 0 0.013303660492516106 0.00014904655851908307 0 0.012778461200146227 2.8732135365471726e-05 0 0.012986965341046002 1.0104324978624808e-07 0 0.012778461200146227 2.8732135365471726e-05 0 0.012986965341046002 1.0104324978624808e-07 0 0.012221747047097442 -7.5567086535937409e-05 0 0.012986965341046002 1.0104324978624808e-07 0 0.012221747047097442 -7.5567086535937409e-05 0 0.012118061667348782 -2.4487750835697756e-07 0 0.012281619631616836 -6.9827074017280404e-05 0 0.012404377506939217 -9.7718482284157924e-05 0 0.012221747047097442 -7.5567086535937409e-05 0 0.011665740814711214 -0.00016382104363248622 0 0.011652949374253114 -0.00034265453770111699 0 0.012778461200146227 2.8732135365471726e-05 0 0.012221747047097442 -7.5567086535937409e-05 0 0.013169034375435467 7.6162152241801326e-05 0 0.012221747047097442 -7.5567086535937409e-05 0 0.011665740814711214 -0.00016382104363248622 0 0.011767531631779389 -1.3642531186728705e-05 0 0.013303660492516106 0.00014904655851908307 0 0.012778461200146227 2.8732135365471726e-05 0 0.013169034375435467 7.6162152241801326e-05 0 0.011874474635033218 -8.0853279012232812e-05 0 0.011652949374253114 -0.00034265453770111699 0 0.011775697540803624 -0.00026281037158908132 0 0.011775697540803624 -0.00026281037158908132 0 0.011664905101956545 -0.00028262528521230679 0 0.011624899520210098 -0.00025443454495180476 0 0.011652949374253114 -0.00034265453770111699 0 0.011775697540803624 -0.00026281037158908132 0 0.011664905101956545 -0.00028262528521230679 0 0.011417207843192157 -8.8721327337252945e-05 0 0.011454634969000253 -0.0001155145105831871 0 0.011775697540803624 -0.00026281037158908132 0 0.012044107945665451 -0.00030502653050476573 0 0.011624899520210098 -0.00025443454495180476 0 0.011510528412004308 -0.00014294026573742334 0 0.011541968491588162 -0.00017983724362577861 0 0.011598100134260301 -0.0002469474723422459 0 0.011874474635033218 -8.0853279012232812e-05 0 0.011775697540803624 -0.00026281037158908132 0 0.012044107945665451 -0.00030502653050476573 0 0.0118362877933925 -0.00019035022364426326 0 0.011654687882017453 -0.00026198279891772409 0 0.011541968491588162 -0.00017983724362577861 0 0.011598100134260301 -0.0002469474723422459 0 0.011624899520210098 -0.00025443454495180476 0 0.01131636677994608 -2.2137750515728028e-05 0 0.011306888288766559 1.0850020454245744e-05 0 0.011330823209359081 2.671554902583322e-05 0 0.011320871006934217 -1.0411910049551931e-05 0 0.01131636677994608 -2.2137750515728028e-05 0 0.011306888288766559 1.0850020454245744e-05 0 0.011454634969000253 -0.0001155145105831871 0 0.011518914832873163 8.3872915424050022e-06 0 0.011598100134260301 -0.0002469474723422459 0 0.011624899520210098 -0.00025443454495180476 0 0.011497136497774776 1.3536182586713875e-05 0 0.011665740814711214 -0.00016382104363248622 0 0.011624899520210098 -0.00025443454495180476 0 0.011497136497774776 1.3536182586713875e-05 0 0.011665740814711214 -0.00016382104363248622 0 0.011664905101956545 -0.00028262528521230679 0 0.011624899520210098 -0.00025443454495180476 0 0.011665740814711214 -0.00016382104363248622 0 0.011652949374253114 -0.00034265453770111699 0 0.011664905101956545 -0.00028262528521230679 0 0.01131636677994608 -2.2137750515728028e-05 0 0.011497136497774776 1.3536182586713875e-05 0 0.011330823209359081 2.671554902583322e-05 0 0.011497136497774776 1.3536182586713875e-05 0 0.011330823209359081 2.671554902583322e-05 0 0.011235079499769285 0.00011264924975175328 0 0.011306888288766559 1.0850020454245744e-05 0 0.011330823209359081 2.671554902583322e-05 0 0.011283713719423247 5.83267093920713e-05 0 0.011330823209359081 2.671554902583322e-05 0 0.011283713719423247 5.83267093920713e-05 0 0.011235079499769285 0.00011264924975175328 0 0.011278503056439628 6.4756421820922838e-05 0 0.011283713719423247 5.83267093920713e-05 0 0.011248375877869549 8.011049763932736e-05 0 0.011283713719423247 5.83267093920713e-05 0 0.011248375877869549 8.011049763932736e-05 0 0.011235079499769285 0.00011264924975175328 0 0.011497136497774776 1.3536182586713875e-05 0 0.011235079499769285 0.00011264924975175328 0 0.011338527209203999 8.8605032542647542e-05 0 0.011497136497774776 1.3536182586713875e-05 0 0.011338527209203999 8.8605032542647542e-05 0 0.011673215347899717 5.2615395916233497e-05 0 0.011249046087455168 3.6213039320313382e-07 0 0.011338527209203999 8.8605032542647542e-05 0 0.011673215347899717 5.2615395916233497e-05 0 0.012221747047097442 -7.5567086535937409e-05 0 0.011673215347899717 5.2615395916233497e-05 0 0.011767531631779389 -1.3642531186728705e-05 0 0.012221747047097442 -7.5567086535937409e-05 0 0.011673215347899717 5.2615395916233497e-05 0 0.012118061667348782 -2.4487750835697756e-07 0 0.011249046087455168 3.6213039320313382e-07 0 0.011673215347899717 5.2615395916233497e-05 0 0.012118061667348782 -2.4487750835697756e-07 0 0.011497136497774776 1.3536182586713875e-05 0 0.011673215347899717 5.2615395916233497e-05 0 0.011767531631779389 -1.3642531186728705e-05 0 0.011665740814711214 -0.00016382104363248622 0 0.011497136497774776 1.3536182586713875e-05 0 0.011767531631779389 -1.3642531186728705e-05 0 0.012488730629775385 0.00049328963286802865 0 0.012314747483696367 0.00060495683468741253 0 0.012475334092751566 0.00070714569436361333 0 0.01132956457056024 0.0015740213587375667 0 0.012404382669669405 0.00096372137581269657 0 0.011132260961983153 0.0018895924967279574 0 0.011147668424610598 0.0019513667544017344 0 0.011181336344324836 0.0019526590897037907 0 0.011077609266658694 0.0022927544665843364 0 0.012661824287742429 0.0012632371291982434 0 0.011213217787587904 0.0019176162361172735 0 0.011132260961983153 0.0018895924967279574 0 0.011285583674036198 0.0018579731091822923 0 0.012661824287742429 0.0012632371291982434 0 0.013052105220605405 0.0013576138223606008 0 0.011213217787587904 0.0019176162361172735 0 0.011132260961983153 0.0018895924967279574 0 0.011181336344324836 0.0019526590897037907 0 0.011213217787587904 0.0019176162361172735 0 0.011151883186712435 0.0020051122582222512 0 0.01130234606923233 0.0020485559312151021 0 0.010933633393744103 0.001815826363926376 0 0.011285583674036198 0.0018579731091822923 0 0.011117446623859481 0.0016397470750832901 0 0.01132956457056024 0.0015740213587375667 0 0.011152109682487079 0.0019291084959002875 0 0.010940545241190551 0.0017142951867483475 0 0.010933633393744103 0.001815826363926376 0 0.011117446623859481 0.0016397470750832901 0 0.010940545241190551 0.0017142951867483475 0 0.010823696144507327 0.0016438471381252967 0 0.011117446623859481 0.0016397470750832901 0 0.010405495790625248 0.0015324392677492872 0 0.010668435247103751 0.0014705374068495866 0 0.01115295941034713 0.0017496337985871112 0 0.01132956457056024 0.0015740213587375667 0 0.010940545241190551 0.0017142951867483475 0 0.01093715874880398 0.0018109539595431133 0 0.010823696144507327 0.0016438471381252967 0 0.010405495790625248 0.0015324392677492872 0 0.0099263739361524946 0.0015502308315488321 0 0.01132956457056024 0.0015740213587375667 0 0.011401857551088459 0.0010650951368729393 0 0.01093715874880398 0.0018109539595431133 0 0.010823696144507327 0.0016438471381252967 0 0.010581743725928853 0.0017821046455546955 0 0.010823696144507327 0.0016438471381252967 0 0.010581743725928853 0.0017821046455546955 0 0.010501486524011795 0.0016391081059470758 0 0.010581743725928853 0.0017821046455546955 0 0.010501486524011795 0.0016391081059470758 0 0.010146532830790877 0.0017534131910543584 0 0.011401857551088459 0.0010650951368729393 0 0.011175572983093263 0.0011067553531555045 0 0.012160559068704377 0.00045454112989286039 0 0.011972976258819937 0.0005980830711766669 0 0.011770365738800633 0.00040439202378289454 0 0.012160559068704377 0.00045454112989286039 0 0.012146331753087438 0.00066564445459853792 0 0.011972976258819937 0.0005980830711766669 0 0.012146331753087438 0.00066564445459853792 0 0.011972976258819937 0.0005980830711766669 0 0.012000029874865719 0.00078521635672978117 0 0.012488730629775385 0.00049328963286802865 0 0.012160559068704377 0.00045454112989286039 0 0.012314747483696367 0.00060495683468741253 0 0.012160559068704377 0.00045454112989286039 0 0.012146331753087438 0.00066564445459853792 0 0.012314747483696367 0.00060495683468741253 0 0.012146331753087438 0.00066564445459853792 0 0.012314747483696367 0.00060495683468741253 0 0.012302816905912797 0.00072339934180494633 0 0.012314747483696367 0.00060495683468741253 0 0.012302816905912797 0.00072339934180494633 0 0.012475334092751566 0.00070714569436361333 0 0.012146331753087438 0.00066564445459853792 0 0.012302816905912797 0.00072339934180494633 0 0.012192135769853655 0.00091957341132546395 0 0.012302816905912797 0.00072339934180494633 0 0.012337112128357707 0.00087496756595150001 0 0.012192135769853655 0.00091957341132546395 0 0.012146331753087438 0.00066564445459853792 0 0.012000029874865719 0.00078521635672978117 0 0.012192135769853655 0.00091957341132546395 0 0.012000029874865719 0.00078521635672978117 0 0.012046497577970378 0.00094087763270485532 0 0.012192135769853655 0.00091957341132546395 0 0.012000029874865719 0.00078521635672978117 0 0.012046497577970378 0.00094087763270485532 0 0.011864408174640876 0.00094269707124937103 0 0.01208475011860069 0.001102374008957698 0 0.012192135769853655 0.00091957341132546395 0 0.012262232010235555 0.0011243248781106184 0 0.012046497577970378 0.00094087763270485532 0 0.01208475011860069 0.001102374008957698 0 0.011864408174640876 0.00094269707124937103 0 0.012046497577970378 0.00094087763270485532 0 0.01208475011860069 0.001102374008957698 0 0.012192135769853655 0.00091957341132546395 0 0.012337112128357707 0.00087496756595150001 0 0.012492043618690815 0.00087428275370837988 0 0.012262232010235555 0.0011243248781106184 0 0.012337112128357707 0.00087496756595150001 0 0.012192135769853655 0.00091957341132546395 0 0.012262232010235555 0.0011243248781106184 0 0.013918717685742594 0.00055907103022124008 0 0.01492447753053967 0.0002845385545101312 0 0.014902165323942592 0.00052338081544395926 0 0.01480299822933458 0.00039976480257098763 0 0.014910414929788311 0.00030488660464092818 0 0.013918717685742594 0.00055907103022124008 0 0.013399075238581868 0.00085489436554213912 0 0.014761432891728815 0.00046009751006696113 0 0.014789213110149401 0.00030313970867976229 0 0.014876011080446836 0.00031684660127638135 0 0.012337112128357707 0.00087496756595150001 0 0.012492043618690815 0.00087428275370837988 0 0.012505554720172085 0.0007069562515019303 0 0.013918717685742594 0.00055907103022124008 0 0.012661824287742429 0.0012632371291982434 0 0.013272679052945881 0.0005551786632749452 0 0.013219387576245219 0.0011901708396794221 0 0.012732911687077096 0.0012309517162241721 0 0.013918717685742594 0.00055907103022124008 0 0.012404382669669405 0.00096372137581269657 0 0.012404382669669405 0.00096372137581269657 0 0.012661824287742429 0.0012632371291982434 0 0.012302816905912797 0.00072339934180494633 0 0.012337112128357707 0.00087496756595150001 0 0.012505554720172085 0.0007069562515019303 0 0.01236234381024442 0.00074743928956944299 0 0.012404382669669405 0.00096372137581269657 0 0.014802140531454787 0.0006468474996174598 0 0.014715036511039243 0.00057653840090432702 0 0.014630315943882415 0.00066527270703431582 0 0.014802140531454787 0.0006468474996174598 0 0.014792332644456669 0.00052847865095982194 0 0.014715036511039243 0.00057653840090432702 0 0.014902165323942592 0.00052338081544395926 0 0.014802140531454787 0.0006468474996174598 0 0.014792332644456669 0.00052847865095982194 0 0.014792332644456669 0.00052847865095982194 0 0.014715036511039243 0.00057653840090432702 0 0.014716247940323493 0.00046297289875829589 0 0.014792332644456669 0.00052847865095982194 0 0.014716247940323493 0.00046297289875829589 0 0.01480299822933458 0.00039976480257098763 0 0.014902165323942592 0.00052338081544395926 0 0.014792332644456669 0.00052847865095982194 0 0.01480299822933458 0.00039976480257098763 0 0.014716247940323493 0.00046297289875829589 0 0.01480299822933458 0.00039976480257098763 0 0.014697337881575241 0.00032454656615321724 0 0.014618819711896965 0.00045160602459136509 0 0.01454407679394292 0.00037745713209946357 0 0.014697337881575241 0.00032454656615321724 0 0.014716247940323493 0.00046297289875829589 0 0.014618819711896965 0.00045160602459136509 0 0.014697337881575241 0.00032454656615321724 0 0.014716247940323493 0.00046297289875829589 0 0.014618819711896965 0.00045160602459136509 0 0.014623519619776077 0.00055695627364872743 0 0.014618819711896965 0.00045160602459136509 0 0.014535795484321821 0.0005197408453925951 0 0.014623519619776077 0.00055695627364872743 0 0.01454407679394292 0.00037745713209946357 0 0.01444312688301738 0.00049207867403238586 0 0.014535795484321821 0.0005197408453925951 0 0.014618819711896965 0.00045160602459136509 0 0.01454407679394292 0.00037745713209946357 0 0.014535795484321821 0.0005197408453925951 0 0.01454407679394292 0.00037745713209946357 0 0.01444312688301738 0.00049207867403238586 0 0.014419688878264107 0.00039998931205596419 0 0.014535865972253578 0.00060537909279228857 0 0.014630315943882415 0.00066527270703431582 0 0.014454652169370913 0.00069044742205217019 0 0.014535795484321821 0.0005197408453925951 0 0.014535865972253578 0.00060537909279228857 0 0.014623519619776077 0.00055695627364872743 0 0.014535795484321821 0.0005197408453925951 0 0.014433603314924595 0.00058818685338914124 0 0.014535865972253578 0.00060537909279228857 0 0.01444312688301738 0.00049207867403238586 0 0.014535795484321821 0.0005197408453925951 0 0.014433603314924595 0.00058818685338914124 0 0.014433603314924595 0.00058818685338914124 0 0.014535865972253578 0.00060537909279228857 0 0.014454652169370913 0.00069044742205217019 0 0.014535865972253578 0.00060537909279228857 0 0.014623519619776077 0.00055695627364872743 0 0.014630315943882415 0.00066527270703431582 0 0.014715036511039243 0.00057653840090432702 0 0.014623519619776077 0.00055695627364872743 0 0.014630315943882415 0.00066527270703431582 0 0.014715036511039243 0.00057653840090432702 0 0.014716247940323493 0.00046297289875829589 0 0.014623519619776077 0.00055695627364872743 0 0.014172219604266819 0.00050090340362818602 0 0.014141146384002698 0.0006083596028920433 0 0.014108486247218813 0.00042063806339533811 0 0.014172219604266819 0.00050090340362818602 0 0.014236438336486011 0.00040397499840865922 0 0.014108486247218813 0.00042063806339533811 0 0.014172219604266819 0.00050090340362818602 0 0.014236438336486011 0.00040397499840865922 0 0.014279386120756169 0.00051226295907541802 0 0.014236438336486011 0.00040397499840865922 0 0.014279386120756169 0.00051226295907541802 0 0.01434628728806427 0.00044991494747953319 0 0.014279386120756169 0.00051226295907541802 0 0.01434628728806427 0.00044991494747953319 0 0.014368069263241526 0.0005316360959630185 0 0.01434628728806427 0.00044991494747953319 0 0.014419688878264107 0.00039998931205596419 0 0.014325476734157131 0.00035610170970995069 0 0.014236438336486011 0.00040397499840865922 0 0.01434628728806427 0.00044991494747953319 0 0.014325476734157131 0.00035610170970995069 0 0.01444312688301738 0.00049207867403238586 0 0.01434628728806427 0.00044991494747953319 0 0.014419688878264107 0.00039998931205596419 0 0.01444312688301738 0.00049207867403238586 0 0.01434628728806427 0.00044991494747953319 0 0.014368069263241526 0.0005316360959630185 0 0.014433603314924595 0.00058818685338914124 0 0.014368069263241526 0.0005316360959630185 0 0.014333737436635805 0.00059012979965634516 0 0.01444312688301738 0.00049207867403238586 0 0.014433603314924595 0.00058818685338914124 0 0.014368069263241526 0.0005316360959630185 0 0.014433603314924595 0.00058818685338914124 0 0.014363025453432973 0.00064558730506831391 0 0.014454652169370913 0.00069044742205217019 0 0.014433603314924595 0.00058818685338914124 0 0.014363025453432973 0.00064558730506831391 0 0.014333737436635805 0.00059012979965634516 0 0.014363025453432973 0.00064558730506831391 0 0.014309642252778025 0.0006366761867694406 0 0.014275930544985582 0.00071116099483501294 0 0.014363025453432973 0.00064558730506831391 0 0.014309642252778025 0.0006366761867694406 0 0.014333737436635805 0.00059012979965634516 0 0.014309642252778025 0.0006366761867694406 0 0.014333737436635805 0.00059012979965634516 0 0.014269751514460551 0.00059377537349922303 0 0.014279386120756169 0.00051226295907541802 0 0.014333737436635805 0.00059012979965634516 0 0.014269751514460551 0.00059377537349922303 0 0.014279386120756169 0.00051226295907541802 0 0.014368069263241526 0.0005316360959630185 0 0.014333737436635805 0.00059012979965634516 0 0.013960068048839083 0.00091503827283612735 0 0.01401991101008951 0.001182515143538828 0 0.013863933063658499 0.0010763598006933866 0 0.014172219604266819 0.00050090340362818602 0 0.014141146384002698 0.0006083596028920433 0 0.014306809754645478 0.00080444677631118591 0 0.014172219604266819 0.00050090340362818602 0 0.014269751514460551 0.00059377537349922303 0 0.014275930544985582 0.00071116099483501294 0 0.014061158958593976 0.00078806230031273395 0 0.014032516301533375 0.0011559683064320703 0 0.014297987499789623 0.00034586743466190199 0 0.013694902864883238 0.0013050258460444023 0 0.014141146384002698 0.0006083596028920433 0 0.014184609185839338 0.00081447420123862389 0 0.014306809754645478 0.00080444677631118591 0 0.014172219604266819 0.00050090340362818602 0 0.014279386120756169 0.00051226295907541802 0 0.014269751514460551 0.00059377537349922303 0 0.014309642252778025 0.0006366761867694406 0 0.014269751514460551 0.00059377537349922303 0 0.014275930544985582 0.00071116099483501294 0 0.014032516301533375 0.0011559683064320703 0 0.014051193077399176 0.0014863116362806095 0 0.014011904963917738 0.0011870256481360522 0 0.014047932641626107 0.0014899833095128497 0 0.013929148391081905 0.0013371683290689319 0 0.013994374589412332 0.0013077771872339809 0 0.014073397096031507 0.0013994570891230731 0 0.014047932641626107 0.0014899833095128497 0 0.014103570535630877 0.0012939656468610166 0 0.014073397096031507 0.0013994570891230731 0 0.014151038366847566 0.001504717286036803 0 0.014011904963917738 0.0011870256481360522 0 0.013894141153929219 0.0011927586357586334 0 0.013929148391081905 0.0013371683290689319 0 0.014032516301533375 0.0011559683064320703 0 0.013943645734015223 0.0011737904541117019 0 0.014032516301533375 0.0011559683064320703 0 0.013694902864883238 0.0013050258460444023 0 0.013994374589412332 0.0013077771872339809 0 0.014103570535630877 0.0012939656468610166 0 0.014073397096031507 0.0013994570891230731 0 0.012357538170529578 0.0020534904593460784 0 0.011979089104812263 0.0019264132396726991 0 0.011763446531782351 0.0021054713185405306 0 0.014363025453432973 0.00064558730506831391 0 0.014275930544985582 0.00071116099483501294 0 0.014454652169370913 0.00069044742205217019 0 0.013694902864883238 0.0013050258460444023 0 0.013026969728678837 0.0013998476206181099 0 0.012357538170529578 0.0020534904593460784 0 0.011979089104812263 0.0019264132396726991 0 0.012037381852111468 0.0018108259099515456 0 0.012357538170529578 0.0020534904593460784 0 0.012037381852111468 0.0018108259099515456 0 0.012030922845318929 0.0016476832809272132 0 0.011979089104812263 0.0019264132396726991 0 0.011882680126205266 0.0017747212860536026 0 0.011826582525574348 0.0019121481231831807 0 0.011979089104812263 0.0019264132396726991 0 0.012037381852111468 0.0018108259099515456 0 0.011882680126205266 0.0017747212860536026 0 0.013694902864883238 0.0013050258460444023 0 0.012973116070577101 0.0017197779052614635 0 0.014103570535630877 0.0012939656468610166 0 0.014228736188216112 0.0015895090609656371 0 0.014151038366847566 0.001504717286036803 0 0.012357538170529578 0.0020534904593460784 0 0.012030922845318929 0.0016476832809272132 0 0.01199845183836327 0.0013919931564900603 0 0.012037381852111468 0.0018108259099515456 0 0.011882680126205266 0.0017747212860536026 0 0.011943332327591288 0.0016531743231220091 0 0.011882680126205266 0.0017747212860536026 0 0.011943332327591288 0.0016531743231220091 0 0.011844464851432887 0.001629420796230062 0 0.012037381852111468 0.0018108259099515456 0 0.012030922845318929 0.0016476832809272132 0 0.011943332327591288 0.0016531743231220091 0 0.012030922845318929 0.0016476832809272132 0 0.011943332327591288 0.0016531743231220091 0 0.011916589307675415 0.0015450630728811811 0 0.012030922845318929 0.0016476832809272132 0 0.011916589307675415 0.0015450630728811811 0 0.011954095858892863 0.0014899888985135409 0 0.011943332327591288 0.0016531743231220091 0 0.011916589307675415 0.0015450630728811811 0 0.011844464851432887 0.001629420796230062 0 0.011916589307675415 0.0015450630728811811 0 0.011954095858892863 0.0014899888985135409 0 0.011892169618124251 0.0014660899296756733 0 0.012030922845318929 0.0016476832809272132 0 0.011954095858892863 0.0014899888985135409 0 0.01199845183836327 0.0013919931564900603 0 0.011892169618124251 0.0014660899296756733 0 0.01199845183836327 0.0013919931564900603 0 0.011748980177984328 0.0014049189837224735 0 0.011954095858892863 0.0014899888985135409 0 0.011892169618124251 0.0014660899296756733 0 0.01199845183836327 0.0013919931564900603 0 0.014228736188216112 0.0015895090609656371 0 0.014181293109854949 0.001581530257341004 0 0.014180191381644891 0.00162552657411187 0 0.014228736188216112 0.0015895090609656371 0 0.014181293109854949 0.001581530257341004 0 0.014151038366847566 0.001504717286036803 0 0.014161549016247024 0.0015886671666610135 0 0.014151038366847566 0.001504717286036803 0 0.014110566140799389 0.0016225129927346412 0 0.014181293109854949 0.001581530257341004 0 0.014161549016247024 0.0015886671666610135 0 0.014151038366847566 0.001504717286036803 0 0.014181293109854949 0.001581530257341004 0 0.014161549016247024 0.0015886671666610135 0 0.014180191381644891 0.00162552657411187 0 0.014047932641626107 0.0014899833095128497 0 0.013929148391081905 0.0013371683290689319 0 0.013813363046591224 0.0014561765920647982 0 0.014047932641626107 0.0014899833095128497 0 0.013938967160068389 0.0016720913078351739 0 0.013813363046591224 0.0014561765920647982 0 0.014073397096031507 0.0013994570891230731 0 0.014151038366847566 0.001504717286036803 0 0.014047932641626107 0.0014899833095128497 0 0.014047932641626107 0.0014899833095128497 0 0.013938967160068389 0.0016720913078351739 0 0.014110566140799389 0.0016225129927346412 0 0.014151038366847566 0.001504717286036803 0 0.014047932641626107 0.0014899833095128497 0 0.014110566140799389 0.0016225129927346412 0 0.011358296865058969 0.0018626708405429255 0 0.011303505076555172 0.0019331462165494784 0 0.011417983723759944 0.0019894766456033529 0 0.011358296865058969 0.0018626708405429255 0 0.011303505076555172 0.0019331462165494784 0 0.011285583674036198 0.0018579731091822923 0 0.011213217787587904 0.0019176162361172735 0 0.011303505076555172 0.0019331462165494784 0 0.011285583674036198 0.0018579731091822923 0 0.011213217787587904 0.0019176162361172735 0 0.011303505076555172 0.0019331462165494784 0 0.01130234606923233 0.0020485559312151021 0 0.011303505076555172 0.0019331462165494784 0 0.01130234606923233 0.0020485559312151021 0 0.011417983723759944 0.0019894766456033529 0 0.01130234606923233 0.0020485559312151021 0 0.011417983723759944 0.0019894766456033529 0 0.011604095820442794 0.0020746055135440725 0 0.011581415868327619 0.002065458891039026 0 0.011365139530168742 0.0015534885121268286 0 0.011358296865058969 0.0018626708405429255 0 0.011604095820442794 0.0020746055135440725 0 0.011304843868729542 0.0016432936650463499 0 0.011604095820442794 0.0020746055135440725 0 0.01164935509256532 0.0017879030400634649 0 0.011413517678926743 0.0015160788927187875 0 0.013052105220605405 0.0013576138223606008 0 0.013026969728678837 0.0013998476206181099 0 0.01130234606923233 0.0020485559312151021 0 0.011604095820442794 0.0020746055135440725 0 0.011763446531782351 0.0021054713185405306 0 0.011604095820442794 0.0020746055135440725 0 0.011763446531782351 0.0021054713185405306 0 0.01172918301419852 0.0019463616873333612 0 0.011763446531782351 0.0021054713185405306 0 0.011826582525574348 0.0019121481231831807 0 0.01172918301419852 0.0019463616873333612 0 0.011979089104812263 0.0019264132396726991 0 0.011763446531782351 0.0021054713185405306 0 0.011826582525574348 0.0019121481231831807 0 0.011826582525574348 0.0019121481231831807 0 0.01172918301419852 0.0019463616873333612 0 0.011778345835735185 0.001817794527296891 0 0.011778345835735185 0.001817794527296891 0 0.01164935509256532 0.0017879030400634649 0 0.011748545972447086 0.0017014510248107256 0 0.01172918301419852 0.0019463616873333612 0 0.011778345835735185 0.001817794527296891 0 0.01164935509256532 0.0017879030400634649 0 0.011882680126205266 0.0017747212860536026 0 0.011778345835735185 0.001817794527296891 0 0.011748545972447086 0.0017014510248107256 0 0.011882680126205266 0.0017747212860536026 0 0.011826582525574348 0.0019121481231831807 0 0.011778345835735185 0.001817794527296891 0 0.011604095820442794 0.0020746055135440725 0 0.01172918301419852 0.0019463616873333612 0 0.01164935509256532 0.0017879030400634649 0 0.011358296865058969 0.0018626708405429255 0 0.011417983723759944 0.0019894766456033529 0 0.011604095820442794 0.0020746055135440725 0 0.01164935509256532 0.0017879030400634649 0 0.011636421094103826 0.0016231849854041827 0 0.011413517678926743 0.0015160788927187875 0 0.011882680126205266 0.0017747212860536026 0 0.011748545972447086 0.0017014510248107256 0 0.011844464851432887 0.001629420796230062 0 0.01164935509256532 0.0017879030400634649 0 0.011636421094103826 0.0016231849854041827 0 0.011748545972447086 0.0017014510248107256 0 0.011636421094103826 0.0016231849854041827 0 0.011734088896353762 0.0016033830207056816 0 0.011638594060579205 0.0015074074200919277 0 0.011636421094103826 0.0016231849854041827 0 0.011748545972447086 0.0017014510248107256 0 0.011734088896353762 0.0016033830207056816 0 0.011916589307675415 0.0015450630728811811 0 0.011844464851432887 0.001629420796230062 0 0.011812102459187724 0.001511121846359896 0 0.011734088896353762 0.0016033830207056816 0 0.011844464851432887 0.001629420796230062 0 0.011812102459187724 0.001511121846359896 0 0.011748545972447086 0.0017014510248107256 0 0.011734088896353762 0.0016033830207056816 0 0.011844464851432887 0.001629420796230062 0 0.011892169618124251 0.0014660899296756733 0 0.011812102459187724 0.001511121846359896 0 0.011748980177984328 0.0014049189837224735 0 0.011916589307675415 0.0015450630728811811 0 0.011892169618124251 0.0014660899296756733 0 0.011812102459187724 0.001511121846359896 0 0.011812102459187724 0.001511121846359896 0 0.011748980177984328 0.0014049189837224735 0 0.011638594060579205 0.0015074074200919277 0 0.011734088896353762 0.0016033830207056816 0 0.011812102459187724 0.001511121846359896 0 0.011638594060579205 0.0015074074200919277 0 0.011748980177984328 0.0014049189837224735 0 0.011638594060579205 0.0015074074200919277 0 0.011525904604363363 0.0013108653708611344 0 0.011638594060579205 0.0015074074200919277 0 0.011413517678926743 0.0015160788927187875 0 0.011525904604363363 0.0013108653708611344 0 0.011636421094103826 0.0016231849854041827 0 0.011638594060579205 0.0015074074200919277 0 0.011413517678926743 0.0015160788927187875 0 0.011393516372255693 0.0018868139436411593 0 0.010668435247103751 0.0014705374068495866 0 0.011358296865058969 0.0018626708405429255 0 0.011304843868729542 0.0016432936650463499 0 0.010630230775409491 0.0014463545831014536 0 0.011358296865058969 0.0018626708405429255 0 0.011285583674036198 0.0018579731091822923 0 0.011117446623859481 0.0016397470750832901 0 0.011304843868729542 0.0016432936650463499 0 0.01110820704327997 0.0013594503747197946 0 0.010630230775409491 0.0014463545831014536 0 0.011365139530168742 0.0015534885121268286 0 0.01101284700188925 0.0010499023666627283 0 0.011304843868729542 0.0016432936650463499 0 0.01110820704327997 0.0013594503747197946 0 0.010927256159294822 0.00081380749821318972 0 0.010816889480256508 0.0011324047313576015 0 0.01110820704327997 0.0013594503747197946 0 0.010279257551673963 0.0015365658766770486 0 0.011413517678926743 0.0015160788927187875 0 0.011525904604363363 0.0013108653708611344 0 0.011220065928746107 0.00094792288862350477 0 0.010952177152738642 0.0014010533200496554 0 0.010668435247103751 0.0014705374068495866 0 0.010816889480256508 0.0011324047313576015 0 0.01110820704327997 0.0013594503747197946 0 0.010927256159294822 0.00081380749821318972 0 0.010816889480256508 0.0011324047313576015 0 0.010927256159294822 0.00081380749821318972 0 0.010521620567649204 0.0008726505686382838 0 0.011607180640890028 0.001174886211866118 0 0.011525904604363363 0.0013108653708611344 0 0.011220065928746107 0.00094792288862350477 0 0.011739772479096194 0.0013911250195875221 0 0.01101284700188925 0.0010499023666627283 0 0.012973116070577101 0.0017197779052614635 0 0.012411443350879082 0.0014432877520407709 0 0.012586428046053267 0.0020281515725654518 0 0.011963071784300002 0.0016642974724577128 0 0.012038915315712237 0.00088727974144704172 0 0.011748980177984328 0.0014049189837224735 0 0.011607180640890028 0.001174886211866118 0 0.011525904604363363 0.0013108653708611344 0 0.01199845183836327 0.0013919931564900603 0 0.011748980177984328 0.0014049189837224735 0 0.011607180640890028 0.001174886211866118 0 0.012973116070577101 0.0017197779052614635 0 0.011739772479096194 0.0013911250195875221 0 0.011630728468891516 0.001920746472315199 0 0.01278823189430949 0.0017157604770499724 0 0.011195629930655595 0.0010328836154451725 0 0.011963071784300002 0.0016642974724577128 0 0.012038915315712237 0.00088727974144704172 0 0.011338368548708339 0.0012991831087753678 0 0.012411443350879082 0.0014432877520407709 0 0.010560005127465811 0.00092791664496453825 0 0.012038915315712237 0.00088727974144704172 0 0.011245057251747568 0.0010265879421998793 0 0.011338368548708339 0.0012991831087753678 0 0.011250931123720383 0.0012165885227944349 0 0.010441610761645952 0.0013571848040762177 0 0.010714597368411516 0.00094770601083798696 0 0.010126809196538732 0.00070028724483858784 0 0.010132880694163255 0.00071536951449458657 0 0.010120131822887013 0.00071730272450373008 0 0.010324815649919872 0.0010155020798196543 0 0.010441610761645952 0.0013571848040762177 0 0.010714597368411516 0.00094770601083798696 0 0.009905258448170336 0.00061564712197480979 0 0.010560005127465811 0.00092791664496453825 0 0.010927256159294822 0.00081380749821318972 0 0.010472169722897072 0.00050091436692946954 0 0.010521620567649204 0.0008726505686382838 0 0.01101284700188925 0.0010499023666627283 0 0.010119863091845017 0.00069609488219532056 0 0.010661569808551687 0.00073128696571745017 0 0.010763152304838914 0.0010289922683356912 0 0.01035127655773418 0.00078639086341935531 0 0.010560005127465811 0.00092791664496453825 0 0.010119863091845017 0.00069609488219532056 0 0.010560005127465811 0.00092791664496453825 0 0.01101284700188925 0.0010499023666627283 0 0.013938967160068389 0.0016720913078351739 0 0.014102223897916063 0.0017676603579270822 0 0.013930427082730155 0.0018659577551417117 0 0.013938967160068389 0.0016720913078351739 0 0.014110566140799389 0.0016225129927346412 0 0.014102223897916063 0.0017676603579270822 0 0.014228736188216112 0.0015895090609656371 0 0.014332181622894768 0.0018964414362869074 0 0.014206836749044844 0.0017875158620424241 0 0.014228736188216112 0.0015895090609656371 0 0.014173824876282441 0.0016871428616479036 0 0.014206836749044844 0.0017875158620424241 0 0.014102223897916063 0.0017676603579270822 0 0.014173824876282441 0.0016871428616479036 0 0.014206836749044844 0.0017875158620424241 0 0.014110566140799389 0.0016225129927346412 0 0.014102223897916063 0.0017676603579270822 0 0.014173824876282441 0.0016871428616479036 0 0.014161549016247024 0.0015886671666610135 0 0.014110566140799389 0.0016225129927346412 0 0.014180191381644891 0.00162552657411187 0 0.014110566140799389 0.0016225129927346412 0 0.014180191381644891 0.00162552657411187 0 0.014173824876282441 0.0016871428616479036 0 0.014228736188216112 0.0015895090609656371 0 0.014180191381644891 0.00162552657411187 0 0.014173824876282441 0.0016871428616479036 0 0.014102223897916063 0.0017676603579270822 0 0.014206836749044844 0.0017875158620424241 0 0.014166765772265458 0.0019296175584379229 0 0.014332181622894768 0.0018964414362869074 0 0.014206836749044844 0.0017875158620424241 0 0.014166765772265458 0.0019296175584379229 0 0.012411443350879082 0.0014432877520407709 0 0.012824179577648887 0.0019393519448697785 0 0.014102223897916063 0.0017676603579270822 0 0.014166765772265458 0.0019296175584379229 0 0.013930427082730155 0.0018659577551417117 0 0.013942097254132086 0.0023053724739467481 0 0.013643720854102278 0.0021746554042964246 0 0.013540148193718083 0.0024066445806684685 0 0.012824179577648887 0.0019393519448697785 0 0.014031594888120438 0.0020925086925058685 0 0.012824179577648887 0.0019393519448697785 0 0.012618661544895965 0.0020790847458684344 0 0.01038602356578835 0.0010168217355811327 0 0.011057238637137467 0.00099561811164479127 0 0.010654488707766904 0.0013316797439161376 0 0.010870488670196158 0.0017750518036751671 0 0.011124761460137444 0.0014095420225625375 0 0.011467120139525876 0.00165944672816638 0 0.010870488670196158 0.0017750518036751671 0 0.011124761460137444 0.0014095420225625375 0 0.010654488707766904 0.0013316797439161376 0 0.011057238637137467 0.00099561811164479127 0 0.011124761460137444 0.0014095420225625375 0 0.010654488707766904 0.0013316797439161376 0 0.010779280104863094 0.0012148918277314388 0 0.010595782074412188 0.0012522303125390903 0 0.011057238637137467 0.00099561811164479127 0 0.011124761460137444 0.0014095420225625375 0 0.011558608855112557 0.0012835228861009394 0 0.0095445344389083094 0.0007107809365042673 0 0.0096420580198380446 0.00051296314941881886 0 0.009445960241631449 0.00042891722026199778 0 0.0096825451782842371 0.00096723945154351682 0 0.0099714154211754079 0.0010903235199869231 0 0.0097964646641719912 0.00073775140013828018 0 0.010508074648703278 0.0011040948085417675 0 0.0093285360696457615 0.0009913182815850317 0 0.0096219470926059234 0.00074012532544744667 0 0.010508074648703278 0.0011040948085417675 0 0.0096219470926059234 0.00074012532544744667 0 0.0093285360696457615 0.0009913182815850317 0 0.0085879752758901799 0.00098351136307162253 0 0.008519857793806089 0.00086745327095116636 0 0.0083719216520068817 0.00089129239431079378 0 0.0096219470926059234 0.00074012532544744667 0 0.0090898677717890959 0.00032751702507419163 0 0.010324815649919872 0.0010155020798196543 0 0.010584460286681247 0.00049293127322372842 0 0.010714597368411516 0.00094770601083798696 0 0.009905258448170336 0.00061564712197480979 0 0.0096219470926059234 0.00074012532544744667 0 0.010584460286681247 0.00049293127322372842 0 0.010714597368411516 0.00094770601083798696 0 0.0109730611270359 0.00065783643597610924 0 0.011250931123720383 0.0012165885227944349 0 0.010714597368411516 0.00094770601083798696 0 0.0109730611270359 0.00065783643597610924 0 0.012824179577648887 0.0019393519448697785 0 0.010508074648703278 0.0011040948085417675 0 0.010356789410483605 0.0015621397904837329 0 0.010654488707766904 0.0013316797439161376 0 0.010235725496587352 0.0013235548771966777 0 0.010870488670196158 0.0017750518036751671 0 0.010356789410483605 0.0015621397904837329 0 0.010654488707766904 0.0013316797439161376 0 0.012411443350879082 0.0014432877520407709 0 0.010508074648703278 0.0011040948085417675 0 0.01038602356578835 0.0010168217355811327 0 0.010654488707766904 0.0013316797439161376 0 0.010235725496587352 0.0013235548771966777 0 0.0096104637077592293 0.00072088434436051252 0 0.0093285360696457615 0.0009913182815850317 0 0.008484271978473696 0.00054221552319177546 0 0.0086505828971159601 0.00085554309417378677 0 0.0084699500589580715 0.00073942954156891981 0 0.0084736206796240804 0.00057138158852798376 0 0.0087689787199717404 0.00063647387509540535 0 0.0086404665151736965 0.00090291808788090725 0 0.0084189537360202706 0.00049198448356651701 0 0.0093285360696457615 0.0009913182815850317 0 0.008519857793806089 0.00086745327095116636 0 0.0084699500589580715 0.00073942954156891981 0 0.0083719216520068817 0.00089129239431079378 0 0.0086505828971159601 0.00085554309417378677 0 0.008519857793806089 0.00086745327095116636 0 0.0084699500589580715 0.00073942954156891981 0 0.0085879752758901799 0.00098351136307162253 0 0.0086505828971159601 0.00085554309417378677 0 0.008519857793806089 0.00086745327095116636 0 0.008700198972149336 0.00032692733131542954 0 0.0090898677717890959 0.00032751702507419163 0 0.0091879099379603927 4.6151139029991857e-05 0 0.0092282439259550909 0.00015664020810488152 0 0.0091442915264834269 0.00011961060480322871 0 0.0090898677717890959 0.00032751702507419163 0 0.0091908765151108383 0.00012772712216720222 0 0.0092932551372704869 0.00017131320871580295 0 0.0091442915264834269 0.00011961060480322871 0 0.009198928018475331 0.00021220472827456627 0 0.0082457300858783129 0.00055183396416983355 0 0.0084699500589580715 0.00073942954156891981 0 0.0083719216520068817 0.00089129239431079378 0 0.0090594778674622529 3.5796334189389521e-05 0 0.0091442915264834269 0.00011961060480322871 0 0.0091000211096660157 0.00015925258959372641 0 0.0091442915264834269 0.00011961060480322871 0 0.0091000211096660157 0.00015925258959372641 0 0.009198928018475331 0.00021220472827456627 0 0.0091000211096660157 0.00015925258959372641 0 0.009198928018475331 0.00021220472827456627 0 0.0091688689828549833 0.00024030255241469137 0 0.009198928018475331 0.00021220472827456627 0 0.0091688689828549833 0.00024030255241469137 0 0.0092138123754929024 0.00028759080330526015 0 0.0092475682216000762 0.00025234173680474179 0 0.009417682690400591 0.00030463573616080537 0 0.0093353459719611401 0.00028870309003241611 0 0.0092932551372704869 0.00017131320871580295 0 0.0092684357049004004 0.0002612385433296346 0 0.009905258448170336 0.00061564712197480979 0 0.0090898677717890959 0.00032751702507419163 0 0.0092932551372704869 0.00017131320871580295 0 0.009198928018475331 0.00021220472827456627 0 0.0092684357049004004 0.0002612385433296346 0 0.009198928018475331 0.00021220472827456627 0 0.0092684357049004004 0.0002612385433296346 0 0.0092138123754929024 0.00028759080330526015 0 0.009905258448170336 0.00061564712197480979 0 0.010119863091845017 0.00069609488219532056 0 0.0093353459719611401 0.00028870309003241611 0 0.0092684357049004004 0.0002612385433296346 0 0.0093094942603905058 0.00035116084176791372 0 0.010119863091845017 0.00069609488219532056 0 0.010170732340546189 0.00087469987061491886 0 0.01031061384560911 0.00064113036191981861 0 0.010064861231182356 0.00068572173794847948 0 0.010153298767378754 0.0010322188224995163 0 0.010119863091845017 0.00069609488219532056 0 0.010144425743981857 0.00068463719377696549 0 0.010064861231182356 0.00068572173794847948 0 0.0096723774240580138 0.0006412639713019063 0 0.0099123814202036319 0.00092574818428667132 0 0.010064861231182356 0.00068572173794847948 0 0.009710859195714544 0.00035642276503827319 0 0.0096723774240580138 0.0006412639713019063 0 0.01033163279713162 0.00062962377289448338 0 0.010064861231182356 0.00068572173794847948 0 0.009710859195714544 0.00035642276503827319 0 0.010119863091845017 0.00069609488219532056 0 0.009417682690400591 0.00030463573616080537 0 0.0092684357049004004 0.0002612385433296346 0 0.0093094942603905058 0.00035116084176791372 0 0.0092138123754929024 0.00028759080330526015 0 0.009710859195714544 0.00035642276503827319 0 0.009335354875274272 0.00047929339919133113 0 0.0096723774240580138 0.0006412639713019063 0 0.0091688689828549833 0.00024030255241469137 0 0.009710859195714544 0.00035642276503827319 0 0.009335354875274272 0.00047929339919133113 0 0.009335354875274272 0.00047929339919133113 0 0.0093848327359444487 0.00081672049687901195 0 0.0096723774240580138 0.0006412639713019063 0 0.0093848327359444487 0.00081672049687901195 0 0.0096723774240580138 0.0006412639713019063 0 0.0099123814202036319 0.00092574818428667132 0 0.0099330829679100952 0.0014191970174346476 0 0.01003520822326614 0.00099903158139446192 0 0.010477680587510913 0.0013692680391843139 0 0.0093848327359444487 0.00081672049687901195 0 0.010279257551673963 0.0015365658766770486 0 0.0099123814202036319 0.00092574818428667132 0 0.0096641188796971339 0.00088938358597346787 0 0.010668435247103751 0.0014705374068495866 0 0.010816889480256508 0.0011324047313576015 0 0.010279257551673963 0.0015365658766770486 0 0.010443977557167724 0.0011433382093194323 0 0.010279257551673963 0.0015365658766770486 0 0.010443977557167724 0.0011433382093194323 0 0.010153298767378754 0.0010322188224995163 0 0.010472169722897072 0.00050091436692946954 0 0.010521620567649204 0.0008726505686382838 0 0.010153298767378754 0.0010322188224995163 0 0.010443977557167724 0.0011433382093194323 0 0.010521620567649204 0.0008726505686382838 0 0.010153298767378754 0.0010322188224995163 0 0.010816889480256508 0.0011324047313576015 0 0.010443977557167724 0.0011433382093194323 0 0.010521620567649204 0.0008726505686382838 0 0.010279257551673963 0.0015365658766770486 0 0.0099123814202036319 0.00092574818428667132 0 0.010153298767378754 0.0010322188224995163 0 0.010064861231182356 0.00068572173794847948 0 0.0099123814202036319 0.00092574818428667132 0 0.010153298767378754 0.0010322188224995163 0 0.0093731722071778226 0.0012012199792082962 0 0.0092825581157600593 0.00089937029989206119 0 0.009135032721554413 0.0012841129856097091 0 0.0093731722071778226 0.0012012199792082962 0 0.0096300567621666455 0.0011211773430214527 0 0.0092825581157600593 0.00089937029989206119 0 0.0093914031590616627 0.0014648980511368637 0 0.0093731722071778226 0.0012012199792082962 0 0.009135032721554413 0.0012841129856097091 0 0.0093914031590616627 0.0014648980511368637 0 0.0093731722071778226 0.0012012199792082962 0 0.0096300567621666455 0.0011211773430214527 0 0.0099330829679100952 0.0014191970174346476 0 0.0093914031590616627 0.0014648980511368637 0 0.0096300567621666455 0.0011211773430214527 0 0.0099330829679100952 0.0014191970174346476 0 0.01003520822326614 0.00099903158139446192 0 0.0096300567621666455 0.0011211773430214527 0 0.0096641188796971339 0.00088938358597346787 0 0.0093301375995902686 0.00048169454948466227 0 0.01003520822326614 0.00099903158139446192 0 0.0096300567621666455 0.0011211773430214527 0 0.009597467893811655 0.00063496377133489873 0 0.009335354875274272 0.00047929339919133113 0 0.0093848327359444487 0.00081672049687901195 0 0.0089450853698675812 0.00033175051329739831 0 0.0096300567621666455 0.0011211773430214527 0 0.0092825581157600593 0.00089937029989206119 0 0.009597467893811655 0.00063496377133489873 0 0.0089450853698675812 0.00033175051329739831 0 0.0089719511073292242 0.00014151142333587664 0 0.0088107844024864265 0.00017413439875837888 0 0.0093301375995902686 0.00048169454948466227 0 0.008637624574861176 0.00046168203521855283 0 0.0092825581157600593 0.00089937029989206119 0 0.009597467893811655 0.00063496377133489873 0 0.0091605348920733819 0.00027117010783156892 0 0.0091688689828549833 0.00024030255241469137 0 0.009335354875274272 0.00047929339919133113 0 0.0089450853698675812 0.00033175051329739831 0 0.0091688689828549833 0.00024030255241469137 0 0.0089450853698675812 0.00033175051329739831 0 0.0089719511073292242 0.00014151142333587664 0 0.0091000211096660157 0.00015925258959372641 0 0.0091688689828549833 0.00024030255241469137 0 0.0089719511073292242 0.00014151142333587664 0 0.0090594778674622529 3.5796334189389521e-05 0 0.0091000211096660157 0.00015925258959372641 0 0.0089719511073292242 0.00014151142333587664 0 0.0089344276630468292 7.1831608250014296e-06 0 0.0089719511073292242 0.00014151142333587664 0 0.0088107844024864265 0.00017413439875837888 0 0.0085079502048231743 0.00038228518330924067 0 0.0081297431972256039 0.00077828113335848856 0 0.0080633228965539417 0.00072339987930613388 0 0.0080837630606598251 0.00048222552373581651 0 0.0085079502048231743 0.00038228518330924067 0 0.0080633228965539417 0.00072339987930613388 0 0.0086948427869535383 0.0001931774489634008 0 0.008637624574861176 0.00046168203521855283 0 0.0080837630606598251 0.00048222552373581651 0 0.0079504092043805527 0.00061347101121753936 0 0.0080633228965539417 0.00072339987930613388 0 0.007882162250762232 0.00047307186002458327 0 0.0080837630606598251 0.00048222552373581651 0 0.0079504092043805527 0.00061347101121753936 0 0.007882162250762232 0.00047307186002458327 0 0.0079504092043805527 0.00061347101121753936 0 0.007804426950534538 0.00064538157868942862 0 0.0079520028185367433 0.00071450142652692715 0 0.007830831779793412 0.00081786561691055983 0 0.007804426950534538 0.00064538157868942862 0 0.0079504092043805527 0.00061347101121753936 0 0.0079520028185367433 0.00071450142652692715 0 0.007804426950534538 0.00064538157868942862 0 0.0081000654625000019 0.00075869506911825256 0 0.0079520028185367433 0.00071450142652692715 0 0.0080633228965539417 0.00072339987930613388 0 0.0079504092043805527 0.00061347101121753936 0 0.0079520028185367433 0.00071450142652692715 0 0.0080633228965539417 0.00072339987930613388 0 0.008637624574861176 0.00046168203521855283 0 0.0084820363406546244 0.00045416155108489535 0 0.0081000654625000019 0.00075869506911825256 0 0.007830831779793412 0.00081786561691055983 0 0.0078191926644083243 0.00098529487003668186 0 0.008637624574861176 0.00046168203521855283 0 0.0083094714196773525 0.00090572115932552148 0 0.0081000654625000019 0.00075869506911825256 0 0.0079520028185367433 0.00071450142652692715 0 0.007830831779793412 0.00081786561691055983 0 0.007830831779793412 0.00081786561691055983 0 0.0076093401891327433 0.00088441925770351044 0 0.0078191926644083243 0.00098529487003668186 0 0.007830831779793412 0.00081786561691055983 0 0.007604564258540422 0.00071402667122403326 0 0.0076093401891327433 0.00088441925770351044 0 0.0076468278397629893 0.00048457113520871775 0 0.007804426950534538 0.00064538157868942862 0 0.007604564258540422 0.00071402667122403326 0 0.007830831779793412 0.00081786561691055983 0 0.007804426950534538 0.00064538157868942862 0 0.007604564258540422 0.00071402667122403326 0 0.0076468278397629893 0.00048457113520871775 0 0.007882162250762232 0.00047307186002458327 0 0.007804426950534538 0.00064538157868942862 0 0.007604564258540422 0.00071402667122403326 0 0.0074424111505232938 0.00057907411219476537 0 0.0073877331156164553 0.00079229569938713202 0 0.0076468278397629893 0.00048457113520871775 0 0.007604564258540422 0.00071402667122403326 0 0.0074424111505232938 0.00057907411219476537 0 0.0071779792138101702 0.00051144800815568605 0 0.0074424111505232938 0.00057907411219476537 0 0.0073877331156164553 0.00079229569938713202 0 0.0071779792138101702 0.00051144800815568605 0 0.0073877331156164553 0.00079229569938713202 0 0.0072405322658228854 0.00074476909343433985 0 0.0073877331156164553 0.00079229569938713202 0 0.0074614515977739475 0.00095216008494399906 0 0.0073370378671143823 0.00087168605556761961 0 0.007604564258540422 0.00071402667122403326 0 0.0073877331156164553 0.00079229569938713202 0 0.0076093401891327433 0.00088441925770351044 0 0.0073877331156164553 0.00079229569938713202 0 0.0076093401891327433 0.00088441925770351044 0 0.0074614515977739475 0.00095216008494399906 0 0.0076093401891327433 0.00088441925770351044 0 0.0076062874700939037 0.0010040389816190181 0 0.0074614515977739475 0.00095216008494399906 0 0.0076062874700939037 0.0010040389816190181 0 0.0074614515977739475 0.00095216008494399906 0 0.0075211112468606739 0.0010430405259442489 0 0.0074614515977739475 0.00095216008494399906 0 0.0073370378671143823 0.00087168605556761961 0 0.0073828466764516067 0.00098922694560442349 0 0.0074614515977739475 0.00095216008494399906 0 0.0074488964252801236 0.001017340416282551 0 0.0073828466764516067 0.00098922694560442349 0 0.0074614515977739475 0.00095216008494399906 0 0.0074488964252801236 0.001017340416282551 0 0.0075211112468606739 0.0010430405259442489 0 0.0074488964252801236 0.001017340416282551 0 0.0073828466764516067 0.00098922694560442349 0 0.0074448679865241349 0.0010807611473388947 0 0.0074488964252801236 0.001017340416282551 0 0.0075211112468606739 0.0010430405259442489 0 0.0074448679865241349 0.0010807611473388947 0 0.0076062874700939037 0.0010040389816190181 0 0.0075211112468606739 0.0010430405259442489 0 0.0076330342405400925 0.0011329204832004061 0 0.0075211112468606739 0.0010430405259442489 0 0.0076330342405400925 0.0011329204832004061 0 0.0074448679865241349 0.0010807611473388947 0 0.0080976523115603074 0.0012181308915287438 0 0.0074086532384429905 0.0010125329130203104 0 0.0076062874700939037 0.0010040389816190181 0 0.0076330342405400925 0.0011329204832004061 0 0.0078191926644083243 0.00098529487003668186 0 0.0080976523115603074 0.0012181308915287438 0 0.0083094714196773525 0.00090572115932552148 0 0.0080976523115603074 0.0012181308915287438 0 0.0092813467387905038 0.0013138204279552067 0 0.0084548636246560387 0.0013465629443430928 0 0.009135032721554413 0.0012841129856097091 0 0.0088144729058484955 0.00080365329547301323 0 0.0092825581157600593 0.00089937029989206119 0 0.0091605348920733819 0.00027117010783156892 0 0.0088144729058484955 0.00080365329547301323 0 0.0092825581157600593 0.00089937029989206119 0 0.009135032721554413 0.0012841129856097091 0 0.0088144729058484955 0.00080365329547301323 0 0.0076093401891327433 0.00088441925770351044 0 0.0076062874700939037 0.0010040389816190181 0 0.0078191926644083243 0.00098529487003668186 0 0.0064933477684204427 0.0012788350945819181 0 0.0063145951653852811 0.0010432719306123174 0 0.0063556062848563492 0.0013447411482455506 0 0.0060371748687300924 0.00098160175621881882 0 0.0063145951653852811 0.0010432719306123174 0 0.0063556062848563492 0.0013447411482455506 0 0.0058527897351580037 0.00057388726417723166 0 0.0060371748687300924 0.00098160175621881882 0 0.0062009488066687643 0.00074325292074432228 0 0.0060371748687300924 0.00098160175621881882 0 0.0062009488066687643 0.00074325292074432228 0 0.0063145951653852811 0.0010432719306123174 0 0.0063727131895619385 0.00053931115066749443 0 0.0062009488066687643 0.00074325292074432228 0 0.0065367139966121318 0.00092624012684494519 0 0.0062009488066687643 0.00074325292074432228 0 0.0063145951653852811 0.0010432719306123174 0 0.0065367139966121318 0.00092624012684494519 0 0.0064933477684204427 0.0012788350945819181 0 0.0063145951653852811 0.0010432719306123174 0 0.0065367139966121318 0.00092624012684494519 0 0.0064933477684204427 0.0012788350945819181 0 0.0066809035288291439 0.0012676910772099427 0 0.0065367139966121318 0.00092624012684494519 0 0.0069807794093475987 0.0010803813218848237 0 0.0070671765313075575 0.00082462463387663015 0 0.0066809035288291439 0.0012676910772099427 0 0.0065367139966121318 0.00092624012684494519 0 0.0068823251796802376 0.00093425193359580883 0 0.0067217423145323309 0.00044985845087153995 0 0.0065367139966121318 0.00092624012684494519 0 0.0068823251796802376 0.00093425193359580883 0 0.0071881677912608967 0.00053856541688298155 0 0.0070671765313075575 0.00082462463387663015 0 0.0073877331156164553 0.00079229569938713202 0 0.0072405322658228854 0.00074476909343433985 0 0.0073370378671143823 0.00087168605556761961 0 0.0072814040639370067 0.0008968067633742966 0 0.0072405322658228854 0.00074476909343433985 0 0.0073370378671143823 0.00087168605556761961 0 0.0072814040639370067 0.0008968067633742966 0 0.0073370378671143823 0.00087168605556761961 0 0.0073828466764516067 0.00098922694560442349 0 0.0073828466764516067 0.00098922694560442349 0 0.0074313093600030661 0.0010423286919243658 0 0.0074448679865241349 0.0010807611473388947 0 0.0073828466764516067 0.00098922694560442349 0 0.0073441484585297003 0.00098192983627268943 0 0.0074313093600030661 0.0010423286919243658 0 0.0073441484585297003 0.00098192983627268943 0 0.0072736393797024138 0.00099258082547113531 0 0.0074313093600030661 0.0010423286919243658 0 0.0072736393797024138 0.00099258082547113531 0 0.0073229008396575729 0.0011739874140174131 0 0.0074313093600030661 0.0010423286919243658 0 0.0072814040639370067 0.0008968067633742966 0 0.0073441484585297003 0.00098192983627268943 0 0.0072736393797024138 0.00099258082547113531 0 0.0072814040639370067 0.0008968067633742966 0 0.0073828466764516067 0.00098922694560442349 0 0.0073441484585297003 0.00098192983627268943 0 0.0064933477684204427 0.0012788350945819181 0 0.0066047069668620801 0.0015335635939544075 0 0.0063556062848563492 0.0013447411482455506 0 0.0064933477684204427 0.0012788350945819181 0 0.0066809035288291439 0.0012676910772099427 0 0.0066047069668620801 0.0015335635939544075 0 0.0069807794093475987 0.0010803813218848237 0 0.0069464390474280342 0.0012730592698499785 0 0.0072736393797024138 0.00099258082547113531 0 0.0070347650832105497 0.0013936022178135329 0 0.0073229008396575729 0.0011739874140174131 0 0.0069464390474280342 0.0012730592698499785 0 0.0069992979144272056 0.0013800176449033027 0 0.0066047069668620801 0.0015335635939544075 0 0.0067056834484481073 0.0015602277446963714 0 0.0070347650832105497 0.0013936022178135329 0 0.0064738498066218347 0.0016864538802349161 0 0.0067056834484481073 0.0015602277446963714 0 0.0070012769693216679 0.0016637749807285579 0 0.0067056834484481073 0.0015602277446963714 0 0.0070012769693216679 0.0016637749807285579 0 0.0070347650832105497 0.0013936022178135329 0 0.0066047069668620801 0.0015335635939544075 0 0.0067056834484481073 0.0015602277446963714 0 0.0063556062848563492 0.0013447411482455506 0 0.0060984686640999982 0.0014538174782228594 0 0.0067056834484481073 0.0015602277446963714 0 0.0063556062848563492 0.0013447411482455506 0 0.0074404951831828822 0.0010134162599415544 0 0.0073297440355292991 0.0010965838080144715 0 0.007512380803761088 0.00078149714965905384 0 0.0078014745539445622 0.0009612526575068684 0 0.0074404951831828822 0.0010134162599415544 0 0.0076307604143843553 0.00076038810347150737 0 0.0074404951831828822 0.0010134162599415544 0 0.007512380803761088 0.00078149714965905384 0 0.0076307604143843553 0.00076038810347150737 0 0.0074404951831828822 0.0010134162599415544 0 0.0072158249216545678 0.0012701769246582677 0 0.0073297440355292991 0.0010965838080144715 0 0.0074404951831828822 0.0010134162599415544 0 0.0074156861260953159 0.0012379057316809828 0 0.0072158249216545678 0.0012701769246582677 0 0.0074156861260953159 0.0012379057316809828 0 0.0070012769693216679 0.0016637749807285579 0 0.0072158249216545678 0.0012701769246582677 0 0.0070012769693216679 0.0016637749807285579 0 0.0070347650832105497 0.0013936022178135329 0 0.0072158249216545678 0.0012701769246582677 0 0.0072158249216545678 0.0012701769246582677 0 0.007215287918531192 0.0012391483275811402 0 0.0073297440355292991 0.0010965838080144715 0 0.0070347650832105497 0.0013936022178135329 0 0.0072158249216545678 0.0012701769246582677 0 0.007215287918531192 0.0012391483275811402 0 0.007215287918531192 0.0012391483275811402 0 0.0073229008396575729 0.0011739874140174131 0 0.0073297440355292991 0.0010965838080144715 0 0.0070347650832105497 0.0013936022178135329 0 0.007215287918531192 0.0012391483275811402 0 0.0073229008396575729 0.0011739874140174131 0 0.0073297440355292991 0.0010965838080144715 0 0.0074498592132013633 0.00097710800742083713 0 0.007512380803761088 0.00078149714965905384 0 0.0073229008396575729 0.0011739874140174131 0 0.0073297440355292991 0.0010965838080144715 0 0.0074498592132013633 0.00097710800742083713 0 0.0073229008396575729 0.0011739874140174131 0 0.0074498592132013633 0.00097710800742083713 0 0.0074360936126795212 0.0010524305429537714 0 0.0074498592132013633 0.00097710800742083713 0 0.0075702374124416846 0.00093399509365348012 0 0.0074360936126795212 0.0010524305429537714 0 0.0075702374124416846 0.00093399509365348012 0 0.0074360936126795212 0.0010524305429537714 0 0.0075463650496937614 0.0010019043669222025 0 0.0074360936126795212 0.0010524305429537714 0 0.0074313093600030661 0.0010423286919243658 0 0.0075463650496937614 0.0010019043669222025 0 0.0073229008396575729 0.0011739874140174131 0 0.0074360936126795212 0.0010524305429537714 0 0.0074313093600030661 0.0010423286919243658 0 0.0074313093600030661 0.0010423286919243658 0 0.0075453486588916976 0.0010133301816645068 0 0.0075601560784960518 0.0009666667310984791 0 0.007481119965744275 0.0010397866849721259 0 0.0074086532384429905 0.0010125329130203104 0 0.0074313093600030661 0.0010423286919243658 0 0.0075453486588916976 0.0010133301816645068 0 0.0075463650496937614 0.0010019043669222025 0 0.0075453486588916976 0.0010133301816645068 0 0.0075463650496937614 0.0010019043669222025 0 0.0075917139212294919 0.0009714580230803958 0 0.0075463650496937614 0.0010019043669222025 0 0.0075917139212294919 0.0009714580230803958 0 0.0077345975452035986 0.00088574760212426959 0 0.0075917139212294919 0.0009714580230803958 0 0.0077345975452035986 0.00088574760212426959 0 0.0075899721085287575 0.00084779504464234249 0 0.0073870900589856946 0.00059764478045613249 0 0.0095376107874464138 0.00071255313581319922 0 0.0077345975452035986 0.00088574760212426959 0 0.007899877655450957 0.00087234962571063101 0 0.0078460552331274004 0.00087920720115431924 0 0.007899877655450957 0.00087234962571063101 0 0.0078460552331274004 0.00087920720115431924 0 0.0079732423876114535 0.00087923854637862937 0 0.0095376107874464138 0.00071255313581319922 0 0.0093128478044776607 0.00064792914840816336 0 0.0078703096516617756 0.00079045434690538105 0 0.0075828273624093676 0.00067606186612419324 0 0.0082501949765569071 0.00089667491035694171 0 0.007899877655450957 0.00087234962571063101 0 0.0078703096516617756 0.00079045434690538105 0 0.0082501949765569071 0.00089667491035694171 0 0.007899877655450957 0.00087234962571063101 0 0.0082501949765569071 0.00089667491035694171 0 0.0079732423876114535 0.00087923854637862937 0 0.007899877655450957 0.00087234962571063101 0 0.0078703096516617756 0.00079045434690538105 0 0.0076650178645383147 0.00080685223790896265 0 0.0075702374124416846 0.00093399509365348012 0 0.0077345975452035986 0.00088574760212426959 0 0.0076650178645383147 0.00080685223790896265 0 0.0075702374124416846 0.00093399509365348012 0 0.0075463650496937614 0.0010019043669222025 0 0.0077345975452035986 0.00088574760212426959 0 0.0074498592132013633 0.00097710800742083713 0 0.0075702374124416846 0.00093399509365348012 0 0.0076650178645383147 0.00080685223790896265 0 0.0077345975452035986 0.00088574760212426959 0 0.007899877655450957 0.00087234962571063101 0 0.0076650178645383147 0.00080685223790896265 0 0.0076650178645383147 0.00080685223790896265 0 0.0075828273624093676 0.00067606186612419324 0 0.007512380803761088 0.00078149714965905384 0 0.0074498592132013633 0.00097710800742083713 0 0.0076650178645383147 0.00080685223790896265 0 0.007512380803761088 0.00078149714965905384 0 0.0078703096516617756 0.00079045434690538105 0 0.0076650178645383147 0.00080685223790896265 0 0.0075828273624093676 0.00067606186612419324 0 0.0078997454793011193 0.00018381439123674661 0 0.0075828273624093676 0.00067606186612419324 0 0.0076776831197261815 0.00056005821320328055 0 0.009161344038803176 0.00088599232252373325 0 0.0090465228189697891 0.00086422114033671163 0 0.009098047550018867 0.00077681945324487337 0 0.0082199270906212034 0.00053435375638405239 0 0.0084069774904935082 0.00077217863326866471 0 0.0075828273624093676 0.00067606186612419324 0 0.0076776831197261815 0.00056005821320328055 0 0.007512380803761088 0.00078149714965905384 0 0.0078664325018497384 0.00056502702538153906 0 0.0076776831197261815 0.00056005821320328055 0 0.0076307604143843553 0.00076038810347150737 0 0.0076776831197261815 0.00056005821320328055 0 0.007512380803761088 0.00078149714965905384 0 0.0076307604143843553 0.00076038810347150737 0 0.011489502815633575 0.00062984157133001467 0 0.011770044488302985 0.00068156377156917232 0 0.011770365738800633 0.00040439202378289454 0 0.011489502815633575 0.00062984157133001467 0 0.011770365738800633 0.00040439202378289454 0 0.011334408461522286 0.00037518714794757311 0 0.011972976258819937 0.0005980830711766669 0 0.011770044488302985 0.00068156377156917232 0 0.011770365738800633 0.00040439202378289454 0 0.011972976258819937 0.0005980830711766669 0 0.012000029874865719 0.00078521635672978117 0 0.011770044488302985 0.00068156377156917232 0 0.0099263739361524946 0.0015502308315488321 0 0.0095669621040677267 0.001597605538627876 0 0.0093914031590616627 0.0014648980511368637 0 0.009135032721554413 0.0012841129856097091 0 0.0088940225181693387 0.0014974842918250326 0 0.0085555001609025193 0.0013368639464156928 0 0.009135032721554413 0.0012841129856097091 0 0.0088940225181693387 0.0014974842918250326 0 0.010501486524011795 0.0016391081059470758 0 0.010146532830790877 0.0017534131910543584 0 0.010112729264409898 0.0016418076139607227 0 0.010146532830790877 0.0017534131910543584 0 0.0096381541795516404 0.0016639620994415264 0 0.009601917020060512 0.0017178292937631034 0 0.010146532830790877 0.0017534131910543584 0 0.010112729264409898 0.0016418076139607227 0 0.0096381541795516404 0.0016639620994415264 0 0.0095669621040677267 0.001597605538627876 0 0.0087046912306018003 0.0012572929702641992 0 0.011175572983093263 0.0011067553531555045 0 0.0094044169438757801 0.00090352427096834103 0 0.0085555001609025193 0.0013368639464156928 0 0.0088940225181693387 0.0014974842918250326 0 0.0084257536929334426 0.0015369631211605637 0 0.0076611422361540964 0.00094982795180306994 0 0.0076117985934506614 0.00098940975998912904 0 0.0075601560784960518 0.0009666667310984791 0 0.0080976523115603074 0.0012181308915287438 0 0.0087046912306018003 0.0012572929702641992 0 0.0076611422361540964 0.00094982795180306994 0 0.0076117985934506614 0.00098940975998912904 0 0.0076346918713427608 0.0009884258469563163 0 0.0076948088003298545 0.00091133113343559692 0 0.0094044169438757801 0.00090352427096834103 0 0.0076117985934506614 0.00098940975998912904 0 0.0075857728949217306 0.00099640551496649795 0 0.0076391843593666903 0.0010057362393225025 0 0.0080237045855574927 0.0012342045593055815 0 0.0087046912306018003 0.0012572929702641992 0 0.0076117985934506614 0.00098940975998912904 0 0.007655960623866938 0.00098492658245200515 0 0.0076391843593666903 0.0010057362393225025 0 0.0087046912306018003 0.0012572929702641992 0 0.0094044169438757801 0.00090352427096834103 0 0.0075453486588916976 0.0010133301816645068 0 0.0075857728949217306 0.00099640551496649795 0 0.0075601560784960518 0.0009666667310984791 0 0.0076117985934506614 0.00098940975998912904 0 0.0075857728949217306 0.00099640551496649795 0 0.0075601560784960518 0.0009666667310984791 0 0.0075453486588916976 0.0010133301816645068 0 0.0075857728949217306 0.00099640551496649795 0 0.0075510459868711761 0.00099210952973994475 0 0.0075453486588916976 0.0010133301816645068 0 0.0075917139212294919 0.0009714580230803958 0 0.0075510459868711761 0.00099210952973994475 0 0.011489502815633575 0.00062984157133001467 0 0.011334408461522286 0.00037518714794757311 0 0.011143291418097542 0.00066081313123855887 0 0.0094044169438757801 0.00090352427096834103 0 0.0093288012670758019 0.00082828060734590223 0 0.0075857728949217306 0.00099640551496649795 0 0.0076008965403847563 0.00099697662641883532 0 0.0075510459868711761 0.00099210952973994475 0 0.011489502815633575 0.00062984157133001467 0 0.011143291418097542 0.00066081313123855887 0 0.011326764732253186 0.00086152932780280745 0 0.011143291418097542 0.00066081313123855887 0 0.011326764732253186 0.00086152932780280745 0 0.010942626997485539 0.00095233450694494966 0 0.0093288012670758019 0.00082828060734590223 0 0.0095376107874464138 0.00071255313581319922 0 0.0075917139212294919 0.0009714580230803958 0 0.0075510459868711761 0.00099210952973994475 0 0.0075899721085287575 0.00084779504464234249 0 0.011140498710977201 -0.00034262254791332289 0 0.011981678998672498 9.3571681636032451e-05 0 0.011496666979315095 0.00083565998054860747 0 0.011326764732253186 0.00086152932780280745 0 0.010942626997485539 0.00095233450694494966 0 0.011257619335623359 0.0011091897631115102 0 0.0095376107874464138 0.00071255313581319922 0 0.011732084590803722 0.00063924453563557243 0 0.011326764732253186 0.00086152932780280745 0 0.011257619335623359 0.0011091897631115102 0 0.011575048870894625 0.0010333684925605737 0 0.011257619335623359 0.0011091897631115102 0 0.011575048870894625 0.0010333684925605737 0 0.011569585381179808 0.0012600795179026354 0 0.011575048870894625 0.0010333684925605737 0 0.011608268688020963 0.0008322319388341903 0 0.011864408174640876 0.00094269707124937103 0 0.011575048870894625 0.0010333684925605737 0 0.011816675935912754 0.001193891480834125 0 0.011569585381179808 0.0012600795179026354 0 0.011326764732253186 0.00086152932780280745 0 0.011575048870894625 0.0010333684925605737 0 0.011608268688020963 0.0008322319388341903 0 0.011489502815633575 0.00062984157133001467 0 0.011326764732253186 0.00086152932780280745 0 0.011608268688020963 0.0008322319388341903 0 0.011489502815633575 0.00062984157133001467 0 0.011770044488302985 0.00068156377156917232 0 0.011608268688020963 0.0008322319388341903 0 0.011770044488302985 0.00068156377156917232 0 0.011608268688020963 0.0008322319388341903 0 0.011864408174640876 0.00094269707124937103 0 0.012000029874865719 0.00078521635672978117 0 0.011770044488302985 0.00068156377156917232 0 0.011864408174640876 0.00094269707124937103 0 0.011575048870894625 0.0010333684925605737 0 0.011864408174640876 0.00094269707124937103 0 0.011816675935912754 0.001193891480834125 0 0.01208475011860069 0.001102374008957698 0 0.011864408174640876 0.00094269707124937103 0 0.011816675935912754 0.001193891480834125 0 0.01208475011860069 0.001102374008957698 0 0.012060490330111558 0.0011345924507763685 0 0.012096926848999144 0.0011567471548058626 0 0.012126106237234932 0.0011021702554667014 0 0.011735863245643602 0.0011920401500683669 0 0.012060490330111558 0.0011345924507763685 0 0.012064211535117867 0.0011648237968867679 0 0.012048813968723489 0.0011361264351585306 0 0.012060490330111558 0.0011345924507763685 0 0.012064211535117867 0.0011648237968867679 0 0.012096926848999144 0.0011567471548058626 0 0.015409866484367934 -0.00064700134255273186 0 0.015091700719414108 -0.00041738861144794575 0 0.015469885993621509 5.4689142288415958e-07 0 0.013763638874860755 0.00026758494182429761 0 0.014210982970607258 0.00029603167698273564 0 0.015409866484367934 -0.00064700134255273186 0 0.015469885993621509 5.4689142288415958e-07 0 0.015788856186974527 -0.00043261019233694552 0 0.015091700719414108 -0.00041738861144794575 0 0.015036028157775347 -0.00084779512949617998 0 0.014808002865846987 -0.00062984488175938703 0 0.013763638874860755 0.00026758494182429761 0 0.013000050968840418 0.00049529219410084113 0 0.015409866484367934 -0.00064700134255273186 0 0.015091700719414108 -0.00041738861144794575 0 0.015036028157775347 -0.00084779512949617998 0 0.011735863245643602 0.0011920401500683669 0 0.013000050968840418 0.00049529219410084113 0 0.011981678998672498 9.3571681636032451e-05 0 0.012821590476099218 0.0005361299658562165 0 0.011496666979315095 0.00083565998054860747 0 0.015036028157775347 -0.00084779512949617998 0 0.014431639157120011 -0.00099708864533419941 0 0.014808002865846987 -0.00062984488175938703 0 0.011732084590803722 0.00063924453563557243 0 0.013000050968840418 0.00049529219410084113 0 0.013000050968840418 0.00049529219410084113 0 0.013204255039893274 -0.00023026629326119093 0 0.014431639157120011 -0.00099708864533419941 0 0.014057020014994455 -0.00039087517097191805 0 0.012932673189468403 -0.00067479799779238104 0 0.014057020014994455 -0.00039087517097191805 0 0.012932673189468403 -0.00067479799779238104 0 0.013737287539709245 -0.00013447668431570484 0 0.014431639157120011 -0.00099708864533419941 0 0.014057020014994455 -0.00039087517097191805 0 0.014553792074578074 -0.00052320317339482451 0 0.014057020014994455 -0.00039087517097191805 0 0.014553792074578074 -0.00052320317339482451 0 0.014218715520001628 -0.00011463936723037534 0 0.014057020014994455 -0.00039087517097191805 0 0.014218715520001628 -0.00011463936723037534 0 0.013737287539709245 -0.00013447668431570484 0 0.014431639157120011 -0.00099708864533419941 0 0.014808002865846987 -0.00062984488175938703 0 0.014553792074578074 -0.00052320317339482451 0 0.014553792074578074 -0.00052320317339482451 0 0.014776567842009015 -0.00028905043653507491 0 0.014218715520001628 -0.00011463936723037534 0 0.014808002865846987 -0.00062984488175938703 0 0.014553792074578074 -0.00052320317339482451 0 0.014776567842009015 -0.00028905043653507491 0 0.015091700719414108 -0.00041738861144794575 0 0.014808002865846987 -0.00062984488175938703 0 0.014776567842009015 -0.00028905043653507491 0 0.014776567842009015 -0.00028905043653507491 0 0.014581831693854137 4.0442513281876105e-05 0 0.014975888451970091 3.4876007762006054e-05 0 0.014776567842009015 -0.00028905043653507491 0 0.014581831693854137 4.0442513281876105e-05 0 0.014218715520001628 -0.00011463936723037534 0 0.014581831693854137 4.0442513281876105e-05 0 0.014698119843999905 0.00034968974203698479 0 0.014975888451970091 3.4876007762006054e-05 0 0.014581831693854137 4.0442513281876105e-05 0 0.014218715520001628 -0.00011463936723037534 0 0.014302373599458938 0.00019003324276646827 0 0.014218715520001628 -0.00011463936723037534 0 0.014302373599458938 0.00019003324276646827 0 0.013996382763401647 7.5686701230947664e-05 0 0.014218715520001628 -0.00011463936723037534 0 0.013737287539709245 -0.00013447668431570484 0 0.013996382763401647 7.5686701230947664e-05 0 0.014302373599458938 0.00019003324276646827 0 0.013996382763401647 7.5686701230947664e-05 0 0.01419149362153499 0.00015191282693345517 0 0.014302373599458938 0.00019003324276646827 0 0.014353450814024121 0.00017208719496322272 0 0.014331801580964264 0.00018548816487232698 0 0.014302373599458938 0.00019003324276646827 0 0.014332517974115506 0.00017532478197707506 0 0.01419149362153499 0.00015191282693345517 0 0.014353450814024121 0.00017208719496322272 0 0.014332517974115506 0.00017532478197707506 0 0.014398237476089851 0.00015049953164467738 0 0.014302373599458938 0.00019003324276646827 0 0.014353450814024121 0.00017208719496322272 0 0.014332517974115506 0.00017532478197707506 0 0.014581831693854137 4.0442513281876105e-05 0 0.014302373599458938 0.00019003324276646827 0 0.014698119843999905 0.00034968974203698479 0 0.014328169068211521 0.00020043765591399871 0 0.014524927016755538 0.00026813694855965783 0 0.014331801580964264 0.00018548816487232698 0 0.014272359969483865 0.00017075342107310739 0 0.014345626828639168 0.00015461248375960327 0 0.014353450814024121 0.00017208719496322272 0 0.014331801580964264 0.00018548816487232698 0 0.014345626828639168 0.00015461248375960327 0 0.014698119843999905 0.00034968974203698479 0 0.015113231273057543 0.0004776592005415936 0 0.014975888451970091 3.4876007762006054e-05 0 0.014524927016755538 0.00026813694855965783 0 0.014627037930946302 0.00021587800622628448 0 0.015113231273057543 0.0004776592005415936 0 0.015469885993621509 5.4689142288415958e-07 0 0.014975888451970091 3.4876007762006054e-05 0 0.014627037930946302 0.00021587800622628448 0 0.015342546291139635 -4.7509069529973205e-05 0 0.014813427399149313 0.00016322396077069645 0 0.014814275765850442 0.00018489061927727662 0 0.014826385257918498 0.00017540500879167139 0 0.014798923152828523 0.00017946749230337401 0 0.014813427399149313 0.00016322396077069645 0 0.014814275765850442 0.00018489061927727662 0 0.014627037930946302 0.00021587800622628448 0 0.014552941078180243 0.00012018182795197713 0 0.015342546291139635 -4.7509069529973205e-05 0 0.014210982970607258 0.00029603167698273564 0 0.015091700719414108 -0.00041738861144794575 0 0.015469885993621509 5.4689142288415958e-07 0 0.014975888451970091 3.4876007762006054e-05 0 0.015091700719414108 -0.00041738861144794575 0 0.014776567842009015 -0.00028905043653507491 0 0.014975888451970091 3.4876007762006054e-05 0 0.0090182945694376824 0.00067524506865824922 0 0.0089740013848039063 0.00062379596809376803 0 0.0088252065579555831 0.0010173839409153196 0 0.011632076988314486 0.00043508374660977477 0 0.011540156431431001 0.00075986736986565721 0 0.0090182945694376824 0.00067524506865824922 0 0.009098047550018867 0.00077681945324487337 0 0.0089740013848039063 0.00062379596809376803 0 0.0090465228189697891 0.00086422114033671163 0 0.009098047550018867 0.00077681945324487337 0 0.0089740013848039063 0.00062379596809376803 0 0.0084069774904935082 0.00077217863326866471 0 0.0082109888799168172 0.00086526854944857961 0 0.0090465228189697891 0.00086422114033671163 0 0.0088174474981330912 0.00067274226049859626 0 0.0089740013848039063 0.00062379596809376803 0 0.0090465228189697891 0.00086422114033671163 0 0.0088174474981330912 0.00067274226049859626 0 0.0082501949765569071 0.00089667491035694171 0 0.0089740013848039063 0.00062379596809376803 0 0.0091506882632662826 0.000757674651512784 0 0.0088252065579555831 0.0010173839409153196 0 0.0090589793381479905 0.00055781055294901291 0 0.0089740013848039063 0.00062379596809376803 0 0.0091506882632662826 0.000757674651512784 0 0.0088174474981330912 0.00067274226049859626 0 0.0090589793381479905 0.00055781055294901291 0 0.0089740013848039063 0.00062379596809376803 0 0.0091506882632662826 0.000757674651512784 0 0.0094368161929259172 0.0003906774973493025 0 0.0097152822641617866 0.00094546787287119727 0 0.0091506882632662826 0.000757674651512784 0 0.0094368161929259172 0.0003906774973493025 0 0.0091493652454367729 0.00046636803556144077 0 0.0097152822641617866 0.00094546787287119727 0 0.010496281420166032 0.00044473733513408472 0 0.010659849923167266 0.0013135649762714807 0 0.0094368161929259172 0.0003906774973493025 0 0.0097152822641617866 0.00094546787287119727 0 0.010496281420166032 0.00044473733513408472 0 0.0094368161929259172 0.0003906774973493025 0 0.010496281420166032 0.00044473733513408472 0 0.010169382662461741 -0.00049896681004904227 0 0.0096599648461232219 0.0005220746841007657 0 0.0097886789040591733 0.0005740442033299049 0 0.0094368161929259172 0.0003906774973493025 0 0.0088242437406300406 0.00043776963920966731 0 0.0089870811369542891 0.00044039402983267906 0 0.0097886789040591733 0.0005740442033299049 0 0.0096206631428522021 0.0005937715733646845 0 0.0089870811369542891 0.00044039402983267906 0 0.0091493652454367729 0.00046636803556144077 0 0.0088785301609946958 0.00056409276507659667 0 0.0087497974099249743 0.00045951755475643718 0 0.0089870811369542891 0.00044039402983267906 0 0.0088785301609946958 0.00056409276507659667 0 0.0090589793381479905 0.00055781055294901291 0 0.0091506882632662826 0.000757674651512784 0 0.0091493652454367729 0.00046636803556144077 0 0.0094368161929259172 0.0003906774973493025 0 0.0089870811369542891 0.00044039402983267906 0 0.0091493652454367729 0.00046636803556144077 0 0.0090589793381479905 0.00055781055294901291 0 0.0091493652454367729 0.00046636803556144077 0 0.0088785301609946958 0.00056409276507659667 0 0.0087497974099249743 0.00045951755475643718 0 0.0088785301609946958 0.00056409276507659667 0 0.0082501949765569071 0.00089667491035694171 0 0.0088174474981330912 0.00067274226049859626 0 0.0088785301609946958 0.00056409276507659667 0 0.0082501949765569071 0.00089667491035694171 0 0.0097886789040591733 0.0005740442033299049 0 0.0093128478044776607 0.00064792914840816336 0 0.0087497974099249743 0.00045951755475643718 0 0.0082501949765569071 0.00089667491035694171 0 0.0079732423876114535 0.00087923854637862937 0 0.0088174474981330912 0.00067274226049859626 0 0.0090589793381479905 0.00055781055294901291 0 0.0088785301609946958 0.00056409276507659667 0 0.011140498710977201 -0.00034262254791332289 0 0.011496666979315095 0.00083565998054860747 0 0.010659942595576276 0.00039628889232955618 0 0.011496666979315095 0.00083565998054860747 0 0.010174075419027269 0.0011314848279332108 0 0.010659942595576276 0.00039628889232955618 0 0.014431639157120011 -0.00099708864533419941 0 0.010169382662461741 -0.00049896681004904227 0 0.012932673189468403 -0.00067479799779238104 0 0.010496281420166032 0.00044473733513408472 0 0.012932673189468403 -0.00067479799779238104 0 0.010659849923167266 0.0013135649762714807 0 0.013204255039893274 -0.00023026629326119093 0 0.0097886789040591733 0.0005740442033299049 0 0.012932673189468403 -0.00067479799779238104 0 0.013737287539709245 -0.00013447668431570484 0 0.013931557450424256 8.1952817531768577e-05 0 0.013038280190852684 -0.00070139337815353314 0 0.012186727472464447 0.00071938407366490219 0 0.010496281420166032 0.00044473733513408472 0 0.010169382662461741 -0.00049896681004904227 0 0.012932673189468403 -0.00067479799779238104 0 0.013737287539709245 -0.00013447668431570484 0 0.013931557450424256 8.1952817531768577e-05 0 0.013996382763401647 7.5686701230947664e-05 0 0.013996382763401647 7.5686701230947664e-05 0 0.01419149362153499 0.00015191282693345517 0 0.014188443001099137 0.00014346717835464804 0 0.013931557450424256 8.1952817531768577e-05 0 0.013996382763401647 7.5686701230947664e-05 0 0.014188443001099137 0.00014346717835464804 0 0.014332517974115506 0.00017532478197707506 0 0.014317404018474532 0.00015861317898448895 0 0.014415124414804904 0.00014093238067180958 0 0.014332517974115506 0.00017532478197707506 0 0.01419149362153499 0.00015191282693345517 0 0.014317404018474532 0.00015861317898448895 0 0.014317404018474532 0.00015861317898448895 0 0.014188443001099137 0.00014346717835464804 0 0.014393879025292705 0.00016970034593753375 0 0.01419149362153499 0.00015191282693345517 0 0.014317404018474532 0.00015861317898448895 0 0.014188443001099137 0.00014346717835464804 0 0.014393879025292705 0.00016970034593753375 0 0.014539079648664062 0.00026302736276477627 0 0.014577231605510634 8.4967582868065717e-05 0 0.014188443001099137 0.00014346717835464804 0 0.014393879025292705 0.00016970034593753375 0 0.014273486796781761 0.00016116231797869615 0 0.014133536953154122 0.00058059442217984038 0 0.012875736644212757 0.00063023885075368243 0 0.012186727472464447 0.00071938407366490219 0 0.012875736644212757 0.00063023885075368243 0 0.010659849923167266 0.0013135649762714807 0 0.0095097790638088119 0.0022315128344350915 0 0.0094470006879518488 0.0013572446779348069 0 0.013931557450424256 8.1952817531768577e-05 0 0.014188443001099137 0.00014346717835464804 0 0.014273486796781761 0.00016116231797869615 0 0.0097152822641617866 0.00094546787287119727 0 0.010659849923167266 0.0013135649762714807 0 0.0094470006879518488 0.0013572446779348069 0 0.0091506882632662826 0.000757674651512784 0 0.0097152822641617866 0.00094546787287119727 0 0.0094470006879518488 0.0013572446779348069 0 0.0095097790638088119 0.0022315128344350915 0 0.0094470006879518488 0.0013572446779348069 0 0.0088252065579555831 0.0010173839409153196 0 0.012875736644212757 0.00063023885075368243 0 0.011540156431431001 0.00075986736986565721 0 0.0091506882632662826 0.000757674651512784 0 0.0094470006879518488 0.0013572446779348069 0 0.0088252065579555831 0.0010173839409153196 0 0.014378543563414283 0.00040424585708683506 0 0.014387677052338623 0.00040642181062468041 0 0.014396529143897172 0.00036440263806147957 0 0.014378543563414283 0.00040424585708683506 0 0.014384888660147767 0.00034856931103395891 0 0.014387677052338623 0.00040642181062468041 0 0.01438383327162223 0.00043173158141259334 0 0.014387677052338623 0.00040642181062468041 0 0.014396529143897172 0.00036440263806147957 0 0.014290262802553631 0.00036838011820326583 0 0.01438383327162223 0.00043173158141259334 0 0.014387677052338623 0.00040642181062468041 0 0.014290262802553631 0.00036838011820326583 0 0.014384888660147767 0.00034856931103395891 0 0.014387677052338623 0.00040642181062468041 0 0.014290262802553631 0.00036838011820326583 0 0.014270119831101286 0.00018361931471337831 0 0.014384888660147767 0.00034856931103395891 0 0.014852584840012374 6.9974626498231702e-05 0 0.014603025369968754 0.0001859469094048865 0 0.014530332125372242 0.0003651627866937957 0 0.014396529143897172 0.00036440263806147957 0 0.014719438183627268 0.00010592648013210201 0 0.01438383327162223 0.00043173158141259334 0 0.014530332125372242 0.0003651627866937957 0 0.014396529143897172 0.00036440263806147957 0 0.014539079648664062 0.00026302736276477627 0 0.014743516005508907 4.8398847711042584e-05 0 0.014577231605510634 8.4967582868065717e-05 0 0.014743516005508907 4.8398847711042584e-05 0 0.014756899437671462 2.5753408863178298e-05 0 0.014577231605510634 8.4967582868065717e-05 0 0.012875736644212757 0.00063023885075368243 0 0.014852584840012374 6.9974626498231702e-05 0 0.014743516005508907 4.8398847711042584e-05 0 0.014756899437671462 2.5753408863178298e-05 0 0.014719438183627268 0.00010592648013210201 0 0.014756899437671462 2.5753408863178298e-05 0 0.014610004120110452 5.3795986761891472e-05 0 0.014577231605510634 8.4967582868065717e-05 0 0.014756899437671462 2.5753408863178298e-05 0 0.014610004120110452 5.3795986761891472e-05 0 0.014737484453818363 7.4303376141480479e-06 0 0.014393879025292705 0.00016970034593753375 0 0.014577231605510634 8.4967582868065717e-05 0 0.014464960944125263 0.00011443818567339124 0 0.014610004120110452 5.3795986761891472e-05 0 0.014577231605510634 8.4967582868065717e-05 0 0.014464960944125263 0.00011443818567339124 0 0.014610004120110452 5.3795986761891472e-05 0 0.014464960944125263 0.00011443818567339124 0 0.014522996932457554 8.6812785873939419e-05 0 0.014317404018474532 0.00015861317898448895 0 0.014464960944125263 0.00011443818567339124 0 0.014415124414804904 0.00014093238067180958 0 0.014317404018474532 0.00015861317898448895 0 0.014393879025292705 0.00016970034593753375 0 0.014464960944125263 0.00011443818567339124 0 0.014522996932457554 8.6812785873939419e-05 0 0.014562394799703077 5.7792634744109824e-05 0 0.014485228996853569 0.00010175264145220887 0 0.014464960944125263 0.00011443818567339124 0 0.014415124414804904 0.00014093238067180958 0 0.014522996932457554 8.6812785873939419e-05 0 0.014415124414804904 0.00014093238067180958 0 0.014522996932457554 8.6812785873939419e-05 0 0.014485228996853569 0.00010175264145220887 0 0.014522996932457554 8.6812785873939419e-05 0 0.014621967245601887 3.2774214180039903e-05 0 0.014562394799703077 5.7792634744109824e-05 0 0.014621967245601887 3.2774214180039903e-05 0 0.014562394799703077 5.7792634744109824e-05 0 0.014608038601852445 1.4063626752146305e-05 0 0.014610004120110452 5.3795986761891472e-05 0 0.014522996932457554 8.6812785873939419e-05 0 0.014621967245601887 3.2774214180039903e-05 0 0.014610004120110452 5.3795986761891472e-05 0 0.014621967245601887 3.2774214180039903e-05 0 0.014737484453818363 7.4303376141480479e-06 0 0.014621967245601887 3.2774214180039903e-05 0 0.014608038601852445 1.4063626752146305e-05 0 0.014677100071863524 -1.3328519395457875e-05 0 0.014621967245601887 3.2774214180039903e-05 0 0.014737484453818363 7.4303376141480479e-06 0 0.014677100071863524 -1.3328519395457875e-05 0 0.014737484453818363 7.4303376141480479e-06 0 0.01485744231113032 1.0682785810624513e-05 0 0.014835332764400912 1.4685385110508315e-05 0 0.014767921639710612 3.0865625442965309e-06 0 0.014737484453818363 7.4303376141480479e-06 0 0.01485744231113032 1.0682785810624513e-05 0 0.014767921639710612 3.0865625442965309e-06 0 0.014737484453818363 7.4303376141480479e-06 0 0.014677100071863524 -1.3328519395457875e-05 0 0.014767921639710612 3.0865625442965309e-06 0 0.01485744231113032 1.0682785810624513e-05 0 0.014815611110885259 8.9560358579951674e-06 0 0.01485744231113032 1.0682785810624513e-05 0 0.01499974801477021 -1.3682331537595913e-08 0 0.014835332764400912 1.4685385110508315e-05 0 0.01485744231113032 1.0682785810624513e-05 0 0.01499974801477021 -1.3682331537595913e-08 0 0.01499982423623473 5.9769174451211043e-08 0 0.01499974801477021 -1.3682331537595913e-08 0 0.014835332764400912 1.4685385110508315e-05 0 0.014845390558548048 4.3361517616217074e-05 0 0.014756899437671462 2.5753408863178298e-05 0 0.014737484453818363 7.4303376141480479e-06 0 0.014835332764400912 1.4685385110508315e-05 0 0.014756899437671462 2.5753408863178298e-05 0 0.014835332764400912 1.4685385110508315e-05 0 0.014845390558548048 4.3361517616217074e-05 0 0.014756899437671462 2.5753408863178298e-05 0 0.014845390558548048 4.3361517616217074e-05 0 0.014719438183627268 0.00010592648013210201 0 0.01499974801477021 -1.3682331537595913e-08 0 0.014845390558548048 4.3361517616217074e-05 0 0.014999740443639695 6.2283876592227785e-08 0 0.014999710098496767 4.9732689042765181e-08 0 0.014999740443639695 6.2283876592227785e-08 0 0.014719438183627268 0.00010592648013210201 0 0.014845390558548048 4.3361517616217074e-05 0 0.014999740443639695 6.2283876592227785e-08 0 0.014719438183627268 0.00010592648013210201 0 0.014498192174499725 3.7010661223190398e-05 0 0.014467868521958948 3.2162721252964167e-05 0 0.01471117016971811 -2.7950231623234015e-05 0 0.014790906933485261 2.8143347602235354e-05 0 0.014585250756362005 2.1842121484589605e-05 0 0.014326562247702882 0.0001029266192282436 0 0.01431410785140025 0.00010014067309918552 0 0.01431327952453172 5.8589056573986101e-05 0 0.015004804903861186 -3.9256547572785202e-06 0 0.014982367672080926 -5.6129881727140415e-05 0 0.01499774668437078 -1.4561384870528713e-05 0 0.01471117016971811 -2.7950231623234015e-05 0 0.014581885543392573 8.8347653400692387e-06 0 0.014585250756362005 2.1842121484589605e-05 0 0.01489600762541839 9.3980275270121711e-06 0 0.014783228158973788 -1.3982405505687073e-05 0 0.014326562247702882 0.0001029266192282436 0 0.01435282718348942 9.3742019724764802e-05 0 0.014378153528514733 0.00010956594562358161 0 0.01471117016971811 -2.7950231623234015e-05 0 0.014872149037712312 -3.8152845396852705e-05 0 0.014840711368421803 1.039377380609926e-05 0 0.014498192174499725 3.7010661223190398e-05 0 0.014736142220027761 4.7764667786501801e-05 0 0.01471117016971811 -2.7950231623234015e-05 0 0.014790906933485261 2.8143347602235354e-05 0 0.014840711368421803 1.039377380609926e-05 0 0.014326562247702882 0.0001029266192282436 0 0.01435282718348942 9.3742019724764802e-05 0 0.014327651627209208 9.0974323285045422e-05 0 0.01432594576311786 7.2871322200741064e-05 0 0.014354974429451803 7.5705694791817756e-05 0 0.014327651627209208 9.0974323285045422e-05 0 0.01435282718348942 9.3742019724764802e-05 0 0.014354974429451803 7.5705694791817756e-05 0 0.014327651627209208 9.0974323285045422e-05 0 0.014326562247702882 0.0001029266192282436 0 0.014327651627209208 9.0974323285045422e-05 0 0.01431410785140025 0.00010014067309918552 0 0.01432594576311786 7.2871322200741064e-05 0 0.014327651627209208 9.0974323285045422e-05 0 0.01431410785140025 0.00010014067309918552 0 0.014627037930946302 0.00021587800622628448 0 0.014268508598918346 0.00012502400330926424 0 0.014272359969483865 0.00017075342107310739 0 0.014345626828639168 0.00015461248375960327 0 0.01431410785140025 0.00010014067309918552 0 0.014345626828639168 0.00015461248375960327 0 0.014355074772646779 0.00011557995170245866 0 0.014401092705139604 0.00013052499121497471 0 0.014355074772646779 0.00011557995170245866 0 0.014401092705139604 0.00013052499121497471 0 0.014406308953069829 8.7978595574708221e-05 0 0.014345626828639168 0.00015461248375960327 0 0.014355074772646779 0.00011557995170245866 0 0.01431410785140025 0.00010014067309918552 0 0.014355074772646779 0.00011557995170245866 0 0.01431410785140025 0.00010014067309918552 0 0.01431327952453172 5.8589056573986101e-05 0 0.014415124414804904 0.00014093238067180958 0 0.014398237476089851 0.00015049953164467738 0 0.014485228996853569 0.00010175264145220887 0 0.014332517974115506 0.00017532478197707506 0 0.014415124414804904 0.00014093238067180958 0 0.014398237476089851 0.00015049953164467738 0 0.014353450814024121 0.00017208719496322272 0 0.014398237476089851 0.00015049953164467738 0 0.014401092705139604 0.00013052499121497471 0 0.014353450814024121 0.00017208719496322272 0 0.014345626828639168 0.00015461248375960327 0 0.014401092705139604 0.00013052499121497471 0 0.014401092705139604 0.00013052499121497471 0 0.014471601180501423 8.8807116536120521e-05 0 0.014485228996853569 0.00010175264145220887 0 0.014401092705139604 0.00013052499121497471 0 0.014471601180501423 8.8807116536120521e-05 0 0.014406308953069829 8.7978595574708221e-05 0 0.014398237476089851 0.00015049953164467738 0 0.014401092705139604 0.00013052499121497471 0 0.014485228996853569 0.00010175264145220887 0 0.014608038601852445 1.4063626752146305e-05 0 0.01431327952453172 5.8589056573986101e-05 0 0.014406308953069829 8.7978595574708221e-05 0 0.014608038601852445 1.4063626752146305e-05 0 0.014677100071863524 -1.3328519395457875e-05 0 0.014585250756362005 2.1842121484589605e-05 0 0.014591088225525319 1.7646786040295458e-05 0 0.014467868521958948 3.2162721252964167e-05 0 0.014686758003464629 -1.4648713843410575e-05 0 0.014783228158973788 -1.3982405505687073e-05 0 0.014562394799703077 5.7792634744109824e-05 0 0.014485228996853569 0.00010175264145220887 0 0.014608038601852445 1.4063626752146305e-05 0 0.014471601180501423 8.8807116536120521e-05 0 0.014485228996853569 0.00010175264145220887 0 0.014608038601852445 1.4063626752146305e-05 0 0.014471601180501423 8.8807116536120521e-05 0 0.014608038601852445 1.4063626752146305e-05 0 0.014406308953069829 8.7978595574708221e-05 0 0.014608038601852445 1.4063626752146305e-05 0 0.014581885543392573 8.8347653400692387e-06 0 0.014585250756362005 2.1842121484589605e-05 0 0.014355074772646779 0.00011557995170245866 0 0.01431327952453172 5.8589056573986101e-05 0 0.014406308953069829 8.7978595574708221e-05 0 0.014982367672080926 -5.6129881727140415e-05 0 0.014965663559103571 9.4850383626362944e-06 0 0.014875405746200618 3.8499723622849392e-06 0 0.014982367672080926 -5.6129881727140415e-05 0 0.014965663559103571 9.4850383626362944e-06 0 0.014988726290085512 -1.8835202044373038e-05 0 0.014965663559103571 9.4850383626362944e-06 0 0.014875405746200618 3.8499723622849392e-06 0 0.014904013489988167 9.8722958706355101e-06 0 0.014677100071863524 -1.3328519395457875e-05 0 0.014982367672080926 -5.6129881727140415e-05 0 0.014875405746200618 3.8499723622849392e-06 0 0.01485744231113032 1.0682785810624513e-05 0 0.014815611110885259 8.9560358579951674e-06 0 0.014904013489988167 9.8722958706355101e-06 0 0.014677100071863524 -1.3328519395457875e-05 0 0.014815611110885259 8.9560358579951674e-06 0 0.014875405746200618 3.8499723622849392e-06 0 0.014767921639710612 3.0865625442965309e-06 0 0.014677100071863524 -1.3328519395457875e-05 0 0.014815611110885259 8.9560358579951674e-06 0 0.014815611110885259 8.9560358579951674e-06 0 0.014875405746200618 3.8499723622849392e-06 0 0.014904013489988167 9.8722958706355101e-06 0 0.01485744231113032 1.0682785810624513e-05 0 0.014904013489988167 9.8722958706355101e-06 0 0.01499982423623473 5.9769174451211043e-08 0 0.014965663559103571 9.4850383626362944e-06 0 0.014904013489988167 9.8722958706355101e-06 0 0.01499982423623473 5.9769174451211043e-08 0 0.014965663559103571 9.4850383626362944e-06 0 0.01499982423623473 5.9769174451211043e-08 0 0.015000012224928911 2.3599829850911591e-10 0 0.014965663559103571 9.4850383626362944e-06 0 0.015000012224928911 2.3599829850911591e-10 0 0.014995449735207809 -4.8248361610867897e-06 0 0.015000012224928911 2.3599829850911591e-10 0 0.014995449735207809 -4.8248361610867897e-06 0 0.015000947780481321 -3.2507961620737589e-06 0 0.014965663559103571 9.4850383626362944e-06 0 0.014995449735207809 -4.8248361610867897e-06 0 0.014988726290085512 -1.8835202044373038e-05 0 0.014982367672080926 -5.6129881727140415e-05 0 0.01499774668437078 -1.4561384870528713e-05 0 0.014988726290085512 -1.8835202044373038e-05 0 0.014995449735207809 -4.8248361610867897e-06 0 0.01499774668437078 -1.4561384870528713e-05 0 0.014988726290085512 -1.8835202044373038e-05 0 0.015004804903861186 -3.9256547572785202e-06 0 0.015000947780481321 -3.2507961620737589e-06 0 0.014997553703311742 -5.2374693281149547e-08 0 0.015004804903861186 -3.9256547572785202e-06 0 0.01499774668437078 -1.4561384870528713e-05 0 0.015000947780481321 -3.2507961620737589e-06 0 0.014995449735207809 -4.8248361610867897e-06 0 0.01499774668437078 -1.4561384870528713e-05 0 0.015000947780481321 -3.2507961620737589e-06 0 0.015000012224928911 2.3599829850911591e-10 0 0.015000947780481321 -3.2507961620737589e-06 0 0.014999995577705136 -4.3738031835035951e-09 0 0.015000947780481321 -3.2507961620737589e-06 0 0.014999995577705136 -4.3738031835035951e-09 0 0.01499655681202983 5.0746804127405569e-08 0 0.014999995577705136 -4.3738031835035951e-09 0 0.014995621418739231 3.6603764396765984e-06 0 0.01499655681202983 5.0746804127405569e-08 0 0.014999995577705136 -4.3738031835035951e-09 0 0.014995621418739231 3.6603764396765984e-06 0 0.014999996431271773 7.8110115695338726e-09 0 0.014995621418739231 3.6603764396765984e-06 0 0.015001129245836409 7.3625520622096267e-06 0 0.014980858151594185 1.3171850974254143e-05 0 0.014995621418739231 3.6603764396765984e-06 0 0.01499655681202983 5.0746804127405569e-08 0 0.014980858151594185 1.3171850974254143e-05 0 0.014997553703311742 -5.2374693281149547e-08 0 0.01499655681202983 5.0746804127405569e-08 0 0.014980858151594185 1.3171850974254143e-05 0 0.015000947780481321 -3.2507961620737589e-06 0 0.014997553703311742 -5.2374693281149547e-08 0 0.01499655681202983 5.0746804127405569e-08 0 0.014999996431271773 7.8110115695338726e-09 0 0.014997691823624081 3.0621398269189542e-06 0 0.014999983323046386 -6.4438153122574662e-09 0 0.014995621418739231 3.6603764396765984e-06 0 0.014999996431271773 7.8110115695338726e-09 0 0.014997691823624081 3.0621398269189542e-06 0 0.014995621418739231 3.6603764396765984e-06 0 0.014997691823624081 3.0621398269189542e-06 0 0.015001129245836409 7.3625520622096267e-06 0 0.014997691823624081 3.0621398269189542e-06 0 0.014989864520213619 2.7160295816846351e-05 0 0.014976492644044624 4.3308835723752538e-06 0 0.014997691823624081 3.0621398269189542e-06 0 0.014989864520213619 2.7160295816846351e-05 0 0.015001129245836409 7.3625520622096267e-06 0 0.014902211908090128 3.576865053763386e-05 0 0.014954657450861452 5.3392617615194908e-06 0 0.014989864520213619 2.7160295816846351e-05 0 0.015001129245836409 7.3625520622096267e-06 0 0.015006553197172277 -4.3010014277548031e-06 0 0.014827089438209281 4.5099948013982803e-05 0 0.014848371023086391 2.7068794646349335e-05 0 0.014831825531567375 3.8427596151272516e-05 0 0.014848371023086391 2.7068794646349335e-05 0 0.014846641045795061 3.7010860724651234e-05 0 0.014831825531567375 3.8427596151272516e-05 0 0.014846641045795061 3.7010860724651234e-05 0 0.014831825531567375 3.8427596151272516e-05 0 0.014829703659686919 3.847802895897921e-05 0 0.014827089438209281 4.5099948013982803e-05 0 0.014831825531567375 3.8427596151272516e-05 0 0.014827982247288565 3.1518936883726861e-05 0 0.014879053155517371 -3.315227669665977e-05 0 0.014840711368421803 1.039377380609926e-05 0 0.014980858151594185 1.3171850974254143e-05 0 0.015004804903861186 -3.9256547572785202e-06 0 0.014997553703311742 -5.2374693281149547e-08 0 0.014980858151594185 1.3171850974254143e-05 0 0.01489600762541839 9.3980275270121711e-06 0 0.014976058916998092 1.3590733981962113e-05 0 0.014790906933485261 2.8143347602235354e-05 0 0.014840711368421803 1.039377380609926e-05 0 0.014980858151594185 1.3171850974254143e-05 0 0.014736142220027761 4.7764667786501801e-05 0 0.01481562809463887 -1.900168643102001e-05 0 0.014954657450861452 5.3392617615194908e-06 0 0.014736142220027761 4.7764667786501801e-05 0 0.014848371023086391 2.7068794646349335e-05 0 0.014868060587812388 2.6703159170659192e-05 0 0.014855896952139125 3.1660495249955722e-05 0 0.015006553197172277 -4.3010014277548031e-06 0 0.014879053155517371 -3.315227669665977e-05 0 0.014980858151594185 1.3171850974254143e-05 0 0.015001129245836409 7.3625520622096267e-06 0 0.015006553197172277 -4.3010014277548031e-06 0 0.014980858151594185 1.3171850974254143e-05 0 0.014856414635216298 3.8993268819862526e-05 0 0.014863494998045942 3.4505554554473945e-05 0 0.014862304390476446 4.6510050877944144e-05 0 0.014864026825362016 5.8673552220796257e-05 0 0.014749493718487624 7.0828835307491396e-05 0 0.014848371023086391 2.7068794646349335e-05 0 0.014846641045795061 3.7010860724651234e-05 0 0.014855896952139125 3.1660495249955722e-05 0 0.014846641045795061 3.7010860724651234e-05 0 0.014855896952139125 3.1660495249955722e-05 0 0.014856414635216298 3.8993268819862526e-05 0 0.014855896952139125 3.1660495249955722e-05 0 0.014856414635216298 3.8993268819862526e-05 0 0.014863494998045942 3.4505554554473945e-05 0 0.014552941078180243 0.00012018182795197713 0 0.014749493718487624 7.0828835307491396e-05 0 0.014814275765850442 0.00018489061927727662 0 0.014830336512442253 0.00019016562067047412 0 0.014826385257918498 0.00017540500879167139 0 0.01435282718348942 9.3742019724764802e-05 0 0.014378153528514733 0.00010956594562358161 0 0.014395249054513117 8.4651391468374887e-05 0 0.014868060587812388 2.6703159170659192e-05 0 0.014855896952139125 3.1660495249955722e-05 0 0.014862836176148165 3.4357148689196314e-05 0 0.01435282718348942 9.3742019724764802e-05 0 0.014354974429451803 7.5705694791817756e-05 0 0.014395249054513117 8.4651391468374887e-05 0 0.014736142220027761 4.7764667786501801e-05 0 0.014749493718487624 7.0828835307491396e-05 0 0.014826385257918498 0.00017540500879167139 0 0.014831727779101155 0.00016397442000168268 0 0.014842343084107741 0.00017559631683332941 0 0.014830336512442253 0.00019016562067047412 0 0.014826385257918498 0.00017540500879167139 0 0.014842343084107741 0.00017559631683332941 0 0.014813427399149313 0.00016322396077069645 0 0.014831727779101155 0.00016397442000168268 0 0.014823125495781454 0.00014764870246290442 0 0.014813427399149313 0.00016322396077069645 0 0.014826385257918498 0.00017540500879167139 0 0.014831727779101155 0.00016397442000168268 0 0.014844951498118361 0.00016664548013431486 0 0.014842343084107741 0.00017559631683332941 0 0.014850006541995336 0.00016315732121651756 0 0.014831727779101155 0.00016397442000168268 0 0.014851476835225776 0.00016335224325259828 0 0.014823125495781454 0.00014764870246290442 0 0.014859446951462804 0.00011198436684922532 0 0.014860285126791323 0.00012926024967696443 0 0.014831727779101155 0.00016397442000168268 0 0.014851476835225776 0.00016335224325259828 0 0.014844951498118361 0.00016664548013431486 0 0.014851476835225776 0.00016335224325259828 0 0.014844951498118361 0.00016664548013431486 0 0.014850006541995336 0.00016315732121651756 0 0.014831727779101155 0.00016397442000168268 0 0.014844951498118361 0.00016664548013431486 0 0.014842343084107741 0.00017559631683332941 0 0.014749493718487624 7.0828835307491396e-05 0 0.014859446951462804 0.00011198436684922532 0 0.014856414635216298 3.8993268819862526e-05 0 0.014862304390476446 4.6510050877944144e-05 0 0.014851659124245575 4.4968604987422789e-05 0 0.014846641045795061 3.7010860724651234e-05 0 0.014856414635216298 3.8993268819862526e-05 0 0.014851659124245575 4.4968604987422789e-05 0 0.014846641045795061 3.7010860724651234e-05 0 0.014851659124245575 4.4968604987422789e-05 0 0.014829703659686919 3.847802895897921e-05 0 0.014851659124245575 4.4968604987422789e-05 0 0.014829703659686919 3.847802895897921e-05 0 0.014838349225153839 5.4178467223386569e-05 0 0.014851659124245575 4.4968604987422789e-05 0 0.014858676134829754 5.9430984702671174e-05 0 0.014838349225153839 5.4178467223386569e-05 0 0.014862304390476446 4.6510050877944144e-05 0 0.014851659124245575 4.4968604987422789e-05 0 0.014858676134829754 5.9430984702671174e-05 0 0.014831825531567375 3.8427596151272516e-05 0 0.014829703659686919 3.847802895897921e-05 0 0.014827982247288565 3.1518936883726861e-05 0 0.014829703659686919 3.847802895897921e-05 0 0.014810341614763167 4.0726788327204977e-05 0 0.014827982247288565 3.1518936883726861e-05 0 0.014829703659686919 3.847802895897921e-05 0 0.014810341614763167 4.0726788327204977e-05 0 0.014838349225153839 5.4178467223386569e-05 0 0.014814011601984768 8.0800425667317067e-05 0 0.014773590500592402 0.00016057700328197947 0 0.014750039049387525 3.1943931399699848e-05 0 0.014810341614763167 4.0726788327204977e-05 0 0.014814011601984768 8.0800425667317067e-05 0 0.014750039049387525 3.1943931399699848e-05 0 0.014810341614763167 4.0726788327204977e-05 0 0.014814011601984768 8.0800425667317067e-05 0 0.014838349225153839 5.4178467223386569e-05 0 0.014814011601984768 8.0800425667317067e-05 0 0.014847528202144196 7.7575102148206602e-05 0 0.014837942801667049 0.00012181341270194031 0 0.014862304390476446 4.6510050877944144e-05 0 0.014858676134829754 5.9430984702671174e-05 0 0.014875204971291422 8.0819205531946524e-05 0 0.014858676134829754 5.9430984702671174e-05 0 0.014847528202144196 7.7575102148206602e-05 0 0.014875204971291422 8.0819205531946524e-05 0 0.014858676134829754 5.9430984702671174e-05 0 0.014838349225153839 5.4178467223386569e-05 0 0.014847528202144196 7.7575102148206602e-05 0 0.014814011601984768 8.0800425667317067e-05 0 0.014838349225153839 5.4178467223386569e-05 0 0.014847528202144196 7.7575102148206602e-05 0 0.014847528202144196 7.7575102148206602e-05 0 0.014875204971291422 8.0819205531946524e-05 0 0.014837942801667049 0.00012181341270194031 0 0.014851476835225776 0.00016335224325259828 0 0.014850006541995336 0.00016315732121651756 0 0.014850655757878467 0.00018155344883778089 0 0.014850655757878467 0.00018155344883778089 0 0.014844304852074632 0.00020340265218847124 0 0.014910414929788311 0.00030488660464092818 0 0.014850006541995336 0.00016315732121651756 0 0.014850655757878467 0.00018155344883778089 0 0.014844304852074632 0.00020340265218847124 0 0.014838653696441788 0.00020833222462949712 0 0.01492447753053967 0.0002845385545101312 0 0.014875204971291422 8.0819205531946524e-05 0 0.014837942801667049 0.00012181341270194031 0 0.014844304852074632 0.00020340265218847124 0 0.014850655757878467 0.00018155344883778089 0 0.014789213110149401 0.00030313970867976229 0 0.014849693851663369 0.0002372657612854097 0 0.014860285126791323 0.00012926024967696443 0 0.014841561988596283 0.00019292764703432867 0 0.014851476835225776 0.00016335224325259828 0 0.014850655757878467 0.00018155344883778089 0 0.014859186464307114 0.000194647121012741 0 0.014850655757878467 0.00018155344883778089 0 0.014859186464307114 0.000194647121012741 0 0.014849693851663369 0.0002372657612854097 0 0.014814011601984768 8.0800425667317067e-05 0 0.014837942801667049 0.00012181341270194031 0 0.014773590500592402 0.00016057700328197947 0 0.014837942801667049 0.00012181341270194031 0 0.014844304852074632 0.00020340265218847124 0 0.014773590500592402 0.00016057700328197947 0 0.014844304852074632 0.00020340265218847124 0 0.014773590500592402 0.00016057700328197947 0 0.014806297175289439 0.00027561462120841894 0 0.014773590500592402 0.00016057700328197947 0 0.014806297175289439 0.00027561462120841894 0 0.014697337881575241 0.00032454656615321724 0 0.01480299822933458 0.00039976480257098763 0 0.014806297175289439 0.00027561462120841894 0 0.014910414929788311 0.00030488660464092818 0 0.01480299822933458 0.00039976480257098763 0 0.014806297175289439 0.00027561462120841894 0 0.014697337881575241 0.00032454656615321724 0 0.014844304852074632 0.00020340265218847124 0 0.014806297175289439 0.00027561462120841894 0 0.014910414929788311 0.00030488660464092818 0 0.014876011080446836 0.00031684660127638135 0 0.014885291191018599 0.00020689931340806426 0 0.014849693851663369 0.0002372657612854097 0 0.014789213110149401 0.00030313970867976229 0 0.014876011080446836 0.00031684660127638135 0 0.014849693851663369 0.0002372657612854097 0 0.012262232010235555 0.0011243248781106184 0 0.012096926848999144 0.0011567471548058626 0 0.012130098207765963 0.0012287085712587606 0 0.013399075238581868 0.00085489436554213912 0 0.014210982970607258 0.00029603167698273564 0 0.01208475011860069 0.001102374008957698 0 0.012262232010235555 0.0011243248781106184 0 0.012096926848999144 0.0011567471548058626 0 0.012064211535117867 0.0011648237968867679 0 0.012096926848999144 0.0011567471548058626 0 0.012130098207765963 0.0012287085712587606 0 0.014876011080446836 0.00031684660127638135 0 0.014942601162954193 0.00021086288285544175 0 0.014885291191018599 0.00020689931340806426 0 0.014851476835225776 0.00016335224325259828 0 0.014942601162954193 0.00021086288285544175 0 0.014885291191018599 0.00020689931340806426 0 0.015101168527914689 0.00018389229700115602 0 0.014210982970607258 0.00029603167698273564 0 0.014851476835225776 0.00016335224325259828 0 0.014885291191018599 0.00020689931340806426 0 0.014859186464307114 0.000194647121012741 0 0.014885291191018599 0.00020689931340806426 0 0.014859186464307114 0.000194647121012741 0 0.014849693851663369 0.0002372657612854097 0 0.01437699467506259 0.00012208359513036718 0 0.014239812727182295 0.0001901474534123956 0 0.01438075011827367 -6.3656393722108547e-05 0 0.01437699467506259 0.00012208359513036718 0 0.014239812727182295 0.0001901474534123956 0 0.014426167265773998 0.00026464850063544974 0 0.01437699467506259 0.00012208359513036718 0 0.014426167265773998 0.00026464850063544974 0 0.014480300684786163 0.00015288820807604213 0 0.01437699467506259 0.00012208359513036718 0 0.014480300684786163 0.00015288820807604213 0 0.014423767215206039 4.3152337432878408e-05 0 0.014406619306800473 -0.00015340964437500458 0 0.014420452931306891 -9.0841197839722327e-05 0 0.01445040853204972 -0.00015964947323506126 0 0.014236438336486011 0.00040397499840865922 0 0.014239812727182295 0.0001901474534123956 0 0.014108486247218813 0.00042063806339533811 0 0.014236438336486011 0.00040397499840865922 0 0.014239812727182295 0.0001901474534123956 0 0.014325476734157131 0.00035610170970995069 0 0.014333896880049168 6.3137656925620522e-06 0 0.014221907841044922 0.00015642432646777315 0 0.014239812727182295 0.0001901474534123956 0 0.014325476734157131 0.00035610170970995069 0 0.014426167265773998 0.00026464850063544974 0 0.014419688878264107 0.00039998931205596419 0 0.014325476734157131 0.00035610170970995069 0 0.014426167265773998 0.00026464850063544974 0 0.01454407679394292 0.00037745713209946357 0 0.014419688878264107 0.00039998931205596419 0 0.014426167265773998 0.00026464850063544974 0 0.01454407679394292 0.00037745713209946357 0 0.014426167265773998 0.00026464850063544974 0 0.014611851611883572 0.00020549265696198919 0 0.01454407679394292 0.00037745713209946357 0 0.014697337881575241 0.00032454656615321724 0 0.014611851611883572 0.00020549265696198919 0 0.014773590500592402 0.00016057700328197947 0 0.014611851611883572 0.00020549265696198919 0 0.014750039049387525 3.1943931399699848e-05 0 0.014773590500592402 0.00016057700328197947 0 0.014697337881575241 0.00032454656615321724 0 0.014611851611883572 0.00020549265696198919 0 0.014611851611883572 0.00020549265696198919 0 0.014545413797920851 7.5980610474819839e-05 0 0.014750039049387525 3.1943931399699848e-05 0 0.014426167265773998 0.00026464850063544974 0 0.014611851611883572 0.00020549265696198919 0 0.014480300684786163 0.00015288820807604213 0 0.014611851611883572 0.00020549265696198919 0 0.014480300684786163 0.00015288820807604213 0 0.014545413797920851 7.5980610474819839e-05 0 0.014480300684786163 0.00015288820807604213 0 0.014545413797920851 7.5980610474819839e-05 0 0.014423767215206039 4.3152337432878408e-05 0 0.014748474572486708 2.4233357931196766e-05 0 0.014650677421158042 -2.2197143950919718e-05 0 0.014545413797920851 7.5980610474819839e-05 0 0.014750039049387525 3.1943931399699848e-05 0 0.014381127693182331 -6.8951815996606383e-05 0 0.014750039049387525 3.1943931399699848e-05 0 0.014848358092360013 3.3740066777463671e-05 0 0.014911405535913478 6.5686664363496291e-06 0 0.014750039049387525 3.1943931399699848e-05 0 0.014827982247288565 3.1518936883726861e-05 0 0.014848358092360013 3.3740066777463671e-05 0 0.014810341614763167 4.0726788327204977e-05 0 0.014750039049387525 3.1943931399699848e-05 0 0.014827982247288565 3.1518936883726861e-05 0 0.014827982247288565 3.1518936883726861e-05 0 0.014848358092360013 3.3740066777463671e-05 0 0.014900922647846921 3.902631780779833e-05 0 0.014848358092360013 3.3740066777463671e-05 0 0.014896465210881279 3.0285979940701751e-05 0 0.014911405535913478 6.5686664363496291e-06 0 0.014848358092360013 3.3740066777463671e-05 0 0.014896465210881279 3.0285979940701751e-05 0 0.014900922647846921 3.902631780779833e-05 0 0.014913604453466645 3.21555412726159e-05 0 0.014896465210881279 3.0285979940701751e-05 0 0.014900922647846921 3.902631780779833e-05 0 0.014913604453466645 3.21555412726159e-05 0 0.01491291116214454 2.6213681789874128e-05 0 0.014896465210881279 3.0285979940701751e-05 0 0.014913604453466645 3.21555412726159e-05 0 0.014921360030647944 3.7555610003737893e-05 0 0.014925367445820525 3.1382325386008677e-05 0 0.014913604453466645 3.21555412726159e-05 0 0.01491291116214454 2.6213681789874128e-05 0 0.014921360030647944 3.7555610003737893e-05 0 0.01491291116214454 2.6213681789874128e-05 0 0.014911405535913478 6.5686664363496291e-06 0 0.014921360030647944 3.7555610003737893e-05 0 0.01491291116214454 2.6213681789874128e-05 0 0.014896465210881279 3.0285979940701751e-05 0 0.014911405535913478 6.5686664363496291e-06 0 0.01437699467506259 0.00012208359513036718 0 0.01438075011827367 -6.3656393722108547e-05 0 0.014423767215206039 4.3152337432878408e-05 0 0.014381127693182331 -6.8951815996606383e-05 0 0.01438075011827367 -6.3656393722108547e-05 0 0.014423767215206039 4.3152337432878408e-05 0 0.014333896880049168 6.3137656925620522e-06 0 0.014373113283679828 -5.572514728764434e-05 0 0.014545413797920851 7.5980610474819839e-05 0 0.014381127693182331 -6.8951815996606383e-05 0 0.014423767215206039 4.3152337432878408e-05 0 0.014406619306800473 -0.00015340964437500458 0 0.01438075011827367 -6.3656393722108547e-05 0 0.014420452931306891 -9.0841197839722327e-05 0 0.01438075011827367 -6.3656393722108547e-05 0 0.014420452931306891 -9.0841197839722327e-05 0 0.01444232673838051 -9.2421210390597706e-06 0 0.014911405535913478 6.5686664363496291e-06 0 0.014921360030647944 3.7555610003737893e-05 0 0.014919383725730853 5.6597085464470448e-05 0 0.014921360030647944 3.7555610003737893e-05 0 0.014922387106620536 2.157724248460829e-05 0 0.014919383725730853 5.6597085464470448e-05 0 0.014650677421158042 -2.2197143950919718e-05 0 0.014680548490451247 1.7743705007541264e-05 0 0.014381127693182331 -6.8951815996606383e-05 0 0.01438075011827367 -6.3656393722108547e-05 0 0.01444232673838051 -9.2421210390597706e-06 0 0.014922387106620536 2.157724248460829e-05 0 0.014925367445820525 3.1382325386008677e-05 0 0.01494091510771387 1.2834001742569633e-05 0 0.014921360030647944 3.7555610003737893e-05 0 0.014922387106620536 2.157724248460829e-05 0 0.014925367445820525 3.1382325386008677e-05 0 0.014913604453466645 3.21555412726159e-05 0 0.014925367445820525 3.1382325386008677e-05 0 0.014900922647846921 3.902631780779833e-05 0 0.014925367445820525 3.1382325386008677e-05 0 0.014933443154462373 2.8849156126873926e-05 0 0.014900922647846921 3.902631780779833e-05 0 0.014933443154462373 2.8849156126873926e-05 0 0.014916437544850737 4.3484624408614324e-05 0 0.014962336857079223 9.292353651473349e-06 0 0.014933443154462373 2.8849156126873926e-05 0 0.01494091510771387 1.2834001742569633e-05 0 0.014962336857079223 9.292353651473349e-06 0 0.014925367445820525 3.1382325386008677e-05 0 0.014933443154462373 2.8849156126873926e-05 0 0.01494091510771387 1.2834001742569633e-05 0 0.01494091510771387 1.2834001742569633e-05 0 0.014961399993610654 2.2908552518682591e-06 0 0.014925570963470972 1.2038342529750674e-06 0 0.014922387106620536 2.157724248460829e-05 0 0.01494091510771387 1.2834001742569633e-05 0 0.014925570963470972 1.2038342529750674e-06 0 0.014902211908090128 3.576865053763386e-05 0 0.0149180476868939 4.2193853151842054e-05 0 0.014827089438209281 4.5099948013982803e-05 0 0.014827982247288565 3.1518936883726861e-05 0 0.014916437544850737 4.3484624408614324e-05 0 0.014933443154462373 2.8849156126873926e-05 0 0.014916437544850737 4.3484624408614324e-05 0 0.014900922647846921 3.902631780779833e-05 0 0.014827982247288565 3.1518936883726861e-05 0 0.014916437544850737 4.3484624408614324e-05 0 0.014900922647846921 3.902631780779833e-05 0 0.014916437544850737 4.3484624408614324e-05 0 0.014976492644044624 4.3308835723752538e-06 0 0.014962336857079223 9.292353651473349e-06 0 0.014989864520213619 2.7160295816846351e-05 0 0.014916437544850737 4.3484624408614324e-05 0 0.014976492644044624 4.3308835723752538e-06 0 0.014976492644044624 4.3308835723752538e-06 0 0.01499995784888603 3.987661801336357e-09 0 0.014962336857079223 9.292353651473349e-06 0 0.014976492644044624 4.3308835723752538e-06 0 0.01499995784888603 3.987661801336357e-09 0 0.014999983323046386 -6.4438153122574662e-09 0 0.014997691823624081 3.0621398269189542e-06 0 0.014976492644044624 4.3308835723752538e-06 0 0.014999983323046386 -6.4438153122574662e-09 0 0.01494091510771387 1.2834001742569633e-05 0 0.014962336857079223 9.292353651473349e-06 0 0.014961399993610654 2.2908552518682591e-06 0 0.01499995784888603 3.987661801336357e-09 0 0.014962336857079223 9.292353651473349e-06 0 0.014999940543137812 -2.345435973167966e-10 0 0.014962336857079223 9.292353651473349e-06 0 0.014999940543137812 -2.345435973167966e-10 0 0.014961399993610654 2.2908552518682591e-06 0 0.014999940543137812 -2.345435973167966e-10 0 0.014961399993610654 2.2908552518682591e-06 0 0.014999958491741268 8.3030834643327908e-10 0 0.014961399993610654 2.2908552518682591e-06 0 0.014949972175731258 -5.3536566898385298e-07 0 0.014925570963470972 1.2038342529750674e-06 0 0.014961399993610654 2.2908552518682591e-06 0 0.014949972175731258 -5.3536566898385298e-07 0 0.014999958491741268 8.3030834643327908e-10 0 0.014924916802369485 -2.6744412265265945e-06 0 0.014999972243456904 -9.1704299905278176e-09 0 0.014902757335653802 -4.1270800097245347e-06 0 0.014999904860764093 1.2483443529621276e-08 0 0.014953295560960195 3.0524235107031565e-06 0 0.014999904860764093 1.2483443529621276e-08 0 0.014953295560960195 3.0524235107031565e-06 0 0.014999947787032697 1.4915639403138443e-09 0 0.014953295560960195 3.0524235107031565e-06 0 0.014999947787032697 1.4915639403138443e-09 0 0.014957229413398554 7.2578814613093059e-06 0 0.014999947787032697 1.4915639403138443e-09 0 0.014957229413398554 7.2578814613093059e-06 0 0.014999959838700996 1.7167123674392965e-08 0 0.014957229413398554 7.2578814613093059e-06 0 0.014904866027022075 2.6360933411906785e-06 0 0.014912524773204297 4.0657096137489304e-06 0 0.014957229413398554 7.2578814613093059e-06 0 0.014912524773204297 4.0657096137489304e-06 0 0.014951907813354343 8.3824827831832976e-06 0 0.014902757335653802 -4.1270800097245347e-06 0 0.014953295560960195 3.0524235107031565e-06 0 0.014904866027022075 2.6360933411906785e-06 0 0.014953295560960195 3.0524235107031565e-06 0 0.014957229413398554 7.2578814613093059e-06 0 0.014904866027022075 2.6360933411906785e-06 0 0.014902757335653802 -4.1270800097245347e-06 0 0.014904866027022075 2.6360933411906785e-06 0 0.014842921361666411 -3.954904701959369e-06 0 0.014904866027022075 2.6360933411906785e-06 0 0.014867143739293182 -1.5331314134901895e-06 0 0.014842921361666411 -3.954904701959369e-06 0 0.014904866027022075 2.6360933411906785e-06 0 0.014867143739293182 -1.5331314134901895e-06 0 0.014912524773204297 4.0657096137489304e-06 0 0.014867143739293182 -1.5331314134901895e-06 0 0.014912524773204297 4.0657096137489304e-06 0 0.014882034835306108 -6.8552414034574964e-06 0 0.014912524773204297 4.0657096137489304e-06 0 0.014882034835306108 -6.8552414034574964e-06 0 0.014926750156345087 -1.3410558899455393e-05 0 0.014804090136498591 -1.4068903278506061e-05 0 0.014912908806204226 -4.5815203011396987e-05 0 0.014906825674655011 -8.005413172295221e-05 0 0.014882034835306108 -6.8552414034574964e-06 0 0.014804090136498591 -1.4068903278506061e-05 0 0.014912908806204226 -4.5815203011396987e-05 0 0.014882034835306108 -6.8552414034574964e-06 0 0.014926750156345087 -1.3410558899455393e-05 0 0.014912908806204226 -4.5815203011396987e-05 0 0.014867143739293182 -1.5331314134901895e-06 0 0.014882034835306108 -6.8552414034574964e-06 0 0.014804090136498591 -1.4068903278506061e-05 0 0.014804090136498591 -1.4068903278506061e-05 0 0.014766014853521839 -5.2215808325287019e-06 0 0.014765637737185519 -9.0847830947314008e-06 0 0.014829897244989459 -3.3062766698993135e-05 0 0.014725587902064836 -9.6598830816248236e-05 0 0.014842921361666411 -3.954904701959369e-06 0 0.014804090136498591 -1.4068903278506061e-05 0 0.014748525156586506 3.0308379485586874e-05 0 0.014867143739293182 -1.5331314134901895e-06 0 0.014842921361666411 -3.954904701959369e-06 0 0.014804090136498591 -1.4068903278506061e-05 0 0.014842921361666411 -3.954904701959369e-06 0 0.01485555447478069 3.1866487881349184e-06 0 0.014748525156586506 3.0308379485586874e-05 0 0.014922387106620536 2.157724248460829e-05 0 0.01485555447478069 3.1866487881349184e-06 0 0.014919383725730853 5.6597085464470448e-05 0 0.014922387106620536 2.157724248460829e-05 0 0.01485555447478069 3.1866487881349184e-06 0 0.014925570963470972 1.2038342529750674e-06 0 0.014949972175731258 -5.3536566898385298e-07 0 0.01485555447478069 3.1866487881349184e-06 0 0.014925570963470972 1.2038342529750674e-06 0 0.014924916802369485 -2.6744412265265945e-06 0 0.014868338528387412 4.8997061094785735e-06 0 0.014902757335653802 -4.1270800097245347e-06 0 0.014842921361666411 -3.954904701959369e-06 0 0.01485555447478069 3.1866487881349184e-06 0 0.014991172174993803 6.7748787015945755e-06 0 0.014999996697954833 8.0743943812208788e-10 0 0.014998442600054559 4.239078797118659e-06 0 0.014991172174993803 6.7748787015945755e-06 0 0.014999996697954833 8.0743943812208788e-10 0 0.014999989471327706 2.3174221305863439e-09 0 0.014999996697954833 8.0743943812208788e-10 0 0.014998442600054559 4.239078797118659e-06 0 0.015000006809636248 2.4210973087365544e-10 0 0.014991172174993803 6.7748787015945755e-06 0 0.014998442600054559 4.239078797118659e-06 0 0.014996355295184838 1.2330135548738707e-05 0 0.014998442600054559 4.239078797118659e-06 0 0.015004360330116387 6.2516135147739163e-06 0 0.014996355295184838 1.2330135548738707e-05 0 0.014998442600054559 4.239078797118659e-06 0 0.015004360330116387 6.2516135147739163e-06 0 0.015000006809636248 2.4210973087365544e-10 0 0.014974491188825004 8.339926021933597e-06 0 0.014999988101187448 -4.3436128389287439e-09 0 0.014999959838700996 1.7167123674392965e-08 0 0.014986960155069442 2.5977879595538422e-06 0 0.014999999255036398 1.5923671349586669e-08 0 0.014957229413398554 7.2578814613093059e-06 0 0.014999959838700996 1.7167123674392965e-08 0 0.014951907813354343 8.3824827831832976e-06 0 0.014974491188825004 8.339926021933597e-06 0 0.014999959838700996 1.7167123674392965e-08 0 0.014951907813354343 8.3824827831832976e-06 0 0.014912524773204297 4.0657096137489304e-06 0 0.014951907813354343 8.3824827831832976e-06 0 0.014926750156345087 -1.3410558899455393e-05 0 0.014951907813354343 8.3824827831832976e-06 0 0.014954742626548917 -8.3868706035427087e-06 0 0.014926750156345087 -1.3410558899455393e-05 0 0.014974491188825004 8.339926021933597e-06 0 0.014951907813354343 8.3824827831832976e-06 0 0.014954742626548917 -8.3868706035427087e-06 0 0.015008204981983169 3.1610121701240865e-05 0 0.014734723168524385 -0.00011905859337999355 0 0.014926750156345087 -1.3410558899455393e-05 0 0.014912908806204226 -4.5815203011396987e-05 0 0.014937782412976818 -7.1959844108405684e-05 0 0.014954742626548917 -8.3868706035427087e-06 0 0.014926750156345087 -1.3410558899455393e-05 0 0.014937782412976818 -7.1959844108405684e-05 0 0.015008016248975586 1.8407166643311744e-05 0 0.015003578610464405 2.9011227448348117e-05 0 0.015010448806847852 3.252921123606194e-05 0 0.014771090760410017 -5.911398140665334e-05 0 0.014725587902064836 -9.6598830816248236e-05 0 0.015008016248975586 1.8407166643311744e-05 0 0.015003578610464405 2.9011227448348117e-05 0 0.01499679456671656 2.4689017877128679e-05 0 0.015003578610464405 2.9011227448348117e-05 0 0.01499679456671656 2.4689017877128679e-05 0 0.014995933186100005 3.5385059590182568e-05 0 0.014986960155069442 2.5977879595538422e-06 0 0.015008204981983169 3.1610121701240865e-05 0 0.015004360330116387 6.2516135147739163e-06 0 0.015008016248975586 1.8407166643311744e-05 0 0.014996355295184838 1.2330135548738707e-05 0 0.015008016248975586 1.8407166643311744e-05 0 0.014996355295184838 1.2330135548738707e-05 0 0.01499679456671656 2.4689017877128679e-05 0 0.01499679456671656 2.4689017877128679e-05 0 0.014984707825602274 2.162915274349486e-05 0 0.014989308400092905 3.4586824705678474e-05 0 0.014996355295184838 1.2330135548738707e-05 0 0.01499679456671656 2.4689017877128679e-05 0 0.014984707825602274 2.162915274349486e-05 0 0.014991172174993803 6.7748787015945755e-06 0 0.014996355295184838 1.2330135548738707e-05 0 0.014984707825602274 2.162915274349486e-05 0 0.014988307443993753 7.1710745664261314e-06 0 0.014980990886363369 2.2728630121439832e-05 0 0.01495686897795666 6.9003118532265359e-05 0 0.014821067070261467 -1.1057217222366706e-05 0 0.014972114224626014 6.3799513618813255e-05 0 0.014979758424129038 4.7562391738323274e-05 0 0.014991191317550553 4.9775569620471089e-05 0 0.014918704196622203 8.653710863569983e-05 0 0.014897011670423798 9.3451495665737821e-05 0 0.014913137638006649 7.9794686505371202e-05 0 0.014918704196622203 8.653710863569983e-05 0 0.014913137638006649 7.9794686505371202e-05 0 0.014924945495469358 7.8110118655815963e-05 0 0.014972114224626014 6.3799513618813255e-05 0 0.014965906152771664 4.446540067951231e-05 0 0.014948899121140185 5.9059168168328124e-05 0 0.014972114224626014 6.3799513618813255e-05 0 0.014979758424129038 4.7562391738323274e-05 0 0.014965906152771664 4.446540067951231e-05 0 0.014976488845484725 2.2412203780625676e-05 0 0.014979758424129038 4.7562391738323274e-05 0 0.014965906152771664 4.446540067951231e-05 0 0.014984707825602274 2.162915274349486e-05 0 0.014979758424129038 4.7562391738323274e-05 0 0.014989308400092905 3.4586824705678474e-05 0 0.014980990886363369 2.2728630121439832e-05 0 0.014980452545549252 4.6402074025298404e-05 0 0.014979758424129038 4.7562391738323274e-05 0 0.014989173657812452 4.2306809098109249e-05 0 0.014989308400092905 3.4586824705678474e-05 0 0.014989173657812452 4.2306809098109249e-05 0 0.014989308400092905 3.4586824705678474e-05 0 0.014995933186100005 3.5385059590182568e-05 0 0.01499679456671656 2.4689017877128679e-05 0 0.014989308400092905 3.4586824705678474e-05 0 0.014995933186100005 3.5385059590182568e-05 0 0.014995933186100005 3.5385059590182568e-05 0 0.014993514650735689 4.4381797276610224e-05 0 0.015001588464133554 3.9026484102210835e-05 0 0.014989173657812452 4.2306809098109249e-05 0 0.014995933186100005 3.5385059590182568e-05 0 0.014993514650735689 4.4381797276610224e-05 0 0.014468478187771631 -0.00028012534555332867 0 0.014474733455987012 -0.00027699967458995236 0 0.014478647033321194 -0.00028292794384387083 0 0.014821067070261467 -1.1057217222366706e-05 0 0.014736209752157269 -0.00011958346582891805 0 0.014993514650735689 4.4381797276610224e-05 0 0.014990970475319504 4.793343001399417e-05 0 0.015001588464133554 3.9026484102210835e-05 0 0.014878746592661456 -2.0219748284730197e-05 0 0.014821067070261467 -1.1057217222366706e-05 0 0.014989173657812452 4.2306809098109249e-05 0 0.014993514650735689 4.4381797276610224e-05 0 0.014991191317550553 4.9775569620471089e-05 0 0.014979758424129038 4.7562391738323274e-05 0 0.014989173657812452 4.2306809098109249e-05 0 0.014991191317550553 4.9775569620471089e-05 0 0.014821067070261467 -1.1057217222366706e-05 0 0.014736116340044032 -0.00015127226605608353 0 0.014468478187771631 -0.00028012534555332867 0 0.014465209146792422 -0.00027567441134130071 0 0.014469611455784287 -0.00027612059517837108 0 0.014465209146792422 -0.00027567441134130071 0 0.014464762739915552 -0.00027350821036301346 0 0.014457631993412426 -0.00027297089608187665 0 0.014464762739915552 -0.00027350821036301346 0 0.014469611455784287 -0.00027612059517837108 0 0.014467115643915144 -0.00027129291444894372 0 0.014468478187771631 -0.00028012534555332867 0 0.014465209146792422 -0.00027567441134130071 0 0.014457631993412426 -0.00027297089608187665 0 0.014465209146792422 -0.00027567441134130071 0 0.014464762739915552 -0.00027350821036301346 0 0.014469611455784287 -0.00027612059517837108 0 0.014468478187771631 -0.00028012534555332867 0 0.014469611455784287 -0.00027612059517837108 0 0.014474733455987012 -0.00027699967458995236 0 0.014469611455784287 -0.00027612059517837108 0 0.014474733455987012 -0.00027699967458995236 0 0.014471660618685394 -0.00027268683982775059 0 0.014474733455987012 -0.00027699967458995236 0 0.014481090800181487 -0.00027692421277190871 0 0.01447700860750087 -0.00027150687387850696 0 0.014481090800181487 -0.00027692421277190871 0 0.014478647033321194 -0.00028292794384387083 0 0.014483880972248564 -0.0002808246977252832 0 0.014474733455987012 -0.00027699967458995236 0 0.014481090800181487 -0.00027692421277190871 0 0.014478647033321194 -0.00028292794384387083 0 0.015003578610464405 2.9011227448348117e-05 0 0.015001588464133554 3.9026484102210835e-05 0 0.015010448806847852 3.252921123606194e-05 0 0.014736209752157269 -0.00011958346582891805 0 0.014734723168524385 -0.00011905859337999355 0 0.014478647033321194 -0.00028292794384387083 0 0.014487495962560343 -0.00028528752046753854 0 0.014483880972248564 -0.0002808246977252832 0 0.015003578610464405 2.9011227448348117e-05 0 0.014995933186100005 3.5385059590182568e-05 0 0.015001588464133554 3.9026484102210835e-05 0 0.014516398590582137 -0.00021237145405523532 0 0.014504669940490138 -0.00024730877455159301 0 0.014496968966809106 -0.0002036833098614021 0 0.014487495962560343 -0.00028528752046753854 0 0.014488039704613114 -0.00027807189462538312 0 0.014483880972248564 -0.0002808246977252832 0 0.014734723168524385 -0.00011905859337999355 0 0.0144884526408053 -0.00029316062246735543 0 0.014912908806204226 -4.5815203011396987e-05 0 0.014937782412976818 -7.1959844108405684e-05 0 0.014910164351298386 -6.0106418755586925e-05 0 0.014734723168524385 -0.00011905859337999355 0 0.014725587902064836 -9.6598830816248236e-05 0 0.014504669940490138 -0.00024730877455159301 0 0.014489648069961371 -0.00026794440741964039 0 0.014486438781458893 -0.00025832263777342848 0 0.0144884526408053 -0.00029316062246735543 0 0.014494333216153649 -0.00025676213991985208 0 0.014481090800181487 -0.00027692421277190871 0 0.014488039704613114 -0.00027807189462538312 0 0.014483880972248564 -0.0002808246977252832 0 0.014481090800181487 -0.00027692421277190871 0 0.014488039704613114 -0.00027807189462538312 0 0.014483555097639229 -0.00027205426352473083 0 0.014488039704613114 -0.00027807189462538312 0 0.014489648069961371 -0.00026794440741964039 0 0.014483555097639229 -0.00027205426352473083 0 0.014489648069961371 -0.00026794440741964039 0 0.014483555097639229 -0.00027205426352473083 0 0.014482693666976496 -0.00026833316439348254 0 0.014489648069961371 -0.00026794440741964039 0 0.014486932880356034 -0.00026997010685597174 0 0.014482693666976496 -0.00026833316439348254 0 0.014486932880356034 -0.00026997010685597174 0 0.014481674695217155 -0.00026676931159109102 0 0.014486635032949486 -0.00027124523473526306 0 0.014486932880356034 -0.00026997010685597174 0 0.014481674695217155 -0.00026676931159109102 0 0.014482693666976496 -0.00026833316439348254 0 0.014481674695217155 -0.00026676931159109102 0 0.014474935242520186 -0.00026498492892783397 0 0.014474673081917279 -0.00025718561849041551 0 0.014481674695217155 -0.00026676931159109102 0 0.014482693666976496 -0.00026833316439348254 0 0.014474935242520186 -0.00026498492892783397 0 0.014474935242520186 -0.00026498492892783397 0 0.014463130794984827 -0.000257809622877275 0 0.014474673081917279 -0.00025718561849041551 0 0.014482693666976496 -0.00026833316439348254 0 0.014474935242520186 -0.00026498492892783397 0 0.01447700860750087 -0.00027150687387850696 0 0.014474935242520186 -0.00026498492892783397 0 0.01447700860750087 -0.00027150687387850696 0 0.014469544871816906 -0.00026741771435994315 0 0.014483555097639229 -0.00027205426352473083 0 0.014482693666976496 -0.00026833316439348254 0 0.01447700860750087 -0.00027150687387850696 0 0.014481090800181487 -0.00027692421277190871 0 0.014483555097639229 -0.00027205426352473083 0 0.01447700860750087 -0.00027150687387850696 0 0.014474733455987012 -0.00027699967458995236 0 0.01447700860750087 -0.00027150687387850696 0 0.014471660618685394 -0.00027268683982775059 0 0.01447700860750087 -0.00027150687387850696 0 0.014471660618685394 -0.00027268683982775059 0 0.014469544871816906 -0.00026741771435994315 0 0.014469611455784287 -0.00027612059517837108 0 0.014471660618685394 -0.00027268683982775059 0 0.014467115643915144 -0.00027129291444894372 0 0.014471660618685394 -0.00027268683982775059 0 0.014467115643915144 -0.00027129291444894372 0 0.014469544871816906 -0.00026741771435994315 0 0.014467115643915144 -0.00027129291444894372 0 0.014461240231046713 -0.00026978876138632738 0 0.014460343838634461 -0.00026467663678874243 0 0.014464762739915552 -0.00027350821036301346 0 0.014467115643915144 -0.00027129291444894372 0 0.014461240231046713 -0.00026978876138632738 0 0.014467115643915144 -0.00027129291444894372 0 0.014460343838634461 -0.00026467663678874243 0 0.014469544871816906 -0.00026741771435994315 0 0.014474935242520186 -0.00026498492892783397 0 0.014469544871816906 -0.00026741771435994315 0 0.014463130794984827 -0.000257809622877275 0 0.014460343838634461 -0.00026467663678874243 0 0.014469544871816906 -0.00026741771435994315 0 0.014463130794984827 -0.000257809622877275 0 0.014460343838634461 -0.00026467663678874243 0 0.014463130794984827 -0.000257809622877275 0 0.01444651123433848 -0.00026161187116428088 0 0.013967435580313051 0.00020703159514755948 0 0.014144654197807251 8.0465566870880677e-05 0 0.013396049178059807 0.0006958483811422123 0 0.013091288794301688 0.00087205155367985434 0 0.013039169894326262 0.00048868828629788452 0 0.014460343838634461 -0.00026467663678874243 0 0.014456261682446285 -0.00026706588771486487 0 0.01444651123433848 -0.00026161187116428088 0 0.014461240231046713 -0.00026978876138632738 0 0.014460343838634461 -0.00026467663678874243 0 0.014456261682446285 -0.00026706588771486487 0 0.014464762739915552 -0.00027350821036301346 0 0.014461240231046713 -0.00026978876138632738 0 0.014457631993412426 -0.00027297089608187665 0 0.014461240231046713 -0.00026978876138632738 0 0.014456261682446285 -0.00026706588771486487 0 0.014457631993412426 -0.00027297089608187665 0 0.014913137638006649 7.9794686505371202e-05 0 0.014924945495469358 7.8110118655815963e-05 0 0.014928943771869084 6.9746786330693382e-05 0 0.014456261682446285 -0.00026706588771486487 0 0.014457631993412426 -0.00027297089608187665 0 0.01444651123433848 -0.00026161187116428088 0 0.014736116340044032 -0.00015127226605608353 0 0.014144654197807251 8.0465566870880677e-05 0 0.01458051907876873 -6.3922645927187201e-05 0 0.014677764022593411 -3.8860863028674977e-05 0 0.014588709529382996 -0.00010545664640625878 0 0.01458051907876873 -6.3922645927187201e-05 0 0.014588709529382996 -0.00010545664640625878 0 0.014507808389399451 -0.00012398542982015138 0 0.01458051907876873 -6.3922645927187201e-05 0 0.014475873136775756 -9.5846866446063568e-05 0 0.014507808389399451 -0.00012398542982015138 0 0.014420452931306891 -9.0841197839722327e-05 0 0.014475873136775756 -9.5846866446063568e-05 0 0.01444232673838051 -9.2421210390597706e-06 0 0.014420452931306891 -9.0841197839722327e-05 0 0.014475873136775756 -9.5846866446063568e-05 0 0.01445040853204972 -0.00015964947323506126 0 0.01458051907876873 -6.3922645927187201e-05 0 0.014475873136775756 -9.5846866446063568e-05 0 0.01444232673838051 -9.2421210390597706e-06 0 0.01458051907876873 -6.3922645927187201e-05 0 0.01444232673838051 -9.2421210390597706e-06 0 0.014748525156586506 3.0308379485586874e-05 0 0.01458051907876873 -6.3922645927187201e-05 0 0.014748525156586506 3.0308379485586874e-05 0 0.014677764022593411 -3.8860863028674977e-05 0 0.01485555447478069 3.1866487881349184e-06 0 0.014919383725730853 5.6597085464470448e-05 0 0.014748525156586506 3.0308379485586874e-05 0 0.014680548490451247 1.7743705007541264e-05 0 0.014741881503475917 3.1897645706000207e-05 0 0.014748525156586506 3.0308379485586874e-05 0 0.014751020860711679 -2.3540517975391153e-06 0 0.014677764022593411 -3.8860863028674977e-05 0 0.014804090136498591 -1.4068903278506061e-05 0 0.014748525156586506 3.0308379485586874e-05 0 0.014751020860711679 -2.3540517975391153e-06 0 0.014751020860711679 -2.3540517975391153e-06 0 0.014765637737185519 -9.0847830947314008e-06 0 0.014732043392498064 -2.6252941469923765e-05 0 0.014804090136498591 -1.4068903278506061e-05 0 0.014751020860711679 -2.3540517975391153e-06 0 0.014765637737185519 -9.0847830947314008e-06 0 0.014751020860711679 -2.3540517975391153e-06 0 0.014732043392498064 -2.6252941469923765e-05 0 0.014677764022593411 -3.8860863028674977e-05 0 0.014725587902064836 -9.6598830816248236e-05 0 0.014589573148279645 -0.00016513015573741712 0 0.014766014853521839 -5.2215808325287019e-06 0 0.014732043392498064 -2.6252941469923765e-05 0 0.014719934249754305 -7.1187182904396633e-05 0 0.014766014853521839 -5.2215808325287019e-06 0 0.014765637737185519 -9.0847830947314008e-06 0 0.014732043392498064 -2.6252941469923765e-05 0 0.014504669940490138 -0.00024730877455159301 0 0.014496968966809106 -0.0002036833098614021 0 0.014486438781458893 -0.00025832263777342848 0 0.014732043392498064 -2.6252941469923765e-05 0 0.014719934249754305 -7.1187182904396633e-05 0 0.014669662403132878 -6.9382974610983898e-05 0 0.014719934249754305 -7.1187182904396633e-05 0 0.014669662403132878 -6.9382974610983898e-05 0 0.014619673915125633 -0.00012113700856824587 0 0.014677764022593411 -3.8860863028674977e-05 0 0.014669662403132878 -6.9382974610983898e-05 0 0.014588709529382996 -0.00010545664640625878 0 0.014732043392498064 -2.6252941469923765e-05 0 0.014677764022593411 -3.8860863028674977e-05 0 0.014669662403132878 -6.9382974610983898e-05 0 0.014588709529382996 -0.00010545664640625878 0 0.014619673915125633 -0.00012113700856824587 0 0.014506178288204954 -0.00017487196903810152 0 0.014669662403132878 -6.9382974610983898e-05 0 0.014588709529382996 -0.00010545664640625878 0 0.014619673915125633 -0.00012113700856824587 0 0.014589573148279645 -0.00016513015573741712 0 0.014553799713893076 -0.00022950029359931903 0 0.014489648069961371 -0.00026794440741964039 0 0.014486438781458893 -0.00025832263777342848 0 0.014487110120483799 -0.0002741114543576071 0 0.014719934249754305 -7.1187182904396633e-05 0 0.014619673915125633 -0.00012113700856824587 0 0.014615253074731658 -0.00019541687785590642 0 0.014489648069961371 -0.00026794440741964039 0 0.014486932880356034 -0.00026997010685597174 0 0.014487110120483799 -0.0002741114543576071 0 0.014486932880356034 -0.00026997010685597174 0 0.014487110120483799 -0.0002741114543576071 0 0.014486635032949486 -0.00027124523473526306 0 0.014619673915125633 -0.00012113700856824587 0 0.014615253074731658 -0.00019541687785590642 0 0.014506178288204954 -0.00017487196903810152 0 0.014615253074731658 -0.00019541687785590642 0 0.014506178288204954 -0.00017487196903810152 0 0.014532793148482591 -0.00024202879987608096 0 0.014506178288204954 -0.00017487196903810152 0 0.014532793148482591 -0.00024202879987608096 0 0.014473618769517494 -0.00022624729048552827 0 0.014506178288204954 -0.00017487196903810152 0 0.014282927705160528 -0.00020564979298661517 0 0.014473618769517494 -0.00022624729048552827 0 0.014506178288204954 -0.00017487196903810152 0 0.014408906237095825 -0.00018490049096506892 0 0.014282927705160528 -0.00020564979298661517 0 0.014408906237095825 -0.00018490049096506892 0 0.014507808389399451 -0.00012398542982015138 0 0.01445040853204972 -0.00015964947323506126 0 0.014588709529382996 -0.00010545664640625878 0 0.014506178288204954 -0.00017487196903810152 0 0.014408906237095825 -0.00018490049096506892 0 0.014588709529382996 -0.00010545664640625878 0 0.014408906237095825 -0.00018490049096506892 0 0.014507808389399451 -0.00012398542982015138 0 0.014475873136775756 -9.5846866446063568e-05 0 0.014507808389399451 -0.00012398542982015138 0 0.01445040853204972 -0.00015964947323506126 0 0.014406619306800473 -0.00015340964437500458 0 0.01445040853204972 -0.00015964947323506126 0 0.014431551033362612 -0.0001987515807156193 0 0.014496432660897507 -0.00029630565340743424 0 0.014221907841044922 0.00015642432646777315 0 0.014408906237095825 -0.00018490049096506892 0 0.014456919765902333 -0.00017884737460155265 0 0.014282927705160528 -0.00020564979298661517 0 0.014408906237095825 -0.00018490049096506892 0 0.01445040853204972 -0.00015964947323506126 0 0.014456919765902333 -0.00017884737460155265 0 0.014456919765902333 -0.00017884737460155265 0 0.014236109351563135 4.6073078390849798e-05 0 0.014282927705160528 -0.00020564979298661517 0 0.014456919765902333 -0.00017884737460155265 0 0.014236109351563135 4.6073078390849798e-05 0 0.014213800682606441 0.00049136466425265136 0 0.014061158958593976 0.00078806230031273395 0 0.014221907841044922 0.00015642432646777315 0 0.014282927705160528 -0.00020564979298661517 0 0.014469096980344676 -0.00030140875085366654 0 0.014473618769517494 -0.00022624729048552827 0 0.014236109351563135 4.6073078390849798e-05 0 0.014282927705160528 -0.00020564979298661517 0 0.013984709124548307 0.00015005278472220209 0 0.014176989656485034 -0.00017668777976611284 0 0.014085801745101358 -0.00019301650209530667 0 0.014282927705160528 -0.00020564979298661517 0 0.013984709124548307 0.00015005278472220209 0 0.013485337043722716 3.4434592143567072e-05 0 0.013984709124548307 0.00015005278472220209 0 0.014213800682606441 0.00049136466425265136 0 0.013332813709312278 0.00070710894563952742 0 0.013984709124548307 0.00015005278472220209 0 0.013332813709312278 0.00070710894563952742 0 0.013485337043722716 3.4434592143567072e-05 0 0.014236109351563135 4.6073078390849798e-05 0 0.013984709124548307 0.00015005278472220209 0 0.014213800682606441 0.00049136466425265136 0 0.013960068048839083 0.00091503827283612735 0 0.013894964470805056 0.00063716012956012858 0 0.013704200570259222 0.0010202728639260258 0 0.014221907841044922 0.00015642432646777315 0 0.013927194282508978 0.00077465368096324308 0 0.013704200570259222 0.0010202728639260258 0 0.013863933063658499 0.0010763598006933866 0 0.013799324946771902 0.0011710467057085903 0 0.013960068048839083 0.00091503827283612735 0 0.013704200570259222 0.0010202728639260258 0 0.013863933063658499 0.0010763598006933866 0 0.01401991101008951 0.001182515143538828 0 0.013863933063658499 0.0010763598006933866 0 0.013894141153929219 0.0011927586357586334 0 0.013704200570259222 0.0010202728639260258 0 0.013708599841121577 0.0012572675180789993 0 0.013799324946771902 0.0011710467057085903 0 0.013863933063658499 0.0010763598006933866 0 0.013894141153929219 0.0011927586357586334 0 0.013799324946771902 0.0011710467057085903 0 0.013894141153929219 0.0011927586357586334 0 0.013929148391081905 0.0013371683290689319 0 0.013830183732336961 0.0012915812534537367 0 0.013894141153929219 0.0011927586357586334 0 0.013830183732336961 0.0012915812534537367 0 0.013799324946771902 0.0011710467057085903 0 0.013830183732336961 0.0012915812534537367 0 0.013708599841121577 0.0012572675180789993 0 0.013813363046591224 0.0014561765920647982 0 0.013830183732336961 0.0012915812534537367 0 0.013708599841121577 0.0012572675180789993 0 0.013799324946771902 0.0011710467057085903 0 0.014213800682606441 0.00049136466425265136 0 0.013536121372447597 0.0013251540826294038 0 0.013332813709312278 0.00070710894563952742 0 0.013927194282508978 0.00077465368096324308 0 0.013590773387710487 0.0012764564479863948 0 0.013704200570259222 0.0010202728639260258 0 0.013708599841121577 0.0012572675180789993 0 0.013536121372447597 0.0013251540826294038 0 0.013536121372447597 0.0013251540826294038 0 0.013591573272192022 0.0018275516794503672 0 0.012902406133411761 0.0016954460862745589 0 0.013708599841121577 0.0012572675180789993 0 0.013536121372447597 0.0013251540826294038 0 0.013813363046591224 0.0014561765920647982 0 0.013536121372447597 0.0013251540826294038 0 0.013813363046591224 0.0014561765920647982 0 0.013591573272192022 0.0018275516794503672 0 0.013929148391081905 0.0013371683290689319 0 0.013830183732336961 0.0012915812534537367 0 0.013813363046591224 0.0014561765920647982 0 0.012783553204996067 0.0011044201696124468 0 0.012215807900848228 0.0015893653851243442 0 0.012902406133411761 0.0016954460862745589 0 0.012783553204996067 0.0011044201696124468 0 0.012188374626243965 0.00097543150726455384 0 0.012215807900848228 0.0015893653851243442 0 0.013536121372447597 0.0013251540826294038 0 0.012783553204996067 0.0011044201696124468 0 0.012902406133411761 0.0016954460862745589 0 0.013536121372447597 0.0013251540826294038 0 0.013332813709312278 0.00070710894563952742 0 0.012783553204996067 0.0011044201696124468 0 0.013332813709312278 0.00070710894563952742 0 0.012783553204996067 0.0011044201696124468 0 0.012821345797848299 0.00045234715881724177 0 0.012783553204996067 0.0011044201696124468 0 0.012821345797848299 0.00045234715881724177 0 0.012188374626243965 0.00097543150726455384 0 0.013215046769259581 0.00065879265149620914 0 0.011932558680679809 0.0013749294925257309 0 0.01213145951479354 0.0014853817435913482 0 0.011976502504760594 0.0014134036854573685 0 0.01194438090768957 0.0016108938578889317 0 0.013215046769259581 0.00065879265149620914 0 0.013202109871571907 0.00055134286065407136 0 0.014509754080828609 -0.00029684629855489145 0 0.014508906477945182 -0.0002943017223168988 0 0.014490114140792092 -0.00027889838448582168 0 0.013332813709312278 0.00070710894563952742 0 0.012879447543774077 0.00043828608759536691 0 0.013485337043722716 3.4434592143567072e-05 0 0.0131611244975015 0.00061545357980188344 0 0.013215046769259581 0.00065879265149620914 0 0.014509754080828609 -0.00029684629855489145 0 0.014508906477945182 -0.0002943017223168988 0 0.014505714702832686 -0.00028388600928339758 0 0.014509754080828609 -0.00029684629855489145 0 0.014469096980344676 -0.00030140875085366654 0 0.014505714702832686 -0.00028388600928339758 0 0.013215046769259581 0.00065879265149620914 0 0.014085801745101358 -0.00019301650209530667 0 0.014469096980344676 -0.00030140875085366654 0 0.014505714702832686 -0.00028388600928339758 0 0.014473618769517494 -0.00022624729048552827 0 0.014508906477945182 -0.0002943017223168988 0 0.014505714702832686 -0.00028388600928339758 0 0.014532793148482591 -0.00024202879987608096 0 0.014505714702832686 -0.00028388600928339758 0 0.014532793148482591 -0.00024202879987608096 0 0.014473618769517494 -0.00022624729048552827 0 0.014487110120483799 -0.0002741114543576071 0 0.014508906477945182 -0.0002943017223168988 0 0.014490114140792092 -0.00027889838448582168 0 0.014553799713893076 -0.00022950029359931903 0 0.014515126814785199 -0.00028705247807470308 0 0.014487110120483799 -0.0002741114543576071 0 0.014486635032949486 -0.00027124523473526306 0 0.014490114140792092 -0.00027889838448582168 0 0.014615253074731658 -0.00019541687785590642 0 0.014508906477945182 -0.0002943017223168988 0 0.014532793148482591 -0.00024202879987608096 0 0.013202109871571907 0.00055134286065407136 0 0.013471271867072202 0.00050577778479871083 0 0.014486635032949486 -0.00027124523473526306 0 0.014490114140792092 -0.00027889838448582168 0 0.014476331999864114 -0.0002669056553200285 0 0.011976502504760594 0.0014134036854573685 0 0.011837403742839829 0.0013506623841563203 0 0.011868869621316103 0.0014576890811047313 0 0.014481674695217155 -0.00026676931159109102 0 0.014486635032949486 -0.00027124523473526306 0 0.014474673081917279 -0.00025718561849041551 0 0.014801172312094628 -0.00037234554719514396 0 0.013471271867072202 0.00050577778479871083 0 0.013967435580313051 0.00020703159514755948 0 0.013471271867072202 0.00050577778479871083 0 0.013471271867072202 0.00050577778479871083 0 0.012330671064873358 0.0014050066511777555 0 0.011837403742839829 0.0013506623841563203 0 0.011777042645111478 0.0015322815585312401 0 0.011631292671686926 0.0014916599629664273 0 0.011837403742839829 0.0013506623841563203 0 0.011777042645111478 0.0015322815585312401 0 0.011868869621316103 0.0014576890811047313 0 0.011976502504760594 0.0014134036854573685 0 0.011868869621316103 0.0014576890811047313 0 0.01194438090768957 0.0016108938578889317 0 0.011777042645111478 0.0015322815585312401 0 0.011868869621316103 0.0014576890811047313 0 0.01194438090768957 0.0016108938578889317 0 0.013396049178059807 0.0006958483811422123 0 0.013091288794301688 0.00087205155367985434 0 0.013348592158956526 0.0010852557183032867 0 0.013396049178059807 0.0006958483811422123 0 0.013748820006227543 0.00089333250364348894 0 0.013348592158956526 0.0010852557183032867 0 0.011777042645111478 0.0015322815585312401 0 0.011631292671686926 0.0014916599629664273 0 0.011642349133814529 0.0016129965956918509 0 0.011631292671686926 0.0014916599629664273 0 0.01159745876278734 0.0015979786537048876 0 0.011642349133814529 0.0016129965956918509 0 0.013091288794301688 0.00087205155367985434 0 0.013348592158956526 0.0010852557183032867 0 0.012938567258992173 0.0012844430737833027 0 0.012330671064873358 0.0014050066511777555 0 0.012312321503542372 0.0014378638064459232 0 0.011631292671686926 0.0014916599629664273 0 0.01159745876278734 0.0015979786537048876 0 0.011593329837846229 0.0016437648586441307 0 0.01159745876278734 0.0015979786537048876 0 0.011562965124019851 0.0016321414251312372 0 0.011596860898527121 0.0016193372620513151 0 0.01159745876278734 0.0015979786537048876 0 0.011642349133814529 0.0016129965956918509 0 0.011562965124019851 0.0016321414251312372 0 0.011601517086257741 0.0017007634731316993 0 0.011769679155800376 0.0016997085330812307 0 0.011590252192422502 0.0017589903490927263 0 0.011778279503947159 0.0015572582624986963 0 0.011592189192404194 0.0017419981270127933 0 0.011642349133814529 0.0016129965956918509 0 0.011601517086257741 0.0017007634731316993 0 0.011769679155800376 0.0016997085330812307 0 0.011642349133814529 0.0016129965956918509 0 0.011601517086257741 0.0017007634731316993 0 0.011562965124019851 0.0016321414251312372 0 0.011562965124019851 0.0016321414251312372 0 0.01153140757765647 0.0017351533612097933 0 0.011413949536568564 0.0017076905138871058 0 0.011601517086257741 0.0017007634731316993 0 0.011562965124019851 0.0016321414251312372 0 0.01153140757765647 0.0017351533612097933 0 0.011932558680679809 0.0013749294925257309 0 0.011778279503947159 0.0015572582624986963 0 0.011777042645111478 0.0015322815585312401 0 0.01194438090768957 0.0016108938578889317 0 0.011769679155800376 0.0016997085330812307 0 0.011777042645111478 0.0015322815585312401 0 0.011642349133814529 0.0016129965956918509 0 0.011769679155800376 0.0016997085330812307 0 0.012188374626243965 0.00097543150726455384 0 0.01170175687686552 0.0014675639903108067 0 0.012215807900848228 0.0015893653851243442 0 0.012215807900848228 0.0015893653851243442 0 0.011706052538446659 0.0019699372400723437 0 0.012497931200690805 0.0019419156221999439 0 0.01170175687686552 0.0014675639903108067 0 0.012215807900848228 0.0015893653851243442 0 0.011706052538446659 0.0019699372400723437 0 0.01170175687686552 0.0014675639903108067 0 0.011706052538446659 0.0019699372400723437 0 0.011590252192422502 0.0017589903490927263 0 0.011619076221331225 0.0018430359001632463 0 0.011631582255614522 0.0018546018593687992 0 0.011669414710532474 0.0018331102649677953 0 0.011706052538446659 0.0019699372400723437 0 0.011619076221331225 0.0018430359001632463 0 0.011631582255614522 0.0018546018593687992 0 0.011706052538446659 0.0019699372400723437 0 0.012497931200690805 0.0019419156221999439 0 0.012465448970995489 0.002371261129766124 0 0.011652682412210801 0.0019674648990072488 0 0.011816788049113935 0.0021646980622689054 0 0.011706052538446659 0.0019699372400723437 0 0.011330260883502341 0.001774193188490987 0 0.011018519884736211 0.0018841067064733201 0 0.011706052538446659 0.0019699372400723437 0 0.011619076221331225 0.0018430359001632463 0 0.011330260883502341 0.001774193188490987 0 0.01153140757765647 0.0017351533612097933 0 0.011554057880247564 0.0018368021790099056 0 0.011413949536568564 0.0017076905138871058 0 0.010370643745171802 0.00088965115482899249 0 0.010479810088178349 0.0010502974007679786 0 0.0091684084635204922 -2.0588439481725413e-06 0 0.008931392949777189 0.00012135524229106177 0 0.0088093345038131286 -9.0759799582241648e-05 0 0.011601517086257741 0.0017007634731316993 0 0.01153140757765647 0.0017351533612097933 0 0.011563235828636371 0.001775816281070403 0 0.01153140757765647 0.0017351533612097933 0 0.011563235828636371 0.001775816281070403 0 0.011554057880247564 0.0018368021790099056 0 0.011706052538446659 0.0019699372400723437 0 0.011590252192422502 0.0017589903490927263 0 0.011631582255614522 0.0018546018593687992 0 0.011563235828636371 0.001775816281070403 0 0.011554057880247564 0.0018368021790099056 0 0.011631582255614522 0.0018546018593687992 0 0.011563235828636371 0.001775816281070403 0 0.011590252192422502 0.0017589903490927263 0 0.011631582255614522 0.0018546018593687992 0 0.011601517086257741 0.0017007634731316993 0 0.011563235828636371 0.001775816281070403 0 0.011590252192422502 0.0017589903490927263 0 0.0091684084635204922 -2.0588439481725413e-06 0 0.0091879463921316924 0.00021145759840758606 0 0.009734092675608607 0.0005218252562963515 0 0.010370643745171802 0.00088965115482899249 0 0.010185711959773051 0.00092208383099310948 0 0.0091879463921316924 0.00021145759840758606 0 0.0091666335054774797 0.00051051945335269975 0 0.0095041130020434694 0.00046558932482538206 0 0.011554057880247564 0.0018368021790099056 0 0.011631582255614522 0.0018546018593687992 0 0.011669414710532474 0.0018331102649677953 0 0.0089925999268573586 9.745286774713958e-05 0 0.010185711959773051 0.00092208383099310948 0 0.0091879463921316924 0.00021145759840758606 0 0.0090323604384119002 0.00033220438774063057 0 0.0091666335054774797 0.00051051945335269975 0 0.0090323604384119002 0.00033220438774063057 0 0.008931392949777189 0.00012135524229106177 0 0.008856615105713745 0.00046929725090195842 0 0.0091879463921316924 0.00021145759840758606 0 0.0090323604384119002 0.00033220438774063057 0 0.008931392949777189 0.00012135524229106177 0 0.0091684084635204922 -2.0588439481725413e-06 0 0.0091879463921316924 0.00021145759840758606 0 0.008931392949777189 0.00012135524229106177 0 0.0090323604384119002 0.00033220438774063057 0 0.0091666335054774797 0.00051051945335269975 0 0.008856615105713745 0.00046929725090195842 0 0.0090530662177254473 0.00073800157493505612 0 0.0091666335054774797 0.00051051945335269975 0 0.008856615105713745 0.00046929725090195842 0 0.0090530662177254473 0.00073800157493505612 0 0.0091666335054774797 0.00051051945335269975 0 0.0093372752835565506 0.00073376412859656908 0 0.0095041130020434694 0.00046558932482538206 0 0.0093372752835565506 0.00073376412859656908 0 0.0095713484872105448 0.00081290114760790083 0 0.0091666335054774797 0.00051051945335269975 0 0.0095041130020434694 0.00046558932482538206 0 0.0093372752835565506 0.00073376412859656908 0 0.0093372752835565506 0.00073376412859656908 0 0.0094496399065284401 0.00093477325480001417 0 0.0095713484872105448 0.00081290114760790083 0 0.0094496399065284401 0.00093477325480001417 0 0.0092350311970785214 0.00093136734849076988 0 0.0093500251640051529 0.0010867382250679576 0 0.0093372752835565506 0.00073376412859656908 0 0.0094496399065284401 0.00093477325480001417 0 0.0092350311970785214 0.00093136734849076988 0 0.0090530662177254473 0.00073800157493505612 0 0.0093372752835565506 0.00073376412859656908 0 0.0092350311970785214 0.00093136734849076988 0 0.0092350311970785214 0.00093136734849076988 0 0.0089783457278135199 0.00099692466658732153 0 0.0091626822708857098 0.0010982553461296974 0 0.0090530662177254473 0.00073800157493505612 0 0.0089783457278135199 0.00099692466658732153 0 0.0087561346293397544 0.00077463372075422632 0 0.0090530662177254473 0.00073800157493505612 0 0.0092350311970785214 0.00093136734849076988 0 0.0089783457278135199 0.00099692466658732153 0 0.011235809807116436 0.0015917332707690679 0 0.011524850870024837 0.0016037993553633838 0 0.01093553365507728 0.0013182210912193956 0 0.011052473674313777 0.0015536139887284322 0 0.011330260883502341 0.001774193188490987 0 0.011018519884736211 0.0018841067064733201 0 0.011052473674313777 0.0015536139887284322 0 0.011235809807116436 0.0015917332707690679 0 0.01093553365507728 0.0013182210912193956 0 0.011052473674313777 0.0015536139887284322 0 0.011235809807116436 0.0015917332707690679 0 0.011330260883502341 0.001774193188490987 0 0.011619076221331225 0.0018430359001632463 0 0.011330260883502341 0.001774193188490987 0 0.011524850870024837 0.0016037993553633838 0 0.011235809807116436 0.0015917332707690679 0 0.011330260883502341 0.001774193188490987 0 0.011524850870024837 0.0016037993553633838 0 0.010185711959773051 0.00092208383099310948 0 0.010735998180301182 0.0012568800478835794 0 0.0096933749964435052 0.00072100736882662318 0 0.0097754313700375121 0.00077762745999332319 0 0.0097691613141560694 0.00082061937630268755 0 0.010185711959773051 0.00092208383099310948 0 0.0095473115231991656 0.0006382862104033568 0 0.011619076221331225 0.0018430359001632463 0 0.011669414710532474 0.0018331102649677953 0 0.011524850870024837 0.0016037993553633838 0 0.0095041130020434694 0.00046558932482538206 0 0.0097691613141560694 0.00082061937630268755 0 0.0095713484872105448 0.00081290114760790083 0 0.0097691613141560694 0.00082061937630268755 0 0.0095713484872105448 0.00081290114760790083 0 0.009708077140882454 0.00091564514781711194 0 0.0097691613141560694 0.00082061937630268755 0 0.009708077140882454 0.00091564514781711194 0 0.0097926364949391474 0.00091561006223285415 0 0.0095713484872105448 0.00081290114760790083 0 0.0096373144452117573 0.00098705118310882202 0 0.009708077140882454 0.00091564514781711194 0 0.0094496399065284401 0.00093477325480001417 0 0.0096373144452117573 0.00098705118310882202 0 0.0095059701057563731 0.0010822437014342088 0 0.0094496399065284401 0.00093477325480001417 0 0.0095713484872105448 0.00081290114760790083 0 0.0096373144452117573 0.00098705118310882202 0 0.009708077140882454 0.00091564514781711194 0 0.0097926364949391474 0.00091561006223285415 0 0.0097528796377794359 0.0010340760045278539 0 0.0096373144452117573 0.00098705118310882202 0 0.009708077140882454 0.00091564514781711194 0 0.0097528796377794359 0.0010340760045278539 0 0.010735998180301182 0.0012568800478835794 0 0.010426983789712753 0.0011174914014645322 0 0.0098337791787118951 0.00099261530696441685 0 0.0097926364949391474 0.00091561006223285415 0 0.0097528796377794359 0.0010340760045278539 0 0.0097754313700375121 0.00077762745999332319 0 0.0098401576551947704 0.00088927596603394817 0 0.0099676749503359533 0.00090777049281196487 0 0.0098337791787118951 0.00099261530696441685 0 0.0098401576551947704 0.00088927596603394817 0 0.00989727848316105 0.0010017395174957767 0 0.0098337791787118951 0.00099261530696441685 0 0.0097926364949391474 0.00091561006223285415 0 0.0098401576551947704 0.00088927596603394817 0 0.0097754313700375121 0.00077762745999332319 0 0.0097691613141560694 0.00082061937630268755 0 0.0098401576551947704 0.00088927596603394817 0 0.0097691613141560694 0.00082061937630268755 0 0.0097926364949391474 0.00091561006223285415 0 0.0098401576551947704 0.00088927596603394817 0 0.0098401576551947704 0.00088927596603394817 0 0.00989727848316105 0.0010017395174957767 0 0.0099676749503359533 0.00090777049281196487 0 0.0098337791787118951 0.00099261530696441685 0 0.00989727848316105 0.0010017395174957767 0 0.0098565755498822658 0.0010966150385664827 0 0.00989727848316105 0.0010017395174957767 0 0.0099676749503359533 0.00090777049281196487 0 0.0099791158499195291 0.001118785620274967 0 0.010426983789712753 0.0011174914014645322 0 0.010261809228101286 0.0011239434310446449 0 0.0099676749503359533 0.00090777049281196487 0 0.010212315824293638 0.0011415187192205432 0 0.0099791158499195291 0.001118785620274967 0 0.011052473674313777 0.0015536139887284322 0 0.010639797300844354 0.0016679877557935004 0 0.011018519884736211 0.0018841067064733201 0 0.011052473674313777 0.0015536139887284322 0 0.01093553365507728 0.0013182210912193956 0 0.010112655334853666 0.0015799195338209663 0 0.010544732059314003 0.0015359636238767886 0 0.011527457510322265 0.0017974322691918063 0 0.011527457510322265 0.0017974322691918063 0 0.011816788049113935 0.0021646980622689054 0 0.01093553365507728 0.0013182210912193956 0 0.010112655334853666 0.0015799195338209663 0 0.010212315824293638 0.0011415187192205432 0 0.010112655334853666 0.0015799195338209663 0 0.010212315824293638 0.0011415187192205432 0 0.010020983791336938 0.0012089680052766846 0 0.010112655334853666 0.0015799195338209663 0 0.0099388345656230108 0.0013555539554464737 0 0.010020983791336938 0.0012089680052766846 0 0.011124761460137444 0.0014095420225625375 0 0.011558608855112557 0.0012835228861009394 0 0.011467120139525876 0.00165944672816638 0 0.012032967780599545 0.0015558793419182858 0 0.011558608855112557 0.0012835228861009394 0 0.011467120139525876 0.00165944672816638 0 0.011527457510322265 0.0017974322691918063 0 0.012618661544895965 0.0020790847458684344 0 0.013012058074692488 0.0025689717099432212 0 0.013540148193718083 0.0024066445806684685 0 0.013299256579105131 0.00225016955160132 0 0.011527457510322265 0.0017974322691918063 0 0.010595782074412188 0.0012522303125390903 0 0.013299256579105131 0.00225016955160132 0 0.013287811371334 0.0019721414263076881 0 0.012937992099366474 0.0021522588587138585 0 0.013643720854102278 0.0021746554042964246 0 0.013299256579105131 0.00225016955160132 0 0.013287811371334 0.0019721414263076881 0 0.013643720854102278 0.0021746554042964246 0 0.013540148193718083 0.0024066445806684685 0 0.013299256579105131 0.00225016955160132 0 0.013938967160068389 0.0016720913078351739 0 0.013930427082730155 0.0018659577551417117 0 0.013591573272192022 0.0018275516794503672 0 0.014031594888120438 0.0020925086925058685 0 0.013362285667626581 0.0018701020583564427 0 0.013938967160068389 0.0016720913078351739 0 0.013813363046591224 0.0014561765920647982 0 0.013591573272192022 0.0018275516794503672 0 0.012902406133411761 0.0016954460862745589 0 0.012497931200690805 0.0019419156221999439 0 0.012937992099366474 0.0021522588587138585 0 0.013362285667626581 0.0018701020583564427 0 0.012950837498344969 0.0017102412246693501 0 0.013287811371334 0.0019721414263076881 0 0.012902406133411761 0.0016954460862745589 0 0.012937992099366474 0.0021522588587138585 0 0.012215807900848228 0.0015893653851243442 0 0.012902406133411761 0.0016954460862745589 0 0.012497931200690805 0.0019419156221999439 0 0.012497931200690805 0.0019419156221999439 0 0.012465448970995489 0.002371261129766124 0 0.012937992099366474 0.0021522588587138585 0 0.013012058074692488 0.0025689717099432212 0 0.013299256579105131 0.00225016955160132 0 0.012937992099366474 0.0021522588587138585 0 0.013012058074692488 0.0025689717099432212 0 0.012465448970995489 0.002371261129766124 0 0.012937992099366474 0.0021522588587138585 0 0.012324885813524587 0.0013428422532086003 0 0.012584099702842563 0.0014184742726834326 0 0.012455113819052349 0.0011561205405862822 0 0.012324885813524587 0.0013428422532086003 0 0.012217537834323779 0.0011276787890714174 0 0.012130489904293513 0.001327512930076097 0 0.012324885813524587 0.0013428422532086003 0 0.012189473398740668 0.0014294027304439761 0 0.012130489904293513 0.001327512930076097 0 0.012324885813524587 0.0013428422532086003 0 0.012189473398740668 0.0014294027304439761 0 0.012274364476603164 0.0015715406993273946 0 0.012189473398740668 0.0014294027304439761 0 0.012136413082514208 0.001490946761143338 0 0.012274364476603164 0.0015715406993273946 0 0.013077237116158737 0.0012237936953579129 0 0.013244737701188629 0.0011007110197503848 0 0.013548387046293336 0.0010744887802020119 0 0.0142059138735502 0.00066230956521889071 0 0.013691442164077139 0.00053301843468588322 0 0.012324885813524587 0.0013428422532086003 0 0.012584099702842563 0.0014184742726834326 0 0.012274364476603164 0.0015715406993273946 0 0.013548387046293336 0.0010744887802020119 0 0.013310075951076333 0.00066889752975299722 0 0.013691442164077139 0.00053301843468588322 0 0.013046111054268478 0.001096139248440278 0 0.013548387046293336 0.0010744887802020119 0 0.013310075951076333 0.00066889752975299722 0 0.011594907564215568 0.00068001967708641864 0 0.011484824730206209 0.00041574171519546233 0 0.013046111054268478 0.001096139248440278 0 0.012951670049192614 0.00065340755084375109 0 0.013310075951076333 0.00066889752975299722 0 0.013046111054268478 0.001096139248440278 0 0.013548387046293336 0.0010744887802020119 0 0.013007099517014427 0.0011497215170166533 0 0.013077237116158737 0.0012237936953579129 0 0.013034621393355553 0.0011502666336539961 0 0.012584099702842563 0.0014184742726834326 0 0.012728890663298829 0.001107041276243414 0 0.013007099517014427 0.0011497215170166533 0 0.012728890663298829 0.001107041276243414 0 0.012993173971573749 0.0011297247148982096 0 0.012767282400185116 0.00096212698625484558 0 0.010161338416997427 0.00025255059532620948 0 0.010157421190299488 0.00025881603191032988 0 0.010134297602005585 0.00024959993266673131 0 0.011594907564215568 0.00068001967708641864 0 0.011734407538539915 0.00066699414756679544 0 0.013046111054268478 0.001096139248440278 0 0.013007099517014427 0.0011497215170166533 0 0.012993173971573749 0.0011297247148982096 0 0.012728890663298829 0.001107041276243414 0 0.013007099517014427 0.0011497215170166533 0 0.012993173971573749 0.0011297247148982096 0 0.011734407538539915 0.00066699414756679544 0 0.0095911894967179549 0.00082212259738455914 0 0.010157421190299488 0.00025881603191032988 0 0.010129908500852535 0.00027228399499682816 0 0.010159650319032648 0.00029485608532503672 0 0.0097757013609772944 0.00085014930883480974 0 0.0095911894967179549 0.00082212259738455914 0 0.012993173971573749 0.0011297247148982096 0 0.012767282400185116 0.00096212698625484558 0 0.012861840490719206 0.00066334636662499652 0 0.012767282400185116 0.00096212698625484558 0 0.012512144697213611 0.00092511354998608757 0 0.012861840490719206 0.00066334636662499652 0 0.012728890663298829 0.001107041276243414 0 0.012767282400185116 0.00096212698625484558 0 0.012512144697213611 0.00092511354998608757 0 0.0068977054656822832 0.0008282832517614451 0 0.0069995994853302686 0.00085939677331149959 0 0.0068940527255963394 0.00097377819070222768 0 0.0097757013609772944 0.00085014930883480974 0 0.0096555755537647593 0.00085027999115429331 0 0.012584099702842563 0.0014184742726834326 0 0.012728890663298829 0.001107041276243414 0 0.012455113819052349 0.0011561205405862822 0 0.012728890663298829 0.001107041276243414 0 0.012512144697213611 0.00092511354998608757 0 0.012455113819052349 0.0011561205405862822 0 0.012512144697213611 0.00092511354998608757 0 0.012455113819052349 0.0011561205405862822 0 0.012217537834323779 0.0011276787890714174 0 0.012324885813524587 0.0013428422532086003 0 0.012455113819052349 0.0011561205405862822 0 0.012217537834323779 0.0011276787890714174 0 0.0068977054656822832 0.0008282832517614451 0 0.0071062706618292759 0.00056389916874641113 0 0.0069995994853302686 0.00085939677331149959 0 0.0071062706618292759 0.00056389916874641113 0 0.0069995994853302686 0.00085939677331149959 0 0.0071948003886788897 0.00090017333255726047 0 0.0071062706618292759 0.00056389916874641113 0 0.0074100080907576618 0.00075072943976103434 0 0.0071948003886788897 0.00090017333255726047 0 0.0074100080907576618 0.00075072943976103434 0 0.0076963950741163406 0.00066664947167583723 0 0.0075005376954559505 0.00098581721412590553 0 0.0074100080907576618 0.00075072943976103434 0 0.0074714485566458842 0.00052830611372435337 0 0.0076963950741163406 0.00066664947167583723 0 0.0079641904600613392 0.00070476139331613111 0 0.0076617181921913753 0.00026069209978954168 0 0.0074714485566458842 0.00052830611372435337 0 0.0076963950741163406 0.00066664947167583723 0 0.0076518703677297788 0.00024569349817150606 0 0.0071062706618292759 0.00056389916874641113 0 0.0074100080907576618 0.00075072943976103434 0 0.0074714485566458842 0.00052830611372435337 0 0.0096555755537647593 0.00085027999115429331 0 0.0097419029347343717 0.00077761218933102732 0 0.0071062706618292759 0.00056389916874641113 0 0.0074714485566458842 0.00052830611372435337 0 0.0074559129866373416 0.00027199269926408829 0 0.0087561346293397544 0.00077463372075422632 0 0.0082788543517418028 0.00080278795727383486 0 0.008737236101774102 0.001187585261134155 0 0.0089783457278135199 0.00099692466658732153 0 0.0087561346293397544 0.00077463372075422632 0 0.008737236101774102 0.001187585261134155 0 0.0079641904600613392 0.00070476139331613111 0 0.0083444684714843367 0.0010902292261858466 0 0.0082788543517418028 0.00080278795727383486 0 0.0085458899094379894 0.00055081317911439534 0 0.0082603127790088389 0.00032365269663257634 0 0.0082788543517418028 0.00080278795727383486 0 0.0082603127790088389 0.00032365269663257634 0 0.0076518703677297788 0.00024569349817150606 0 0.0087561346293397544 0.00077463372075422632 0 0.0082788543517418028 0.00080278795727383486 0 0.0085458899094379894 0.00055081317911439534 0 0.0087561346293397544 0.00077463372075422632 0 0.0085458899094379894 0.00055081317911439534 0 0.008856615105713745 0.00046929725090195842 0 0.0090530662177254473 0.00073800157493505612 0 0.0087561346293397544 0.00077463372075422632 0 0.008856615105713745 0.00046929725090195842 0 0.0085458899094379894 0.00055081317911439534 0 0.008856615105713745 0.00046929725090195842 0 0.0086269379939365089 0.00011500330136354065 0 0.008931392949777189 0.00012135524229106177 0 0.0086269379939365089 0.00011500330136354065 0 0.0088093345038131286 -9.0759799582241648e-05 0 0.008931392949777189 0.00012135524229106177 0 0.008856615105713745 0.00046929725090195842 0 0.0086269379939365089 0.00011500330136354065 0 0.0086269379939365089 0.00011500330136354065 0 0.0082603127790088389 0.00032365269663257634 0 0.0081465950305048083 -0.00014062391262782058 0 0.0085458899094379894 0.00055081317911439534 0 0.0086269379939365089 0.00011500330136354065 0 0.0082603127790088389 0.00032365269663257634 0 0.0081465950305048083 -0.00014062391262782058 0 0.0085788176332890556 -0.0001450964573118323 0 0.0087221199550521055 -0.00046206092897655581 0 0.0086269379939365089 0.00011500330136354065 0 0.0081465950305048083 -0.00014062391262782058 0 0.0085788176332890556 -0.0001450964573118323 0 0.011802603595753277 0.0013829957494070793 0 0.011636120283706211 0.0015475257573104727 0 0.011600235365652722 0.0015151507241114484 0 0.011802603595753277 0.0013829957494070793 0 0.011900048310257377 0.0014720630201858448 0 0.011792401337240712 0.001537903511078469 0 0.0099384050170549069 0.00057173199253486291 0 0.010479810088178349 0.0010502974007679786 0 0.0091684084635204922 -2.0588439481725413e-06 0 0.0088093345038131286 -9.0759799582241648e-05 0 0.0087221199550521055 -0.00046206092897655581 0 0.0086269379939365089 0.00011500330136354065 0 0.0085788176332890556 -0.0001450964573118323 0 0.0088093345038131286 -9.0759799582241648e-05 0 0.0085788176332890556 -0.0001450964573118323 0 0.0088093345038131286 -9.0759799582241648e-05 0 0.0087221199550521055 -0.00046206092897655581 0 0.012217537834323779 0.0011276787890714174 0 0.012130489904293513 0.001327512930076097 0 0.012006551274874157 0.0012751867478000155 0 0.012130489904293513 0.001327512930076097 0 0.012006551274874157 0.0012751867478000155 0 0.011983863052856161 0.001356098448245771 0 0.012130489904293513 0.001327512930076097 0 0.011983863052856161 0.001356098448245771 0 0.0120867871097629 0.0014071608156182632 0 0.0074714485566458842 0.00052830611372435337 0 0.0074559129866373416 0.00027199269926408829 0 0.0076518703677297788 0.00024569349817150606 0 0.0081465950305048083 -0.00014062391262782058 0 0.0074559129866373416 0.00027199269926408829 0 0.0076518703677297788 0.00024569349817150606 0 0.0082603127790088389 0.00032365269663257634 0 0.0081465950305048083 -0.00014062391262782058 0 0.0076518703677297788 0.00024569349817150606 0 0.011802603595753277 0.0013829957494070793 0 0.012006551274874157 0.0012751867478000155 0 0.011983863052856161 0.001356098448245771 0 0.0099384050170549069 0.00057173199253486291 0 0.0097419029347343717 0.00077761218933102732 0 0.011802603595753277 0.0013829957494070793 0 0.011983863052856161 0.001356098448245771 0 0.011923679061412498 0.001411808832035772 0 0.011983863052856161 0.001356098448245771 0 0.011923679061412498 0.001411808832035772 0 0.012011886224263859 0.0014384434020491576 0 0.011802603595753277 0.0013829957494070793 0 0.011923679061412498 0.001411808832035772 0 0.011900048310257377 0.0014720630201858448 0 0.011923679061412498 0.001411808832035772 0 0.011900048310257377 0.0014720630201858448 0 0.012011886224263859 0.0014384434020491576 0 0.011900048310257377 0.0014720630201858448 0 0.012011886224263859 0.0014384434020491576 0 0.012048466623234068 0.0015104292806035946 0 0.012011886224263859 0.0014384434020491576 0 0.012136413082514208 0.001490946761143338 0 0.012048466623234068 0.0015104292806035946 0 0.012011886224263859 0.0014384434020491576 0 0.0120867871097629 0.0014071608156182632 0 0.012136413082514208 0.001490946761143338 0 0.011983863052856161 0.001356098448245771 0 0.012011886224263859 0.0014384434020491576 0 0.0120867871097629 0.0014071608156182632 0 0.012189473398740668 0.0014294027304439761 0 0.012130489904293513 0.001327512930076097 0 0.0120867871097629 0.0014071608156182632 0 0.012189473398740668 0.0014294027304439761 0 0.0120867871097629 0.0014071608156182632 0 0.012136413082514208 0.001490946761143338 0 0.012136413082514208 0.001490946761143338 0 0.012153639502669207 0.0015691819363183059 0 0.012048466623234068 0.0015104292806035946 0 0.012153639502669207 0.0015691819363183059 0 0.012048466623234068 0.0015104292806035946 0 0.011939292636695475 0.0015538738098015389 0 0.012153639502669207 0.0015691819363183059 0 0.011939292636695475 0.0015538738098015389 0 0.011814838464959893 0.0016850047024426231 0 0.01216216693152768 0.0015696182142600308 0 0.012157447447560064 0.0015765459712674982 0 0.011900048310257377 0.0014720630201858448 0 0.012048466623234068 0.0015104292806035946 0 0.011939292636695475 0.0015538738098015389 0 0.011900048310257377 0.0014720630201858448 0 0.011939292636695475 0.0015538738098015389 0 0.011792401337240712 0.001537903511078469 0 0.011939292636695475 0.0015538738098015389 0 0.011814838464959893 0.0016850047024426231 0 0.011792401337240712 0.001537903511078469 0 0.012509570553936474 0.0014773958639143941 0 0.01215032990342132 0.0014878078481731589 0 0.012416180267178891 0.0011492753767813825 0 0.012153639502669207 0.0015691819363183059 0 0.012509570553936474 0.0014773958639143941 0 0.01215032990342132 0.0014878078481731589 0 0.011755873295596945 0.0015739986131884857 0 0.010479810088178349 0.0010502974007679786 0 0.011562965124019851 0.0016321414251312372 0 0.01161430363768374 0.001535672250838085 0 0.011596860898527121 0.0016193372620513151 0 0.010993952247574077 0.0014264706520404173 0 0.010479810088178349 0.0010502974007679786 0 0.011636120283706211 0.0015475257573104727 0 0.01168195029782023 0.0016225235795615308 0 0.011596860898527121 0.0016193372620513151 0 0.011636120283706211 0.0015475257573104727 0 0.01161430363768374 0.001535672250838085 0 0.011596860898527121 0.0016193372620513151 0 0.011636120283706211 0.0015475257573104727 0 0.011792401337240712 0.001537903511078469 0 0.01168195029782023 0.0016225235795615308 0 0.011802603595753277 0.0013829957494070793 0 0.011636120283706211 0.0015475257573104727 0 0.011792401337240712 0.001537903511078469 0 0.011814838464959893 0.0016850047024426231 0 0.011792401337240712 0.001537903511078469 0 0.01168195029782023 0.0016225235795615308 0 0.012509570553936474 0.0014773958639143941 0 0.012938567258992173 0.0012844430737833027 0 0.012655461580534516 0.0012107816804284599 0 0.012157447447560064 0.0015765459712674982 0 0.012312321503542372 0.0014378638064459232 0 0.011814838464959893 0.0016850047024426231 0 0.01168195029782023 0.0016225235795615308 0 0.011593329837846229 0.0016437648586441307 0 0.01159745876278734 0.0015979786537048876 0 0.011596860898527121 0.0016193372620513151 0 0.011593329837846229 0.0016437648586441307 0 0.01168195029782023 0.0016225235795615308 0 0.011596860898527121 0.0016193372620513151 0 0.011593329837846229 0.0016437648586441307 0 0.012509570553936474 0.0014773958639143941 0 0.012655461580534516 0.0012107816804284599 0 0.012416180267178891 0.0011492753767813825 0 0.012655461580534516 0.0012107816804284599 0 0.01272610591590927 0.00081084886891150988 0 0.012416180267178891 0.0011492753767813825 0 0.012938567258992173 0.0012844430737833027 0 0.012655461580534516 0.0012107816804284599 0 0.01272610591590927 0.00081084886891150988 0 0.013709948251904212 0.0004570793097886961 0 0.013621898811678896 0.00056568625440255927 0 0.013091288794301688 0.00087205155367985434 0 0.012938567258992173 0.0012844430737833027 0 0.01272610591590927 0.00081084886891150988 0 0.01474554806841397 0.00012198962866975224 0 0.014754374209992397 -2.5717504210388486e-05 0 0.014654925966313388 -5.4746181371402862e-05 0 0.013447470349920361 0.00080870899856829174 0 0.013621898811678896 0.00056568625440255927 0 0.01474554806841397 0.00012198962866975224 0 0.014754374209992397 -2.5717504210388486e-05 0 0.014802245935344689 -2.9737202735611862e-06 0 0.014754374209992397 -2.5717504210388486e-05 0 0.014802245935344689 -2.9737202735611862e-06 0 0.014806075183537279 7.9993864706808843e-06 0 0.014796418950332676 1.3789201847288349e-05 0 0.014802245935344689 -2.9737202735611862e-06 0 0.014806075183537279 7.9993864706808843e-06 0 0.014754374209992397 -2.5717504210388486e-05 0 0.014806075183537279 7.9993864706808843e-06 0 0.014792980326077726 8.3907134895343703e-06 0 0.014754374209992397 -2.5717504210388486e-05 0 0.014792980326077726 8.3907134895343703e-06 0 0.014762869736561966 -7.1582364068324856e-06 0 0.014792980326077726 8.3907134895343703e-06 0 0.014762869736561966 -7.1582364068324856e-06 0 0.014830557423420999 3.9349145932707567e-05 0 0.014762869736561966 -7.1582364068324856e-06 0 0.014825974092811297 8.5758698015290792e-06 0 0.014830557423420999 3.9349145932707567e-05 0 0.014762869736561966 -7.1582364068324856e-06 0 0.014825974092811297 8.5758698015290792e-06 0 0.014794137824457085 -2.3501790400315376e-05 0 0.014890106872495368 4.1935618404698493e-05 0 0.014825974092811297 8.5758698015290792e-06 0 0.014830557423420999 3.9349145932707567e-05 0 0.014890106872495368 4.1935618404698493e-05 0 0.014825974092811297 8.5758698015290792e-06 0 0.014865092714966976 -1.130964165733504e-05 0 0.014794137824457085 -2.3501790400315376e-05 0 0.014654925966313388 -5.4746181371402862e-05 0 0.014889072861242384 -0.00010379001822767133 0 0.014617616610685103 -0.0001121146220153124 0 0.014378872894503996 6.8562298583736605e-05 0 0.014865092714966976 -1.130964165733504e-05 0 0.014794137824457085 -2.3501790400315376e-05 0 0.014889072861242384 -0.00010379001822767133 0 0.014825974092811297 8.5758698015290792e-06 0 0.014865092714966976 -1.130964165733504e-05 0 0.014794137824457085 -2.3501790400315376e-05 0 0.014754374209992397 -2.5717504210388486e-05 0 0.014762869736561966 -7.1582364068324856e-06 0 0.014654925966313388 -5.4746181371402862e-05 0 0.014762869736561966 -7.1582364068324856e-06 0 0.014794137824457085 -2.3501790400315376e-05 0 0.014654925966313388 -5.4746181371402862e-05 0 0.014654925966313388 -5.4746181371402862e-05 0 0.014403648489608251 0.00019137326520077711 0 0.013981062749185936 0.00018513128616649388 0 0.01474554806841397 0.00012198962866975224 0 0.014654925966313388 -5.4746181371402862e-05 0 0.014403648489608251 0.00019137326520077711 0 0.014654925966313388 -5.4746181371402862e-05 0 0.013793696193879899 -0.00013212158729378448 0 0.013981062749185936 0.00018513128616649388 0 0.014378872894503996 6.8562298583736605e-05 0 0.013962142508232534 -6.5530944242154234e-06 0 0.013770203035886899 -0.0001330979064468636 0 0.013981062749185936 0.00018513128616649388 0 0.013668865218749706 0.0001983848642884475 0 0.013981062749185936 0.00018513128616649388 0 0.0142059138735502 0.00066230956521889071 0 0.013691442164077139 0.00053301843468588322 0 0.013981062749185936 0.00018513128616649388 0 0.013691442164077139 0.00053301843468588322 0 0.013668865218749706 0.0001983848642884475 0 0.012153639502669207 0.0015691819363183059 0 0.01215032990342132 0.0014878078481731589 0 0.012274364476603164 0.0015715406993273946 0 0.012136413082514208 0.001490946761143338 0 0.012153639502669207 0.0015691819363183059 0 0.012274364476603164 0.0015715406993273946 0 0.014403648489608251 0.00019137326520077711 0 0.013981062749185936 0.00018513128616649388 0 0.0142059138735502 0.00066230956521889071 0 0.013447470349920361 0.00080870899856829174 0 0.013244737701188629 0.0011007110197503848 0 0.01474554806841397 0.00012198962866975224 0 0.014403648489608251 0.00019137326520077711 0 0.0142059138735502 0.00066230956521889071 0 0.012951670049192614 0.00065340755084375109 0 0.013142152940031755 0.00029735305685390926 0 0.013310075951076333 0.00066889752975299722 0 0.012951670049192614 0.00065340755084375109 0 0.013142152940031755 0.00029735305685390926 0 0.012822920335931288 0.00011182845247271591 0 0.013310075951076333 0.00066889752975299722 0 0.013691442164077139 0.00053301843468588322 0 0.013438176415442746 0.0003072777869750324 0 0.013691442164077139 0.00053301843468588322 0 0.013438176415442746 0.0003072777869750324 0 0.013668865218749706 0.0001983848642884475 0 0.013142152940031755 0.00029735305685390926 0 0.013310075951076333 0.00066889752975299722 0 0.013438176415442746 0.0003072777869750324 0 0.014378872894503996 6.8562298583736605e-05 0 0.014095147643750075 0.00020614785016922745 0 0.013438176415442746 0.0003072777869750324 0 0.013473038310371121 7.7732333380896152e-05 0 0.013292444821375387 0.00014398767164862611 0 0.015046558965936763 0.00040556001534366542 0 0.014984608482553985 0.00041600208406552039 0 0.014998143430735496 0.00040701375703447348 0 0.013770203035886899 -0.0001330979064468636 0 0.013473038310371121 7.7732333380896152e-05 0 0.013053254978063906 -5.5697664364984039e-05 0 0.013438176415442746 0.0003072777869750324 0 0.013668865218749706 0.0001983848642884475 0 0.013473038310371121 7.7732333380896152e-05 0 0.013770203035886899 -0.0001330979064468636 0 0.013668865218749706 0.0001983848642884475 0 0.013473038310371121 7.7732333380896152e-05 0 0.013473038310371121 7.7732333380896152e-05 0 0.013292444821375387 0.00014398767164862611 0 0.013053254978063906 -5.5697664364984039e-05 0 0.014095147643750075 0.00020614785016922745 0 0.014620201665688299 0.00010857775214493045 0 0.013142152940031755 0.00029735305685390926 0 0.013438176415442746 0.0003072777869750324 0 0.013292444821375387 0.00014398767164862611 0 0.013142152940031755 0.00029735305685390926 0 0.013292444821375387 0.00014398767164862611 0 0.013053254978063906 -5.5697664364984039e-05 0 0.013142152940031755 0.00029735305685390926 0 0.013053254978063906 -5.5697664364984039e-05 0 0.012822920335931288 0.00011182845247271591 0 0.014982881119604968 0.00041846411780120354 0 0.014970910554966885 0.00040406555665557878 0 0.014957013705281307 0.00042095881170473444 0 0.014095147643750075 0.00020614785016922745 0 0.012435770230397426 0.0002342808958434812 0 0.014095147643750075 0.00020614785016922745 0 0.014099526123308823 0.00052128113827454444 0 0.014970910554966885 0.00040406555665557878 0 0.014986976388219265 0.00040081613268681154 0 0.014979680075076785 0.00038888723630855885 0 0.014982881119604968 0.00041846411780120354 0 0.014986976388219265 0.00040081613268681154 0 0.014998143430735496 0.00040701375703447348 0 0.014982881119604968 0.00041846411780120354 0 0.014970910554966885 0.00040406555665557878 0 0.014986976388219265 0.00040081613268681154 0 0.014986976388219265 0.00040081613268681154 0 0.014998143430735496 0.00040701375703447348 0 0.015003073252420052 0.00038575984721129743 0 0.014998143430735496 0.00040701375703447348 0 0.015003073252420052 0.00038575984721129743 0 0.015020488476511454 0.00039054797864948571 0 0.015003073252420052 0.00038575984721129743 0 0.014979680075076785 0.00038888723630855885 0 0.014990625071479023 0.00035056738336539946 0 0.014986976388219265 0.00040081613268681154 0 0.015003073252420052 0.00038575984721129743 0 0.014979680075076785 0.00038888723630855885 0 0.015046558965936763 0.00040556001534366542 0 0.014998143430735496 0.00040701375703447348 0 0.015020488476511454 0.00039054797864948571 0 0.015046558965936763 0.00040556001534366542 0 0.015020488476511454 0.00039054797864948571 0 0.01503384609074186 0.00036330460803556661 0 0.014865092714966976 -1.130964165733504e-05 0 0.014889072861242384 -0.00010379001822767133 0 0.014933983860957562 5.6841974652255701e-06 0 0.014378872894503996 6.8562298583736605e-05 0 0.015048276788588378 0.00023002793294791033 0 0.015003073252420052 0.00038575984721129743 0 0.015020488476511454 0.00039054797864948571 0 0.01503384609074186 0.00036330460803556661 0 0.014890106872495368 4.1935618404698493e-05 0 0.014933983860957562 5.6841974652255701e-06 0 0.014967294886544368 8.3847580159377881e-05 0 0.015048276788588378 0.00023002793294791033 0 0.014983260143466742 0.00017326543786224782 0 0.014890106872495368 4.1935618404698493e-05 0 0.014865092714966976 -1.130964165733504e-05 0 0.014933983860957562 5.6841974652255701e-06 0 0.01503384609074186 0.00036330460803556661 0 0.014990625071479023 0.00035056738336539946 0 0.015025402348112176 0.00029316407972378113 0 0.015003073252420052 0.00038575984721129743 0 0.01503384609074186 0.00036330460803556661 0 0.014990625071479023 0.00035056738336539946 0 0.015025402348112176 0.00029316407972378113 0 0.014968784398834666 0.00027527151456196227 0 0.014985630048431862 0.00017396292562823874 0 0.014990625071479023 0.00035056738336539946 0 0.015025402348112176 0.00029316407972378113 0 0.014968784398834666 0.00027527151456196227 0 0.014983260143466742 0.00017326543786224782 0 0.014988607433254066 0.00017724559570322658 0 0.014967294886544368 8.3847580159377881e-05 0 0.01496006424475484 0.00014083459613109655 0 0.014985630048431862 0.00017396292562823874 0 0.014967294886544368 8.3847580159377881e-05 0 0.014899278471757855 8.3266132121071284e-05 0 0.01496006424475484 0.00014083459613109655 0 0.014890106872495368 4.1935618404698493e-05 0 0.014967294886544368 8.3847580159377881e-05 0 0.014899278471757855 8.3266132121071284e-05 0 0.014890106872495368 4.1935618404698493e-05 0 0.014899278471757855 8.3266132121071284e-05 0 0.014830557423420999 3.9349145932707567e-05 0 0.014899278471757855 8.3266132121071284e-05 0 0.014830557423420999 3.9349145932707567e-05 0 0.014865418239313453 6.9315796388961677e-05 0 0.014830557423420999 3.9349145932707567e-05 0 0.014865418239313453 6.9315796388961677e-05 0 0.014829354462815962 3.7385731413942726e-05 0 0.014899278471757855 8.3266132121071284e-05 0 0.014865418239313453 6.9315796388961677e-05 0 0.014918831754742066 0.00011087724666493566 0 0.014899278471757855 8.3266132121071284e-05 0 0.014918831754742066 0.00011087724666493566 0 0.01496006424475484 0.00014083459613109655 0 0.014918831754742066 0.00011087724666493566 0 0.014925390622464988 0.00013715529474544506 0 0.014964094527382277 0.00013406907891276904 0 0.0148735371922963 7.0733420317849307e-05 0 0.014922466556066931 8.6865990858712519e-05 0 0.014865418239313453 6.9315796388961677e-05 0 0.014918831754742066 0.00011087724666493566 0 0.014925390622464988 0.00013715529474544506 0 0.014865418239313453 6.9315796388961677e-05 0 0.014919322232929971 3.8200998539191667e-05 0 0.014903779035871541 4.5414928826900913e-05 0 0.014919322232929971 3.8200998539191667e-05 0 0.014903779035871541 4.5414928826900913e-05 0 0.014938187846654516 3.1615732373628812e-05 0 0.014925390622464988 0.00013715529474544506 0 0.014964094527382277 0.00013406907891276904 0 0.014988349643819048 0.00011612538083316625 0 0.014922466556066931 8.6865990858712519e-05 0 0.014972432838380208 7.080326467071947e-05 0 0.014964094527382277 0.00013406907891276904 0 0.01497463543195863 0.00013444393762904666 0 0.014988349643819048 0.00011612538083316625 0 0.01497463543195863 0.00013444393762904666 0 0.014978556227676449 9.2302988079176297e-05 0 0.014966001639536269 0.00012642371727672569 0 0.01496006424475484 0.00014083459613109655 0 0.014985630048431862 0.00017396292562823874 0 0.014973920647972625 0.00015641332663485788 0 0.01497463543195863 0.00013444393762904666 0 0.01496006424475484 0.00014083459613109655 0 0.014973920647972625 0.00015641332663485788 0 0.014918831754742066 0.00011087724666493566 0 0.014964094527382277 0.00013406907891276904 0 0.01496006424475484 0.00014083459613109655 0 0.014964094527382277 0.00013406907891276904 0 0.01497463543195863 0.00013444393762904666 0 0.01496006424475484 0.00014083459613109655 0 0.014918704196622203 8.653710863569983e-05 0 0.014924945495469358 7.8110118655815963e-05 0 0.014938186115525023 7.8851341617145916e-05 0 0.014938186115525023 7.8851341617145916e-05 0 0.014928943771869084 6.9746786330693382e-05 0 0.014935355005584914 8.3071412540965329e-05 0 0.014791627227562467 3.9447156230085852e-05 0 0.014764137758899074 4.337435560972617e-05 0 0.014802384754688007 6.2057807166100471e-05 0 0.014144654197807251 8.0465566870880677e-05 0 0.014968558164402393 0.00011722068635138812 0 0.014924945495469358 7.8110118655815963e-05 0 0.014938186115525023 7.8851341617145916e-05 0 0.014928943771869084 6.9746786330693382e-05 0 0.014938186115525023 7.8851341617145916e-05 0 0.014935355005584914 8.3071412540965329e-05 0 0.014937881696580186 6.987563999630315e-05 0 0.013091288794301688 0.00087205155367985434 0 0.01272610591590927 0.00081084886891150988 0 0.013039169894326262 0.00048868828629788452 0 0.013709948251904212 0.0004570793097886961 0 0.014144654197807251 8.0465566870880677e-05 0 0.014796418950332676 1.3789201847288349e-05 0 0.014791627227562467 3.9447156230085852e-05 0 0.014764137758899074 4.337435560972617e-05 0 0.014796418950332676 1.3789201847288349e-05 0 0.014791627227562467 3.9447156230085852e-05 0 0.01481165435635646 3.7702541767226722e-05 0 0.014796418950332676 1.3789201847288349e-05 0 0.01481165435635646 3.7702541767226722e-05 0 0.014824278562094383 3.2091270084829022e-05 0 0.01481165435635646 3.7702541767226722e-05 0 0.014842721942018584 5.0054905008402643e-05 0 0.014824278562094383 3.2091270084829022e-05 0 0.014802384754688007 6.2057807166100471e-05 0 0.014842721942018584 5.0054905008402643e-05 0 0.014881375500834999 6.3343191026288951e-05 0 0.01481165435635646 3.7702541767226722e-05 0 0.014802384754688007 6.2057807166100471e-05 0 0.014842721942018584 5.0054905008402643e-05 0 0.014791627227562467 3.9447156230085852e-05 0 0.01481165435635646 3.7702541767226722e-05 0 0.014802384754688007 6.2057807166100471e-05 0 0.014842721942018584 5.0054905008402643e-05 0 0.01486113061568093 5.7880223438024303e-05 0 0.014824278562094383 3.2091270084829022e-05 0 0.01486113061568093 5.7880223438024303e-05 0 0.014824278562094383 3.2091270084829022e-05 0 0.014829354462815962 3.7385731413942726e-05 0 0.014842721942018584 5.0054905008402643e-05 0 0.01486113061568093 5.7880223438024303e-05 0 0.014881375500834999 6.3343191026288951e-05 0 0.014806075183537279 7.9993864706808843e-06 0 0.014824278562094383 3.2091270084829022e-05 0 0.014829354462815962 3.7385731413942726e-05 0 0.014796418950332676 1.3789201847288349e-05 0 0.014806075183537279 7.9993864706808843e-06 0 0.014824278562094383 3.2091270084829022e-05 0 0.014792980326077726 8.3907134895343703e-06 0 0.014830557423420999 3.9349145932707567e-05 0 0.014829354462815962 3.7385731413942726e-05 0 0.014806075183537279 7.9993864706808843e-06 0 0.014792980326077726 8.3907134895343703e-06 0 0.014829354462815962 3.7385731413942726e-05 0 0.014865418239313453 6.9315796388961677e-05 0 0.01486113061568093 5.7880223438024303e-05 0 0.014829354462815962 3.7385731413942726e-05 0 0.014865418239313453 6.9315796388961677e-05 0 0.01486113061568093 5.7880223438024303e-05 0 0.014903779035871541 4.5414928826900913e-05 0 0.014903779035871541 4.5414928826900913e-05 0 0.014925172023618944 3.6923076329410266e-05 0 0.014948814597081136 2.3563215609855038e-05 0 0.014903779035871541 4.5414928826900913e-05 0 0.014925172023618944 3.6923076329410266e-05 0 0.014881375500834999 6.3343191026288951e-05 0 0.01486113061568093 5.7880223438024303e-05 0 0.014903779035871541 4.5414928826900913e-05 0 0.014881375500834999 6.3343191026288951e-05 0 0.014968558164402393 0.00011722068635138812 0 0.01484162518965278 4.6809055755610834e-05 0 0.014935355005584914 8.3071412540965329e-05 0 0.014881375500834999 6.3343191026288951e-05 0 0.014927740439093916 5.4554304222600819e-05 0 0.014925172023618944 3.6923076329410266e-05 0 0.014881375500834999 6.3343191026288951e-05 0 0.014927740439093916 5.4554304222600819e-05 0 0.014935355005584914 8.3071412540965329e-05 0 0.014927740439093916 5.4554304222600819e-05 0 0.014937881696580186 6.987563999630315e-05 0 0.014925172023618944 3.6923076329410266e-05 0 0.014927740439093916 5.4554304222600819e-05 0 0.014950271320550634 4.0120856360017833e-05 0 0.014976488845484725 2.2412203780625676e-05 0 0.014965906152771664 4.446540067951231e-05 0 0.014950271320550634 4.0120856360017833e-05 0 0.014965906152771664 4.446540067951231e-05 0 0.014950271320550634 4.0120856360017833e-05 0 0.014948899121140185 5.9059168168328124e-05 0 0.01495686897795666 6.9003118532265359e-05 0 0.014935154639151356 8.0069554227237111e-05 0 0.014972114224626014 6.3799513618813255e-05 0 0.014938186115525023 7.8851341617145916e-05 0 0.014948899121140185 5.9059168168328124e-05 0 0.014927740439093916 5.4554304222600819e-05 0 0.014950271320550634 4.0120856360017833e-05 0 0.014948899121140185 5.9059168168328124e-05 0 0.014927740439093916 5.4554304222600819e-05 0 0.014948899121140185 5.9059168168328124e-05 0 0.014937881696580186 6.987563999630315e-05 0 0.014938186115525023 7.8851341617145916e-05 0 0.014948899121140185 5.9059168168328124e-05 0 0.014937881696580186 6.987563999630315e-05 0 0.014985108220500233 8.127470216113317e-06 0 0.014976488845484725 2.2412203780625676e-05 0 0.014963254028368548 1.7387029719386316e-05 0 0.014976488845484725 2.2412203780625676e-05 0 0.014950271320550634 4.0120856360017833e-05 0 0.014963254028368548 1.7387029719386316e-05 0 0.014925172023618944 3.6923076329410266e-05 0 0.014950271320550634 4.0120856360017833e-05 0 0.014963254028368548 1.7387029719386316e-05 0 0.014963254028368548 1.7387029719386316e-05 0 0.014948814597081136 2.3563215609855038e-05 0 0.014975937956041012 1.0510424450287461e-05 0 0.014925172023618944 3.6923076329410266e-05 0 0.014963254028368548 1.7387029719386316e-05 0 0.014948814597081136 2.3563215609855038e-05 0 0.014903779035871541 4.5414928826900913e-05 0 0.014948814597081136 2.3563215609855038e-05 0 0.014938187846654516 3.1615732373628812e-05 0 0.014948814597081136 2.3563215609855038e-05 0 0.014978794798099083 1.1975954735081949e-05 0 0.014967474777636025 2.2684865011988482e-05 0 0.014978794798099083 1.1975954735081949e-05 0 0.014975937956041012 1.0510424450287461e-05 0 0.014999978569233326 3.5136866861281793e-09 0 0.014978794798099083 1.1975954735081949e-05 0 0.014999970024146792 5.6623210864209901e-09 0 0.014999978569233326 3.5136866861281793e-09 0 0.014948814597081136 2.3563215609855038e-05 0 0.014978794798099083 1.1975954735081949e-05 0 0.014975937956041012 1.0510424450287461e-05 0 0.014963254028368548 1.7387029719386316e-05 0 0.014975937956041012 1.0510424450287461e-05 0 0.014988062034771493 4.8491830752209924e-06 0 0.014975937956041012 1.0510424450287461e-05 0 0.014999978569233326 3.5136866861281793e-09 0 0.014988062034771493 4.8491830752209924e-06 0 0.014999978569233326 3.5136866861281793e-09 0 0.014988062034771493 4.8491830752209924e-06 0 0.014999983578946665 2.8966704830324319e-09 0 0.014985108220500233 8.127470216113317e-06 0 0.014988062034771493 4.8491830752209924e-06 0 0.014999983578946665 2.8966704830324319e-09 0 0.014988307443993753 7.1710745664261314e-06 0 0.014999995074693049 7.2058117446798738e-10 0 0.014985108220500233 8.127470216113317e-06 0 0.014963254028368548 1.7387029719386316e-05 0 0.014988062034771493 4.8491830752209924e-06 0 0.01496041826584275 2.8544928690769065e-05 0 0.014987595772792777 2.0786182228890612e-05 0 0.014992754339747262 3.7318798533867567e-05 0 0.014972432838380208 7.080326467071947e-05 0 0.014988317362926912 4.058926635468567e-05 0 0.014978556227676449 9.2302988079176297e-05 0 0.014988349643819048 0.00011612538083316625 0 0.014992754339747262 3.7318798533867567e-05 0 0.014978556227676449 9.2302988079176297e-05 0 0.014992754339747262 3.7318798533867567e-05 0 0.014978932657599538 5.33362722153571e-05 0 0.01497463543195863 0.00013444393762904666 0 0.014978556227676449 9.2302988079176297e-05 0 0.014988349643819048 0.00011612538083316625 0 0.014919322232929971 3.8200998539191667e-05 0 0.01496041826584275 2.8544928690769065e-05 0 0.014938187846654516 3.1615732373628812e-05 0 0.01496041826584275 2.8544928690769065e-05 0 0.014938187846654516 3.1615732373628812e-05 0 0.014967474777636025 2.2684865011988482e-05 0 0.01496041826584275 2.8544928690769065e-05 0 0.014967474777636025 2.2684865011988482e-05 0 0.014987595772792777 2.0786182228890612e-05 0 0.014948814597081136 2.3563215609855038e-05 0 0.014938187846654516 3.1615732373628812e-05 0 0.014967474777636025 2.2684865011988482e-05 0 0.014967474777636025 2.2684865011988482e-05 0 0.014987595772792777 2.0786182228890612e-05 0 0.014999982211352134 1.8855010415444953e-08 0 0.014978794798099083 1.1975954735081949e-05 0 0.014967474777636025 2.2684865011988482e-05 0 0.014999982211352134 1.8855010415444953e-08 0 0.014978794798099083 1.1975954735081949e-05 0 0.014999970024146792 5.6623210864209901e-09 0 0.014999982211352134 1.8855010415444953e-08 0 0.014987595772792777 2.0786182228890612e-05 0 0.014999982211352134 1.8855010415444953e-08 0 0.014999992898252407 1.5863823685988699e-08 0 0.014987595772792777 2.0786182228890612e-05 0 0.014999992898252407 1.5863823685988699e-08 0 0.014992754339747262 3.7318798533867567e-05 0 0.014992754339747262 3.7318798533867567e-05 0 0.014992236182510183 2.1672058432833793e-05 0 0.014978932657599538 5.33362722153571e-05 0 0.014999992898252407 1.5863823685988699e-08 0 0.014992754339747262 3.7318798533867567e-05 0 0.014992236182510183 2.1672058432833793e-05 0 0.014999992898252407 1.5863823685988699e-08 0 0.014999983942598483 1.5606812076103827e-08 0 0.014992236182510183 2.1672058432833793e-05 0 0.014999983942598483 1.5606812076103827e-08 0 0.014983969592966483 2.4555307472324553e-05 0 0.014992236182510183 2.1672058432833793e-05 0 0.014983969592966483 2.4555307472324553e-05 0 0.014969387945725918 3.2189919298221233e-05 0 0.014999971363409243 1.2506482425278311e-08 0 0.014999983942598483 1.5606812076103827e-08 0 0.014983969592966483 2.4555307472324553e-05 0 0.014999971363409243 1.2506482425278311e-08 0 0.014983969592966483 2.4555307472324553e-05 0 0.014978932657599538 5.33362722153571e-05 0 0.014965771251576575 5.4493312142812061e-05 0 0.014983969592966483 2.4555307472324553e-05 0 0.014965771251576575 5.4493312142812061e-05 0 0.014969387945725918 3.2189919298221233e-05 0 0.014983969592966483 2.4555307472324553e-05 0 0.014992236182510183 2.1672058432833793e-05 0 0.014978932657599538 5.33362722153571e-05 0 0.014978556227676449 9.2302988079176297e-05 0 0.014978932657599538 5.33362722153571e-05 0 0.014963847082343971 8.5738009813688488e-05 0 0.014965771251576575 5.4493312142812061e-05 0 0.014963847082343971 8.5738009813688488e-05 0 0.014940571499290487 8.9071769753174505e-05 0 0.014978932657599538 5.33362722153571e-05 0 0.014965771251576575 5.4493312142812061e-05 0 0.014963847082343971 8.5738009813688488e-05 0 0.014963847082343971 8.5738009813688488e-05 0 0.014966001639536269 0.00012642371727672569 0 0.014936269486033757 0.00013121888557924701 0 0.014963847082343971 8.5738009813688488e-05 0 0.014940571499290487 8.9071769753174505e-05 0 0.014936269486033757 0.00013121888557924701 0 0.014978556227676449 9.2302988079176297e-05 0 0.014963847082343971 8.5738009813688488e-05 0 0.014966001639536269 0.00012642371727672569 0 0.014899586257413527 6.8243040484182742e-05 0 0.014894866414165204 0.00014007532721989664 0 0.014884949370229853 6.6292547451622834e-05 0 0.014864155270679068 0.00010995812473460511 0 0.014890158888001218 0.00014358693920479121 0 0.014925351592211122 8.6759998345123287e-05 0 0.014920981948141392 6.1529337724834874e-05 0 0.014890158888001218 0.00014358693920479121 0 0.014940571499290487 8.9071769753174505e-05 0 0.014936269486033757 0.00013121888557924701 0 0.014890158888001218 0.00014358693920479121 0 0.014940571499290487 8.9071769753174505e-05 0 0.014925351592211122 8.6759998345123287e-05 0 0.014890158888001218 0.00014358693920479121 0 0.014940571499290487 8.9071769753174505e-05 0 0.014925351592211122 8.6759998345123287e-05 0 0.014947391686871888 5.7951105855645722e-05 0 0.014965771251576575 5.4493312142812061e-05 0 0.014940571499290487 8.9071769753174505e-05 0 0.014947391686871888 5.7951105855645722e-05 0 0.014965771251576575 5.4493312142812061e-05 0 0.014947391686871888 5.7951105855645722e-05 0 0.014969387945725918 3.2189919298221233e-05 0 0.014947391686871888 5.7951105855645722e-05 0 0.014920981948141392 6.1529337724834874e-05 0 0.01495130829894427 3.9108973573219959e-05 0 0.014884949370229853 6.6292547451622834e-05 0 0.014869120693892011 5.2003224630002706e-05 0 0.014864155270679068 0.00010995812473460511 0 0.014925351592211122 8.6759998345123287e-05 0 0.014947391686871888 5.7951105855645722e-05 0 0.014920981948141392 6.1529337724834874e-05 0 0.01495130829894427 3.9108973573219959e-05 0 0.014971469035369405 1.2820339437569375e-05 0 0.014977977721800253 1.4577912671755673e-05 0 0.014899586257413527 6.8243040484182742e-05 0 0.014949039673822847 -1.4985858562482682e-07 0 0.014920981948141392 6.1529337724834874e-05 0 0.01495130829894427 3.9108973573219959e-05 0 0.014971469035369405 1.2820339437569375e-05 0 0.014884949370229853 6.6292547451622834e-05 0 0.014873830696111277 -5.2671154095279762e-06 0 0.014869120693892011 5.2003224630002706e-05 0 0.014947391686871888 5.7951105855645722e-05 0 0.01495130829894427 3.9108973573219959e-05 0 0.014969387945725918 3.2189919298221233e-05 0 0.01495130829894427 3.9108973573219959e-05 0 0.014969387945725918 3.2189919298221233e-05 0 0.014977977721800253 1.4577912671755673e-05 0 0.014969387945725918 3.2189919298221233e-05 0 0.014999971363409243 1.2506482425278311e-08 0 0.014977977721800253 1.4577912671755673e-05 0 0.014999971363409243 1.2506482425278311e-08 0 0.014977977721800253 1.4577912671755673e-05 0 0.014999921589561227 9.7380451781317869e-09 0 0.014971469035369405 1.2820339437569375e-05 0 0.014977977721800253 1.4577912671755673e-05 0 0.014999921589561227 9.7380451781317869e-09 0 0.014949039673822847 -1.4985858562482682e-07 0 0.014999970766632212 1.0158084232612753e-08 0 0.014966443473631725 -1.4086559596522493e-05 0 0.014999918600467711 -1.3237449588533618e-08 0 0.014948097923980271 -1.4448526087591979e-05 0 0.014999918600467711 -1.3237449588533618e-08 0 0.014960419470205219 -1.4532456617374632e-05 0 0.014948097923980271 -1.4448526087591979e-05 0 0.014949039673822847 -1.4985858562482682e-07 0 0.014999970406257692 -6.4319201966940555e-09 0 0.014999266179668649 -8.4296098077200767e-08 0 0.014999999599833645 -4.6482745103899157e-12 0 0.015000000132952362 -9.1101496492030879e-12 0 0.014999918600467711 -1.3237449588533618e-08 0 0.014999876687294298 -3.3401129728943082e-08 0 0.014960419470205219 -1.4532456617374632e-05 0 0.014999876687294298 -3.3401129728943082e-08 0 0.014960419470205219 -1.4532456617374632e-05 0 0.014907461162778099 -3.1656928383220523e-05 0 0.014960419470205219 -1.4532456617374632e-05 0 0.014930514088574485 -2.1510202251832106e-05 0 0.014948097923980271 -1.4448526087591979e-05 0 0.014960419470205219 -1.4532456617374632e-05 0 0.014930514088574485 -2.1510202251832106e-05 0 0.014907461162778099 -3.1656928383220523e-05 0 0.014930514088574485 -2.1510202251832106e-05 0 0.014907461162778099 -3.1656928383220523e-05 0 0.014903559630444306 -1.7638303135560998e-05 0 0.014935979180763293 -1.1202882385289704e-05 0 0.014893693402811464 1.9011009188525996e-05 0 0.014949039673822847 -1.4985858562482682e-07 0 0.014890573709568117 3.4411645861182766e-05 0 0.014966443473631725 -1.4086559596522493e-05 0 0.014948097923980271 -1.4448526087591979e-05 0 0.014918026609754808 2.2716761810897054e-05 0 0.014930514088574485 -2.1510202251832106e-05 0 0.014948097923980271 -1.4448526087591979e-05 0 0.014928852380443787 -1.1732767370004053e-05 0 0.014948097923980271 -1.4448526087591979e-05 0 0.014918026609754808 2.2716761810897054e-05 0 0.014854828691072498 4.2127962676586652e-05 0 0.014999876687294298 -3.3401129728943082e-08 0 0.014896582518255281 -4.1458325072522762e-05 0 0.014999804342338779 -6.6430307089112586e-08 0 0.014999876687294298 -3.3401129728943082e-08 0 0.014907461162778099 -3.1656928383220523e-05 0 0.014896582518255281 -4.1458325072522762e-05 0 0.014907461162778099 -3.1656928383220523e-05 0 0.014896582518255281 -4.1458325072522762e-05 0 0.0147789560374659 -3.0910241204732281e-05 0 0.014907461162778099 -3.1656928383220523e-05 0 0.014847200762995994 1.6307716883095284e-06 0 0.014903559630444306 -1.7638303135560998e-05 0 0.014907461162778099 -3.1656928383220523e-05 0 0.0147789560374659 -3.0910241204732281e-05 0 0.014847200762995994 1.6307716883095284e-06 0 0.014847200762995994 1.6307716883095284e-06 0 0.014887586260755642 6.3659441540585624e-05 0 0.014722048875404922 8.5693406914721706e-05 0 0.0147789560374659 -3.0910241204732281e-05 0 0.014847200762995994 1.6307716883095284e-06 0 0.014722048875404922 8.5693406914721706e-05 0 0.0147789560374659 -3.0910241204732281e-05 0 0.014722048875404922 8.5693406914721706e-05 0 0.014620535040888219 2.1726860487442482e-06 0 0.014918026609754808 2.2716761810897054e-05 0 0.014854828691072498 4.2127962676586652e-05 0 0.014864155270679068 0.00010995812473460511 0 0.014890573709568117 3.4411645861182766e-05 0 0.014870804707078794 0.00010280975502340119 0 0.014930514088574485 -2.1510202251832106e-05 0 0.014928852380443787 -1.1732767370004053e-05 0 0.014903559630444306 -1.7638303135560998e-05 0 0.014847200762995994 1.6307716883095284e-06 0 0.014928852380443787 -1.1732767370004053e-05 0 0.014903559630444306 -1.7638303135560998e-05 0 0.014847200762995994 1.6307716883095284e-06 0 0.014928852380443787 -1.1732767370004053e-05 0 0.014887586260755642 6.3659441540585624e-05 0 0.014893693402811464 1.9011009188525996e-05 0 0.014839813747440304 9.5422812580267947e-05 0 0.014854828691072498 4.2127962676586652e-05 0 0.014792251496437569 0.00012639436862989925 0 0.014864155270679068 0.00010995812473460511 0 0.014792251496437569 0.00012639436862989925 0 0.014864155270679068 0.00010995812473460511 0 0.014830669381327813 0.0001879290189999773 0 0.014887586260755642 6.3659441540585624e-05 0 0.014818535831189365 0.00019479966970145713 0 0.014722048875404922 8.5693406914721706e-05 0 0.014792251496437569 0.00012639436862989925 0 0.014746045269550798 0.00021740920062979027 0 0.014830669381327813 0.0001879290189999773 0 0.014839813747440304 9.5422812580267947e-05 0 0.014781818823811348 0.00020707087779094649 0 0.014746045269550798 0.00021740920062979027 0 0.014830669381327813 0.0001879290189999773 0 0.014785303004108541 0.0002837894448601265 0 0.014830669381327813 0.0001879290189999773 0 0.014785303004108541 0.0002837894448601265 0 0.014846651262142329 0.00025955291776206277 0 0.014722048875404922 8.5693406914721706e-05 0 0.014620535040888219 2.1726860487442482e-06 0 0.014556010011780718 0.00010758596686544561 0 0.014818535831189365 0.00019479966970145713 0 0.014722048875404922 8.5693406914721706e-05 0 0.014689046071900847 0.00025282756419252414 0 0.014722048875404922 8.5693406914721706e-05 0 0.014563416891722754 0.00025617854787566224 0 0.014556010011780718 0.00010758596686544561 0 0.014722048875404922 8.5693406914721706e-05 0 0.014689046071900847 0.00025282756419252414 0 0.014563416891722754 0.00025617854787566224 0 0.014563416891722754 0.00025617854787566224 0 0.01457231518140094 0.00037463170960590762 0 0.014400904606247806 0.00044521876783582031 0 0.014689046071900847 0.00025282756419252414 0 0.014563416891722754 0.00025617854787566224 0 0.01457231518140094 0.00037463170960590762 0 0.014818535831189365 0.00019479966970145713 0 0.014689046071900847 0.00025282756419252414 0 0.014720006220339938 0.00034726517244080906 0 0.014689046071900847 0.00025282756419252414 0 0.01457231518140094 0.00037463170960590762 0 0.014720006220339938 0.00034726517244080906 0 0.01457231518140094 0.00037463170960590762 0 0.014625296456975623 0.00043442341679152357 0 0.014720006220339938 0.00034726517244080906 0 0.014625296456975623 0.00043442341679152357 0 0.014720006220339938 0.00034726517244080906 0 0.014732064108336541 0.00047373696442749077 0 0.014625296456975623 0.00043442341679152357 0 0.014450862875012259 0.00055843098183240623 0 0.014732064108336541 0.00047373696442749077 0 0.01457231518140094 0.00037463170960590762 0 0.014625296456975623 0.00043442341679152357 0 0.014450862875012259 0.00055843098183240623 0 0.01457231518140094 0.00037463170960590762 0 0.014450862875012259 0.00055843098183240623 0 0.014400904606247806 0.00044521876783582031 0 0.014785303004108541 0.0002837894448601265 0 0.01479672757882727 0.00036582513768440784 0 0.014846651262142329 0.00025955291776206277 0 0.014746045269550798 0.00021740920062979027 0 0.014785303004108541 0.0002837894448601265 0 0.014720006220339938 0.00034726517244080906 0 0.014785303004108541 0.0002837894448601265 0 0.014720006220339938 0.00034726517244080906 0 0.01479672757882727 0.00036582513768440784 0 0.014781818823811348 0.00020707087779094649 0 0.01472957294488033 0.00033366800542734034 0 0.014720006220339938 0.00034726517244080906 0 0.01479672757882727 0.00036582513768440784 0 0.014732064108336541 0.00047373696442749077 0 0.01479672757882727 0.00036582513768440784 0 0.014842640529183371 0.00032646803533803318 0 0.01481217918845981 0.00040998595214430304 0 0.01479672757882727 0.00036582513768440784 0 0.014842640529183371 0.00032646803533803318 0 0.014846651262142329 0.00025955291776206277 0 0.014842640529183371 0.00032646803533803318 0 0.014846651262142329 0.00025955291776206277 0 0.014882095111026008 0.00027049078617525691 0 0.014846651262142329 0.00025955291776206277 0 0.014882095111026008 0.00027049078617525691 0 0.014902292159638071 0.00019684682298854123 0 0.014882095111026008 0.00027049078617525691 0 0.014932543070631242 0.00022020659753248025 0 0.014902292159638071 0.00019684682298854123 0 0.014882095111026008 0.00027049078617525691 0 0.014864058446766193 0.00034393536611886756 0 0.014894258046637569 0.00029609404224073576 0 0.014842640529183371 0.00032646803533803318 0 0.014882095111026008 0.00027049078617525691 0 0.014864058446766193 0.00034393536611886756 0 0.014894258046637569 0.00029609404224073576 0 0.014923724399148651 0.00029854712763119329 0 0.014932543070631242 0.00022020659753248025 0 0.014894258046637569 0.00029609404224073576 0 0.014923724399148651 0.00029854712763119329 0 0.014883589787598316 0.00036710832102118744 0 0.014864058446766193 0.00034393536611886756 0 0.014894258046637569 0.00029609404224073576 0 0.014883589787598316 0.00036710832102118744 0 0.014923724399148651 0.00029854712763119329 0 0.014968784398834666 0.00027527151456196227 0 0.014932543070631242 0.00022020659753248025 0 0.014923724399148651 0.00029854712763119329 0 0.014968784398834666 0.00027527151456196227 0 0.014944499266173398 0.00033542639688725526 0 0.014968784398834666 0.00027527151456196227 0 0.014985630048431862 0.00017396292562823874 0 0.014932543070631242 0.00022020659753248025 0 0.014985630048431862 0.00017396292562823874 0 0.014932543070631242 0.00022020659753248025 0 0.014973920647972625 0.00015641332663485788 0 0.014882095111026008 0.00027049078617525691 0 0.014894258046637569 0.00029609404224073576 0 0.014932543070631242 0.00022020659753248025 0 0.014932543070631242 0.00022020659753248025 0 0.014943253918153867 0.00016291180643923712 0 0.014902292159638071 0.00019684682298854123 0 0.014932543070631242 0.00022020659753248025 0 0.014943253918153867 0.00016291180643923712 0 0.014973920647972625 0.00015641332663485788 0 0.01497463543195863 0.00013444393762904666 0 0.014973920647972625 0.00015641332663485788 0 0.014966001639536269 0.00012642371727672569 0 0.014943253918153867 0.00016291180643923712 0 0.014973920647972625 0.00015641332663485788 0 0.014966001639536269 0.00012642371727672569 0 0.014943253918153867 0.00016291180643923712 0 0.014936269486033757 0.00013121888557924701 0 0.014902292159638071 0.00019684682298854123 0 0.014943253918153867 0.00016291180643923712 0 0.014966001639536269 0.00012642371727672569 0 0.014936269486033757 0.00013121888557924701 0 0.014936269486033757 0.00013121888557924701 0 0.014890158888001218 0.00014358693920479121 0 0.014902292159638071 0.00019684682298854123 0 0.014830669381327813 0.0001879290189999773 0 0.014890158888001218 0.00014358693920479121 0 0.014868678992262387 0.00019641869171052169 0 0.014864155270679068 0.00010995812473460511 0 0.014830669381327813 0.0001879290189999773 0 0.014890158888001218 0.00014358693920479121 0 0.014846651262142329 0.00025955291776206277 0 0.014868678992262387 0.00019641869171052169 0 0.014902292159638071 0.00019684682298854123 0 0.014830669381327813 0.0001879290189999773 0 0.014846651262142329 0.00025955291776206277 0 0.014868678992262387 0.00019641869171052169 0 0.014890158888001218 0.00014358693920479121 0 0.014868678992262387 0.00019641869171052169 0 0.014902292159638071 0.00019684682298854123 0 0.0149989027113546 -2.5783914864556205e-07 0 0.013812437114797887 -0.00010446840885902161 0 0.012491374487439342 1.2688158376135438e-07 0 0.0149989027113546 -2.5783914864556205e-07 0 0.014438586963496163 -0.00010941834838331802 0 0.014998825775576931 -1.856033435104207e-07 0 0.0149989027113546 -2.5783914864556205e-07 0 0.014438586963496163 -0.00010941834838331802 0 0.013812437114797887 -0.00010446840885902161 0 0.014438586963496163 -0.00010941834838331802 0 0.013812437114797887 -0.00010446840885902161 0 0.014096584554540431 -7.4822590337159862e-05 0 0.014438586963496163 -0.00010941834838331802 0 0.014667104284188166 -9.5807691919452533e-05 0 0.014096584554540431 -7.4822590337159862e-05 0 0.014667104284188166 -9.5807691919452533e-05 0 0.01439173245632825 2.9021101982698537e-05 0 0.014096584554540431 -7.4822590337159862e-05 0 0.014438586963496163 -0.00010941834838331802 0 0.014998825775576931 -1.856033435104207e-07 0 0.014667104284188166 -9.5807691919452533e-05 0 0.014998825775576931 -1.856033435104207e-07 0 0.014999804342338779 -6.6430307089112586e-08 0 0.014667104284188166 -9.5807691919452533e-05 0 0.014896582518255281 -4.1458325072522762e-05 0 0.014999804342338779 -6.6430307089112586e-08 0 0.014667104284188166 -9.5807691919452533e-05 0 0.0147789560374659 -3.0910241204732281e-05 0 0.014667104284188166 -9.5807691919452533e-05 0 0.014620535040888219 2.1726860487442482e-06 0 0.014896582518255281 -4.1458325072522762e-05 0 0.0147789560374659 -3.0910241204732281e-05 0 0.014667104284188166 -9.5807691919452533e-05 0 0.014667104284188166 -9.5807691919452533e-05 0 0.014620535040888219 2.1726860487442482e-06 0 0.01439173245632825 2.9021101982698537e-05 0 0.014556010011780718 0.00010758596686544561 0 0.01439173245632825 2.9021101982698537e-05 0 0.014395481493011614 0.00022523970213557959 0 0.014620535040888219 2.1726860487442482e-06 0 0.014556010011780718 0.00010758596686544561 0 0.01439173245632825 2.9021101982698537e-05 0 0.01439173245632825 2.9021101982698537e-05 0 0.014395481493011614 0.00022523970213557959 0 0.014171942547812462 0.00016721664722856881 0 0.014563416891722754 0.00025617854787566224 0 0.014556010011780718 0.00010758596686544561 0 0.014395481493011614 0.00022523970213557959 0 0.014395481493011614 0.00022523970213557959 0 0.014400904606247806 0.00044521876783582031 0 0.014236849477913498 0.00039952105056306129 0 0.014563416891722754 0.00025617854787566224 0 0.014395481493011614 0.00022523970213557959 0 0.014400904606247806 0.00044521876783582031 0 0.014400904606247806 0.00044521876783582031 0 0.014200921705686015 0.00061548895240154443 0 0.014330804075027768 0.00062710406394389019 0 0.014450862875012259 0.00055843098183240623 0 0.014400904606247806 0.00044521876783582031 0 0.014330804075027768 0.00062710406394389019 0 0.014400904606247806 0.00044521876783582031 0 0.014200921705686015 0.00061548895240154443 0 0.014236849477913498 0.00039952105056306129 0 0.014395481493011614 0.00022523970213557959 0 0.014236849477913498 0.00039952105056306129 0 0.014171942547812462 0.00016721664722856881 0 0.013928332554346086 0.00044344983053784515 0 0.013785764894500483 0.00011942530576780736 0 0.014171942547812462 0.00016721664722856881 0 0.014236849477913498 0.00039952105056306129 0 0.013928332554346086 0.00044344983053784515 0 0.014171942547812462 0.00016721664722856881 0 0.014200921705686015 0.00061548895240154443 0 0.013928332554346086 0.00044344983053784515 0 0.013898516543738613 0.00080377911095257874 0 0.014200921705686015 0.00061548895240154443 0 0.014236849477913498 0.00039952105056306129 0 0.013928332554346086 0.00044344983053784515 0 0.013928332554346086 0.00044344983053784515 0 0.013370956962700114 0.00026227528556408471 0 0.013420880567336384 0.00076756413462183602 0 0.013928332554346086 0.00044344983053784515 0 0.013420880567336384 0.00076756413462183602 0 0.013898516543738613 0.00080377911095257874 0 0.013928332554346086 0.00044344983053784515 0 0.013785764894500483 0.00011942530576780736 0 0.013370956962700114 0.00026227528556408471 0 0.013785764894500483 0.00011942530576780736 0 0.014171942547812462 0.00016721664722856881 0 0.014096584554540431 -7.4822590337159862e-05 0 0.01439173245632825 2.9021101982698537e-05 0 0.014171942547812462 0.00016721664722856881 0 0.014096584554540431 -7.4822590337159862e-05 0 0.013812437114797887 -0.00010446840885902161 0 0.014096584554540431 -7.4822590337159862e-05 0 0.013197597259784416 -3.8282515128827173e-06 0 0.013785764894500483 0.00011942530576780736 0 0.014096584554540431 -7.4822590337159862e-05 0 0.013197597259784416 -3.8282515128827173e-06 0 0.013785764894500483 0.00011942530576780736 0 0.013197597259784416 -3.8282515128827173e-06 0 0.013370956962700114 0.00026227528556408471 0 0.013197597259784416 -3.8282515128827173e-06 0 0.013370956962700114 0.00026227528556408471 0 0.012410295939389939 0.00029936160119054791 0 0.012426187987578633 0.00043079400339696204 0 0.012362829511904665 0.00031348495085255055 0 0.013370956962700114 0.00026227528556408471 0 0.013420880567336384 0.00076756413462183602 0 0.012410295939389939 0.00029936160119054791 0 0.01143118657654224 0.00017982028006118669 0 0.012410295939389939 0.00029936160119054791 0 0.01165647168082915 3.6403734587463615e-05 0 0.012410295939389939 0.00029936160119054791 0 0.01152546405965826 3.7462206834754342e-05 0 0.01165647168082915 3.6403734587463615e-05 0 0.012410295939389939 0.00029936160119054791 0 0.012050117885280005 0.00010669115671700962 0 0.01152546405965826 3.7462206834754342e-05 0 0.013197597259784416 -3.8282515128827173e-06 0 0.012410295939389939 0.00029936160119054791 0 0.012050117885280005 0.00010669115671700962 0 0.012050117885280005 0.00010669115671700962 0 0.012491374487439342 1.2688158376135438e-07 0 0.010659243568437662 -4.2482627958093556e-07 0 0.013812437114797887 -0.00010446840885902161 0 0.013197597259784416 -3.8282515128827173e-06 0 0.012491374487439342 1.2688158376135438e-07 0 0.013197597259784416 -3.8282515128827173e-06 0 0.012050117885280005 0.00010669115671700962 0 0.012491374487439342 1.2688158376135438e-07 0 0.010659243568437662 -4.2482627958093556e-07 0 0.010265987103926014 0.0001161767651390693 0 0.0093821607141590258 0.00013505071235165903 0 0.010659243568437662 -4.2482627958093556e-07 0 0.010891139452998015 7.9887491746169798e-06 0 0.010265987103926014 0.0001161767651390693 0 0.012050117885280005 0.00010669115671700962 0 0.010659243568437662 -4.2482627958093556e-07 0 0.01152546405965826 3.7462206834754342e-05 0 0.010659243568437662 -4.2482627958093556e-07 0 0.01152546405965826 3.7462206834754342e-05 0 0.010891139452998015 7.9887491746169798e-06 0 0.01152546405965826 3.7462206834754342e-05 0 0.011292142002259259 -3.0130876137664464e-05 0 0.010891139452998015 7.9887491746169798e-06 0 0.01152546405965826 3.7462206834754342e-05 0 0.01165647168082915 3.6403734587463615e-05 0 0.011292142002259259 -3.0130876137664464e-05 0 0.01165647168082915 3.6403734587463615e-05 0 0.011371703486467275 -2.1828393561361869e-06 0 0.011292142002259259 -3.0130876137664464e-05 0 0.01143118657654224 0.00017982028006118669 0 0.01165647168082915 3.6403734587463615e-05 0 0.011371703486467275 -2.1828393561361869e-06 0 0.011292142002259259 -3.0130876137664464e-05 0 0.011295337353104127 -0.00010854102740287473 0 0.011276289612744819 -4.3626304619401052e-05 0 0.011371703486467275 -2.1828393561361869e-06 0 0.011292142002259259 -3.0130876137664464e-05 0 0.011276289612744819 -4.3626304619401052e-05 0 0.011220345770323249 -6.9262321637170865e-05 0 0.011216025052778938 -3.8679058886260804e-05 0 0.011292142002259259 -3.0130876137664464e-05 0 0.010892086977633686 -6.3919915204424111e-07 0 0.010891139452998015 7.9887491746169798e-06 0 0.010892086977633686 -6.3919915204424111e-07 0 0.010891139452998015 7.9887491746169798e-06 0 0.010717050674562113 7.9328064266728383e-05 0 0.010891139452998015 7.9887491746169798e-06 0 0.010717050674562113 7.9328064266728383e-05 0 0.010265987103926014 0.0001161767651390693 0 0.010892086977633686 -6.3919915204424111e-07 0 0.010717050674562113 7.9328064266728383e-05 0 0.010927772248550321 0.000278300908302204 0 0.011216025052778938 -3.8679058886260804e-05 0 0.0099068558229335728 7.0785639746579111e-05 0 0.011295337353104127 -0.00010854102740287473 0 0.01124572935030705 -0.00015085684907073808 0 0.011271501688271533 -0.00022605260365109422 0 0.011626824575346207 -0.00037068588935104506 0 0.0099068558229335728 7.0785639746579111e-05 0 0.01124572935030705 -0.00015085684907073808 0 0.011169397810707957 -0.00018227747889034213 0 0.011271501688271533 -0.00022605260365109422 0 0.01124572935030705 -0.00015085684907073808 0 0.011169397810707957 -0.00018227747889034213 0 0.011239803298580814 -0.00010904658772385874 0 0.011169397810707957 -0.00018227747889034213 0 0.011127596011952803 -0.00011880940223237444 0 0.011098584498287524 -0.00017346421312299304 0 0.011169397810707957 -0.00018227747889034213 0 0.011098584498287524 -0.00017346421312299304 0 0.01112896487479796 -0.00019698746469281003 0 0.011127596011952803 -0.00011880940223237444 0 0.011189992062537958 -9.2125556630788692e-05 0 0.011127164645133665 -7.5951800501275733e-06 0 0.011169397810707957 -0.00018227747889034213 0 0.011127596011952803 -0.00011880940223237444 0 0.011189992062537958 -9.2125556630788692e-05 0 0.011189992062537958 -9.2125556630788692e-05 0 0.011239803298580814 -0.00010904658772385874 0 0.011276289612744819 -4.3626304619401052e-05 0 0.011169397810707957 -0.00018227747889034213 0 0.011189992062537958 -9.2125556630788692e-05 0 0.011239803298580814 -0.00010904658772385874 0 0.011295337353104127 -0.00010854102740287473 0 0.011239803298580814 -0.00010904658772385874 0 0.011276289612744819 -4.3626304619401052e-05 0 0.011295337353104127 -0.00010854102740287473 0 0.01124572935030705 -0.00015085684907073808 0 0.011239803298580814 -0.00010904658772385874 0 0.011371703486467275 -2.1828393561361869e-06 0 0.011276289612744819 -4.3626304619401052e-05 0 0.011228548346886059 4.8312101061019878e-05 0 0.012426187987578633 0.00043079400339696204 0 0.012520662657102029 0.00044373617366257572 0 0.01143118657654224 0.00017982028006118669 0 0.011371703486467275 -2.1828393561361869e-06 0 0.011228548346886059 4.8312101061019878e-05 0 0.012520662657102029 0.00044373617366257572 0 0.012968912700393229 5.5084242666862536e-06 0 0.014200921705686015 0.00061548895240154443 0 0.013898516543738613 0.00080377911095257874 0 0.014176128948152312 0.00075990139520046459 0 0.011189992062537958 -9.2125556630788692e-05 0 0.011276289612744819 -4.3626304619401052e-05 0 0.011127164645133665 -7.5951800501275733e-06 0 0.011276289612744819 -4.3626304619401052e-05 0 0.011228548346886059 4.8312101061019878e-05 0 0.011127164645133665 -7.5951800501275733e-06 0 0.012968912700393229 5.5084242666862536e-06 0 0.01208330935253521 -0.00034471771642977491 0 0.013275795792217953 -0.00041538773351011894 0 0.013328492799338424 -0.00039322615847169095 0 0.013299962706412233 -0.00037580467143737237 0 0.012968912700393229 5.5084242666862536e-06 0 0.013917203422730944 0.00019522003583993089 0 0.014200921705686015 0.00061548895240154443 0 0.014176128948152312 0.00075990139520046459 0 0.014330804075027768 0.00062710406394389019 0 0.014330804075027768 0.00062710406394389019 0 0.014318443841231225 0.00066128276136600769 0 0.014361256694098651 0.00062270647999710337 0 0.014318443841231225 0.00066128276136600769 0 0.014295839468888086 0.00067914291084541925 0 0.014330413888238221 0.00062124512092358482 0 0.014176128948152312 0.00075990139520046459 0 0.014318443841231225 0.00066128276136600769 0 0.014295839468888086 0.00067914291084541925 0 0.014176128948152312 0.00075990139520046459 0 0.014330804075027768 0.00062710406394389019 0 0.014318443841231225 0.00066128276136600769 0 0.013339743163555146 -0.00036445930222966564 0 0.013328492799338424 -0.00039322615847169095 0 0.013385283541603689 -0.00036672377757015427 0 0.013339743163555146 -0.00036445930222966564 0 0.013328492799338424 -0.00039322615847169095 0 0.013299962706412233 -0.00037580467143737237 0 0.011127596011952803 -0.00011880940223237444 0 0.011127164645133665 -7.5951800501275733e-06 0 0.011073619228973784 -0.00010326992829432124 0 0.011073619228973784 -0.00010326992829432124 0 0.011098584498287524 -0.00017346421312299304 0 0.011021333567123565 -0.00018578557720321174 0 0.011127596011952803 -0.00011880940223237444 0 0.011073619228973784 -0.00010326992829432124 0 0.011098584498287524 -0.00017346421312299304 0 0.01208330935253521 -0.00034471771642977491 0 0.012356273048637238 -0.00012464280371579883 0 0.013339743163555146 -0.00036445930222966564 0 0.013299962706412233 -0.00037580467143737237 0 0.013317950145241448 -0.00032854005581476703 0 0.013317950145241448 -0.00032854005581476703 0 0.013355109440480325 -0.00034883480352727441 0 0.013372615898060417 -0.00033290600870474 0 0.013339743163555146 -0.00036445930222966564 0 0.013317950145241448 -0.00032854005581476703 0 0.013355109440480325 -0.00034883480352727441 0 0.013317950145241448 -0.00032854005581476703 0 0.013339132482512282 -0.00025620325335694695 0 0.013378095223972137 -0.00028478323378328227 0 0.013317950145241448 -0.00032854005581476703 0 0.013372615898060417 -0.00033290600870474 0 0.013378095223972137 -0.00028478323378328227 0 0.011021333567123565 -0.00018578557720321174 0 0.011062507130059015 -0.00025414687691701764 0 0.0109670255399622 -0.00027691200176401274 0 0.012356273048637238 -0.00012464280371579883 0 0.010325342877419598 -0.0004206265570553218 0 0.011098584498287524 -0.00017346421312299304 0 0.011021333567123565 -0.00018578557720321174 0 0.011062507130059015 -0.00025414687691701764 0 0.011098584498287524 -0.00017346421312299304 0 0.011062507130059015 -0.00025414687691701764 0 0.01112896487479796 -0.00019698746469281003 0 0.0063387078269724496 -0.00019110634228065824 0 0.0063283456304559392 -0.00023409771986445234 0 0.0063134299192002478 -0.00022719105911582141 0 0.0063387078269724496 -0.00019110634228065824 0 0.0063134299192002478 -0.00022719105911582141 0 0.006391028621626214 -0.00022003371184390293 0 0.0063387078269724496 -0.00019110634228065824 0 0.0063283456304559392 -0.00023409771986445234 0 0.0063804736281775579 -0.00026483292420820514 0 0.0083905743484702488 -0.00025130102250298239 0 0.010325342877419598 -0.0004206265570553218 0 0.01151356418577585 -0.00031169697975094452 0 0.010325342877419598 -0.0004206265570553218 0 0.0063283456304559392 -0.00023409771986445234 0 0.0063804736281775579 -0.00026483292420820514 0 0.0064625275060292428 -0.00023149366762206884 0 0.0063283456304559392 -0.00023409771986445234 0 0.0064121890316857066 -0.00018668442646668033 0 0.0064625275060292428 -0.00023149366762206884 0 0.0063283456304559392 -0.00023409771986445234 0 0.0064121890316857066 -0.00018668442646668033 0 0.0062859703966701239 -0.00021481211680499074 0 0.0063283456304559392 -0.00023409771986445234 0 0.0062859703966701239 -0.00021481211680499074 0 0.0063134299192002478 -0.00022719105911582141 0 0.0064121890316857066 -0.00018668442646668033 0 0.0062859703966701239 -0.00021481211680499074 0 0.0064739624388850791 -1.964856590065175e-05 0 0.0062859703966701239 -0.00021481211680499074 0 0.0061300003691237412 -0.00033131372248931427 0 0.0062611102667945824 -0.00028495534995384854 0 0.0062859703966701239 -0.00021481211680499074 0 0.0063996617249114703 0.00014153858972452697 0 0.0064739624388850791 -1.964856590065175e-05 0 0.0061300003691237412 -0.00033131372248931427 0 0.0062611102667945824 -0.00028495534995384854 0 0.0061407335781107448 -0.00032820270837656827 0 0.0062753355288912146 -0.0002082100118163217 0 0.0062663377436863897 -0.00011004002887836473 0 0.0062611102667945824 -0.00028495534995384854 0 0.0063651470692821684 -0.00034044807626430117 0 0.0063398373537361021 -0.00042791460213029207 0 0.0062355518248870326 -0.00027636080142280558 0 0.0062021150602585267 -0.00039122699579764567 0 0.0062611102667945824 -0.00028495534995384854 0 0.0060347081170319403 -0.00034208026873867934 0 0.0061407335781107448 -0.00032820270837656827 0 0.0062611102667945824 -0.00028495534995384854 0 0.0063510079689329734 -0.00027196011408057259 0 0.0063651470692821684 -0.00034044807626430117 0 0.0062611102667945824 -0.00028495534995384854 0 0.0063134299192002478 -0.00022719105911582141 0 0.0063510079689329734 -0.00027196011408057259 0 0.0062859703966701239 -0.00021481211680499074 0 0.0062611102667945824 -0.00028495534995384854 0 0.0063134299192002478 -0.00022719105911582141 0 0.0063510079689329734 -0.00027196011408057259 0 0.0064551861736738773 -0.00031956582432084027 0 0.006391028621626214 -0.00022003371184390293 0 0.0063134299192002478 -0.00022719105911582141 0 0.0063510079689329734 -0.00027196011408057259 0 0.006391028621626214 -0.00022003371184390293 0 0.0063510079689329734 -0.00027196011408057259 0 0.0063651470692821684 -0.00034044807626430117 0 0.0064551861736738773 -0.00031956582432084027 0 0.0063651470692821684 -0.00034044807626430117 0 0.0064551861736738773 -0.00031956582432084027 0 0.0064189317676913906 -0.00043825628980080243 0 0.006293319058700066 -8.1083272520060334e-05 0 0.0061024728275535112 0.00016872953403986729 0 0.0060853942538759698 0.00013366448159197059 0 0.006167428803139364 0.00055482250615392038 0 0.0063763958176628948 0.00013707076656403004 0 0.0064551861736738773 -0.00031956582432084027 0 0.006498123512319447 -0.00021460130640995988 0 0.006391028621626214 -0.00022003371184390293 0 0.0061024728275535112 0.00016872953403986729 0 0.0088572965242335617 0.00019463632090287693 0 0.006498123512319447 -0.00021460130640995988 0 0.006391028621626214 -0.00022003371184390293 0 0.0064333225441855456 -0.00013182888175862297 0 0.0063387078269724496 -0.00019110634228065824 0 0.006391028621626214 -0.00022003371184390293 0 0.0064333225441855456 -0.00013182888175862297 0 0.0083905743484702488 -0.00025130102250298239 0 0.0088371492423439234 -0.00019055213956879424 0 0.011062507130059015 -0.00025414687691701764 0 0.011142450159161842 -0.00021659829567882854 0 0.01112896487479796 -0.00019698746469281003 0 0.011169397810707957 -0.00018227747889034213 0 0.011142450159161842 -0.00021659829567882854 0 0.01112896487479796 -0.00019698746469281003 0 0.006498123512319447 -0.00021460130640995988 0 0.0064333225441855456 -0.00013182888175862297 0 0.0065563509145763728 -9.8438702724272918e-05 0 0.011169397810707957 -0.00018227747889034213 0 0.011142450159161842 -0.00021659829567882854 0 0.0111428228470749 -0.00019695236208407596 0 0.0088371492423439234 -0.00019055213956879424 0 0.0088572965242335617 0.00019463632090287693 0 0.011169397810707957 -0.00018227747889034213 0 0.0111428228470749 -0.00019695236208407596 0 0.011142458636637731 -0.00019731691258705403 0 0.010659243568437662 -4.2482627958093556e-07 0 0.008349974154097637 1.4867229352313979e-06 0 0.0093821607141590258 0.00013505071235165903 0 0.0092870532154238541 0.00038087565759496234 0 0.0083005359717839965 0.00061176434296672467 0 0.0063704410847971451 0.0010858858472278781 0 0.0067952218762839947 0.00090546552168305639 0 0.0064441688520524105 0.00079667813166145029 0 0.0063704410847971451 0.0010858858472278781 0 0.0062953282546859184 0.0010707634322900221 0 0.0064441688520524105 0.00079667813166145029 0 0.010717050674562113 7.9328064266728383e-05 0 0.010880120406978324 0.00031507643959921474 0 0.010927772248550321 0.000278300908302204 0 0.0092870532154238541 0.00038087565759496234 0 0.0099068558229335728 7.0785639746579111e-05 0 0.0092870532154238541 0.00038087565759496234 0 0.0088572965242335617 0.00019463632090287693 0 0.0094450827407643583 0.00061168930767009915 0 0.0094404551142397517 0.000610027593105487 0 0.0094416272177609735 0.00061280732516561572 0 0.0088572965242335617 0.00019463632090287693 0 0.0099068558229335728 7.0785639746579111e-05 0 0.010262458615586844 0.00016992651887657787 0 0.010187090401581601 0.00021532822536358685 0 0.010265987103926014 0.0001161767651390693 0 0.010717050674562113 7.9328064266728383e-05 0 0.010880120406978324 0.00031507643959921474 0 0.010265987103926014 0.0001161767651390693 0 0.0092870532154238541 0.00038087565759496234 0 0.010792133830175138 0.00015913720427931667 0 0.0067952218762839947 0.00090546552168305639 0 0.0064441688520524105 0.00079667813166145029 0 0.0065981769199232815 0.00036941016668320996 0 0.0067952218762839947 0.00090546552168305639 0 0.0065981769199232815 0.00036941016668320996 0 0.0073323538002360534 0.00067305934280007104 0 0.006167428803139364 0.00055482250615392038 0 0.0062953282546859184 0.0010707634322900221 0 0.0064441688520524105 0.00079667813166145029 0 0.006167428803139364 0.00055482250615392038 0 0.0064441688520524105 0.00079667813166145029 0 0.0065981769199232815 0.00036941016668320996 0 0.006167428803139364 0.00055482250615392038 0 0.0063763958176628948 0.00013707076656403004 0 0.0065981769199232815 0.00036941016668320996 0 0.0063763958176628948 0.00013707076656403004 0 0.0066799326943997516 -1.5717213140378054e-05 0 0.0063537348467577661 -7.323033712964251e-05 0 0.0060853942538759698 0.00013366448159197059 0 0.0063763958176628948 0.00013707076656403004 0 0.0063537348467577661 -7.323033712964251e-05 0 0.0066799326943997516 -1.5717213140378054e-05 0 0.0065981769199232815 0.00036941016668320996 0 0.0072392642243363139 6.0772295949738586e-05 0 0.0063763958176628948 0.00013707076656403004 0 0.0066799326943997516 -1.5717213140378054e-05 0 0.0065981769199232815 0.00036941016668320996 0 0.0065981769199232815 0.00036941016668320996 0 0.0072392642243363139 6.0772295949738586e-05 0 0.0073323538002360534 0.00067305934280007104 0 0.0066799326943997516 -1.5717213140378054e-05 0 0.0072392642243363139 6.0772295949738586e-05 0 0.0069784654942959311 -7.3263568477286816e-05 0 0.0072392642243363139 6.0772295949738586e-05 0 0.0075435140409596292 -5.1748480639917483e-07 0 0.0083454836526632489 1.5722146933554506e-06 0 0.0072392642243363139 6.0772295949738586e-05 0 0.0075435140409596292 -5.1748480639917483e-07 0 0.0069784654942959311 -7.3263568477286816e-05 0 0.0072392642243363139 6.0772295949738586e-05 0 0.0083454836526632489 1.5722146933554506e-06 0 0.0073323538002360534 0.00067305934280007104 0 0.0083472400878884263 1.7206245892240031e-07 0 0.0084228971013751153 0.00035113451427007896 0 0.0083005359717839965 0.00061176434296672467 0 0.0084228971013751153 0.00035113451427007896 0 0.010187090401581601 0.00021532822536358685 0 0.010265987103926014 0.0001161767651390693 0 0.0093821607141590258 0.00013505071235165903 0 0.014153084318638232 0.00056433039448265643 0 0.014007793866399608 0.00057627922258981362 0 0.013962551366562041 0.00070308275721233521 0 0.014263283805606214 0.0006282082109536918 0 0.014153084318638232 0.00056433039448265643 0 0.013962551366562041 0.00070308275721233521 0 0.014239729871888086 0.00063736985148021158 0 0.014338611137717033 0.00068693723446282989 0 0.014007793866399608 0.00057627922258981362 0 0.013932666821767442 0.00060679901047400414 0 0.013962551366562041 0.00070308275721233521 0 0.014263283805606214 0.0006282082109536918 0 0.014153084318638232 0.00056433039448265643 0 0.014210524559912615 0.00050888526649936093 0 0.014263283805606214 0.0006282082109536918 0 0.014210524559912615 0.00050888526649936093 0 0.014276421561429583 0.00055962161280266273 0 0.014153084318638232 0.00056433039448265643 0 0.014210524559912615 0.00050888526649936093 0 0.014118634118519185 0.00047928462106712163 0 0.014005081674195126 0.0005012879891549538 0 0.014007793866399608 0.00057627922258981362 0 0.013935827995928447 0.00050885798657049201 0 0.014153084318638232 0.00056433039448265643 0 0.014118634118519185 0.00047928462106712163 0 0.014007793866399608 0.00057627922258981362 0 0.014090049400107472 0.00037342244330996587 0 0.013989079950980234 0.00059860281329693647 0 0.013935827995928447 0.00050885798657049201 0 0.013932666821767442 0.00060679901047400414 0 0.013827829640737499 0.0006510919764493758 0 0.014007793866399608 0.00057627922258981362 0 0.013935827995928447 0.00050885798657049201 0 0.013932666821767442 0.00060679901047400414 0 0.011484824730206209 0.00041574171519546233 0 0.012435770230397426 0.0002342808958434812 0 0.011824695709558557 0.0004408154050330331 0 0.012435770230397426 0.0002342808958434812 0 0.010182141451689017 0.00025416704351285388 0 0.010173603531244139 0.00025403442051547269 0 0.01020288192833874 0.00024097159151738247 0 0.013673260248941128 0.00065932741108812526 0 0.013687850418830062 0.00072027568868197715 0 0.013827829640737499 0.0006510919764493758 0 0.013821246767560977 5.6570838744240587e-05 0 0.013277561187330002 0.0004315265576153307 0 0.013210612747176066 0.00010421492167217845 0 0.012435770230397426 0.0002342808958434812 0 0.014099526123308823 0.00052128113827454444 0 0.014099526123308823 0.00052128113827454444 0 0.014338611137717033 0.00068693723446282989 0 0.013935827995928447 0.00050885798657049201 0 0.013673260248941128 0.00065932741108812526 0 0.013827829640737499 0.0006510919764493758 0 0.015038004318851141 0.00059173978093167337 0 0.014594582402359843 0.0006591976440531637 0 0.014864681394226288 0.00046603126132954302 0 0.013687850418830062 0.00072027568868197715 0 0.013827829640737499 0.0006510919764493758 0 0.013962551366562041 0.00070308275721233521 0 0.013932666821767442 0.00060679901047400414 0 0.013827829640737499 0.0006510919764493758 0 0.013962551366562041 0.00070308275721233521 0 0.014594582402359843 0.0006591976440531637 0 0.014864681394226288 0.00046603126132954302 0 0.01442762224144299 0.00045997587073207298 0 0.014864681394226288 0.00046603126132954302 0 0.014949914102387185 0.00038818574203635731 0 0.014883589787598316 0.00036710832102118744 0 0.01485833671797262 0.00046805143697886171 0 0.014650879557803699 0.00043410765594118514 0 0.014864681394226288 0.00046603126132954302 0 0.014883589787598316 0.00036710832102118744 0 0.014850460617125902 0.00039451443722537526 0 0.015038004318851141 0.00059173978093167337 0 0.014864681394226288 0.00046603126132954302 0 0.014949914102387185 0.00038818574203635731 0 0.014099526123308823 0.00052128113827454444 0 0.014954172699310448 0.000462913773445576 0 0.014970910554966885 0.00040406555665557878 0 0.014957013705281307 0.00042095881170473444 0 0.014949914102387185 0.00038818574203635731 0 0.014970910554966885 0.00040406555665557878 0 0.014979680075076785 0.00038888723630855885 0 0.014949914102387185 0.00038818574203635731 0 0.014979680075076785 0.00038888723630855885 0 0.014990625071479023 0.00035056738336539946 0 0.014949914102387185 0.00038818574203635731 0 0.014990625071479023 0.00035056738336539946 0 0.014968784398834666 0.00027527151456196227 0 0.014944499266173398 0.00033542639688725526 0 0.014990625071479023 0.00035056738336539946 0 0.014949914102387185 0.00038818574203635731 0 0.014944499266173398 0.00033542639688725526 0 0.014949914102387185 0.00038818574203635731 0 0.014944499266173398 0.00033542639688725526 0 0.014883589787598316 0.00036710832102118744 0 0.014923724399148651 0.00029854712763119329 0 0.014944499266173398 0.00033542639688725526 0 0.014883589787598316 0.00036710832102118744 0 0.014864058446766193 0.00034393536611886756 0 0.014883589787598316 0.00036710832102118744 0 0.014850460617125902 0.00039451443722537526 0 0.014263283805606214 0.0006282082109536918 0 0.014594582402359843 0.0006591976440531637 0 0.01442762224144299 0.00045997587073207298 0 0.014263283805606214 0.0006282082109536918 0 0.01442762224144299 0.00045997587073207298 0 0.014245722653038025 0.00058593945963541713 0 0.01442762224144299 0.00045997587073207298 0 0.014267078949577922 0.00052898889034443738 0 0.014245722653038025 0.00058593945963541713 0 0.014842640529183371 0.00032646803533803318 0 0.014864058446766193 0.00034393536611886756 0 0.01481217918845981 0.00040998595214430304 0 0.014650879557803699 0.00043410765594118514 0 0.014542886374194862 0.00047288410121264506 0 0.014864058446766193 0.00034393536611886756 0 0.014850460617125902 0.00039451443722537526 0 0.01481217918845981 0.00040998595214430304 0 0.014542886374194862 0.00047288410121264506 0 0.014492961027601357 0.00054273853843033772 0 0.01479672757882727 0.00036582513768440784 0 0.01481217918845981 0.00040998595214430304 0 0.014732064108336541 0.00047373696442749077 0 0.014265444413787244 0.00062845304599922836 0 0.014256242420942714 0.00058362182825246953 0 0.014314206765849598 0.00061100252445918173 0 0.014267078949577922 0.00052898889034443738 0 0.014265444413787244 0.00062845304599922836 0 0.014256242420942714 0.00058362182825246953 0 0.014260315074515018 0.00057084094728861254 0 0.014256242420942714 0.00058362182825246953 0 0.014314206765849598 0.00061100252445918173 0 0.014260315074515018 0.00057084094728861254 0 0.014256242420942714 0.00058362182825246953 0 0.014245722653038025 0.00058593945963541713 0 0.01411793090467486 0.00053455861941818414 0 0.014300660800458017 0.00061951262644044174 0 0.014267078949577922 0.00052898889034443738 0 0.014256242420942714 0.00058362182825246953 0 0.014245722653038025 0.00058593945963541713 0 0.014450862875012259 0.00055843098183240623 0 0.014330804075027768 0.00062710406394389019 0 0.014361256694098651 0.00062270647999710337 0 0.014450862875012259 0.00055843098183240623 0 0.014361256694098651 0.00062270647999710337 0 0.014314206765849598 0.00061100252445918173 0 0.014450862875012259 0.00055843098183240623 0 0.014265444413787244 0.00062845304599922836 0 0.014314206765849598 0.00061100252445918173 0 0.014438603150796502 0.00055260537588765679 0 0.014492961027601357 0.00054273853843033772 0 0.014361256694098651 0.00062270647999710337 0 0.014314206765849598 0.00061100252445918173 0 0.014254529827585785 0.00059154321720098586 0 0.01403535646155314 0.00055425435213104775 0 0.014254529827585785 0.00059154321720098586 0 0.01417812441927643 0.00053045298495533945 0 0.014254529827585785 0.00059154321720098586 0 0.014330413888238221 0.00062124512092358482 0 0.01417812441927643 0.00053045298495533945 0 0.01403535646155314 0.00055425435213104775 0 0.014314206765849598 0.00061100252445918173 0 0.014254529827585785 0.00059154321720098586 0 0.014361256694098651 0.00062270647999710337 0 0.014254529827585785 0.00059154321720098586 0 0.014330413888238221 0.00062124512092358482 0 0.014318443841231225 0.00066128276136600769 0 0.014361256694098651 0.00062270647999710337 0 0.014330413888238221 0.00062124512092358482 0 0.014295839468888086 0.00067914291084541925 0 0.014330413888238221 0.00062124512092358482 0 0.014334845977539737 0.00067387229040261076 0 0.013917203422730944 0.00019522003583993089 0 0.013965257993345734 0.00019425577048773704 0 0.014330413888238221 0.00062124512092358482 0 0.014261748283119616 0.00042895251595989685 0 0.014195071972157814 0.00047599517301484111 0 0.014359165073343066 0.00075805493737151578 0 0.013965257993345734 0.00019425577048773704 0 0.014261748283119616 0.00042895251595989685 0 0.014195071972157814 0.00047599517301484111 0 0.014158774439557407 0.00039364482829593191 0 0.014330413888238221 0.00062124512092358482 0 0.014195071972157814 0.00047599517301484111 0 0.01417812441927643 0.00053045298495533945 0 0.014195071972157814 0.00047599517301484111 0 0.01406514769933199 0.00041690098238309414 0 0.014158774439557407 0.00039364482829593191 0 0.014195071972157814 0.00047599517301484111 0 0.01417812441927643 0.00053045298495533945 0 0.01406514769933199 0.00041690098238309414 0 0.01406514769933199 0.00041690098238309414 0 0.014057750547283554 0.00032880624161440867 0 0.013965155777305746 0.0003124433654986663 0 0.014057750547283554 0.00032880624161440867 0 0.014158774439557407 0.00039364482829593191 0 0.014078251589657127 0.0002695780331658747 0 0.01406514769933199 0.00041690098238309414 0 0.014057750547283554 0.00032880624161440867 0 0.014158774439557407 0.00039364482829593191 0 0.014206778034172769 0.00041750789263283664 0 0.014158774439557407 0.00039364482829593191 0 0.014078251589657127 0.0002695780331658747 0 0.013385283541603689 -0.00036672377757015427 0 0.013372615898060417 -0.00033290600870474 0 0.013414895584408039 -0.00030445640381773157 0 0.013965257993345734 0.00019425577048773704 0 0.013726561773656373 -4.6008818361217846e-05 0 0.013965257993345734 0.00019425577048773704 0 0.014185637087300368 0.00036836075535715516 0 0.013339743163555146 -0.00036445930222966564 0 0.013355109440480325 -0.00034883480352727441 0 0.013385283541603689 -0.00036672377757015427 0 0.013355109440480325 -0.00034883480352727441 0 0.013385283541603689 -0.00036672377757015427 0 0.013372615898060417 -0.00033290600870474 0 0.014260315074515018 0.00057084094728861254 0 0.014245722653038025 0.00058593945963541713 0 0.014276421561429583 0.00055962161280266273 0 0.01411793090467486 0.00053455861941818414 0 0.01427507780836349 0.00050761156567757058 0 0.014263283805606214 0.0006282082109536918 0 0.014245722653038025 0.00058593945963541713 0 0.014276421561429583 0.00055962161280266273 0 0.01403535646155314 0.00055425435213104775 0 0.01417812441927643 0.00053045298495533945 0 0.01406514769933199 0.00041690098238309414 0 0.01403535646155314 0.00055425435213104775 0 0.01406514769933199 0.00041690098238309414 0 0.013855630568756471 0.00037529991812914579 0 0.01406514769933199 0.00041690098238309414 0 0.013855630568756471 0.00037529991812914579 0 0.013965155777305746 0.0003124433654986663 0 0.013855630568756471 0.00037529991812914579 0 0.013866471912058717 0.00026628986398292563 0 0.013965155777305746 0.0003124433654986663 0 0.013855630568756471 0.00037529991812914579 0 0.013866471912058717 0.00026628986398292563 0 0.013770845049694096 0.00025461573158710169 0 0.013866471912058717 0.00026628986398292563 0 0.013965155777305746 0.0003124433654986663 0 0.013931009808926764 0.00025602895343936619 0 0.013965155777305746 0.0003124433654986663 0 0.013931009808926764 0.00025602895343936619 0 0.013993756382583655 0.00027747982381140773 0 0.013931009808926764 0.00025602895343936619 0 0.013993756382583655 0.00027747982381140773 0 0.013945352977393188 0.00022869506584312284 0 0.013866471912058717 0.00026628986398292563 0 0.013931009808926764 0.00025602895343936619 0 0.013881090938799884 0.00021126886665338471 0 0.013881090938799884 0.00021126886665338471 0 0.013945352977393188 0.00022869506584312284 0 0.013875757843718296 0.00017666823101853923 0 0.013881090938799884 0.00021126886665338471 0 0.013838643705096706 0.00018135980417123305 0 0.013875757843718296 0.00017666823101853923 0 0.013931009808926764 0.00025602895343936619 0 0.013881090938799884 0.00021126886665338471 0 0.013945352977393188 0.00022869506584312284 0 0.013866471912058717 0.00026628986398292563 0 0.013881090938799884 0.00021126886665338471 0 0.013838643705096706 0.00018135980417123305 0 0.013866471912058717 0.00026628986398292563 0 0.013838643705096706 0.00018135980417123305 0 0.013770845049694096 0.00025461573158710169 0 0.013372615898060417 -0.00033290600870474 0 0.013378095223972137 -0.00028478323378328227 0 0.013414895584408039 -0.00030445640381773157 0 0.013378095223972137 -0.00028478323378328227 0 0.013414895584408039 -0.00030445640381773157 0 0.013393347075742561 -0.0002373321193368634 0 0.014078251589657127 0.0002695780331658747 0 0.013993756382583655 0.00027747982381140773 0 0.013945352977393188 0.00022869506584312284 0 0.014057750547283554 0.00032880624161440867 0 0.014078251589657127 0.0002695780331658747 0 0.013993756382583655 0.00027747982381140773 0 0.014057750547283554 0.00032880624161440867 0 0.013965155777305746 0.0003124433654986663 0 0.013993756382583655 0.00027747982381140773 0 0.014078251589657127 0.0002695780331658747 0 0.013946618083540013 0.00021323267643356725 0 0.013910562699678952 0.00018921503544866409 0 0.013946618083540013 0.00021323267643356725 0 0.013945352977393188 0.00022869506584312284 0 0.013875757843718296 0.00017666823101853923 0 0.014078251589657127 0.0002695780331658747 0 0.013946618083540013 0.00021323267643356725 0 0.013945352977393188 0.00022869506584312284 0 0.013946618083540013 0.00021323267643356725 0 0.013910562699678952 0.00018921503544866409 0 0.013875757843718296 0.00017666823101853923 0 0.013393347075742561 -0.0002373321193368634 0 0.013374164136193772 -0.00013710551390753057 0 0.013419366181772618 -5.8615694698429255e-05 0 0.013414895584408039 -0.00030445640381773157 0 0.013393347075742561 -0.0002373321193368634 0 0.013508827405075115 -0.00013515643143404628 0 0.013726561773656373 -4.6008818361217846e-05 0 0.013713188054385126 5.3685023036915459e-05 0 0.01151356418577585 -0.00031169697975094452 0 0.010138842826530827 -0.00036284269817789044 0 0.010325342877419598 -0.0004206265570553218 0 0.010138842826530827 -0.00036284269817789044 0 0.010635468283811048 4.3926659327528158e-06 0 0.010705937690882466 1.7564988217607886e-05 0 0.010417017617611065 -0.00059439843498185186 0 0.013313562801892637 -0.00025197605955677564 0 0.013393347075742561 -0.0002373321193368634 0 0.013374164136193772 -0.00013710551390753057 0 0.013346520718164575 -0.00025356443639376012 0 0.013378095223972137 -0.00028478323378328227 0 0.013393347075742561 -0.0002373321193368634 0 0.013346520718164575 -0.00025356443639376012 0 0.013339132482512282 -0.00025620325335694695 0 0.013378095223972137 -0.00028478323378328227 0 0.01151356418577585 -0.00031169697975094452 0 0.013224172427601879 -0.00011384870435445475 0 0.013419366181772618 -5.8615694698429255e-05 0 0.013508827405075115 -0.00013515643143404628 0 0.013672630240268753 0.00014341412152968296 0 0.013393347075742561 -0.0002373321193368634 0 0.013419366181772618 -5.8615694698429255e-05 0 0.013508827405075115 -0.00013515643143404628 0 0.0064121890316857066 -0.00018668442646668033 0 0.0065538567983135136 -0.00014712359982233585 0 0.0064739624388850791 -1.964856590065175e-05 0 0.0064121890316857066 -0.00018668442646668033 0 0.0064625275060292428 -0.00023149366762206884 0 0.0065538567983135136 -0.00014712359982233585 0 0.010138842826530827 -0.00036284269817789044 0 0.010024248361151124 -0.00012816474780697449 0 0.013910562699678952 0.00018921503544866409 0 0.013804743713652401 0.00017207926475460662 0 0.013875757843718296 0.00017666823101853923 0 0.013910562699678952 0.00018921503544866409 0 0.013804743713652401 0.00017207926475460662 0 0.013672630240268753 0.00014341412152968296 0 0.013713188054385126 5.3685023036915459e-05 0 0.013683581888918338 0.00014906098609899365 0 0.013804743713652401 0.00017207926475460662 0 0.013674715713641433 0.00014909552409362759 0 0.013672630240268753 0.00014341412152968296 0 0.013674715713641433 0.00014909552409362759 0 0.013672630240268753 0.00014341412152968296 0 0.013647958393982458 0.00016596208893621453 0 0.0065538567983135136 -0.00014712359982233585 0 0.0064739624388850791 -1.964856590065175e-05 0 0.0067246252694715541 0.00018153550656860898 0 0.010024248361151124 -0.00012816474780697449 0 0.010238704438443902 0.00021995733074387286 0 0.0063996617249114703 0.00014153858972452697 0 0.0064739624388850791 -1.964856590065175e-05 0 0.0067246252694715541 0.00018153550656860898 0 0.013419366181772618 -5.8615694698429255e-05 0 0.013672630240268753 0.00014341412152968296 0 0.01362112863120803 0.00017702124086466052 0 0.01021777103852963 0.00025599375895765338 0 0.010274096752490613 0.00019603079874729715 0 0.01017413514894891 0.00023121857140539007 0 0.011991914274424049 0.00021655153357001886 0 0.011726755667057165 0.00014066998856657515 0 0.013804743713652401 0.00017207926475460662 0 0.013875757843718296 0.00017666823101853923 0 0.013856042463130819 0.00018377057589667205 0 0.013838643705096706 0.00018135980417123305 0 0.013875757843718296 0.00017666823101853923 0 0.013856042463130819 0.00018377057589667205 0 0.013804743713652401 0.00017207926475460662 0 0.013674715713641433 0.00014909552409362759 0 0.013600277324680207 0.00017126678746912644 0 0.014578207765071884 0.00032390669717278987 0 0.011726755667057165 0.00014066998856657515 0 0.013674715713641433 0.00014909552409362759 0 0.013600277324680207 0.00017126678746912644 0 0.013653697921052244 0.00015644766950938965 0 0.011726755667057165 0.00014066998856657515 0 0.011606900821604654 -1.6737027399837186e-05 0 0.011726755667057165 0.00014066998856657515 0 0.0095151799108134563 6.877857844106449e-06 0 0.010274096752490613 0.00019603079874729715 0 0.01017413514894891 0.00023121857140539007 0 0.01017637086823075 0.00016546081607613915 0 0.010115118120608843 0.00022394243556324655 0 0.01017413514894891 0.00023121857140539007 0 0.01017637086823075 0.00016546081607613915 0 0.010115118120608843 0.00022394243556324655 0 0.010064156563956336 0.00018971059792815951 0 0.01017637086823075 0.00016546081607613915 0 0.010115118120608843 0.00022394243556324655 0 0.010085270127684294 0.00023499548158208698 0 0.010064156563956336 0.00018971059792815951 0 0.010115118120608843 0.00022394243556324655 0 0.010143148312189586 0.00024681716193854388 0 0.010121472220404734 0.00024697168121385352 0 0.010115118120608843 0.00022394243556324655 0 0.010143148312189586 0.00024681716193854388 0 0.01017413514894891 0.00023121857140539007 0 0.010143148312189586 0.00024681716193854388 0 0.010156781590768165 0.00025884557697218954 0 0.010121472220404734 0.00024697168121385352 0 0.01021777103852963 0.00025599375895765338 0 0.01017413514894891 0.00023121857140539007 0 0.010172484724527723 0.00025458131305071164 0 0.010143148312189586 0.00024681716193854388 0 0.01017413514894891 0.00023121857140539007 0 0.010172484724527723 0.00025458131305071164 0 0.01021777103852963 0.00025599375895765338 0 0.010181164275085069 0.00026898487130520127 0 0.010189173440215551 0.00027467269832791617 0 0.01021777103852963 0.00025599375895765338 0 0.010172484724527723 0.00025458131305071164 0 0.010181164275085069 0.00026898487130520127 0 0.011991914274424049 0.00021655153357001886 0 0.012628416074197638 0.00041554898959911464 0 0.010172484724527723 0.00025458131305071164 0 0.010181164275085069 0.00026898487130520127 0 0.010156781590768165 0.00025884557697218954 0 0.010143148312189586 0.00024681716193854388 0 0.010172484724527723 0.00025458131305071164 0 0.010156781590768165 0.00025884557697218954 0 0.010156781590768165 0.00025884557697218954 0 0.010165881167560479 0.0002610155739598527 0 0.010148051936167168 0.00025437064719271047 0 0.010181164275085069 0.00026898487130520127 0 0.010156781590768165 0.00025884557697218954 0 0.010165881167560479 0.0002610155739598527 0 0.010181164275085069 0.00026898487130520127 0 0.010165881167560479 0.0002610155739598527 0 0.010184045381193548 0.00026823328532200007 0 0.011824695709558557 0.0004408154050330331 0 0.01276692598006756 0.00048662363924565949 0 0.014005081674195126 0.0005012879891549538 0 0.013935827995928447 0.00050885798657049201 0 0.014030979440736398 0.00045811236546310292 0 0.010173603531244139 0.00025403442051547269 0 0.010165881167560479 0.0002610155739598527 0 0.010184045381193548 0.00026823328532200007 0 0.01427507780836349 0.00050761156567757058 0 0.012628416074197638 0.00041554898959911464 0 0.014210524559912615 0.00050888526649936093 0 0.014276421561429583 0.00055962161280266273 0 0.014184506296525255 0.00038601901750150803 0 0.014090049400107472 0.00037342244330996587 0 0.01276692598006756 0.00048662363924565949 0 0.014210524559912615 0.00050888526649936093 0 0.014184506296525255 0.00038601901750150803 0 0.014173620551632567 0.00040236321541112599 0 0.014210524559912615 0.00050888526649936093 0 0.014118634118519185 0.00047928462106712163 0 0.014173620551632567 0.00040236321541112599 0 0.010181164275085069 0.00026898487130520127 0 0.010185231170698939 0.00026859276150358247 0 0.010184045381193548 0.00026823328532200007 0 0.012628416074197638 0.00041554898959911464 0 0.01276692598006756 0.00048662363924565949 0 0.011889756271164766 -4.4499805695215062e-05 0 0.012628416074197638 0.00041554898959911464 0 0.010161338416997427 0.00025255059532620948 0 0.010182141451689017 0.00025416704351285388 0 0.010159530766963723 0.00025385684495093328 0 0.010182141451689017 0.00025416704351285388 0 0.010163750375348293 0.00025634874364349714 0 0.010159530766963723 0.00025385684495093328 0 0.010182141451689017 0.00025416704351285388 0 0.010173603531244139 0.00025403442051547269 0 0.010163750375348293 0.00025634874364349714 0 0.010165881167560479 0.0002610155739598527 0 0.010163750375348293 0.00025634874364349714 0 0.010148051936167168 0.00025437064719271047 0 0.010173603531244139 0.00025403442051547269 0 0.010165881167560479 0.0002610155739598527 0 0.010163750375348293 0.00025634874364349714 0 0.010163750375348293 0.00025634874364349714 0 0.010148051936167168 0.00025437064719271047 0 0.010159530766963723 0.00025385684495093328 0 0.010156781590768165 0.00025884557697218954 0 0.010148051936167168 0.00025437064719271047 0 0.010121472220404734 0.00024697168121385352 0 0.010148051936167168 0.00025437064719271047 0 0.010147735718474419 0.00025130716673046991 0 0.010121472220404734 0.00024697168121385352 0 0.010161338416997427 0.00025255059532620948 0 0.010147735718474419 0.00025130716673046991 0 0.010159530766963723 0.00025385684495093328 0 0.010161338416997427 0.00025255059532620948 0 0.010147735718474419 0.00025130716673046991 0 0.010134297602005585 0.00024959993266673131 0 0.010148051936167168 0.00025437064719271047 0 0.010147735718474419 0.00025130716673046991 0 0.010159530766963723 0.00025385684495093328 0 0.010147735718474419 0.00025130716673046991 0 0.010134297602005585 0.00024959993266673131 0 0.010121472220404734 0.00024697168121385352 0 0.010134297602005585 0.00024959993266673131 0 0.010121472220404734 0.00024697168121385352 0 0.010085270127684294 0.00023499548158208698 0 0.010085270127684294 0.00023499548158208698 0 0.010129908500852535 0.00027228399499682816 0 0.010090129490698646 0.00029464746992745506 0 0.010085270127684294 0.00023499548158208698 0 0.010036599236083257 0.00016181398712292175 0 0.010064156563956336 0.00018971059792815951 0 0.010072003098218913 0.00021838340603462004 0 0.010097249027574135 0.00027473712084747064 0 0.010115118120608843 0.00022394243556324655 0 0.010121472220404734 0.00024697168121385352 0 0.010085270127684294 0.00023499548158208698 0 0.010157421190299488 0.00025881603191032988 0 0.010134297602005585 0.00024959993266673131 0 0.010129908500852535 0.00027228399499682816 0 0.010134297602005585 0.00024959993266673131 0 0.010085270127684294 0.00023499548158208698 0 0.010129908500852535 0.00027228399499682816 0 0.010090129490698646 0.00029464746992745506 0 0.010093902291045204 0.0003376832485289217 0 0.01013055410328282 0.00031439786288274833 0 0.010129908500852535 0.00027228399499682816 0 0.010090129490698646 0.00029464746992745506 0 0.01013055410328282 0.00031439786288274833 0 0.010097249027574135 0.00027473712084747064 0 0.0086762412111921188 0.00058106216356729808 0 0.010036599236083257 0.00016181398712292175 0 0.01000016389389906 0.00015204350556791697 0 0.010064156563956336 0.00018971059792815951 0 0.010036599236083257 0.00016181398712292175 0 0.010024087643423092 0.00022381650865581294 0 0.01000016389389906 0.00015204350556791697 0 0.010036599236083257 0.00016181398712292175 0 0.010024087643423092 0.00022381650865581294 0 0.010095124158463819 0.00024059421511010264 0 0.0086762412111921188 0.00058106216356729808 0 0.0086412925861503679 0.0006893806116458741 0 0.010024087643423092 0.00022381650865581294 0 0.010095124158463819 0.00024059421511010264 0 0.0099999714262141316 0.00034297715189761835 0 0.0071884278482991087 0.0011052396479948213 0 0.0072413327862899755 0.00089659167288527405 0 0.0074142930983888298 0.00095159751116295679 0 0.010024087643423092 0.00022381650865581294 0 0.0099999714262141316 0.00034297715189761835 0 0.0098842423086821403 0.0002797379436003649 0 0.0073707797139116217 0.00081393569068627348 0 0.0072699196604728818 0.00059565849284753795 0 0.0071105488512489615 0.00075793793745132911 0 0.0073707797139116217 0.00081393569068627348 0 0.0072094688183554833 0.00091938989525268573 0 0.0071105488512489615 0.00075793793745132911 0 0.0086762412111921188 0.00058106216356729808 0 0.0085833882604835748 0.00068489060661799809 0 0.0086762412111921188 0.00058106216356729808 0 0.0071082046652327464 0.00070584472165160367 0 0.0070439436131980743 0.00079936215393599803 0 0.0072413327862899755 0.00089659167288527405 0 0.0073185496561817337 0.00072894817239507455 0 0.0071884278482991087 0.0011052396479948213 0 0.0070439436131980743 0.00079936215393599803 0 0.0072413327862899755 0.00089659167288527405 0 0.0074142930983888298 0.00095159751116295679 0 0.0073185496561817337 0.00072894817239507455 0 0.0076501299948799574 0.00079526954815561793 0 0.0072413327862899755 0.00089659167288527405 0 0.0074142930983888298 0.00095159751116295679 0 0.0073185496561817337 0.00072894817239507455 0 0.0073009995225101747 0.0005461260414321694 0 0.0075347731187966633 0.00049903839113806154 0 0.0072556653392058888 0.00038493238394754714 0 0.0073185496561817337 0.00072894817239507455 0 0.0073009995225101747 0.0005461260414321694 0 0.007096623884630727 0.00057085158444843847 0 0.0073185496561817337 0.00072894817239507455 0 0.0073009995225101747 0.0005461260414321694 0 0.0075347731187966633 0.00049903839113806154 0 0.0073009995225101747 0.0005461260414321694 0 0.007096623884630727 0.00057085158444843847 0 0.0072556653392058888 0.00038493238394754714 0 0.0070439436131980743 0.00079936215393599803 0 0.0073185496561817337 0.00072894817239507455 0 0.007096623884630727 0.00057085158444843847 0 0.0071082046652327464 0.00070584472165160367 0 0.0065449353587865491 0.00048053889161225665 0 0.0070439436131980743 0.00079936215393599803 0 0.007096623884630727 0.00057085158444843847 0 0.0069138398134212251 0.00047776015318228753 0 0.007096623884630727 0.00057085158444843847 0 0.0070424232370656856 0.00043223447040659761 0 0.0068969783931181168 0.00047654732928347361 0 0.0071028958539512506 0.00061913645100162911 0 0.0065449353587865491 0.00048053889161225665 0 0.0096101745324094368 0.00052512336830240448 0 0.009572561335821201 0.00055268404536817548 0 0.009600180780834057 0.00052279088264667014 0 0.0096101745324094368 0.00052512336830240448 0 0.0095349609173518268 0.00055118152933383716 0 0.0094944670712626723 0.00048595514117551902 0 0.0096101745324094368 0.00052512336830240448 0 0.0095349609173518268 0.00055118152933383716 0 0.009572561335821201 0.00055268404536817548 0 0.0073185496561817337 0.00072894817239507455 0 0.0075347731187966633 0.00049903839113806154 0 0.0076501299948799574 0.00079526954815561793 0 0.0086573476305753499 0.00058197116067562149 0 0.0091869185193958723 0.00064752930222966749 0 0.009572561335821201 0.00055268404536817548 0 0.0095816464702875651 0.00055462447247700639 0 0.009600180780834057 0.00052279088264667014 0 0.0099999714262141316 0.00034297715189761835 0 0.0098137222765848214 0.00046982185649337122 0 0.0097962534431004795 0.00041386031410676263 0 0.0097109449306247691 0.0004282784002439964 0 0.0091869185193958723 0.00064752930222966749 0 0.0099999714262141316 0.00034297715189761835 0 0.0097962534431004795 0.00041386031410676263 0 0.0098842423086821403 0.0002797379436003649 0 0.0091869185193958723 0.00064752930222966749 0 0.0092957937774727373 0.00060711914224163594 0 0.0098067905478505524 0.00046762375819987812 0 0.0097962534431004795 0.00041386031410676263 0 0.0097029068014571045 0.00042788956839556709 0 0.0086412925861503679 0.0006893806116458741 0 0.0091869185193958723 0.00064752930222966749 0 0.0097962534431004795 0.00041386031410676263 0 0.0097029068014571045 0.00042788956839556709 0 0.0097227237636141866 0.00033330413979081226 0 0.0097962534431004795 0.00041386031410676263 0 0.0097227237636141866 0.00033330413979081226 0 0.0098842423086821403 0.0002797379436003649 0 0.0097029068014571045 0.00042788956839556709 0 0.0096034213631000873 0.00040508344614302518 0 0.0097227237636141866 0.00033330413979081226 0 0.0096101745324094368 0.00052512336830240448 0 0.0096034213631000873 0.00040508344614302518 0 0.0094944670712626723 0.00048595514117551902 0 0.0096101745324094368 0.00052512336830240448 0 0.0097029068014571045 0.00042788956839556709 0 0.0096034213631000873 0.00040508344614302518 0 0.0096101745324094368 0.00052512336830240448 0 0.0098067905478505524 0.00046762375819987812 0 0.0097029068014571045 0.00042788956839556709 0 0.0096034213631000873 0.00040508344614302518 0 0.0096133231670124126 0.0002845460154474318 0 0.0097227237636141866 0.00033330413979081226 0 0.0096034213631000873 0.00040508344614302518 0 0.0096133231670124126 0.0002845460154474318 0 0.0095059072882959419 0.00032276566375629546 0 0.0096133231670124126 0.0002845460154474318 0 0.0097242742652338017 0.00020017285801454183 0 0.0095123460056102636 0.000152807298017489 0 0.0096133231670124126 0.0002845460154474318 0 0.0097227237636141866 0.00033330413979081226 0 0.0097242742652338017 0.00020017285801454183 0 0.0097242742652338017 0.00020017285801454183 0 0.0098842423086821403 0.0002797379436003649 0 0.01000016389389906 0.00015204350556791697 0 0.0097227237636141866 0.00033330413979081226 0 0.0097242742652338017 0.00020017285801454183 0 0.0098842423086821403 0.0002797379436003649 0 0.010024087643423092 0.00022381650865581294 0 0.0098842423086821403 0.0002797379436003649 0 0.01000016389389906 0.00015204350556791697 0 0.0097242742652338017 0.00020017285801454183 0 0.01000016389389906 0.00015204350556791697 0 0.0096569464342493548 1.5869429249685099e-05 0 0.010164266936568972 0.00019735713253631585 0 0.0095151799108134563 6.877857844106449e-06 0 0.01000016389389906 0.00015204350556791697 0 0.010064156563956336 0.00018971059792815951 0 0.01017637086823075 0.00016546081607613915 0 0.0097242742652338017 0.00020017285801454183 0 0.0096569464342493548 1.5869429249685099e-05 0 0.0095123460056102636 0.000152807298017489 0 0.0094274631647015741 -7.3470964728541627e-05 0 0.0096569464342493548 1.5869429249685099e-05 0 0.0095123460056102636 0.000152807298017489 0 0.0095123460056102636 0.000152807298017489 0 0.0093212998943023734 8.4587032216368755e-05 0 0.0093681276310618976 0.00024858310781835681 0 0.0094274631647015741 -7.3470964728541627e-05 0 0.0095123460056102636 0.000152807298017489 0 0.0093212998943023734 8.4587032216368755e-05 0 0.0093212998943023734 8.4587032216368755e-05 0 0.0093681276310618976 0.00024858310781835681 0 0.0092157030555697836 0.00024171774896958109 0 0.0093681276310618976 0.00024858310781835681 0 0.0095059072882959419 0.00032276566375629546 0 0.0093978080932072949 0.00038306275684933688 0 0.0095123460056102636 0.000152807298017489 0 0.0093681276310618976 0.00024858310781835681 0 0.0095059072882959419 0.00032276566375629546 0 0.0096133231670124126 0.0002845460154474318 0 0.0095123460056102636 0.000152807298017489 0 0.0095059072882959419 0.00032276566375629546 0 0.0063996617249114703 0.00014153858972452697 0 0.0066792823809372582 0.00037004310907809765 0 0.0067246252694715541 0.00018153550656860898 0 0.0063996617249114703 0.00014153858972452697 0 0.0066792823809372582 0.00037004310907809765 0 0.0065306730879624453 0.00049293329370352394 0 0.01362112863120803 0.00017702124086466052 0 0.013647958393982458 0.00016596208893621453 0 0.013612352645748272 0.00018987432285348953 0 0.010238704438443902 0.00021995733074387286 0 0.00952504916467793 0.00027732197005583641 0 0.013653697921052244 0.00015644766950938965 0 0.013647958393982458 0.00016596208893621453 0 0.013612352645748272 0.00018987432285348953 0 0.0066792823809372582 0.00037004310907809765 0 0.0067246252694715541 0.00018153550656860898 0 0.0068591914034940391 0.00051920315994229528 0 0.013672630240268753 0.00014341412152968296 0 0.01362112863120803 0.00017702124086466052 0 0.013647958393982458 0.00016596208893621453 0 0.013674715713641433 0.00014909552409362759 0 0.013653697921052244 0.00015644766950938965 0 0.013647958393982458 0.00016596208893621453 0 0.011606900821604654 -1.6737027399837186e-05 0 0.00952504916467793 0.00027732197005583641 0 0.0093681276310618976 0.00024858310781835681 0 0.0092157030555697836 0.00024171774896958109 0 0.0092495912137348386 0.00034221085198266315 0 0.0086065173170841777 0.00080817426066815128 0 0.0087383975579813193 0.00060313495125903732 0 0.0082074431843570887 -0.00026452041807795753 0 0.0078308235188679631 0.00059438550643545597 0 0.0076229892626518449 5.7451338888969556e-05 0 0.00952504916467793 0.00027732197005583641 0 0.0076229892626518449 5.7451338888969556e-05 0 0.00952504916467793 0.00027732197005583641 0 0.0078308235188679631 0.00059438550643545597 0 0.0078308235188679631 0.00059438550643545597 0 0.0077053911283769859 0.00050072375878574442 0 0.006834562048443623 0.00054844501306018807 0 0.0068150010143410095 0.00051405366752639656 0 0.0066992535972526246 0.00055236109876528568 0 0.0068591914034940391 0.00051920315994229528 0 0.0068388193614632503 0.00055048257799670132 0 0.0068150010143410095 0.00051405366752639656 0 0.0066792823809372582 0.00037004310907809765 0 0.0068591914034940391 0.00051920315994229528 0 0.0068150010143410095 0.00051405366752639656 0 0.0066792823809372582 0.00037004310907809765 0 0.0068150010143410095 0.00051405366752639656 0 0.0066992535972526246 0.00055236109876528568 0 0.0066992535972526246 0.00055236109876528568 0 0.0065306730879624453 0.00049293329370352394 0 0.0066369408008049051 0.00083183444897535932 0 0.0066792823809372582 0.00037004310907809765 0 0.0066992535972526246 0.00055236109876528568 0 0.0065306730879624453 0.00049293329370352394 0 0.0063606677414532109 0.00013267900465603201 0 0.0061650472366502783 0.00015959823278390592 0 0.0061273880942506222 -0.00031332159528970423 0 0.0061806223169142303 -0.00018518438684450128 0 0.0060632731049470199 -0.00023781691104170135 0 0.006834562048443623 0.00054844501306018807 0 0.0066992535972526246 0.00055236109876528568 0 0.0066369408008049051 0.00083183444897535932 0 0.0061230460624776941 -4.1586889123753997e-05 0 0.0060662085622212418 1.2916532057724003e-05 0 0.0061097903725187289 -1.0473256875602966e-06 0 0.0078308235188679631 0.00059438550643545597 0 0.0061650472366502783 0.00015959823278390592 0 0.0060662085622212418 1.2916532057724003e-05 0 0.0061097903725187289 -1.0473256875602966e-06 0 0.006107262882062087 3.740847595790228e-05 0 0.0061230460624776941 -4.1586889123753997e-05 0 0.0061097903725187289 -1.0473256875602966e-06 0 0.0061328157549574202 -1.8520955991735266e-05 0 0.0061097903725187289 -1.0473256875602966e-06 0 0.0061328157549574202 -1.8520955991735266e-05 0 0.0061388917869552324 2.0742405443255763e-06 0 0.0076229892626518449 5.7451338888969556e-05 0 0.0068978204876505725 -0.00023121535678202062 0 0.0061097903725187289 -1.0473256875602966e-06 0 0.0061388917869552324 2.0742405443255763e-06 0 0.006107262882062087 3.740847595790228e-05 0 0.0060662085622212418 1.2916532057724003e-05 0 0.006107262882062087 3.740847595790228e-05 0 0.0060484553429234061 0.00010616429186432846 0 0.0060092616644795626 -1.1793999446074787e-05 0 0.0060484553429234061 0.00010616429186432846 0 0.0059552170172117655 6.8193739935555348e-05 0 0.0061806223169142303 -0.00018518438684450128 0 0.0060804659086393046 -0.00015475071176113584 0 0.0060961622785626187 -3.3052364215830531e-05 0 0.0061650472366502783 0.00015959823278390592 0 0.0060322029368005351 -2.0526824681517553e-05 0 0.0061650472366502783 0.00015959823278390592 0 0.0060081885223560406 3.1107868997363243e-05 0 0.0095059072882959419 0.00032276566375629546 0 0.0093978080932072949 0.00038306275684933688 0 0.0094944670712626723 0.00048595514117551902 0 0.0096034213631000873 0.00040508344614302518 0 0.0095059072882959419 0.00032276566375629546 0 0.0094944670712626723 0.00048595514117551902 0 0.0093978080932072949 0.00038306275684933688 0 0.0093597665816511338 0.00049782420498304422 0 0.0094944670712626723 0.00048595514117551902 0 0.0061335027454014921 -1.8409929546533614e-05 0 0.0061388917869552324 2.0742405443255763e-06 0 0.0061627060629605044 3.2636066803942244e-05 0 0.0076229892626518449 5.7451338888969556e-05 0 0.0077613163688082763 0.0002709029658758132 0 0.0093681276310618976 0.00024858310781835681 0 0.0092495912137348386 0.00034221085198266315 0 0.0093978080932072949 0.00038306275684933688 0 0.0092495912137348386 0.00034221085198266315 0 0.0093978080932072949 0.00038306275684933688 0 0.0093597665816511338 0.00049782420498304422 0 0.006107262882062087 3.740847595790228e-05 0 0.0061627060629605044 3.2636066803942244e-05 0 0.0061378125782399189 9.762340571286353e-05 0 0.0077613163688082763 0.0002709029658758132 0 0.0079399464251451671 0.00038550930282214304 0 0.0061388917869552324 2.0742405443255763e-06 0 0.006107262882062087 3.740847595790228e-05 0 0.0061627060629605044 3.2636066803942244e-05 0 0.0093597665816511338 0.00049782420498304422 0 0.0094944670712626723 0.00048595514117551902 0 0.0094452452609891692 0.00059307967025023925 0 0.0095349609173518268 0.00055118152933383716 0 0.0094944670712626723 0.00048595514117551902 0 0.0094452452609891692 0.00059307967025023925 0 0.0095349609173518268 0.00055118152933383716 0 0.0094452452609891692 0.00059307967025023925 0 0.0095204610297963572 0.00058929576347322593 0 0.0094452452609891692 0.00059307967025023925 0 0.0094793342489849913 0.00064103170623912775 0 0.0095204610297963572 0.00058929576347322593 0 0.0061378125782399189 9.762340571286353e-05 0 0.0061992016013760502 0.00016422054359838784 0 0.0060940186674535409 0.00016565700525566408 0 0.0061627060629605044 3.2636066803942244e-05 0 0.0062145182536632003 0.00010383760326948491 0 0.0061378125782399189 9.762340571286353e-05 0 0.0062145182536632003 0.00010383760326948491 0 0.0061378125782399189 9.762340571286353e-05 0 0.0061992016013760502 0.00016422054359838784 0 0.0061597143371874205 0.00021554294068307868 0 0.0061992016013760502 0.00016422054359838784 0 0.0060940186674535409 0.00016565700525566408 0 0.0061597143371874205 0.00021554294068307868 0 0.0062721744895265037 0.00019700353887245147 0 0.0061992016013760502 0.00016422054359838784 0 0.0050329248339296201 0.00055450833877964778 0 0.0044273937806022581 0.00072320625540985516 0 0.0047738638349413111 0.00039235673811533546 0 0.005382110312379563 0.0004057075395396283 0 0.006493962597641346 0.00069248765782075532 0 0.0079399464251451671 0.00038550930282214304 0 0.006493962597641346 0.00069248765782075532 0 0.0062145182536632003 0.00010383760326948491 0 0.0062721744895265037 0.00019700353887245147 0 0.0061992016013760502 0.00016422054359838784 0 0.0043465808959128865 0.00060800260537708783 0 0.0044273937806022581 0.00072320625540985516 0 0.004522056527901757 0.00024875654439020272 0 0.0059459036097092152 0.00036017285822740084 0 0.006493962597641346 0.00069248765782075532 0 0.0060484553429234061 0.00010616429186432846 0 0.0059630851841218063 0.00014916540576220697 0 0.0059552170172117655 6.8193739935555348e-05 0 0.0061378125782399189 9.762340571286353e-05 0 0.0060484553429234061 0.00010616429186432846 0 0.0060940186674535409 0.00016565700525566408 0 0.006107262882062087 3.740847595790228e-05 0 0.0061378125782399189 9.762340571286353e-05 0 0.0060484553429234061 0.00010616429186432846 0 0.0061597143371874205 0.00021554294068307868 0 0.0060940186674535409 0.00016565700525566408 0 0.0060441411400781785 0.0002271348952541515 0 0.0060484553429234061 0.00010616429186432846 0 0.0060940186674535409 0.00016565700525566408 0 0.0059630851841218063 0.00014916540576220697 0 0.0060940186674535409 0.00016565700525566408 0 0.0059630851841218063 0.00014916540576220697 0 0.0060441411400781785 0.0002271348952541515 0 0.0058197548467303212 0.00030031559939657979 0 0.0058561531304024382 0.0002449091535626799 0 0.0059630851841218063 0.00014916540576220697 0 0.0060441411400781785 0.0002271348952541515 0 0.0058799340340194364 0.00022038181952078456 0 0.0056648715028091191 0.00017682016033322682 0 0.0055213285292684839 0.00040031195221441461 0 0.0058799340340194364 0.00022038181952078456 0 0.0056648715028091191 0.00017682016033322682 0 0.0057964370988303317 0.00012910696967837319 0 0.0058799340340194364 0.00022038181952078456 0 0.0055213285292684839 0.00040031195221441461 0 0.0055402804896860164 -2.8125473424315002e-05 0 0.0050884686185969788 8.6790537570016876e-05 0 0.0056648715028091191 0.00017682016033322682 0 0.0055213285292684839 0.00040031195221441461 0 0.0055402804896860164 -2.8125473424315002e-05 0 0.005382110312379563 0.0004057075395396283 0 0.0058197548467303212 0.00030031559939657979 0 0.0042269597042003332 0.00024342404676118114 0 0.0041908520053558175 0.00025142148445159211 0 0.0041754327907086953 0.00026952722783358168 0 0.0038299394314959671 0.00024621797495337413 0 0.0048160436011748312 0.00012018236013841964 0 0.0038299394314959671 0.00024621797495337413 0 0.0027708978792970176 0.00026547211550031932 0 0.00098505584248285722 0.00065358451747194607 0 0.00078968148318916422 0.00067148136286289243 0 0.0008500607086827733 0.00049759882375881759 0 0.0035807333229805516 0.0001854609975010317 0 0.0022830252155725942 0.00041676475837034197 0 0.0026200467037411461 0.00058000583224782846 0 0.0038299394314959671 0.00024621797495337413 0 0.0014530025693458811 0.00048836709067676197 0 0.0056648715028091191 0.00017682016033322682 0 0.0055402804896860164 -2.8125473424315002e-05 0 0.0057964370988303317 0.00012910696967837319 0 0.0055402804896860164 -2.8125473424315002e-05 0 0.0057964370988303317 0.00012910696967837319 0 0.0058881809348019084 6.4180144900796777e-05 0 0.0038299394314959671 0.00024621797495337413 0 0.0030593742937002192 0.00040939522335158235 0 0.0040475279054718047 0.00035865534043663942 0 0.0041754327907086953 0.00026952722783358168 0 0.0041201330142661861 0.0002540886858101402 0 0.004522056527901757 0.00024875654439020272 0 0.0047738638349413111 0.00039235673811533546 0 0.0050884686185969788 8.6790537570016876e-05 0 0.0042357370534941005 0.00033002115705391556 0 0.0048160436011748312 0.00012018236013841964 0 0.0044273937806022581 0.00072320625540985516 0 0.004522056527901757 0.00024875654439020272 0 0.0047738638349413111 0.00039235673811533546 0 0.0050329248339296201 0.00055450833877964778 0 0.0055213285292684839 0.00040031195221441461 0 0.0050884686185969788 8.6790537570016876e-05 0 0.0050329248339296201 0.00055450833877964778 0 0.0047738638349413111 0.00039235673811533546 0 0.0050884686185969788 8.6790537570016876e-05 0 0.0041908520053558175 0.00025142148445159211 0 0.0041754327907086953 0.00026952722783358168 0 0.0041201330142661861 0.0002540886858101402 0 0.0027708978792970176 0.00026547211550031932 0 0.0022281723168624673 0.00028309258337860322 0 0.0027708978792970176 0.00026547211550031932 0 0.0045228581542440405 0.00016121423318716244 0 0.004245660668321439 0.0002345514073756938 0 0.0041201330142661861 0.0002540886858101402 0 0.004041007075082436 5.5031087299852842e-05 0 0.0041201330142661861 0.0002540886858101402 0 0.0040029922254498891 0.00024216793504980589 0 0.004041007075082436 5.5031087299852842e-05 0 0.0040475279054718047 0.00035865534043663942 0 0.0041201330142661861 0.0002540886858101402 0 0.0040029922254498891 0.00024216793504980589 0 0.0040029922254498891 0.00024216793504980589 0 0.0038483552617433201 0.00016941696260788018 0 0.004041007075082436 5.5031087299852842e-05 0 0.0038483552617433201 0.00016941696260788018 0 0.0039152848569312159 0.00032448046878354251 0 0.0037193920904483621 0.00034341722200726516 0 0.0040029922254498891 0.00024216793504980589 0 0.0038483552617433201 0.00016941696260788018 0 0.0039152848569312159 0.00032448046878354251 0 0.0040475279054718047 0.00035865534043663942 0 0.0040029922254498891 0.00024216793504980589 0 0.0039152848569312159 0.00032448046878354251 0 0.0040475279054718047 0.00035865534043663942 0 0.0039152848569312159 0.00032448046878354251 0 0.0038998556791340557 0.00049561339703426332 0 0.0043465808959128865 0.00060800260537708783 0 0.004522056527901757 0.00024875654439020272 0 0.0038998556791340557 0.00049561339703426332 0 0.0042357370534941005 0.00033002115705391556 0 0.0039424470708052124 0.00046821757004642455 0 0.0039152848569312159 0.00032448046878354251 0 0.0038998556791340557 0.00049561339703426332 0 0.0037193920904483621 0.00034341722200726516 0 0.0037193920904483621 0.00034341722200726516 0 0.0034298277609062697 0.00043373731271651583 0 0.0036818436572637198 0.00056138816890023984 0 0.0038998556791340557 0.00049561339703426332 0 0.0037193920904483621 0.00034341722200726516 0 0.0036818436572637198 0.00056138816890023984 0 0.0038483552617433201 0.00016941696260788018 0 0.0037193920904483621 0.00034341722200726516 0 0.0035982015409256937 8.4778070986791485e-05 0 0.0033066727221809193 0.00013020636561394847 0 0.0034298277609062697 0.00043373731271651583 0 0.0035982015409256937 8.4778070986791485e-05 0 0.0032832070460906944 0.00042934096417697562 0 0.0031484668935118621 0.00068434222393626591 0 0.0037193920904483621 0.00034341722200726516 0 0.0034298277609062697 0.00043373731271651583 0 0.0035982015409256937 8.4778070986791485e-05 0 0.0032208491598844161 0.00070820939458166802 0 0.0031571046068972521 0.00089249677564023737 0 0.0030357890741529118 0.00077024033543427752 0 0.0031571046068972521 0.00089249677564023737 0 0.0030368053107573912 0.0009402846937830384 0 0.0030357890741529118 0.00077024033543427752 0 0.0032208491598844161 0.00070820939458166802 0 0.0031571046068972521 0.00089249677564023737 0 0.0033176923126577774 0.00095805261894187544 0 0.0031571046068972521 0.00089249677564023737 0 0.0031810924770065267 0.001072089349729243 0 0.0030368053107573912 0.0009402846937830384 0 0.0031571046068972521 0.00089249677564023737 0 0.0033176923126577774 0.00095805261894187544 0 0.0031810924770065267 0.001072089349729243 0 0.0031810924770065267 0.001072089349729243 0 0.0030405032937344863 0.0010612930687165336 0 0.0030368053107573912 0.0009402846937830384 0 0.0033176923126577774 0.00095805261894187544 0 0.0034320470792253309 0.0012034594496245765 0 0.0031810924770065267 0.001072089349729243 0 0.0031484668935118621 0.00068434222393626591 0 0.0057984525360785504 0.00064456570009495374 0 0.0034298277609062697 0.00043373731271651583 0 0.0035547546554311367 0.00080672884281991514 0 0.0036818436572637198 0.00056138816890023984 0 0.0031810924770065267 0.001072089349729243 0 0.0031491891451257293 0.0012649308631946193 0 0.003055962737314075 0.0011977004555679782 0 0.0034320470792253309 0.0012034594496245765 0 0.0031810924770065267 0.001072089349729243 0 0.0031491891451257293 0.0012649308631946193 0 0.0031810924770065267 0.001072089349729243 0 0.0030405032937344863 0.0010612930687165336 0 0.003055962737314075 0.0011977004555679782 0 0.007096623884630727 0.00057085158444843847 0 0.0070424232370656856 0.00043223447040659761 0 0.0072556653392058888 0.00038493238394754714 0 0.0070186772673113068 0.00028706592698971012 0 0.0070424232370656856 0.00043223447040659761 0 0.0072556653392058888 0.00038493238394754714 0 0.0070186772673113068 0.00028706592698971012 0 0.0070424232370656856 0.00043223447040659761 0 0.0068969783931181168 0.00047654732928347361 0 0.0050854899140251285 0.00066415076929383704 0 0.0065449353587865491 0.00048053889161225665 0 0.0075347731187966633 0.00049903839113806154 0 0.0074144805218349912 0.00019963257315069486 0 0.0072556653392058888 0.00038493238394754714 0 0.0057984525360785504 0.00064456570009495374 0 0.0050854899140251285 0.00066415076929383704 0 0.0074144805218349912 0.00019963257315069486 0 0.0070186772673113068 0.00028706592698971012 0 0.0072556653392058888 0.00038493238394754714 0 0.009572561335821201 0.00055268404536817548 0 0.0095816464702875651 0.00055462447247700639 0 0.0095395119276148188 0.00061409484876423113 0 0.0086573476305753499 0.00058197116067562149 0 0.0057984525360785504 0.00064456570009495374 0 0.0095816464702875651 0.00055462447247700639 0 0.0095599818747607122 0.00059672465672317972 0 0.0095395119276148188 0.00061409484876423113 0 0.009572561335821201 0.00055268404536817548 0 0.0095204610297963572 0.00058929576347322593 0 0.0095395119276148188 0.00061409484876423113 0 0.0095349609173518268 0.00055118152933383716 0 0.009572561335821201 0.00055268404536817548 0 0.0095204610297963572 0.00058929576347322593 0 0.0043465808959128865 0.00060800260537708783 0 0.004415208170466093 0.00071460310656311832 0 0.0038716729495554994 0.00077265180735792884 0 0.006493962597641346 0.00069248765782075532 0 0.0069178857342515792 0.00065504734427378252 0 0.0094793342489849913 0.00064103170623912775 0 0.0095204610297963572 0.00058929576347322593 0 0.0095395119276148188 0.00061409484876423113 0 0.0043465808959128865 0.00060800260537708783 0 0.0038998556791340557 0.00049561339703426332 0 0.0038716729495554994 0.00077265180735792884 0 0.0057984525360785504 0.00064456570009495374 0 0.0069178857342515792 0.00065504734427378252 0 0.0035547546554311367 0.00080672884281991514 0 0.0036818436572637198 0.00056138816890023984 0 0.0038716729495554994 0.00077265180735792884 0 0.0038998556791340557 0.00049561339703426332 0 0.0036818436572637198 0.00056138816890023984 0 0.0038716729495554994 0.00077265180735792884 0 0.0059362198471380172 -3.3697150661730903e-07 0 0.0058748366974754876 -0.00018858446378890249 0 0.0062583714048098085 -0.00017018429664601638 0 0.0059362198471380172 -3.3697150661730903e-07 0 0.0058748366974754876 -0.00018858446378890249 0 0.0054573935163737073 -0.00012992446446367212 0 0.0058748366974754876 -0.00018858446378890249 0 0.0062583714048098085 -0.00017018429664601638 0 0.0061178049136917014 -0.00024691360219891424 0 0.0062583714048098085 -0.00017018429664601638 0 0.0062895421853065873 -0.00020316691723239831 0 0.0061178049136917014 -0.00024691360219891424 0 0.0059362198471380172 -3.3697150661730903e-07 0 0.0062583714048098085 -0.00017018429664601638 0 0.0067396662935729507 -1.7008411352653428e-07 0 0.0075435140409596292 -5.1748480639917483e-07 0 0.0067396662935729507 -1.7008411352653428e-07 0 0.0069784654942959311 -7.3263568477286816e-05 0 0.0066799326943997516 -1.5717213140378054e-05 0 0.0069784654942959311 -7.3263568477286816e-05 0 0.006523166587730782 -0.00015900491377874985 0 0.0067396662935729507 -1.7008411352653428e-07 0 0.0069784654942959311 -7.3263568477286816e-05 0 0.006523166587730782 -0.00015900491377874985 0 0.0062583714048098085 -0.00017018429664601638 0 0.006523166587730782 -0.00015900491377874985 0 0.0062895421853065873 -0.00020316691723239831 0 0.0062583714048098085 -0.00017018429664601638 0 0.0067396662935729507 -1.7008411352653428e-07 0 0.006523166587730782 -0.00015900491377874985 0 0.006523166587730782 -0.00015900491377874985 0 0.0062064020905499449 -0.00023866728962731269 0 0.0062895421853065873 -0.00020316691723239831 0 0.006523166587730782 -0.00015900491377874985 0 0.0062128916410507627 -0.00018660764459096639 0 0.0062064020905499449 -0.00023866728962731269 0 0.0066799326943997516 -1.5717213140378054e-05 0 0.006523166587730782 -0.00015900491377874985 0 0.0063537348467577661 -7.323033712964251e-05 0 0.006523166587730782 -0.00015900491377874985 0 0.0063537348467577661 -7.323033712964251e-05 0 0.0062128916410507627 -0.00018660764459096639 0 0.0063537348467577661 -7.323033712964251e-05 0 0.0062128916410507627 -0.00018660764459096639 0 0.0061634912691795034 -0.0001158183783746797 0 0.0060853942538759698 0.00013366448159197059 0 0.0063537348467577661 -7.323033712964251e-05 0 0.0061634912691795034 -0.0001158183783746797 0 0.0062128916410507627 -0.00018660764459096639 0 0.0060852195035221504 -0.0002712536332831759 0 0.0062064020905499449 -0.00023866728962731269 0 0.0062128916410507627 -0.00018660764459096639 0 0.0060994458433657334 -0.00020507346106575012 0 0.0061634912691795034 -0.0001158183783746797 0 0.0062128916410507627 -0.00018660764459096639 0 0.0060852195035221504 -0.0002712536332831759 0 0.0060994458433657334 -0.00020507346106575012 0 0.0060852195035221504 -0.0002712536332831759 0 0.0062064020905499449 -0.00023866728962731269 0 0.0060435103112135855 -0.00029602633425171573 0 0.0060852195035221504 -0.0002712536332831759 0 0.0060435103112135855 -0.00029602633425171573 0 0.0060082564770236975 -0.00031498446070643381 0 0.0062064020905499449 -0.00023866728962731269 0 0.0061178049136917014 -0.00024691360219891424 0 0.0060435103112135855 -0.00029602633425171573 0 0.0062064020905499449 -0.00023866728962731269 0 0.0062895421853065873 -0.00020316691723239831 0 0.0061178049136917014 -0.00024691360219891424 0 0.0061178049136917014 -0.00024691360219891424 0 0.0059614468260716794 -0.00025193327691018811 0 0.0060435103112135855 -0.00029602633425171573 0 0.0058748366974754876 -0.00018858446378890249 0 0.0061178049136917014 -0.00024691360219891424 0 0.0059614468260716794 -0.00025193327691018811 0 0.0059957502520702859 -0.00032324043244880466 0 0.0060435103112135855 -0.00029602633425171573 0 0.0059681510700810275 -0.00028144094284778437 0 0.0059614468260716794 -0.00025193327691018811 0 0.0060435103112135855 -0.00029602633425171573 0 0.0059681510700810275 -0.00028144094284778437 0 0.0059957502520702859 -0.00032324043244880466 0 0.0059615171687528775 -0.0003237084588184629 0 0.0059681510700810275 -0.00028144094284778437 0 0.0059957502520702859 -0.00032324043244880466 0 0.0059651402773323123 -0.00035450415441684612 0 0.0059615171687528775 -0.0003237084588184629 0 0.0059957502520702859 -0.00032324043244880466 0 0.0060435103112135855 -0.00029602633425171573 0 0.0060082564770236975 -0.00031498446070643381 0 0.0058655438343476101 -0.00034932817526041625 0 0.0060647564701492686 -0.0003301509779457981 0 0.0059440862360887288 -0.00035025153502335688 0 0.0058888789410100183 -0.0004042886171829168 0 0.0059685987627722415 -0.00029936176562888727 0 0.0059440862360887288 -0.00035025153502335688 0 0.0060082564770236975 -0.00031498446070643381 0 0.0060030883280301909 -0.00029397641491473808 0 0.0059957502520702859 -0.00032324043244880466 0 0.0060082564770236975 -0.00031498446070643381 0 0.0059651402773323123 -0.00035450415441684612 0 0.0059440862360887288 -0.00035025153502335688 0 0.0060082564770236975 -0.00031498446070643381 0 0.0059651402773323123 -0.00035450415441684612 0 0.0059295909283944466 -0.00037668282260215429 0 0.0059651402773323123 -0.00035450415441684612 0 0.0059198144499856917 -0.00041117661518427561 0 0.0059651402773323123 -0.00035450415441684612 0 0.0059198144499856917 -0.00041117661518427561 0 0.0059615171687528775 -0.0003237084588184629 0 0.0059440862360887288 -0.00035025153502335688 0 0.0059295909283944466 -0.00037668282260215429 0 0.0059651402773323123 -0.00035450415441684612 0 0.0059295909283944466 -0.00037668282260215429 0 0.0059198144499856917 -0.00041117661518427561 0 0.0058888789410100183 -0.0004042886171829168 0 0.0059198144499856917 -0.00041117661518427561 0 0.0058888789410100183 -0.0004042886171829168 0 0.0058629660186965147 -0.00043731207741939016 0 0.0058888789410100183 -0.0004042886171829168 0 0.0058492817907168674 -0.00042079211182684484 0 0.0058586438041779805 -0.00035832439566668147 0 0.0058888789410100183 -0.0004042886171829168 0 0.0058343969725272032 -0.00045145249316867796 0 0.0058629660186965147 -0.00043731207741939016 0 0.0059440862360887288 -0.00035025153502335688 0 0.0059295909283944466 -0.00037668282260215429 0 0.0058888789410100183 -0.0004042886171829168 0 0.0058888789410100183 -0.0004042886171829168 0 0.0058492817907168674 -0.00042079211182684484 0 0.0058343969725272032 -0.00045145249316867796 0 0.0058888789410100183 -0.0004042886171829168 0 0.0058586438041779805 -0.00035832439566668147 0 0.0058777354480296327 -0.00027527535057842042 0 0.0058586438041779805 -0.00035832439566668147 0 0.0058699578364790001 -0.00024407207724462559 0 0.0058251019674427865 -0.00045965622690521865 0 0.0058699578364790001 -0.00024407207724462559 0 0.005842552085289129 -9.4953441776270673e-05 0 0.0055548969425390123 1.0554678065192369e-05 0 0.0058450064538420297 -0.00025276616964597649 0 0.005695296589448352 -0.00022728414971408712 0 0.0058492817907168674 -0.00042079211182684484 0 0.0058586438041779805 -0.00035832439566668147 0 0.0058251019674427865 -0.00045965622690521865 0 0.005842552085289129 -9.4953441776270673e-05 0 0.0057455793081781252 1.6819764547545481e-05 0 0.0055548969425390123 1.0554678065192369e-05 0 0.0058586438041779805 -0.00035832439566668147 0 0.0058777354480296327 -0.00027527535057842042 0 0.0058699578364790001 -0.00024407207724462559 0 0.0058888789410100183 -0.0004042886171829168 0 0.0058777354480296327 -0.00027527535057842042 0 0.0059002615322323298 -0.00022643920305971359 0 0.0059935697272493508 -0.00029588106597597166 0 0.0060647564701492686 -0.0003301509779457981 0 0.0058777354480296327 -0.00027527535057842042 0 0.0059015565219983366 -0.00026091768395346195 0 0.0058699578364790001 -0.00024407207724462559 0 0.0059015565219983366 -0.00026091768395346195 0 0.0058804198603168868 -0.00026909748425104008 0 0.0059623129483841117 -0.00028879648762551366 0 0.0058777354480296327 -0.00027527535057842042 0 0.0059015565219983366 -0.00026091768395346195 0 0.0058804198603168868 -0.00026909748425104008 0 0.0058888789410100183 -0.0004042886171829168 0 0.0059653899674190249 -0.0002563321520646893 0 0.0059685987627722415 -0.00029936176562888727 0 0.0059653899674190249 -0.0002563321520646893 0 0.0060285006218153952 -0.00024522708996434808 0 0.0059685987627722415 -0.00029936176562888727 0 0.0060285006218153952 -0.00024522708996434808 0 0.0059685987627722415 -0.00029936176562888727 0 0.0060030883280301909 -0.00029397641491473808 0 0.0059440862360887288 -0.00035025153502335688 0 0.0059685987627722415 -0.00029936176562888727 0 0.0060030883280301909 -0.00029397641491473808 0 0.0060852195035221504 -0.0002712536332831759 0 0.0060082564770236975 -0.00031498446070643381 0 0.0060030883280301909 -0.00029397641491473808 0 0.0060852195035221504 -0.0002712536332831759 0 0.0060285006218153952 -0.00024522708996434808 0 0.0060030883280301909 -0.00029397641491473808 0 0.0060852195035221504 -0.0002712536332831759 0 0.0060285006218153952 -0.00024522708996434808 0 0.0060994458433657334 -0.00020507346106575012 0 0.0060285006218153952 -0.00024522708996434808 0 0.0060994458433657334 -0.00020507346106575012 0 0.0060267177439223291 -0.00013276372201336716 0 0.0059653899674190249 -0.0002563321520646893 0 0.0060285006218153952 -0.00024522708996434808 0 0.0060267177439223291 -0.00013276372201336716 0 0.0060994458433657334 -0.00020507346106575012 0 0.0061634912691795034 -0.0001158183783746797 0 0.0060267177439223291 -0.00013276372201336716 0 0.006293319058700066 -8.1083272520060334e-05 0 0.0062283582674158107 -0.00029694776279128591 0 0.0060853942538759698 0.00013366448159197059 0 0.0061634912691795034 -0.0001158183783746797 0 0.0060267177439223291 -0.00013276372201336716 0 0.0063651470692821684 -0.00034044807626430117 0 0.0064189317676913906 -0.00043825628980080243 0 0.0063398373537361021 -0.00042791460213029207 0 0.0060647564701492686 -0.0003301509779457981 0 0.0062283582674158107 -0.00029694776279128591 0 0.0063888611679577918 -0.00054091492870289744 0 0.0064189317676913906 -0.00043825628980080243 0 0.0063398373537361021 -0.00042791460213029207 0 0.0058804198603168868 -0.00026909748425104008 0 0.0060347081170319403 -0.00034208026873867934 0 0.0059623129483841117 -0.00028879648762551366 0 0.0060647564701492686 -0.0003301509779457981 0 0.0062021150602585267 -0.00039122699579764567 0 0.0060347081170319403 -0.00034208026873867934 0 0.0059623129483841117 -0.00028879648762551366 0 0.0060393522365589083 -0.00030040588543194609 0 0.0059623129483841117 -0.00028879648762551366 0 0.0060393522365589083 -0.00030040588543194609 0 0.0059619904052764924 -0.00025709544516197899 0 0.0060347081170319403 -0.00034208026873867934 0 0.0061407335781107448 -0.00032820270837656827 0 0.0060997118561495678 -0.0003302224767141712 0 0.0060347081170319403 -0.00034208026873867934 0 0.0060393522365589083 -0.00030040588543194609 0 0.0060997118561495678 -0.0003302224767141712 0 0.0061300003691237412 -0.00033131372248931427 0 0.0061273880942506222 -0.00031332159528970423 0 0.0060997118561495678 -0.0003302224767141712 0 0.0062663377436863897 -0.00011004002887836473 0 0.0063606677414532109 0.00013267900465603201 0 0.0061300003691237412 -0.00033131372248931427 0 0.0061407335781107448 -0.00032820270837656827 0 0.0060997118561495678 -0.0003302224767141712 0 0.0061273880942506222 -0.00031332159528970423 0 0.0060393522365589083 -0.00030040588543194609 0 0.0060632731049470199 -0.00023781691104170135 0 0.0061273880942506222 -0.00031332159528970423 0 0.0060393522365589083 -0.00030040588543194609 0 0.0060997118561495678 -0.0003302224767141712 0 0.0061806223169142303 -0.00018518438684450128 0 0.0060632731049470199 -0.00023781691104170135 0 0.0060804659086393046 -0.00015475071176113584 0 0.0060632731049470199 -0.00023781691104170135 0 0.0059777567204917477 -0.00015415829041750225 0 0.0060804659086393046 -0.00015475071176113584 0 0.0060393522365589083 -0.00030040588543194609 0 0.0060632731049470199 -0.00023781691104170135 0 0.0059619904052764924 -0.00025709544516197899 0 0.0059015565219983366 -0.00026091768395346195 0 0.0059623129483841117 -0.00028879648762551366 0 0.0059619904052764924 -0.00025709544516197899 0 0.0059619904052764924 -0.00025709544516197899 0 0.0058699578364790001 -0.00024407207724462559 0 0.0059777567204917477 -0.00015415829041750225 0 0.0059015565219983366 -0.00026091768395346195 0 0.0059619904052764924 -0.00025709544516197899 0 0.0058699578364790001 -0.00024407207724462559 0 0.0060632731049470199 -0.00023781691104170135 0 0.0059619904052764924 -0.00025709544516197899 0 0.0059777567204917477 -0.00015415829041750225 0 0.0058699578364790001 -0.00024407207724462559 0 0.0059777567204917477 -0.00015415829041750225 0 0.005842552085289129 -9.4953441776270673e-05 0 0.005842552085289129 -9.4953441776270673e-05 0 0.0059157715996756028 4.2370898917955226e-07 0 0.0057455793081781252 1.6819764547545481e-05 0 0.0059777567204917477 -0.00015415829041750225 0 0.005842552085289129 -9.4953441776270673e-05 0 0.0059157715996756028 4.2370898917955226e-07 0 0.0059777567204917477 -0.00015415829041750225 0 0.0060961622785626187 -3.3052364215830531e-05 0 0.0059157715996756028 4.2370898917955226e-07 0 0.0059777567204917477 -0.00015415829041750225 0 0.0060804659086393046 -0.00015475071176113584 0 0.0060961622785626187 -3.3052364215830531e-05 0 0.0059630851841218063 0.00014916540576220697 0 0.0059552170172117655 6.8193739935555348e-05 0 0.0059344498069248755 0.00012289756756115707 0 0.0060322029368005351 -2.0526824681517553e-05 0 0.0059414065366695627 0.0001244568869771134 0 0.0060961622785626187 -3.3052364215830531e-05 0 0.0059157715996756028 4.2370898917955226e-07 0 0.0059344498069248755 0.00012289756756115707 0 0.0059157715996756028 4.2370898917955226e-07 0 0.0056679799688956417 0.00012823594545969595 0 0.0057455793081781252 1.6819764547545481e-05 0 0.0059157715996756028 4.2370898917955226e-07 0 0.005890912287618939 0.00011341092663650333 0 0.0058205519299281069 0.00013803332416427498 0 0.0060467675964349325 8.7825243549749961e-06 0 0.0052938944721409508 0.0001663980626103437 0 0.0059157715996756028 4.2370898917955226e-07 0 0.005890912287618939 0.00011341092663650333 0 0.0059344498069248755 0.00012289756756115707 0 0.005890912287618939 0.00011341092663650333 0 0.0058853676496671828 0.00016338492013432247 0 0.0058205519299281069 0.00013803332416427498 0 0.0059057303627153487 0.00017249099403590177 0 0.0059344498069248755 0.00012289756756115707 0 0.0058853676496671828 0.00016338492013432247 0 0.005890912287618939 0.00011341092663650333 0 0.0059344498069248755 0.00012289756756115707 0 0.0058853676496671828 0.00016338492013432247 0 0.0059630851841218063 0.00014916540576220697 0 0.0059057303627153487 0.00017249099403590177 0 0.0058799340340194364 0.00022038181952078456 0 0.0059630851841218063 0.00014916540576220697 0 0.0059057303627153487 0.00017249099403590177 0 0.0059344498069248755 0.00012289756756115707 0 0.0059057303627153487 0.00017249099403590177 0 0.0058799340340194364 0.00022038181952078456 0 0.0058964713539028058 0.00016748150105305008 0 0.0059057303627153487 0.00017249099403590177 0 0.0058964713539028058 0.00016748150105305008 0 0.0058853676496671828 0.00016338492013432247 0 0.0057964370988303317 0.00012910696967837319 0 0.0058799340340194364 0.00022038181952078456 0 0.0058964713539028058 0.00016748150105305008 0 0.0058964713539028058 0.00016748150105305008 0 0.0058881809348019084 6.4180144900796777e-05 0 0.005891684663252043 0.00015558394529914136 0 0.0057964370988303317 0.00012910696967837319 0 0.0058964713539028058 0.00016748150105305008 0 0.0058881809348019084 6.4180144900796777e-05 0 0.0030593742937002192 0.00040939522335158235 0 0.0014530025693458811 0.00048836709067676197 0 0.0014430315308872927 0.00048007902280631571 0 0.0013967923996279555 0.00046114548659964284 0 0.0013658134526130837 0.00044868150740324635 0 0.0030593742937002192 0.00040939522335158235 0 0.0037775882743413228 0.0003922498411970879 0 0.0037775882743413228 0.0003922498411970879 0 0.0029594528142326297 0.0004863681244738603 0 0.005891684663252043 0.00015558394529914136 0 0.0058853676496671828 0.00016338492013432247 0 0.005849471024209834 0.00017298281987521269 0 0.0058964713539028058 0.00016748150105305008 0 0.005891684663252043 0.00015558394529914136 0 0.0058853676496671828 0.00016338492013432247 0 0.0058853676496671828 0.00016338492013432247 0 0.005849471024209834 0.00017298281987521269 0 0.0058205519299281069 0.00013803332416427498 0 0.0029594528142326297 0.0004863681244738603 0 0.0052938944721409508 0.0001663980626103437 0 0.0040462269164947351 0.00051328240982746905 0 0.0038664708791991825 0.00042458648437991852 0 0.0040273643947704744 0.0002450121838531969 0 0.0029594528142326297 0.0004863681244738603 0 0.0036445399361369471 0.00063264274769955786 0 0.0012860134653788062 0.0006313344592918398 0 0.0013819311066758718 0.00053916831353995531 0 0.0013331774060166028 0.00046480335111949873 0 0.0013967923996279555 0.00046114548659964284 0 0.001415921764199799 0.00050617894700037724 0 0.0013658134526130837 0.00044868150740324635 0 0.0029594528142326297 0.0004863681244738603 0 0.0010842000696709697 0.00038783444542772377 0 0.0012860134653788062 0.0006313344592918398 0 0.0013331774060166028 0.00046480335111949873 0 0.0012312935048999012 0.00036087127772275194 0 0.001415921764199799 0.00050617894700037724 0 0.0013658134526130837 0.00044868150740324635 0 0.0013519418720446977 0.00041165209453387794 0 0.0012860134653788062 0.0006313344592918398 0 0.0013819311066758718 0.00053916831353995531 0 0.0014381598737065421 0.00059582621849334867 0 0.0014562829398746652 0.00051207799607991755 0 0.0015319697057424519 0.0005685764441078835 0 0.001510437456714149 0.00048277355304611572 0 0.0014562829398746652 0.00051207799607991755 0 0.0013819311066758718 0.00053916831353995531 0 0.0014381598737065421 0.00059582621849334867 0 0.0013819311066758718 0.00053916831353995531 0 0.0014027917753605685 0.00046287981821526748 0 0.0013331774060166028 0.00046480335111949873 0 0.0014562829398746652 0.00051207799607991755 0 0.0013819311066758718 0.00053916831353995531 0 0.0014027917753605685 0.00046287981821526748 0 0.0014562829398746652 0.00051207799607991755 0 0.0014381598737065421 0.00059582621849334867 0 0.0015319697057424519 0.0005685764441078835 0 0.0014381598737065421 0.00059582621849334867 0 0.0014356198159264884 0.00069683522954381845 0 0.0015319697057424519 0.0005685764441078835 0 0.0036445399361369471 0.00063264274769955786 0 0.0032656533578363182 0.00081211685269253354 0 0.0051737951199036965 0.0006281657589569166 0 0.0052045601260050766 0.00039278315948639979 0 0.0050453920348142653 0.00077779423294402383 0 0.0012860134653788062 0.0006313344592918398 0 0.0014381598737065421 0.00059582621849334867 0 0.0014356198159264884 0.00069683522954381845 0 0.0053057787637857462 0.00069340106007355904 0 0.0050453920348142653 0.00077779423294402383 0 0.0050077322544572565 0.0010185255666945118 0 0.0036445399361369471 0.00063264274769955786 0 0.0052938944721409508 0.0001663980626103437 0 0.0053172541341504247 0.00069543116180095202 0 0.0051737951199036965 0.0006281657589569166 0 0.0053583381189742877 0.00047730015389138846 0 0.0053057787637857462 0.00069340106007355904 0 0.0051737951199036965 0.0006281657589569166 0 0.0050453920348142653 0.00077779423294402383 0 0.0036445399361369471 0.00063264274769955786 0 0.0047968715318395813 0.00093353064523886181 0 0.0051737951199036965 0.0006281657589569166 0 0.0052045601260050766 0.00039278315948639979 0 0.0053583381189742877 0.00047730015389138846 0 0.0052045601260050766 0.00039278315948639979 0 0.0054707373081352038 0.00030804943707130197 0 0.0055548969425390123 1.0554678065192369e-05 0 0.0056177474415990275 -0.00054483802740865137 0 0.0056514311735108543 -0.00056261301681286339 0 0.0057060844484570312 -0.0005287176193434738 0 0.0053172541341504247 0.00069543116180095202 0 0.0053583381189742877 0.00047730015389138846 0 0.0056098314329067608 0.00037624327576227305 0 0.0052045601260050766 0.00039278315948639979 0 0.0054707373081352038 0.00030804943707130197 0 0.0053583381189742877 0.00047730015389138846 0 0.0054707373081352038 0.00030804943707130197 0 0.0053583381189742877 0.00047730015389138846 0 0.0056098314329067608 0.00037624327576227305 0 0.0054707373081352038 0.00030804943707130197 0 0.0056033219725138538 0.0003129018764017966 0 0.0056679799688956417 0.00012823594545969595 0 0.0054707373081352038 0.00030804943707130197 0 0.0056098314329067608 0.00037624327576227305 0 0.0056033219725138538 0.0003129018764017966 0 0.0052938944721409508 0.0001663980626103437 0 0.0053281216130456298 0.00022599388915735843 0 0.0059157715996756028 4.2370898917955226e-07 0 0.0056090141844057752 0.0003641992509185315 0 0.0056033219725138538 0.0003129018764017966 0 0.0054707373081352038 0.00030804943707130197 0 0.0056679799688956417 0.00012823594545969595 0 0.0055548969425390123 1.0554678065192369e-05 0 0.0059157715996756028 4.2370898917955226e-07 0 0.0056033219725138538 0.0003129018764017966 0 0.0056679799688956417 0.00012823594545969595 0 0.0056679799688956417 0.00012823594545969595 0 0.0057455793081781252 1.6819764547545481e-05 0 0.0055548969425390123 1.0554678065192369e-05 0 0.0058492817907168674 -0.00042079211182684484 0 0.0058251019674427865 -0.00045965622690521865 0 0.0058343969725272032 -0.00045145249316867796 0 0.0056177474415990275 -0.00054483802740865137 0 0.0058251019674427865 -0.00045965622690521865 0 0.005770451243715646 -0.00049415290805097586 0 0.0053960881915247599 -7.1012035447436778e-05 0 0.005695296589448352 -0.00022728414971408712 0 0.0056177474415990275 -0.00054483802740865137 0 0.005770451243715646 -0.00049415290805097586 0 0.0057060844484570312 -0.0005287176193434738 0 0.0059198144499856917 -0.00041117661518427561 0 0.0058108113850606942 -0.00047537099658370773 0 0.0056514311735108543 -0.00056261301681286339 0 0.0058251019674427865 -0.00045965622690521865 0 0.005770451243715646 -0.00049415290805097586 0 0.0058343969725272032 -0.00045145249316867796 0 0.005770451243715646 -0.00049415290805097586 0 0.0058343969725272032 -0.00045145249316867796 0 0.0058108113850606942 -0.00047537099658370773 0 0.0058343969725272032 -0.00045145249316867796 0 0.0058629660186965147 -0.00043731207741939016 0 0.0058108113850606942 -0.00047537099658370773 0 0.0059198144499856917 -0.00041117661518427561 0 0.0058629660186965147 -0.00043731207741939016 0 0.0058108113850606942 -0.00047537099658370773 0 0.005770451243715646 -0.00049415290805097586 0 0.0058108113850606942 -0.00047537099658370773 0 0.0057060844484570312 -0.0005287176193434738 0 0.0058108113850606942 -0.00047537099658370773 0 0.0056514311735108543 -0.00056261301681286339 0 0.0057060844484570312 -0.0005287176193434738 0 0.0059198144499856917 -0.00041117661518427561 0 0.0059592211052128859 -0.00015763913505054104 0 0.0059615171687528775 -0.0003237084588184629 0 0.0058662811123735654 -0.00039669511776174797 0 0.0056744233080511805 -0.00039416958292812476 0 0.0059198144499856917 -0.00041117661518427561 0 0.0056514311735108543 -0.00056261301681286339 0 0.0054425394686439792 -0.00066280034985491637 0 0.0059592211052128859 -0.00015763913505054104 0 0.0059615171687528775 -0.0003237084588184629 0 0.0059681510700810275 -0.00028144094284778437 0 0.0058748366974754876 -0.00018858446378890249 0 0.0059614468260716794 -0.00025193327691018811 0 0.0057573846021168147 -0.00017920097970708154 0 0.0059614468260716794 -0.00025193327691018811 0 0.0059681510700810275 -0.00028144094284778437 0 0.0057573846021168147 -0.00017920097970708154 0 0.0059592211052128859 -0.00015763913505054104 0 0.0059681510700810275 -0.00028144094284778437 0 0.0057573846021168147 -0.00017920097970708154 0 0.0059592211052128859 -0.00015763913505054104 0 0.0057573846021168147 -0.00017920097970708154 0 0.0055036241542082099 4.6667084831683574e-05 0 0.0056744233080511805 -0.00039416958292812476 0 0.005168634059805749 -0.00026954520154543691 0 0.0054425394686439792 -0.00066280034985491637 0 0.0052941105039241735 -0.00051490058926413607 0 0.0048526037697696157 -0.00058395319650480604 0 0.0056177474415990275 -0.00054483802740865137 0 0.0054425394686439792 -0.00066280034985491637 0 0.0052941105039241735 -0.00051490058926413607 0 0.0056177474415990275 -0.00054483802740865137 0 0.0056514311735108543 -0.00056261301681286339 0 0.0054425394686439792 -0.00066280034985491637 0 0.0052941105039241735 -0.00051490058926413607 0 0.0052177234196267219 -0.00029140055217474233 0 0.0049888530044583518 -0.00038805223294717284 0 0.0056177474415990275 -0.00054483802740865137 0 0.0052941105039241735 -0.00051490058926413607 0 0.0052177234196267219 -0.00029140055217474233 0 0.0052045601260050766 0.00039278315948639979 0 0.0050453920348142653 0.00077779423294402383 0 0.0048110708787174345 0.00088848886762238008 0 0.0053960881915247599 -7.1012035447436778e-05 0 0.0051337246586388267 0.00029743817690305158 0 0.0050453920348142653 0.00077779423294402383 0 0.0050077322544572565 0.0010185255666945118 0 0.0048110708787174345 0.00088848886762238008 0 0.0050077322544572565 0.0010185255666945118 0 0.0048110708787174345 0.00088848886762238008 0 0.0047323004973550504 0.0011782447656354519 0 0.0015319697057424519 0.0005685764441078835 0 0.0015576716654043729 0.00050659592021775441 0 0.0016304950995726368 0.00046146648489103206 0 0.0032656533578363182 0.00081211685269253354 0 0.0026451570359998853 0.0006433340061188684 0 0.0050077322544572565 0.0010185255666945118 0 0.0047323004973550504 0.0011782447656354519 0 0.0046883743523099255 0.0013662487439294957 0 0.0015319697057424519 0.0005685764441078835 0 0.0015576716654043729 0.00050659592021775441 0 0.001510437456714149 0.00048277355304611572 0 0.0052177234196267219 -0.00029140055217474233 0 0.0048664984490687652 -0.00016654286087193642 0 0.0047543222373460899 0.00019433905970163326 0 0.0051337246586388267 0.00029743817690305158 0 0.0037604100256351598 0.00061454295631549363 0 0.0048110708787174345 0.00088848886762238008 0 0.0047323004973550504 0.0011782447656354519 0 0.0044190370007086916 0.0014394199820976666 0 0.0046787136804343436 -4.5710259174999429e-05 0 0.0048664984490687652 -0.00016654286087193642 0 0.0047543222373460899 0.00019433905970163326 0 0.0046787136804343436 -4.5710259174999429e-05 0 0.0048664984490687652 -0.00016654286087193642 0 0.0047001501092107101 -0.00025670289923765676 0 0.0052177234196267219 -0.00029140055217474233 0 0.0048664984490687652 -0.00016654286087193642 0 0.0049888530044583518 -0.00038805223294717284 0 0.0048664984490687652 -0.00016654286087193642 0 0.0047001501092107101 -0.00025670289923765676 0 0.0049888530044583518 -0.00038805223294717284 0 0.0047001501092107101 -0.00025670289923765676 0 0.0048526037697696157 -0.00058395319650480604 0 0.0049888530044583518 -0.00038805223294717284 0 0.0052941105039241735 -0.00051490058926413607 0 0.0048526037697696157 -0.00058395319650480604 0 0.0049888530044583518 -0.00038805223294717284 0 0.0055036241542082099 4.6667084831683574e-05 0 0.0050066198277881804 -8.4460919633337057e-06 0 0.0047171047835517649 0.00017768451663128593 0 0.0047001501092107101 -0.00025670289923765676 0 0.0048526037697696157 -0.00058395319650480604 0 0.0041813703847081102 -0.00031578373745247136 0 0.005168634059805749 -0.00026954520154543691 0 0.0044554571813920658 -0.00010720355554102686 0 0.0047001501092107101 -0.00025670289923765676 0 0.0041813703847081102 -0.00031578373745247136 0 0.004394913797693566 -3.0890412284822138e-05 0 0.0046787136804343436 -4.5710259174999429e-05 0 0.0047001501092107101 -0.00025670289923765676 0 0.004394913797693566 -3.0890412284822138e-05 0 0.0047171047835517649 0.00017768451663128593 0 0.0043291422297569984 2.2855013961559825e-08 0 0.0035260749384866761 6.0534891588286004e-07 0 0.0044554571813920658 -0.00010720355554102686 0 0.0035255739909912493 -1.9874412976727405e-08 0 0.0050066198277881804 -8.4460919633337057e-06 0 0.0047171047835517649 0.00017768451663128593 0 0.0043291422297569984 2.2855013961559825e-08 0 0.0050066198277881804 -8.4460919633337057e-06 0 0.0043291422297569984 2.2855013961559825e-08 0 0.0051327398567253052 -2.0555956695127209e-07 0 0.0050066198277881804 -8.4460919633337057e-06 0 0.0051327398567253052 -2.0555956695127209e-07 0 0.0054573935163737073 -0.00012992446446367212 0 0.0057573846021168147 -0.00017920097970708154 0 0.0055036241542082099 4.6667084831683574e-05 0 0.0054573935163737073 -0.00012992446446367212 0 0.0055036241542082099 4.6667084831683574e-05 0 0.0050066198277881804 -8.4460919633337057e-06 0 0.0054573935163737073 -0.00012992446446367212 0 0.0058748366974754876 -0.00018858446378890249 0 0.0057573846021168147 -0.00017920097970708154 0 0.0054573935163737073 -0.00012992446446367212 0 0.0059362198471380172 -3.3697150661730903e-07 0 0.0051327398567253052 -2.0555956695127209e-07 0 0.0054573935163737073 -0.00012992446446367212 0 0.0019649808086830219 -6.4985418606959116e-05 0 0.0024382324787080123 -4.5206568248338286e-07 0 0.0016787820705996977 -1.3382155336689567e-07 0 0.0019649808086830219 -6.4985418606959116e-05 0 0.0016946924374744089 -9.2917595159073058e-05 0 0.001515759397953335 -0.00010624746210345896 0 0.0019649808086830219 -6.4985418606959116e-05 0 0.0016946924374744089 -9.2917595159073058e-05 0 0.0019785189634040608 -1.5601432995891199e-05 0 0.0019649808086830219 -6.4985418606959116e-05 0 0.0019785189634040608 -1.5601432995891199e-05 0 0.0023715115880417761 3.150427879333016e-05 0 0.0016946924374744089 -9.2917595159073058e-05 0 0.0019785189634040608 -1.5601432995891199e-05 0 0.0017485987135609322 -1.7718044486735658e-05 0 0.0019785189634040608 -1.5601432995891199e-05 0 0.0019095836209247201 9.6920000348262381e-05 0 0.0017485987135609322 -1.7718044486735658e-05 0 0.0019785189634040608 -1.5601432995891199e-05 0 0.0023715115880417761 3.150427879333016e-05 0 0.0019095836209247201 9.6920000348262381e-05 0 0.0019649808086830219 -6.4985418606959116e-05 0 0.0024382324787080123 -4.5206568248338286e-07 0 0.0023715115880417761 3.150427879333016e-05 0 0.0031961667834990693 1.2117716128709893e-06 0 0.0023715115880417761 3.150427879333016e-05 0 0.0022442244681710076 0.00048505897604456181 0 0.0024382324787080123 -4.5206568248338286e-07 0 0.0031961667834990693 1.2117716128709893e-06 0 0.0023715115880417761 3.150427879333016e-05 0 0.0041813703847081102 -0.00031578373745247136 0 0.0035238751809329632 -6.9530743849814052e-07 0 0.0040876926541058489 0.00023833198854263798 0 0.0031992438793731291 9.884377856269904e-07 0 0.0035238751809329632 -6.9530743849814052e-07 0 0.0040876926541058489 0.00023833198854263798 0 0.0031977281740366535 1.5144525691600273e-07 0 0.0031118278907131874 0.0003162420202400206 0 0.0041813703847081102 -0.00031578373745247136 0 0.004394913797693566 -3.0890412284822138e-05 0 0.0040876926541058489 0.00023833198854263798 0 0.0044803355091137895 8.7954588267434052e-05 0 0.0040876926541058489 0.00023833198854263798 0 0.0047543222373460899 0.00019433905970163326 0 0.0031118278907131874 0.0003162420202400206 0 0.0037604100256351598 0.00061454295631549363 0 0.0022442244681710076 0.00048505897604456181 0 0.0019472468337093736 0.00034621761933297624 0 0.001774652821564023 0.00051660667745475925 0 0.0046787136804343436 -4.5710259174999429e-05 0 0.0044803355091137895 8.7954588267434052e-05 0 0.004394913797693566 -3.0890412284822138e-05 0 0.0044803355091137895 8.7954588267434052e-05 0 0.004394913797693566 -3.0890412284822138e-05 0 0.0040876926541058489 0.00023833198854263798 0 0.0023715115880417761 3.150427879333016e-05 0 0.0022442244681710076 0.00048505897604456181 0 0.0019472468337093736 0.00034621761933297624 0 0.0023715115880417761 3.150427879333016e-05 0 0.0019472468337093736 0.00034621761933297624 0 0.0019095836209247201 9.6920000348262381e-05 0 0.0019095836209247201 9.6920000348262381e-05 0 0.001793420786053334 0.00026998982159761513 0 0.0017383225867105426 0.00010582839783263227 0 0.0016797529340930224 0.00019511840410435996 0 0.001793420786053334 0.00026998982159761513 0 0.0017383225867105426 0.00010582839783263227 0 0.0016797529340930224 0.00019511840410435996 0 0.0016680748895131429 0.00028454240206415989 0 0.0015735240558658898 0.00018685658269394545 0 0.0016797529340930224 0.00019511840410435996 0 0.0015735240558658898 0.00018685658269394545 0 0.0016281482495525891 0.0001126574834526053 0 0.0016797529340930224 0.00019511840410435996 0 0.0016281482495525891 0.0001126574834526053 0 0.0017383225867105426 0.00010582839783263227 0 0.0016680748895131429 0.00028454240206415989 0 0.0017213433978304829 0.00035222782680851601 0 0.001793420786053334 0.00026998982159761513 0 0.0016797529340930224 0.00019511840410435996 0 0.0016680748895131429 0.00028454240206415989 0 0.001793420786053334 0.00026998982159761513 0 0.0016680748895131429 0.00028454240206415989 0 0.0016573058975552352 0.0003864437012673313 0 0.0015980467818054766 0.00032074152304824272 0 0.0016680748895131429 0.00028454240206415989 0 0.0017213433978304829 0.00035222782680851601 0 0.0016573058975552352 0.0003864437012673313 0 0.0019472468337093736 0.00034621761933297624 0 0.001793420786053334 0.00026998982159761513 0 0.0017898523966824044 0.00040638787171981257 0 0.0017213433978304829 0.00035222782680851601 0 0.001793420786053334 0.00026998982159761513 0 0.0017898523966824044 0.00040638787171981257 0 0.0019472468337093736 0.00034621761933297624 0 0.0019095836209247201 9.6920000348262381e-05 0 0.001793420786053334 0.00026998982159761513 0 0.0019472468337093736 0.00034621761933297624 0 0.0017898523966824044 0.00040638787171981257 0 0.001774652821564023 0.00051660667745475925 0 0.0017661225183299243 0.00045393579923239092 0 0.0017898523966824044 0.00040638787171981257 0 0.001774652821564023 0.00051660667745475925 0 0.0017564459956546411 0.00047906033551560858 0 0.0017661225183299243 0.00045393579923239092 0 0.001774652821564023 0.00051660667745475925 0 0.0017564459956546411 0.00047906033551560858 0 0.0017661225183299243 0.00045393579923239092 0 0.0017275234995522619 0.00043550966184267034 0 0.0017661225183299243 0.00045393579923239092 0 0.0017898523966824044 0.00040638787171981257 0 0.0017275234995522619 0.00043550966184267034 0 0.0017213433978304829 0.00035222782680851601 0 0.0017898523966824044 0.00040638787171981257 0 0.0017275234995522619 0.00043550966184267034 0 0.0017213433978304829 0.00035222782680851601 0 0.0016573058975552352 0.0003864437012673313 0 0.0017275234995522619 0.00043550966184267034 0 0.0016573058975552352 0.0003864437012673313 0 0.0016728653823321999 0.00046294253312285141 0 0.0017275234995522619 0.00043550966184267034 0 0.0016573058975552352 0.0003864437012673313 0 0.0016728653823321999 0.00046294253312285141 0 0.0016349624833348455 0.00043856655619896426 0 0.0017564459956546411 0.00047906033551560858 0 0.0017109688861306372 0.00048049097648405738 0 0.001774652821564023 0.00051660667745475925 0 0.0016728653823321999 0.00046294253312285141 0 0.0017275234995522619 0.00043550966184267034 0 0.0017109688861306372 0.00048049097648405738 0 0.0017564459956546411 0.00047906033551560858 0 0.0017275234995522619 0.00043550966184267034 0 0.0017109688861306372 0.00048049097648405738 0 0.0047323004973550504 0.0011782447656354519 0 0.0044190370007086916 0.0014394199820976666 0 0.0046883743523099255 0.0013662487439294957 0 0.0037604100256351598 0.00061454295631549363 0 0.0026451570359998853 0.0006433340061188684 0 0.0017109688861306372 0.00048049097648405738 0 0.001774652821564023 0.00051660667745475925 0 0.0016254059053033255 0.00050610828506931561 0 0.0016728653823321999 0.00046294253312285141 0 0.0016306109621343141 0.00046885477707713229 0 0.0016349624833348455 0.00043856655619896426 0 0.0022797452732455834 0.00075796514677875862 0 0.0026451570359998853 0.0006433340061188684 0 0.0016728653823321999 0.00046294253312285141 0 0.0017109688861306372 0.00048049097648405738 0 0.0016254059053033255 0.00050610828506931561 0 0.0046787136804343436 -4.5710259174999429e-05 0 0.0044803355091137895 8.7954588267434052e-05 0 0.0047543222373460899 0.00019433905970163326 0 0.0015634808311854403 0.00043342413243441317 0 0.0015170320618486347 0.0004358451282740424 0 0.0015449984400849051 0.00046455801518123133 0 0.0015634808311854403 0.00043342413243441317 0 0.0015170320618486347 0.0004358451282740424 0 0.0015301832232265662 0.00038460122635896145 0 0.0015634808311854403 0.00043342413243441317 0 0.0015449984400849051 0.00046455801518123133 0 0.0015752156353305887 0.00046293964000168028 0 0.0015170320618486347 0.0004358451282740424 0 0.001510437456714149 0.00048277355304611572 0 0.0014639705631073171 0.00044981662852426423 0 0.0015170320618486347 0.0004358451282740424 0 0.001510437456714149 0.00048277355304611572 0 0.0015449984400849051 0.00046455801518123133 0 0.0015576716654043729 0.00050659592021775441 0 0.001510437456714149 0.00048277355304611572 0 0.0015449984400849051 0.00046455801518123133 0 0.0015576716654043729 0.00050659592021775441 0 0.0015449984400849051 0.00046455801518123133 0 0.0015752156353305887 0.00046293964000168028 0 0.0015576716654043729 0.00050659592021775441 0 0.0015752156353305887 0.00046293964000168028 0 0.0016122891457620778 0.00046646272830715358 0 0.0015576716654043729 0.00050659592021775441 0 0.0016122891457620778 0.00046646272830715358 0 0.0016304950995726368 0.00046146648489103206 0 0.0024789559890800801 0.00066942254050117813 0 0.0026451570359998853 0.0006433340061188684 0 0.0016306109621343141 0.00046885477707713229 0 0.0016152836857778448 0.00044822028465400413 0 0.0016349624833348455 0.00043856655619896426 0 0.0016152836857778448 0.00044822028465400413 0 0.0015939743586638599 0.00044547691118128232 0 0.0016008533699386899 0.00040920910746106674 0 0.0016122891457620778 0.00046646272830715358 0 0.0016152836857778448 0.00044822028465400413 0 0.0015939743586638599 0.00044547691118128232 0 0.0016122891457620778 0.00046646272830715358 0 0.0016306109621343141 0.00046885477707713229 0 0.0016152836857778448 0.00044822028465400413 0 0.0015634808311854403 0.00043342413243441317 0 0.0015939743586638599 0.00044547691118128232 0 0.0016008533699386899 0.00040920910746106674 0 0.0015752156353305887 0.00046293964000168028 0 0.0016122891457620778 0.00046646272830715358 0 0.0015939743586638599 0.00044547691118128232 0 0.0015634808311854403 0.00043342413243441317 0 0.0015752156353305887 0.00046293964000168028 0 0.0015939743586638599 0.00044547691118128232 0 0.0015634808311854403 0.00043342413243441317 0 0.0015646579084632056 0.00039700259631476702 0 0.0016008533699386899 0.00040920910746106674 0 0.0015646579084632056 0.00039700259631476702 0 0.0016008533699386899 0.00040920910746106674 0 0.0015650471450171907 0.00035741119578765743 0 0.0016573058975552352 0.0003864437012673313 0 0.0016349624833348455 0.00043856655619896426 0 0.0016008533699386899 0.00040920910746106674 0 0.0016152836857778448 0.00044822028465400413 0 0.0016349624833348455 0.00043856655619896426 0 0.0016008533699386899 0.00040920910746106674 0 0.0016573058975552352 0.0003864437012673313 0 0.0016008533699386899 0.00040920910746106674 0 0.0015980467818054766 0.00032074152304824272 0 0.0016008533699386899 0.00040920910746106674 0 0.0015650471450171907 0.00035741119578765743 0 0.0015980467818054766 0.00032074152304824272 0 0.0015650471450171907 0.00035741119578765743 0 0.0015301832232265662 0.00038460122635896145 0 0.0015239709654315601 0.00029947955706715657 0 0.0015646579084632056 0.00039700259631476702 0 0.0015650471450171907 0.00035741119578765743 0 0.0015301832232265662 0.00038460122635896145 0 0.0015634808311854403 0.00043342413243441317 0 0.0015646579084632056 0.00039700259631476702 0 0.0015301832232265662 0.00038460122635896145 0 0.0015170320618486347 0.0004358451282740424 0 0.0015301832232265662 0.00038460122635896145 0 0.0014774542197843719 0.00040592148586905599 0 0.0015301832232265662 0.00038460122635896145 0 0.0014715378258145727 0.00035066350322295671 0 0.0014774542197843719 0.00040592148586905599 0 0.0015301832232265662 0.00038460122635896145 0 0.0015239709654315601 0.00029947955706715657 0 0.0014715378258145727 0.00035066350322295671 0 0.0015239709654315601 0.00029947955706715657 0 0.0014454911566870146 0.0002708276668307851 0 0.0014715378258145727 0.00035066350322295671 0 0.0015239709654315601 0.00029947955706715657 0 0.0014627227852981081 0.00018338541996463945 0 0.0014454911566870146 0.0002708276668307851 0 0.0016680748895131429 0.00028454240206415989 0 0.0015980467818054766 0.00032074152304824272 0 0.0015735240558658898 0.00018685658269394545 0 0.0015239709654315601 0.00029947955706715657 0 0.0015980467818054766 0.00032074152304824272 0 0.0015735240558658898 0.00018685658269394545 0 0.0015650471450171907 0.00035741119578765743 0 0.0015239709654315601 0.00029947955706715657 0 0.0015980467818054766 0.00032074152304824272 0 0.0015239709654315601 0.00029947955706715657 0 0.0015735240558658898 0.00018685658269394545 0 0.0014627227852981081 0.00018338541996463945 0 0.0015300459235462081 6.0419147145505557e-05 0 0.0014659085265121838 -5.1146994072228831e-05 0 0.0013729705745376181 3.7854106214017454e-05 0 0.0015735240558658898 0.00018685658269394545 0 0.0015300459235462081 6.0419147145505557e-05 0 0.0014627227852981081 0.00018338541996463945 0 0.0015300459235462081 6.0419147145505557e-05 0 0.0016281482495525891 0.0001126574834526053 0 0.0016413926296516017 3.2563965914103394e-05 0 0.0015735240558658898 0.00018685658269394545 0 0.0015300459235462081 6.0419147145505557e-05 0 0.0016281482495525891 0.0001126574834526053 0 0.0016281482495525891 0.0001126574834526053 0 0.0017383225867105426 0.00010582839783263227 0 0.0016413926296516017 3.2563965914103394e-05 0 0.0019095836209247201 9.6920000348262381e-05 0 0.0017383225867105426 0.00010582839783263227 0 0.0017485987135609322 -1.7718044486735658e-05 0 0.0017383225867105426 0.00010582839783263227 0 0.0017485987135609322 -1.7718044486735658e-05 0 0.0016413926296516017 3.2563965914103394e-05 0 0.0015300459235462081 6.0419147145505557e-05 0 0.0016413926296516017 3.2563965914103394e-05 0 0.0015708347711289308 -6.8105919205981865e-05 0 0.0017485987135609322 -1.7718044486735658e-05 0 0.0016413926296516017 3.2563965914103394e-05 0 0.0015708347711289308 -6.8105919205981865e-05 0 0.0016946924374744089 -9.2917595159073058e-05 0 0.0017485987135609322 -1.7718044486735658e-05 0 0.0015708347711289308 -6.8105919205981865e-05 0 0.0016946924374744089 -9.2917595159073058e-05 0 0.0015708347711289308 -6.8105919205981865e-05 0 0.0015008186251555253 -0.0001272810542821238 0 0.0015708347711289308 -6.8105919205981865e-05 0 0.0014659085265121838 -5.1146994072228831e-05 0 0.0014508682676152367 -0.00014147612626291023 0 0.0015300459235462081 6.0419147145505557e-05 0 0.0015708347711289308 -6.8105919205981865e-05 0 0.0014659085265121838 -5.1146994072228831e-05 0 0.0014659085265121838 -5.1146994072228831e-05 0 0.0013729705745376181 3.7854106214017454e-05 0 0.0013950963950794474 -8.3803029013885109e-05 0 0.0012202972421461844 9.84171051636293e-05 0 0.0013729705745376181 3.7854106214017454e-05 0 0.0012155392321216137 -6.0581702509802407e-05 0 0.0013729705745376181 3.7854106214017454e-05 0 0.0012155392321216137 -6.0581702509802407e-05 0 0.0013950963950794474 -8.3803029013885109e-05 0 0.0012202972421461844 9.84171051636293e-05 0 0.0013729705745376181 3.7854106214017454e-05 0 0.0013636197711498646 0.00019208570992431266 0 0.0015300459235462081 6.0419147145505557e-05 0 0.0013729705745376181 3.7854106214017454e-05 0 0.0014627227852981081 0.00018338541996463945 0 0.0013729705745376181 3.7854106214017454e-05 0 0.0014627227852981081 0.00018338541996463945 0 0.0013636197711498646 0.00019208570992431266 0 0.0014627227852981081 0.00018338541996463945 0 0.0013636197711498646 0.00019208570992431266 0 0.0014454911566870146 0.0002708276668307851 0 0.0013636197711498646 0.00019208570992431266 0 0.0013880520605303913 0.00032324720334861315 0 0.0013036169099005311 0.0002647540905116461 0 0.0013636197711498646 0.00019208570992431266 0 0.0014454911566870146 0.0002708276668307851 0 0.0013880520605303913 0.00032324720334861315 0 0.0014454911566870146 0.0002708276668307851 0 0.0014715378258145727 0.00035066350322295671 0 0.0013880520605303913 0.00032324720334861315 0 0.0014715378258145727 0.00035066350322295671 0 0.0014297735576667069 0.00039747936205412285 0 0.0013880520605303913 0.00032324720334861315 0 0.0014715378258145727 0.00035066350322295671 0 0.0014774542197843719 0.00040592148586905599 0 0.0014297735576667069 0.00039747936205412285 0 0.0014297735576667069 0.00039747936205412285 0 0.0013880520605303913 0.00032324720334861315 0 0.0013760982729374271 0.00041084879946077423 0 0.0013880520605303913 0.00032324720334861315 0 0.0013760982729374271 0.00041084879946077423 0 0.0013258533048414449 0.00036238790171116969 0 0.0014297735576667069 0.00039747936205412285 0 0.0013760982729374271 0.00041084879946077423 0 0.0014027917753605685 0.00046287981821526748 0 0.0013760982729374271 0.00041084879946077423 0 0.0014027917753605685 0.00046287981821526748 0 0.0013331774060166028 0.00046480335111949873 0 0.0014562829398746652 0.00051207799607991755 0 0.0014027917753605685 0.00046287981821526748 0 0.0014639705631073171 0.00044981662852426423 0 0.0014562829398746652 0.00051207799607991755 0 0.001510437456714149 0.00048277355304611572 0 0.0014639705631073171 0.00044981662852426423 0 0.0014774542197843719 0.00040592148586905599 0 0.0014297735576667069 0.00039747936205412285 0 0.0014639705631073171 0.00044981662852426423 0 0.0015170320618486347 0.0004358451282740424 0 0.0014774542197843719 0.00040592148586905599 0 0.0014639705631073171 0.00044981662852426423 0 0.0014297735576667069 0.00039747936205412285 0 0.0014027917753605685 0.00046287981821526748 0 0.0014639705631073171 0.00044981662852426423 0 0.0013331774060166028 0.00046480335111949873 0 0.0013258533048414449 0.00036238790171116969 0 0.0012312935048999012 0.00036087127772275194 0 0.0013760982729374271 0.00041084879946077423 0 0.0013331774060166028 0.00046480335111949873 0 0.0013258533048414449 0.00036238790171116969 0 0.0013258533048414449 0.00036238790171116969 0 0.0012312935048999012 0.00036087127772275194 0 0.0013036169099005311 0.0002647540905116461 0 0.0012202972421461844 9.84171051636293e-05 0 0.0013636197711498646 0.00019208570992431266 0 0.0013036169099005311 0.0002647540905116461 0 0.0012202972421461844 9.84171051636293e-05 0 0.0012312935048999012 0.00036087127772275194 0 0.0013036169099005311 0.0002647540905116461 0 0.0012776883091563762 0.00013033074386076837 0 0.0010842000696709697 0.00038783444542772377 0 0.0013880520605303913 0.00032324720334861315 0 0.0013258533048414449 0.00036238790171116969 0 0.0013036169099005311 0.0002647540905116461 0 0.0012800551621705133 0.00015190004463727834 0 0.0011684682910599294 0.00023992255728929788 0 0.0012507398266535864 0.00031920473963977045 0 0.0012800551621705133 0.00015190004463727834 0 0.0013519418720446977 0.00041165209453387794 0 0.0012507398266535864 0.00031920473963977045 0 0.0011684682910599294 0.00023992255728929788 0 0.001182093287638753 0.00035040939651250825 0 0.0012507398266535864 0.00031920473963977045 0 0.0013519418720446977 0.00041165209453387794 0 0.0012507398266535864 0.00031920473963977045 0 0.0012434913301860068 0.00041320925905409983 0 0.0030593742937002192 0.00040939522335158235 0 0.00062384422213287874 0.00053594552897851845 0 0.0011150444611949149 0.00052218098170662779 0 0.0013658134526130837 0.00044868150740324635 0 0.0012434913301860068 0.00041320925905409983 0 0.001182093287638753 0.00035040939651250825 0 0.0012434913301860068 0.00041320925905409983 0 0.0011435570856721368 0.00042207944494022253 0 0.001182093287638753 0.00035040939651250825 0 0.0012507398266535864 0.00031920473963977045 0 0.0012434913301860068 0.00041320925905409983 0 0.0013658134526130837 0.00044868150740324635 0 0.0013519418720446977 0.00041165209453387794 0 0.0012434913301860068 0.00041320925905409983 0 0.0010701034988169979 0.00047191403804756085 0 0.0011435570856721368 0.00042207944494022253 0 0.0010796659010716668 0.00041452889904020502 0 0.0010701034988169979 0.00047191403804756085 0 0.0010796659010716668 0.00041452889904020502 0 0.0010251040543557918 0.00040951184846811905 0 0.0010387603588115947 0.00048260241926060833 0 0.0010701034988169979 0.00047191403804756085 0 0.0010251040543557918 0.00040951184846811905 0 0.0014530025693458811 0.00048836709067676197 0 0.0013293327831757084 0.00052011567550092812 0 0.0011150444611949149 0.00052218098170662779 0 0.001040456338414151 0.00048369199583514315 0 0.0010701034988169979 0.00047191403804756085 0 0.0011150444611949149 0.00052218098170662779 0 0.0012434913301860068 0.00041320925905409983 0 0.0011435570856721368 0.00042207944494022253 0 0.0011150444611949149 0.00052218098170662779 0 0.0010701034988169979 0.00047191403804756085 0 0.0011435570856721368 0.00042207944494022253 0 0.0011435570856721368 0.00042207944494022253 0 0.0010804590373628771 0.00035622379866299557 0 0.0010796659010716668 0.00041452889904020502 0 0.001182093287638753 0.00035040939651250825 0 0.0011435570856721368 0.00042207944494022253 0 0.0010804590373628771 0.00035622379866299557 0 0.0010804590373628771 0.00035622379866299557 0 0.0010251040543557918 0.00040951184846811905 0 0.00099360964706075383 0.00033602533157609627 0 0.0010804590373628771 0.00035622379866299557 0 0.0010796659010716668 0.00041452889904020502 0 0.0010251040543557918 0.00040951184846811905 0 0.0010804590373628771 0.00035622379866299557 0 0.0010273532538616933 0.00027295142994923096 0 0.00099360964706075383 0.00033602533157609627 0 0.0010804590373628771 0.00035622379866299557 0 0.0011107469173178607 0.00029178822735498376 0 0.0010273532538616933 0.00027295142994923096 0 0.0011684682910599294 0.00023992255728929788 0 0.001182093287638753 0.00035040939651250825 0 0.0011107469173178607 0.00029178822735498376 0 0.001182093287638753 0.00035040939651250825 0 0.0010804590373628771 0.00035622379866299557 0 0.0011107469173178607 0.00029178822735498376 0 0.0011684682910599294 0.00023992255728929788 0 0.0011107469173178607 0.00029178822735498376 0 0.0010814612551261916 0.00022420666862214296 0 0.0011107469173178607 0.00029178822735498376 0 0.0010814612551261916 0.00022420666862214296 0 0.0010273532538616933 0.00027295142994923096 0 0.0010814612551261916 0.00022420666862214296 0 0.0010273532538616933 0.00027295142994923096 0 0.00099508628620895026 0.00019422850207008186 0 0.0010814612551261916 0.00022420666862214296 0 0.0011064841460508925 0.00012415140925161811 0 0.00099508628620895026 0.00019422850207008186 0 0.0011064841460508925 0.00012415140925161811 0 0.00094111948619189265 8.4569581824733313e-05 0 0.00099508628620895026 0.00019422850207008186 0 0.0011684682910599294 0.00023992255728929788 0 0.0010814612551261916 0.00022420666862214296 0 0.0011064841460508925 0.00012415140925161811 0 0.0012800551621705133 0.00015190004463727834 0 0.0011684682910599294 0.00023992255728929788 0 0.0011064841460508925 0.00012415140925161811 0 0.0012776883091563762 0.00013033074386076837 0 0.0012119540546246899 -5.1442914349427423e-05 0 0.0012800551621705133 0.00015190004463727834 0 0.0011064841460508925 0.00012415140925161811 0 0.0012155392321216137 -6.0581702509802407e-05 0 0.0011064841460508925 0.00012415140925161811 0 0.0010168619657130104 2.932820322136234e-05 0 0.0012155392321216137 -6.0581702509802407e-05 0 0.0011064841460508925 0.00012415140925161811 0 0.0010168619657130104 2.932820322136234e-05 0 0.00094111948619189265 8.4569581824733313e-05 0 0.0010168619657130104 2.932820322136234e-05 0 0.0010153283441542377 -7.5915369654367738e-05 0 0.00092619565015397817 -1.6966661873701889e-05 0 0.0010168619657130104 2.932820322136234e-05 0 0.0010153283441542377 -7.5915369654367738e-05 0 0.0012155392321216137 -6.0581702509802407e-05 0 0.00098086624687555575 -0.00014349075585166739 0 0.0010153283441542377 -7.5915369654367738e-05 0 0.0010768035855817217 -0.00011879286237340992 0 0.00098086624687555575 -0.00014349075585166739 0 0.0010153283441542377 -7.5915369654367738e-05 0 0.00091886533214825589 -0.00011334111129720989 0 0.0010153283441542377 -7.5915369654367738e-05 0 0.0012155392321216137 -6.0581702509802407e-05 0 0.0010768035855817217 -0.00011879286237340992 0 0.0012155392321216137 -6.0581702509802407e-05 0 0.0010768035855817217 -0.00011879286237340992 0 0.0012100882266962295 -0.00014952026861205382 0 0.0010768035855817217 -0.00011879286237340992 0 0.0012100882266962295 -0.00014952026861205382 0 0.00099595736624149222 -0.00017638067440855446 0 0.0012100882266962295 -0.00014952026861205382 0 0.00099595736624149222 -0.00017638067440855446 0 0.0012056093099414205 -0.00030365668595787678 0 0.00098086624687555575 -0.00014349075585166739 0 0.00099595736624149222 -0.00017638067440855446 0 0.0009105453681447056 -0.00019482335596039929 0 0.00096006136829761334 -0.00016479481980994403 0 0.00049153800796708632 -7.8872620007925534e-05 0 0.00099595736624149222 -0.00017638067440855446 0 0.00030231566629008977 -0.00021544285471645675 0 0.0004248368226857001 -0.00036029915081406833 0 0.00098086624687555575 -0.00014349075585166739 0 0.0010768035855817217 -0.00011879286237340992 0 0.00099595736624149222 -0.00017638067440855446 0 0.00099595736624149222 -0.00017638067440855446 0 0.0012056093099414205 -0.00030365668595787678 0 0.0004248368226857001 -0.00036029915081406833 0 -0.00063338838524770334 8.8049507608085688e-05 0 -0.00016403272578063984 -4.8177443405970967e-05 0 -9.4596978651185685e-05 -1.7504542033982586e-05 0 -3.5015786537052749e-05 6.4643565821661359e-05 0 -0.00015640961199292602 6.7258900396388116e-05 0 -0.0011375207468838561 0.00018726439830645428 0 -0.00094638245345485315 9.7878362786494707e-05 0 -0.0010195160978555091 2.694614674246881e-06 0 0.00063792384646403817 -0.00013077583747536422 0 -0.00016403272578063984 -4.8177443405970967e-05 0 -0.00092116224795628626 0.00022681149937405249 0 -0.00063338838524770334 8.8049507608085688e-05 0 -3.2919165170297606e-05 -0.00010288748279895809 0 -9.4596978651185685e-05 -1.7504542033982586e-05 0 2.771439527363728e-05 -2.3525117040554937e-05 0 -9.4596978651185685e-05 -1.7504542033982586e-05 0 -3.5015786537052749e-05 6.4643565821661359e-05 0 2.771439527363728e-05 -2.3525117040554937e-05 0 0.00063792384646403817 -0.00013077583747536422 0 0.00071082892413474219 -6.453314137892212e-05 0 -3.5015786537052749e-05 6.4643565821661359e-05 0 2.771439527363728e-05 -2.3525117040554937e-05 0 8.1469564964616487e-05 6.5460602825853634e-05 0 9.5975376918469826e-05 -0.00010513234211557512 0 2.771439527363728e-05 -2.3525117040554937e-05 0 0.00014631959897480802 -4.2719773290954533e-05 0 2.771439527363728e-05 -2.3525117040554937e-05 0 8.1469564964616487e-05 6.5460602825853634e-05 0 0.00014631959897480802 -4.2719773290954533e-05 0 0.0013777168546688112 -0.00020757757213335609 0 0.0013360125699033627 -0.00012734708271230869 0 0.0014202433393824311 -0.00013133188443953988 0 0.0012100882266962295 -0.00014952026861205382 0 0.0012056093099414205 -0.00030365668595787678 0 0.0013777168546688112 -0.00020757757213335609 0 0.0012100882266962295 -0.00014952026861205382 0 0.0013777168546688112 -0.00020757757213335609 0 0.0013360125699033627 -0.00012734708271230869 0 0.0012155392321216137 -6.0581702509802407e-05 0 0.0013360125699033627 -0.00012734708271230869 0 0.0013950963950794474 -8.3803029013885109e-05 0 0.0012155392321216137 -6.0581702509802407e-05 0 0.0012100882266962295 -0.00014952026861205382 0 0.0013360125699033627 -0.00012734708271230869 0 0.0013360125699033627 -0.00012734708271230869 0 0.0013950963950794474 -8.3803029013885109e-05 0 0.0014202433393824311 -0.00013133188443953988 0 0.0013950963950794474 -8.3803029013885109e-05 0 0.0014508682676152367 -0.00014147612626291023 0 0.0014202433393824311 -0.00013133188443953988 0 0.0014659085265121838 -5.1146994072228831e-05 0 0.0013950963950794474 -8.3803029013885109e-05 0 0.0014508682676152367 -0.00014147612626291023 0 0.0014508682676152367 -0.00014147612626291023 0 0.0015008186251555253 -0.0001272810542821238 0 0.0012978672833367226 -0.00014306301246169178 0 0.0015708347711289308 -6.8105919205981865e-05 0 0.0014508682676152367 -0.00014147612626291023 0 0.0015008186251555253 -0.0001272810542821238 0 0.0014508682676152367 -0.00014147612626291023 0 0.0012978672833367226 -0.00014306301246169178 0 0.0014132765375620535 -5.5513120121658892e-05 0 0.0012978672833367226 -0.00014306301246169178 0 0.0014132765375620535 -5.5513120121658892e-05 0 0.00081462531775096294 1.6265563801378418e-05 0 0.0014508682676152367 -0.00014147612626291023 0 0.0014202433393824311 -0.00013133188443953988 0 0.0014132765375620535 -5.5513120121658892e-05 0 0.0013777168546688112 -0.00020757757213335609 0 0.0014202433393824311 -0.00013133188443953988 0 0.0014132765375620535 -5.5513120121658892e-05 0 0.00071082892413474219 -6.453314137892212e-05 0 0.00081290826647359025 1.00150074201959e-05 0 8.1469564964616487e-05 6.5460602825853634e-05 0 0.00022362600768380931 9.5047451610613272e-05 0 0.00014631959897480802 -4.2719773290954533e-05 0 0.0001761751668376971 -8.7931567644970724e-05 0 0.00014631959897480802 -4.2719773290954533e-05 0 0.00029472549747386735 -9.7714907479789142e-05 0 0.00022362600768380931 9.5047451610613272e-05 0 0.00014631959897480802 -4.2719773290954533e-05 0 0.00029472549747386735 -9.7714907479789142e-05 0 0.00022362600768380931 9.5047451610613272e-05 0 0.00029472549747386735 -9.7714907479789142e-05 0 0.00081462531775096294 1.6265563801378418e-05 0 0.00081290826647359025 1.00150074201959e-05 0 0.00080943078978824618 1.9329720878397842e-05 0 6.7508307514299457e-05 -0.00010733897112685442 0 0.00029472549747386735 -9.7714907479789142e-05 0 0.00081462531775096294 1.6265563801378418e-05 0 6.7508307514299457e-05 -0.00010733897112685442 0 0.00081462531775096294 1.6265563801378418e-05 0 0.00016049736835789356 -7.7489886732254449e-08 0 0.00081462531775096294 1.6265563801378418e-05 0 0.00016049736835789356 -7.7489886732254449e-08 0 0.00091950688618462097 -3.8710770467230416e-08 0 0.00091950688618462097 -3.8710770467230416e-08 0 0.0011885152358395671 -6.4757101657969427e-05 0 0.0016787820705996977 -1.3382155336689567e-07 0 0.00081462531775096294 1.6265563801378418e-05 0 0.00091950688618462097 -3.8710770467230416e-08 0 0.0011885152358395671 -6.4757101657969427e-05 0 0.0012978672833367226 -0.00014306301246169178 0 0.00081462531775096294 1.6265563801378418e-05 0 0.0011885152358395671 -6.4757101657969427e-05 0 0.0012978672833367226 -0.00014306301246169178 0 0.0011885152358395671 -6.4757101657969427e-05 0 0.001515759397953335 -0.00010624746210345896 0 0.0015008186251555253 -0.0001272810542821238 0 0.0012978672833367226 -0.00014306301246169178 0 0.001515759397953335 -0.00010624746210345896 0 0.0016946924374744089 -9.2917595159073058e-05 0 0.0015008186251555253 -0.0001272810542821238 0 0.001515759397953335 -0.00010624746210345896 0 0.0019649808086830219 -6.4985418606959116e-05 0 0.001515759397953335 -0.00010624746210345896 0 0.0016787820705996977 -1.3382155336689567e-07 0 0.0011885152358395671 -6.4757101657969427e-05 0 0.001515759397953335 -0.00010624746210345896 0 0.0016787820705996977 -1.3382155336689567e-07 0 0.00034082582109893315 3.9537754996914696e-05 0 0.00016441690492757086 2.2658925119349161e-05 0 0.00026416569114334152 0.00027166553068466156 0 0.00016441690492757086 2.2658925119349161e-05 0 0.00012184076967661706 7.0809733583641118e-05 0 0.00026416569114334152 0.00027166553068466156 0 0.00034082582109893315 3.9537754996914696e-05 0 0.00026416569114334152 0.00027166553068466156 0 0.00053982582057810142 0.00024703223469530833 0 0.00034082582109893315 3.9537754996914696e-05 0 0.00016441690492757086 2.2658925119349161e-05 0 8.9639790663754765e-05 -0.00011546375992638408 0 0.00016441690492757086 2.2658925119349161e-05 0 0.0001304709281395286 -5.982429987147533e-05 0 0.00012184076967661706 7.0809733583641118e-05 0 0.00016441690492757086 2.2658925119349161e-05 0 0.0001304709281395286 -5.982429987147533e-05 0 8.9639790663754765e-05 -0.00011546375992638408 0 0.0001304709281395286 -5.982429987147533e-05 0 0.00022493940271842079 -4.0881122468791222e-05 0 0.00013878840798159592 -3.8053145372629566e-05 0 0.0001304709281395286 -5.982429987147533e-05 0 0.00012184076967661706 7.0809733583641118e-05 0 0.00013878840798159592 -3.8053145372629566e-05 0 0.0033973128130926206 -0.00039337012762403264 0 0.0030231443225038415 -0.00061256296387330418 0 0.0030303332010196272 -0.00052018286817176994 0 0.0017656340251549359 -0.00016462553400544683 0 0.0015638389445523566 -0.00026788769494979462 0 0.0033973128130926206 -0.00039337012762403264 0 0.0031688820846101418 -0.00018495548169807725 0 0.0030303332010196272 -0.00052018286817176994 0 0.0031839596644961344 6.7341234520687651e-05 0 0.0024863331215824037 -6.2860922140072978e-05 0 0.0033973128130926206 -0.00039337012762403264 0 0.0034462851399159659 -0.00010484074645174236 0 0.003747383063067742 -0.00016804544166551747 0 0.0033973128130926206 -0.00039337012762403264 0 0.0031688820846101418 -0.00018495548169807725 0 0.0034462851399159659 -0.00010484074645174236 0 0.0031147174153010894 0.00037070684702411827 0 0.0029770731531640732 -6.05127434946748e-06 0 0.0030034521666576306 0.00040359223773831502 0 0.0031147174153010894 0.00037070684702411827 0 0.0030936930626658194 0.00056442006104407121 0 0.0030034521666576306 0.00040359223773831502 0 0.0032208491598844161 0.00070820939458166802 0 0.0031147174153010894 0.00037070684702411827 0 0.0030936930626658194 0.00056442006104407121 0 0.0030936930626658194 0.00056442006104407121 0 0.0030034521666576306 0.00040359223773831502 0 0.0030357890741529118 0.00077024033543427752 0 0.0032832070460906944 0.00042934096417697562 0 0.0031839596644961344 6.7341234520687651e-05 0 0.0033066727221809193 0.00013020636561394847 0 0.0031688820846101418 -0.00018495548169807725 0 0.0034462851399159659 -0.00010484074645174236 0 0.0032208491598844161 0.00070820939458166802 0 0.0030936930626658194 0.00056442006104407121 0 0.0030357890741529118 0.00077024033543427752 0 0.0033066727221809193 0.00013020636561394847 0 0.0034462851399159659 -0.00010484074645174236 0 0.0035982015409256937 8.4778070986791485e-05 0 0.0038483552617433201 0.00016941696260788018 0 0.0035982015409256937 8.4778070986791485e-05 0 0.003747383063067742 -0.00016804544166551747 0 0.0034462851399159659 -0.00010484074645174236 0 0.0035982015409256937 8.4778070986791485e-05 0 0.003747383063067742 -0.00016804544166551747 0 0.0017656340251549359 -0.00016462553400544683 0 0.0020154307414789008 5.0367103381331003e-05 0 0.00026416569114334152 0.00027166553068466156 0 0.00050252669734676453 0.00045987260481213359 0 0.00053982582057810142 0.00024703223469530833 0 0.0038483552617433201 0.00016941696260788018 0 0.003747383063067742 -0.00016804544166551747 0 0.004041007075082436 5.5031087299852842e-05 0 0.0020154307414789008 5.0367103381331003e-05 0 0.0022281723168624673 0.00028309258337860322 0 0.00050252669734676453 0.00045987260481213359 0 0.00067976221915596149 0.0004367405884271047 0 0.00053982582057810142 0.00024703223469530833 0 0.00078968148318916422 0.00067148136286289243 0 0.00050252669734676453 0.00045987260481213359 0 0.00067976221915596149 0.0004367405884271047 0 0.00078968148318916422 0.00067148136286289243 0 0.00067976221915596149 0.0004367405884271047 0 0.0008500607086827733 0.00049759882375881759 0 0.00067976221915596149 0.0004367405884271047 0 0.00076971351120487877 0.00032888369423368299 0 0.0008500607086827733 0.00049759882375881759 0 0.00076971351120487877 0.00032888369423368299 0 0.00053982582057810142 0.00024703223469530833 0 0.00072738906194717617 0.00018423994442571073 0 0.00067976221915596149 0.0004367405884271047 0 0.00076971351120487877 0.00032888369423368299 0 0.00053982582057810142 0.00024703223469530833 0 0.00098505584248285722 0.00065358451747194607 0 0.0013029839858021124 0.0005324080726158497 0 0.0010430320336653998 0.00041322856589269563 0 0.0014530025693458811 0.00048836709067676197 0 0.00092217588127398804 0.00039069473111590417 0 0.0010387603588115947 0.00048260241926060833 0 0.0010251040543557918 0.00040951184846811905 0 0.00088955666141104606 0.00039815185328719016 0 0.0010251040543557918 0.00040951184846811905 0 0.00088955666141104606 0.00039815185328719016 0 0.00099360964706075383 0.00033602533157609627 0 0.00098505584248285722 0.00065358451747194607 0 0.0010430320336653998 0.00041322856589269563 0 0.0008500607086827733 0.00049759882375881759 0 0.00076971351120487877 0.00032888369423368299 0 0.0010430320336653998 0.00041322856589269563 0 0.0008500607086827733 0.00049759882375881759 0 0.0008099247763114594 0.00034238859636185714 0 0.00092217588127398804 0.00039069473111590417 0 0.00076971351120487877 0.00032888369423368299 0 0.00086467726121620654 0.00021734046062571412 0 0.00072738906194717617 0.00018423994442571073 0 0.00076971351120487877 0.00032888369423368299 0 0.00088955666141104606 0.00039815185328719016 0 0.00086467726121620654 0.00021734046062571412 0 0.00088955666141104606 0.00039815185328719016 0 0.00086467726121620654 0.00021734046062571412 0 0.00094827303779431663 0.00026918559425417318 0 0.00086467726121620654 0.00021734046062571412 0 0.00094827303779431663 0.00026918559425417318 0 0.00099508628620895026 0.00019422850207008186 0 0.00088955666141104606 0.00039815185328719016 0 0.00094827303779431663 0.00026918559425417318 0 0.00099360964706075383 0.00033602533157609627 0 0.0010273532538616933 0.00027295142994923096 0 0.00094827303779431663 0.00026918559425417318 0 0.00099508628620895026 0.00019422850207008186 0 0.0010273532538616933 0.00027295142994923096 0 0.00094827303779431663 0.00026918559425417318 0 0.00099360964706075383 0.00033602533157609627 0 0.00086467726121620654 0.00021734046062571412 0 0.00094111948619189265 8.4569581824733313e-05 0 0.00099508628620895026 0.00019422850207008186 0 0.00086467726121620654 0.00021734046062571412 0 0.00094111948619189265 8.4569581824733313e-05 0 0.00081118215815121622 5.6286975281465677e-05 0 0.00086467726121620654 0.00021734046062571412 0 0.00081118215815121622 5.6286975281465677e-05 0 0.00072738906194717617 0.00018423994442571073 0 0.00081118215815121622 5.6286975281465677e-05 0 0.00066840102527221639 5.9997425300781241e-05 0 0.00072724845172701474 -6.1805368735357266e-05 0 0.00081118215815121622 5.6286975281465677e-05 0 0.00072724845172701474 -6.1805368735357266e-05 0 0.00083472798285280105 -6.3412505724417092e-05 0 0.00081118215815121622 5.6286975281465677e-05 0 0.00092619565015397817 -1.6966661873701889e-05 0 0.00083472798285280105 -6.3412505724417092e-05 0 0.00094111948619189265 8.4569581824733313e-05 0 0.00081118215815121622 5.6286975281465677e-05 0 0.00092619565015397817 -1.6966661873701889e-05 0 0.0010168619657130104 2.932820322136234e-05 0 0.00094111948619189265 8.4569581824733313e-05 0 0.00092619565015397817 -1.6966661873701889e-05 0 0.00034082582109893315 3.9537754996914696e-05 0 0.00053982582057810142 0.00024703223469530833 0 0.00056727140819001732 9.7496643830282249e-05 0 0.00053982582057810142 0.00024703223469530833 0 0.00056727140819001732 9.7496643830282249e-05 0 0.00072738906194717617 0.00018423994442571073 0 0.00081118215815121622 5.6286975281465677e-05 0 0.00072738906194717617 0.00018423994442571073 0 0.00066840102527221639 5.9997425300781241e-05 0 0.00056727140819001732 9.7496643830282249e-05 0 0.00072738906194717617 0.00018423994442571073 0 0.00066840102527221639 5.9997425300781241e-05 0 0.00056727140819001732 9.7496643830282249e-05 0 0.00066840102527221639 5.9997425300781241e-05 0 0.00055204127744721936 -4.5891623804359125e-05 0 0.00066840102527221639 5.9997425300781241e-05 0 0.00055204127744721936 -4.5891623804359125e-05 0 0.00072724845172701474 -6.1805368735357266e-05 0 0.00034082582109893315 3.9537754996914696e-05 0 0.00056727140819001732 9.7496643830282249e-05 0 0.00055204127744721936 -4.5891623804359125e-05 0 0.00034082582109893315 3.9537754996914696e-05 0 0.00055204127744721936 -4.5891623804359125e-05 0 0.00042032415097192395 -0.00019482775556575876 0 0.00055204127744721936 -4.5891623804359125e-05 0 0.00042032415097192395 -0.00019482775556575876 0 0.00068499499602310652 -0.00021080753386049824 0 5.3071358820684754e-05 -0.00015356975659457743 0 8.5612716997616274e-05 -0.0001010328067587231 0 0.00055204127744721936 -4.5891623804359125e-05 0 0.00072724845172701474 -6.1805368735357266e-05 0 0.00068499499602310652 -0.00021080753386049824 0 -0.00054536203212769165 4.3884521170403656e-06 0 -0.00033059166065575317 -6.5381147151336353e-05 0 -0.00056304125929543898 -4.5539316708446861e-05 0 -0.00054536203212769165 4.3884521170403656e-06 0 -0.00044323373562460633 7.6130029662606208e-06 0 -0.00056304125929543898 -4.5539316708446861e-05 0 -0.00031465770105151592 -0.00013674686412643253 0 -0.00054536203212769165 4.3884521170403656e-06 0 -0.00044323373562460633 7.6130029662606208e-06 0 -0.00031465770105151592 -0.00013674686412643253 0 -0.00044323373562460633 7.6130029662606208e-06 0 -0.00014720376670542259 1.8723611296186366e-05 0 0.00098086624687555575 -0.00014349075585166739 0 0.00091886533214825589 -0.00011334111129720989 0 0.0009105453681447056 -0.00019482335596039929 0 0.0010153283441542377 -7.5915369654367738e-05 0 0.00092619565015397817 -1.6966661873701889e-05 0 0.00091886533214825589 -0.00011334111129720989 0 0.00092619565015397817 -1.6966661873701889e-05 0 0.00091886533214825589 -0.00011334111129720989 0 0.00083472798285280105 -6.3412505724417092e-05 0 0.00091886533214825589 -0.00011334111129720989 0 0.00081910235525254791 -0.00012992386431992086 0 0.0009105453681447056 -0.00019482335596039929 0 0.00072724845172701474 -6.1805368735357266e-05 0 0.00068499499602310652 -0.00021080753386049824 0 0.00081910235525254791 -0.00012992386431992086 0 0.00091886533214825589 -0.00011334111129720989 0 0.00081910235525254791 -0.00012992386431992086 0 0.00083472798285280105 -6.3412505724417092e-05 0 0.00072724845172701474 -6.1805368735357266e-05 0 0.00081910235525254791 -0.00012992386431992086 0 0.00083472798285280105 -6.3412505724417092e-05 0 0.00068499499602310652 -0.00021080753386049824 0 0.00081910235525254791 -0.00012992386431992086 0 0.0009105453681447056 -0.00019482335596039929 0 -0.00033059166065575317 -6.5381147151336353e-05 0 -0.00018271555081411368 -0.00025070700158966121 0 -0.00056304125929543898 -4.5539316708446861e-05 0 8.5612716997616274e-05 -0.0001010328067587231 0 0.00049153800796708632 -7.8872620007925534e-05 0 -0.00054536203212769165 4.3884521170403656e-06 0 -0.00033059166065575317 -6.5381147151336353e-05 0 5.9491778310227936e-05 6.5967661031703646e-05 0 -0.00033059166065575317 -6.5381147151336353e-05 0 5.9491778310227936e-05 6.5967661031703646e-05 0 -0.00018271555081411368 -0.00025070700158966121 0 0.00099595736624149222 -0.00017638067440855446 0 5.9491778310227936e-05 6.5967661031703646e-05 0 0.00030231566629008977 -0.00021544285471645675 0 5.9491778310227936e-05 6.5967661031703646e-05 0 0.00030231566629008977 -0.00021544285471645675 0 -0.00018271555081411368 -0.00025070700158966121 0 -0.00016403272578063984 -4.8177443405970967e-05 0 -0.0005201260878947622 -0.00012657693911037227 0 0.00030231566629008977 -0.00021544285471645675 0 0.00038982602220387569 -0.00033990182988810787 0 -0.00018271555081411368 -0.00025070700158966121 0 -0.00094638245345485315 9.7878362786494707e-05 0 -0.0010195160978555091 2.694614674246881e-06 0 -0.00084633846633200781 -2.6347221908495862e-05 0 2.0271752946546471e-05 -0.00021459570343604451 0 -0.00016403272578063984 -4.8177443405970967e-05 0 -0.00094638245345485315 9.7878362786494707e-05 0 -0.00077508730262439683 0.00013863970444435888 0 -0.00084633846633200781 -2.6347221908495862e-05 0 -0.00077508730262439683 0.00013863970444435888 0 -0.00084633846633200781 -2.6347221908495862e-05 0 -0.00056304125929543898 -4.5539316708446861e-05 0 -0.0005201260878947622 -0.00012657693911037227 0 -0.00053660887795057568 -7.719416446228001e-05 0 -0.00080525618756014099 0.00036012482961619299 0 -0.00077508730262439683 0.00013863970444435888 0 -0.00092534980366687156 0.00023064435027269405 0 -0.00094638245345485315 9.7878362786494707e-05 0 -0.00077508730262439683 0.00013863970444435888 0 -0.00092534980366687156 0.00023064435027269405 0 -0.0011375207468838561 0.00018726439830645428 0 -0.00094638245345485315 9.7878362786494707e-05 0 -0.00092534980366687156 0.00023064435027269405 0 -0.0010040526930328334 0.00034224043605977976 0 -0.0011375207468838561 0.00018726439830645428 0 -0.00092534980366687156 0.00023064435027269405 0 -0.00044323373562460633 7.6130029662606208e-06 0 -0.0005439879795749574 0.00015903404772001225 0 -0.00031290931906944024 0.00016802981073548402 0 -0.00077508730262439683 0.00013863970444435888 0 -0.00056304125929543898 -4.5539316708446861e-05 0 -0.0005439879795749574 0.00015903404772001225 0 -0.00044323373562460633 7.6130029662606208e-06 0 -0.00056304125929543898 -4.5539316708446861e-05 0 -0.0005439879795749574 0.00015903404772001225 0 -0.00037938740648062262 0.00038681913321494661 0 -0.00080525618756014099 0.00036012482961619299 0 -0.0005439879795749574 0.00015903404772001225 0 -0.00080525618756014099 0.00036012482961619299 0 -0.00077508730262439683 0.00013863970444435888 0 -0.0005439879795749574 0.00015903404772001225 0 -0.00037938740648062262 0.00038681913321494661 0 -0.0005439879795749574 0.00015903404772001225 0 -0.00031290931906944024 0.00016802981073548402 0 -0.00011124911398923621 0.00039787326892675123 0 -0.00037938740648062262 0.00038681913321494661 0 -0.00031290931906944024 0.00016802981073548402 0 -0.00011124911398923621 0.00039787326892675123 0 -6.6808548673963442e-05 0.00017300109557073196 0 -0.00031290931906944024 0.00016802981073548402 0 -0.00011124911398923621 0.00039787326892675123 0 7.0685181777307472e-05 0.00044314959272538629 0 -6.6808548673963442e-05 0.00017300109557073196 0 -0.00044323373562460633 7.6130029662606208e-06 0 -0.00031290931906944024 0.00016802981073548402 0 -0.00014720376670542259 1.8723611296186366e-05 0 -6.6808548673963442e-05 0.00017300109557073196 0 -0.00031290931906944024 0.00016802981073548402 0 -0.00014720376670542259 1.8723611296186366e-05 0 -6.6808548673963442e-05 0.00017300109557073196 0 -0.00014720376670542259 1.8723611296186366e-05 0 8.8585382719045711e-05 -9.1652437871841734e-06 0 -0.00014720376670542259 1.8723611296186366e-05 0 8.9639790663754765e-05 -0.00011546375992638408 0 8.8585382719045711e-05 -9.1652437871841734e-06 0 5.3071358820684754e-05 -0.00015356975659457743 0 8.042818130761654e-05 -0.00012694864416688709 0 0.00034082582109893315 3.9537754996914696e-05 0 0.00042032415097192395 -0.00019482775556575876 0 8.9639790663754765e-05 -0.00011546375992638408 0 -0.00031465770105151592 -0.00013674686412643253 0 -0.00014720376670542259 1.8723611296186366e-05 0 8.9639790663754765e-05 -0.00011546375992638408 0 0.0001304709281395286 -5.982429987147533e-05 0 8.8585382719045711e-05 -9.1652437871841734e-06 0 0.00022493940271842079 -4.0881122468791222e-05 0 0.0001304709281395286 -5.982429987147533e-05 0 8.9639790663754765e-05 -0.00011546375992638408 0 8.8585382719045711e-05 -9.1652437871841734e-06 0 8.8585382719045711e-05 -9.1652437871841734e-06 0 0.00015600619005395747 0.00011374482712413192 0 0.00022493940271842079 -4.0881122468791222e-05 0 0.00015600619005395747 0.00011374482712413192 0 0.00021451767051541888 0.00022458903597609328 0 0.00032200559302007157 0.00015100866396993418 0 0.00015628317895898409 0.0001196135897802214 0 0.00034880510019311844 0.00017437866731887381 0 -6.6808548673963442e-05 0.00017300109557073196 0 8.8585382719045711e-05 -9.1652437871841734e-06 0 0.00015600619005395747 0.00011374482712413192 0 3.4339161975330783e-05 0.00034745265914785521 0 -4.7904254068078656e-05 0.00019447381281567489 0 9.2342967259282372e-05 0.0003155985942765287 0 -6.6808548673963442e-05 0.00017300109557073196 0 0.00015600619005395747 0.00011374482712413192 0 9.2342967259282372e-05 0.0003155985942765287 0 0.00015600619005395747 0.00011374482712413192 0 0.00021451767051541888 0.00022458903597609328 0 9.2342967259282372e-05 0.0003155985942765287 0 0.00028000484109700762 0.00031544588271088033 0 0.00021451767051541888 0.00022458903597609328 0 0.00028000484109700762 0.00031544588271088033 0 0.00021451767051541888 0.00022458903597609328 0 0.00032200559302007157 0.00015100866396993418 0 0.00045207394658873843 0.00032326978235409768 0 0.00032200559302007157 0.00015100866396993418 0 0.00049271576172894426 0.00018247549307523337 0 0.00028000484109700762 0.00031544588271088033 0 0.00045207394658873843 0.00032326978235409768 0 0.00032200559302007157 0.00015100866396993418 0 0.0003213130341719174 0.0001984462626033494 0 0.00030705211753478902 6.4509591034329105e-05 0 0.00046217939560849036 7.5874177423358732e-05 0 0.0003213130341719174 0.0001984462626033494 0 0.00055687201298469029 0.00027033261521634691 0 0.00046217939560849036 7.5874177423358732e-05 0 0.00034880510019311844 0.00017437866731887381 0 0.00040812497091823345 0.00023781371807524512 0 0.00015600619005395747 0.00011374482712413192 0 0.0003213130341719174 0.0001984462626033494 0 0.00030705211753478902 6.4509591034329105e-05 0 0.00067524295195994517 0.00021606949885765429 0 0.0005878521715878812 0.00027825298156181598 0 0.00049271576172894426 0.00018247549307523337 0 0.0013130687276822687 5.7383272780834917e-05 0 0.00040812497091823345 0.00023781371807524512 0 0.00067524295195994517 0.00021606949885765429 0 0.0005878521715878812 0.00027825298156181598 0 0.00068736598904885736 0.00023687212743535164 0 0.00045207394658873843 0.00032326978235409768 0 0.0005878521715878812 0.00027825298156181598 0 0.00049271576172894426 0.00018247549307523337 0 0.00055687201298469029 0.00027033261521634691 0 0.00067050617719801708 0.00010417860111958807 0 0.00046217939560849036 7.5874177423358732e-05 0 0.00080660769655050357 0.00032535120684293442 0 0.00055687201298469029 0.00027033261521634691 0 0.00067050617719801708 0.00010417860111958807 0 0.0023883806166215085 -0.00027504714655424405 0 0.002405742431489498 -9.5088009463963123e-05 0 0.0025386220456444018 -1.4506653091866035e-05 0 0.0013130687276822687 5.7383272780834917e-05 0 0.0015838858053585981 5.4392204867605163e-05 0 0.0024536377420793722 2.7924935375450556e-05 0 0.0025086100786490847 0.00010675327757486485 0 0.0023894173409115568 0.0001460653654067253 0 0.002405742431489498 -9.5088009463963123e-05 0 0.0024536377420793722 2.7924935375450556e-05 0 0.0025386220456444018 -1.4506653091866035e-05 0 0.002405742431489498 -9.5088009463963123e-05 0 0.0024536377420793722 2.7924935375450556e-05 0 0.0023522231854859214 1.1871647155326351e-05 0 0.0024536377420793722 2.7924935375450556e-05 0 0.0025386220456444018 -1.4506653091866035e-05 0 0.0025086100786490847 0.00010675327757486485 0 0.0025386220456444018 -1.4506653091866035e-05 0 0.0025086100786490847 0.00010675327757486485 0 0.0026450015485854758 0.00019530682115038571 0 0.00067050617719801708 0.00010417860111958807 0 0.00054451957905946025 -0.00010041401979890987 0 0.00046217939560849036 7.5874177423358732e-05 0 0.0015838858053585981 5.4392204867605163e-05 0 0.0020401292537726404 -6.756768251374814e-05 0 0.0027475693839193482 0.00024119742754749962 0 0.0020401292537726404 -6.756768251374814e-05 0 0.0025086100786490847 0.00010675327757486485 0 0.0027083074549857067 0.00021908682244907066 0 0.0025196046710838122 0.00025779745534438024 0 0.0025196046710838122 0.00025779745534438024 0 0.002412399817159387 0.00036670486554086107 0 0.0023894173409115568 0.0001460653654067253 0 0.0025086100786490847 0.00010675327757486485 0 0.0025196046710838122 0.00025779745534438024 0 0.0023894173409115568 0.0001460653654067253 0 0.00015600619005395747 0.00011374482712413192 0 0.00030705211753478902 6.4509591034329105e-05 0 0.00022493940271842079 -4.0881122468791222e-05 0 0.00030705211753478902 6.4509591034329105e-05 0 0.00040069466786276856 -4.4863007740686985e-05 0 0.00022493940271842079 -4.0881122468791222e-05 0 0.00030705211753478902 6.4509591034329105e-05 0 0.00046217939560849036 7.5874177423358732e-05 0 0.00040069466786276856 -4.4863007740686985e-05 0 0.00054451957905946025 -0.00010041401979890987 0 0.00040069466786276856 -4.4863007740686985e-05 0 0.00039227141309584 -0.00019072423270210276 0 0.00054451957905946025 -0.00010041401979890987 0 0.00046217939560849036 7.5874177423358732e-05 0 0.00040069466786276856 -4.4863007740686985e-05 0 0.0020401292537726404 -6.756768251374814e-05 0 0.001378333592245785 -0.00026863884629355626 0 0.00040069466786276856 -4.4863007740686985e-05 0 0.00022493940271842079 -4.0881122468791222e-05 0 0.00039227141309584 -0.00019072423270210276 0 0.00022493940271842079 -4.0881122468791222e-05 0 0.00025789669746588504 -0.00027341205867515323 0 0.00039227141309584 -0.00019072423270210276 0 0.00022493940271842079 -4.0881122468791222e-05 0 0.00025789669746588504 -0.00027341205867515323 0 0.00023755256369473076 -0.00028692422177508802 0 -6.1576271008658218e-05 -6.7694946590324917e-06 0 0.0015638389445523566 -0.00026788769494979462 0 0.0018150297682800853 -0.00014287370299641318 0 0.001378333592245785 -0.00026863884629355626 0 0.0027646673362719445 -2.2878883635492759e-05 0 0.0029170110463063782 -1.9366624189111216e-05 0 0.0026263421534550918 -0.00019744123673123441 0 0.0027646673362719445 -2.2878883635492759e-05 0 0.0029170110463063782 -1.9366624189111216e-05 0 0.0028210815192114772 8.9898846023152073e-05 0 0.0027646673362719445 -2.2878883635492759e-05 0 0.0028210815192114772 8.9898846023152073e-05 0 0.0026951169859522448 3.2929020410829483e-05 0 0.0019933067858275747 -0.00037468955701561006 0 0.0021016338843235548 -0.0003085656279681489 0 0.0021130282743740958 -1.8460053005929425e-05 0 0.0018150297682800853 -0.00014287370299641318 0 0.0015638389445523566 -0.00026788769494979462 0 0.0015638389445523566 -0.00026788769494979462 0 0.0024863331215824037 -6.2860922140072978e-05 0 0.0029661140228362968 0.00012922984052235101 0 0.0027179148154536266 0.00030830338158049193 0 0.0029946310957280507 0.00059009943345770177 0 0.0018150297682800853 -0.00014287370299641318 0 0.0024863331215824037 -6.2860922140072978e-05 0 0.0029170110463063782 -1.9366624189111216e-05 0 0.0029661140228362968 0.00012922984052235101 0 0.0028210815192114772 8.9898846023152073e-05 0 0.0029661140228362968 0.00012922984052235101 0 0.0028210815192114772 8.9898846023152073e-05 0 0.0027179148154536266 0.00030830338158049193 0 0.0028210815192114772 8.9898846023152073e-05 0 0.0027179148154536266 0.00030830338158049193 0 0.0026951169859522448 3.2929020410829483e-05 0 0.002794965291100879 0.00040770177806259922 0 0.0026844460223117272 0.00019462333425700201 0 0.0027179148154536266 0.00030830338158049193 0 0.0024958895809080611 -4.1496291205811611e-05 0 0.0026951169859522448 3.2929020410829483e-05 0 0.0028751026434331571 0.000520495478398975 0 0.0027997603495305756 0.00038680233582620284 0 0.0027460818184436163 0.00054503746898065233 0 0.0020401292537726404 -6.756768251374814e-05 0 0.0026844460223117272 0.00019462333425700201 0 0.0022827456052332122 -0.00040253755970615334 0 0.0024958895809080611 -4.1496291205811611e-05 0 0.0026263421534550918 -0.00019744123673123441 0 0.0024958895809080611 -4.1496291205811611e-05 0 0.0026951169859522448 3.2929020410829483e-05 0 0.0026263421534550918 -0.00019744123673123441 0 0.0027646673362719445 -2.2878883635492759e-05 0 0.0026951169859522448 3.2929020410829483e-05 0 0.0026263421534550918 -0.00019744123673123441 0 0.0027083074549857067 0.00021908682244907066 0 0.0025196046710838122 0.00025779745534438024 0 0.0026321618407031135 0.0003843381940607446 0 0.0027083074549857067 0.00021908682244907066 0 0.0027997603495305756 0.00038680233582620284 0 0.0026321618407031135 0.0003843381940607446 0 0.0025196046710838122 0.00025779745534438024 0 0.0026321618407031135 0.0003843381940607446 0 0.002412399817159387 0.00036670486554086107 0 0.0026321618407031135 0.0003843381940607446 0 0.0025979599417991252 0.00053607259045258847 0 0.002412399817159387 0.00036670486554086107 0 0.0025826967018783495 0.00052582580781575 0 0.0024638421380547464 0.00038603949904650743 0 0.0027997603495305756 0.00038680233582620284 0 0.0026321618407031135 0.0003843381940607446 0 0.0027460818184436163 0.00054503746898065233 0 0.0026321618407031135 0.0003843381940607446 0 0.0025979599417991252 0.00053607259045258847 0 0.0027460818184436163 0.00054503746898065233 0 0.0025979599417991252 0.00053607259045258847 0 0.0027460818184436163 0.00054503746898065233 0 0.0026452276047325635 0.0006580444322450994 0 0.0027460818184436163 0.00054503746898065233 0 0.0026452276047325635 0.0006580444322450994 0 0.0027880795951693818 0.00067414225898108145 0 0.0025979599417991252 0.00053607259045258847 0 0.0026452276047325635 0.0006580444322450994 0 0.0024884022258953972 0.00064754088886471669 0 0.0026452276047325635 0.0006580444322450994 0 0.0025835834632079798 0.00074717217206521391 0 0.0024884022258953972 0.00064754088886471669 0 0.0026452276047325635 0.0006580444322450994 0 0.0025835834632079798 0.00074717217206521391 0 0.002693456216362169 0.00078100758405334368 0 0.0026452276047325635 0.0006580444322450994 0 0.0027880795951693818 0.00067414225898108145 0 0.002693456216362169 0.00078100758405334368 0 0.0027880795951693818 0.00067414225898108145 0 0.0028955402061249039 0.00072948766022453641 0 0.0027984784865538472 0.00080041595879187116 0 0.0027880795951693818 0.00067414225898108145 0 0.0028920190543268924 0.00065402592978041198 0 0.0028577370435935666 0.00060065619538881242 0 0.0027880795951693818 0.00067414225898108145 0 0.0028955402061249039 0.00072948766022453641 0 0.0028920190543268924 0.00065402592978041198 0 0.0028955402061249039 0.00072948766022453641 0 0.0029611282777853958 0.00068209664218798149 0 0.0028920190543268924 0.00065402592978041198 0 0.0029611282777853958 0.00068209664218798149 0 0.0029946310957280507 0.00059009943345770177 0 0.0030357890741529118 0.00077024033543427752 0 0.0030502438478940976 0.00052555959944400332 0 0.0030195018967435435 0.00074300415505362111 0 0.0028955402061249039 0.00072948766022453641 0 0.0029611282777853958 0.00068209664218798149 0 0.0030357890741529118 0.00077024033543427752 0 0.0029611282777853958 0.00068209664218798149 0 0.0029946310957280507 0.00059009943345770177 0 0.0029458755787580434 0.00061802808362393608 0 0.0029611282777853958 0.00068209664218798149 0 0.0028920190543268924 0.00065402592978041198 0 0.0029458755787580434 0.00061802808362393608 0 0.0024863331215824037 -6.2860922140072978e-05 0 0.0030502438478940976 0.00052555959944400332 0 0.002794965291100879 0.00040770177806259922 0 0.0029283908351915343 0.00060350850903501693 0 0.0027179148154536266 0.00030830338158049193 0 0.0029946310957280507 0.00059009943345770177 0 0.0029458755787580434 0.00061802808362393608 0 0.0028751026434331571 0.000520495478398975 0 0.0029458755787580434 0.00061802808362393608 0 0.0028577370435935666 0.00060065619538881242 0 0.0028920190543268924 0.00065402592978041198 0 0.0029458755787580434 0.00061802808362393608 0 0.0028577370435935666 0.00060065619538881242 0 0.0027460818184436163 0.00054503746898065233 0 0.0027880795951693818 0.00067414225898108145 0 0.0028577370435935666 0.00060065619538881242 0 0.0028751026434331571 0.000520495478398975 0 0.0027460818184436163 0.00054503746898065233 0 0.0028577370435935666 0.00060065619538881242 0 0.00230889503904033 0.00064957983763099436 0 0.0023279864297301098 0.00054291931290919139 0 0.0021407250918001842 0.00054700309566269218 0 0.00230889503904033 0.00064957983763099436 0 0.0021778819458841813 0.00069110063183106256 0 0.0021407250918001842 0.00054700309566269218 0 0.0021778819458841813 0.00069110063183106256 0 0.0023685211577911753 0.00079563500286866011 0 0.0021937028444060066 0.00081207486964944716 0 0.0021778819458841813 0.00069110063183106256 0 0.0020997733588693102 0.0007392071373217452 0 0.0021937028444060066 0.00081207486964944716 0 0.00230889503904033 0.00064957983763099436 0 0.0021778819458841813 0.00069110063183106256 0 0.0023685211577911753 0.00079563500286866011 0 0.00230889503904033 0.00064957983763099436 0 0.0024343644352058397 0.00073885649467464736 0 0.0023685211577911753 0.00079563500286866011 0 0.0024343644352058397 0.00073885649467464736 0 0.0024884022258953972 0.00064754088886471669 0 0.002511230083204679 0.0007673514000657661 0 0.00230889503904033 0.00064957983763099436 0 0.0024343644352058397 0.00073885649467464736 0 0.0024884022258953972 0.00064754088886471669 0 0.0025835834632079798 0.00074717217206521391 0 0.0024884022258953972 0.00064754088886471669 0 0.002511230083204679 0.0007673514000657661 0 0.00230889503904033 0.00064957983763099436 0 0.0024884022258953972 0.00064754088886471669 0 0.0023279864297301098 0.00054291931290919139 0 0.0023279864297301098 0.00054291931290919139 0 0.0024606878978729887 0.00051785326486435731 0 0.0023299846479843621 0.0004012650888240475 0 0.0024884022258953972 0.00064754088886471669 0 0.0023279864297301098 0.00054291931290919139 0 0.0024606878978729887 0.00051785326486435731 0 0.0025979599417991252 0.00053607259045258847 0 0.0024606878978729887 0.00051785326486435731 0 0.0025140675294394415 0.00040800166770612115 0 0.0025979599417991252 0.00053607259045258847 0 0.0024884022258953972 0.00064754088886471669 0 0.0024606878978729887 0.00051785326486435731 0 0.0025140675294394415 0.00040800166770612115 0 0.0023299846479843621 0.0004012650888240475 0 0.0023845525851527291 0.00023898655335686245 0 0.0024606878978729887 0.00051785326486435731 0 0.0025140675294394415 0.00040800166770612115 0 0.0023299846479843621 0.0004012650888240475 0 0.0023279864297301098 0.00054291931290919139 0 0.0023299846479843621 0.0004012650888240475 0 0.002192084202588717 0.00045147863161821666 0 0.002192084202588717 0.00045147863161821666 0 0.0020446203261388755 0.00042555635185018701 0 0.0021257093432921676 0.00028381870958116301 0 0.0023299846479843621 0.0004012650888240475 0 0.002192084202588717 0.00045147863161821666 0 0.0021257093432921676 0.00028381870958116301 0 0.0023279864297301098 0.00054291931290919139 0 0.002192084202588717 0.00045147863161821666 0 0.0021407250918001842 0.00054700309566269218 0 0.002192084202588717 0.00045147863161821666 0 0.0021407250918001842 0.00054700309566269218 0 0.0020446203261388755 0.00042555635185018701 0 0.0020446203261388755 0.00042555635185018701 0 0.0019189937498634701 0.00024458016618411621 0 0.0021257093432921676 0.00028381870958116301 0 0.0019189937498634701 0.00024458016618411621 0 0.0021257093432921676 0.00028381870958116301 0 0.0019252474096867452 9.3203326948636942e-05 0 0.0021257093432921676 0.00028381870958116301 0 0.0022685901148263754 0.00028417617229270465 0 0.0022168297085930818 0.00019825740299679942 0 0.0021257093432921676 0.00028381870958116301 0 0.0020941606267758091 0.00012233281533441127 0 0.0019252474096867452 9.3203326948636942e-05 0 0.0021257093432921676 0.00028381870958116301 0 0.0020941606267758091 0.00012233281533441127 0 0.0022168297085930818 0.00019825740299679942 0 0.0020941606267758091 0.00012233281533441127 0 0.0022168297085930818 0.00019825740299679942 0 0.0022013778299521405 4.3783418682801866e-05 0 0.0020941606267758091 0.00012233281533441127 0 0.0019252474096867452 9.3203326948636942e-05 0 0.0019923021138933267 1.202819048692221e-05 0 0.0019189937498634701 0.00024458016618411621 0 0.0019252474096867452 9.3203326948636942e-05 0 0.0017857822229964341 0.00012649677005794938 0 0.002412399817159387 0.00036670486554086107 0 0.0023894173409115568 0.0001460653654067253 0 0.0022363043110730394 0.00016830833195170475 0 0.0024638421380547464 0.00038603949904650743 0 0.002308127766651011 0.00020352450584831632 0 0.0023299846479843621 0.0004012650888240475 0 0.0021257093432921676 0.00028381870958116301 0 0.0022685901148263754 0.00028417617229270465 0 0.0023299846479843621 0.0004012650888240475 0 0.0023845525851527291 0.00023898655335686245 0 0.0022685901148263754 0.00028417617229270465 0 0.0023845525851527291 0.00023898655335686245 0 0.0022685901148263754 0.00028417617229270465 0 0.0022168297085930818 0.00019825740299679942 0 0.0023845525851527291 0.00023898655335686245 0 0.0022168297085930818 0.00019825740299679942 0 0.0022013778299521405 4.3783418682801866e-05 0 0.0022363043110730394 0.00016830833195170475 0 0.0021446089982528676 4.5696141526007694e-05 0 0.0020611380184649636 -3.5363284837582415e-06 0 0.002308127766651011 0.00020352450584831632 0 0.0021256451891766403 2.3511950215674393e-05 0 0.0022363043110730394 0.00016830833195170475 0 0.0021446089982528676 4.5696141526007694e-05 0 0.0022584457779205661 7.3059255840616995e-05 0 0.0022584457779205661 7.3059255840616995e-05 0 0.0023522231854859214 1.1871647155326351e-05 0 0.0022604769220027797 -0.00012909624834325195 0 0.0021446089982528676 4.5696141526007694e-05 0 0.0022584457779205661 7.3059255840616995e-05 0 0.0022604769220027797 -0.00012909624834325195 0 0.0023894173409115568 0.0001460653654067253 0 0.0022363043110730394 0.00016830833195170475 0 0.0022584457779205661 7.3059255840616995e-05 0 0.0023894173409115568 0.0001460653654067253 0 0.0022584457779205661 7.3059255840616995e-05 0 0.0023522231854859214 1.1871647155326351e-05 0 0.0024536377420793722 2.7924935375450556e-05 0 0.0023894173409115568 0.0001460653654067253 0 0.0023522231854859214 1.1871647155326351e-05 0 0.0023883806166215085 -0.00027504714655424405 0 0.002405742431489498 -9.5088009463963123e-05 0 0.0023525127761389914 -0.00019541779826034737 0 0.002405742431489498 -9.5088009463963123e-05 0 0.0023525127761389914 -0.00019541779826034737 0 0.0022604769220027797 -0.00012909624834325195 0 0.002405742431489498 -9.5088009463963123e-05 0 0.0023522231854859214 1.1871647155326351e-05 0 0.0022604769220027797 -0.00012909624834325195 0 0.0021622394702254183 -5.4336669216851466e-05 0 0.002103006247056918 -4.8806820765272485e-05 0 0.0021318846805413018 -0.00011233505701435555 0 0.002103006247056918 -4.8806820765272485e-05 0 0.0020538896027328347 -9.2578669204509848e-05 0 0.0021318846805413018 -0.00011233505701435555 0 0.0021356160417874046 4.8798081767862408e-05 0 0.0022449113113206932 -0.00014661537682356988 0 0.0021446089982528676 4.5696141526007694e-05 0 0.002103006247056918 -4.8806820765272485e-05 0 0.0020611380184649636 -3.5363284837582415e-06 0 0.0021446089982528676 4.5696141526007694e-05 0 0.0021622394702254183 -5.4336669216851466e-05 0 0.002103006247056918 -4.8806820765272485e-05 0 0.002103006247056918 -4.8806820765272485e-05 0 0.0020611380184649636 -3.5363284837582415e-06 0 0.0020538896027328347 -9.2578669204509848e-05 0 0.0020538896027328347 -9.2578669204509848e-05 0 0.0020843163120975125 -0.00018590256568258928 0 0.0019258702992908867 -0.00012121586440842828 0 0.0020538896027328347 -9.2578669204509848e-05 0 0.0020843163120975125 -0.00018590256568258928 0 0.0021318846805413018 -0.00011233505701435555 0 0.0015344606061572258 -0.00027444424733195227 0 0.001626825777992204 -0.00031263965130478438 0 0.0014551184496888133 -0.00035000589005274144 0 0.0020843163120975125 -0.00018590256568258928 0 0.0021318846805413018 -0.00011233505701435555 0 0.0022218696034935915 -0.00015132235686131642 0 0.0018669790283718708 -0.00024783276443725728 0 0.0017347397506178839 -9.0298108927422673e-05 0 0.0021622394702254183 -5.4336669216851466e-05 0 0.0021318846805413018 -0.00011233505701435555 0 0.0022218696034935915 -0.00015132235686131642 0 0.0015344606061572258 -0.00027444424733195227 0 0.0014763002547007883 -0.00028773098005689625 0 0.0014551184496888133 -0.00035000589005274144 0 0.0014763002547007883 -0.00028773098005689625 0 0.0014504795236204382 -0.00031837774395700375 0 0.0014551184496888133 -0.00035000589005274144 0 0.0014158081862618323 2.4703704307610294e-05 0 0.0014059289060116538 -3.7101002616526832e-06 0 0.0014433889507637833 -0.00033075794724854419 0 0.0014504795236204382 -0.00031837774395700375 0 0.0014551184496888133 -0.00035000589005274144 0 0.0014158081862618323 2.4703704307610294e-05 0 0.0017347397506178839 -9.0298108927422673e-05 0 0.0014956048005640183 0.0001613135331804836 0 0.0013668091246510693 -6.5690114087530916e-05 0 0.0012574598732668627 0.00010727674577852805 0 0.0013130687276822687 5.7383272780834917e-05 0 0.0014158081862618323 2.4703704307610294e-05 0 0.0013130687276822687 5.7383272780834917e-05 0 0.0017347397506178839 -9.0298108927422673e-05 0 0.0023883806166215085 -0.00027504714655424405 0 0.0023525127761389914 -0.00019541779826034737 0 0.0023557212991999585 -0.00028197824583671416 0 0.0022449113113206932 -0.00014661537682356988 0 0.0017347397506178839 -9.0298108927422673e-05 0 0.0023525127761389914 -0.00019541779826034737 0 0.0022604769220027797 -0.00012909624834325195 0 0.0023557212991999585 -0.00028197824583671416 0 0.0019252474096867452 9.3203326948636942e-05 0 0.0018623662641444867 -5.5627848304315974e-05 0 0.0019923021138933267 1.202819048692221e-05 0 0.0019252474096867452 9.3203326948636942e-05 0 0.0018623662641444867 -5.5627848304315974e-05 0 0.0017364991046754689 -2.9045800088404712e-05 0 0.0021256451891766403 2.3511950215674393e-05 0 0.001955743442688567 -0.00011487248323799291 0 0.0022013778299521405 4.3783418682801866e-05 0 0.0019923021138933267 1.202819048692221e-05 0 0.0019258702992908867 -0.00012121586440842828 0 0.0020611380184649636 -3.5363284837582415e-06 0 0.0020538896027328347 -9.2578669204509848e-05 0 0.0019258702992908867 -0.00012121586440842828 0 0.0020941606267758091 0.00012233281533441127 0 0.0022013778299521405 4.3783418682801866e-05 0 0.0019923021138933267 1.202819048692221e-05 0 0.0018623662641444867 -5.5627848304315974e-05 0 0.0019923021138933267 1.202819048692221e-05 0 0.0019258702992908867 -0.00012121586440842828 0 0.0018473967760304656 -0.00021126881843256705 0 0.0020843163120975125 -0.00018590256568258928 0 0.0019258702992908867 -0.00012121586440842828 0 0.0018436959680659623 -0.00022312971272045126 0 0.0018669790283718708 -0.00024783276443725728 0 0.0018473967760304656 -0.00021126881843256705 0 0.0019258702992908867 -0.00012121586440842828 0 0.0018353253491276984 -0.00013749507224533061 0 0.0017932137905234615 -0.0001622239431529291 0 0.0018473967760304656 -0.00021126881843256705 0 0.0018353253491276984 -0.00013749507224533061 0 0.0018623662641444867 -5.5627848304315974e-05 0 0.0017619637360606233 -0.00011316690317705331 0 0.0017364991046754689 -2.9045800088404712e-05 0 0.0018623662641444867 -5.5627848304315974e-05 0 0.0019258702992908867 -0.00012121586440842828 0 0.0018353253491276984 -0.00013749507224533061 0 0.0018623662641444867 -5.5627848304315974e-05 0 0.0018353253491276984 -0.00013749507224533061 0 0.0017619637360606233 -0.00011316690317705331 0 0.0017932137905234615 -0.0001622239431529291 0 0.0018353253491276984 -0.00013749507224533061 0 0.0017619637360606233 -0.00011316690317705331 0 0.0016692116621909851 -0.00011741425902793466 0 0.0017364991046754689 -2.9045800088404712e-05 0 0.0015884743304681137 -0.00010101812816709955 0 0.0017619637360606233 -0.00011316690317705331 0 0.0016692116621909851 -0.00011741425902793466 0 0.0017364991046754689 -2.9045800088404712e-05 0 0.0017364991046754689 -2.9045800088404712e-05 0 0.0016420587046487595 5.7334770790356329e-05 0 0.0017857822229964341 0.00012649677005794938 0 0.0019252474096867452 9.3203326948636942e-05 0 0.0017364991046754689 -2.9045800088404712e-05 0 0.0017857822229964341 0.00012649677005794938 0 0.0017364991046754689 -2.9045800088404712e-05 0 0.0016420587046487595 5.7334770790356329e-05 0 0.0015884743304681137 -0.00010101812816709955 0 0.0014526783755617633 0.00020276323147529958 0 0.0014374684587712895 2.4758217902451026e-05 0 0.0013576364830760095 0.00011502894617672998 0 0.0015241365898128491 0.000118646308155193 0 0.0015110334851173208 -4.1679377264871719e-05 0 0.0013315254612621518 -6.0595415998086061e-05 0 0.0012384341982561988 6.6175250577944579e-05 0 0.0013576364830760095 0.00011502894617672998 0 0.0013315254612621518 -6.0595415998086061e-05 0 0.0014374684587712895 2.4758217902451026e-05 0 0.0013576364830760095 0.00011502894617672998 0 0.0012384341982561988 6.6175250577944579e-05 0 0.0012833013999014019 0.0001918335356002233 0 0.0011839705234259854 0.00024444710787270541 0 0.0014526783755617633 0.00020276323147529958 0 0.0012833013999014019 0.0001918335356002233 0 0.0013576364830760095 0.00011502894617672998 0 0.0012384341982561988 6.6175250577944579e-05 0 0.0012833013999014019 0.0001918335356002233 0 0.0013576364830760095 0.00011502894617672998 0 0.0014526783755617633 0.00020276323147529958 0 0.0012833013999014019 0.0001918335356002233 0 0.0013182030966285665 0.00030578361021905043 0 0.0014264114631369733 0.00032601667835108368 0 0.0012077759412022161 0.00024611410720441621 0 0.0015605374250448481 0.00033759904311527297 0 0.0011839705234259854 0.00024444710787270541 0 0.0012641097792274155 0.00045625536868360651 0 0.0012833013999014019 0.0001918335356002233 0 0.0013182030966285665 0.00030578361021905043 0 0.0011839705234259854 0.00024444710787270541 0 0.0015605374250448481 0.00033759904311527297 0 0.0012641097792274155 0.00045625536868360651 0 0.0014329470623285396 0.0006048929588066158 0 0.0015605374250448481 0.00033759904311527297 0 0.0019168169516335196 0.0004782942876738287 0 0.0016600038387350731 0.00061150649734178185 0 0.0015605374250448481 0.00033759904311527297 0 0.0016600038387350731 0.00061150649734178185 0 0.0014329470623285396 0.0006048929588066158 0 0.0014264114631369733 0.00032601667835108368 0 0.0017540934362134375 0.00039770781501646054 0 0.0020446203261388755 0.00042555635185018701 0 0.0019189937498634701 0.00024458016618411621 0 0.0016828040434858399 0.00032296096549870362 0 0.0019189937498634701 0.00024458016618411621 0 0.0016828040434858399 0.00032296096549870362 0 0.0017857822229964341 0.00012649677005794938 0 0.0016420587046487595 5.7334770790356329e-05 0 0.0016828040434858399 0.00032296096549870362 0 0.0017857822229964341 0.00012649677005794938 0 0.0014526783755617633 0.00020276323147529958 0 0.0013182030966285665 0.00030578361021905043 0 0.0014753349240858153 0.00037696269180954059 0 0.0015241365898128491 0.000118646308155193 0 0.0017540934362134375 0.00039770781501646054 0 0.00063477151656083297 0.00022316132003068532 0 0.0007053266747684496 0.00021638831130719612 0 0.00069672865184946793 0.00031567446767658729 0 0.0007053266747684496 0.00021638831130719612 0 0.00076808974655936122 0.00025785239474241832 0 0.00069672865184946793 0.00031567446767658729 0 0.00063477151656083297 0.00022316132003068532 0 0.0007053266747684496 0.00021638831130719612 0 0.00066454689065248548 0.00017900017233416892 0 0.0006218898573931744 0.00015389662768840287 0 0.00066454689065248548 0.00017900017233416892 0 0.00065616332099321787 0.00014506876651395803 0 0.00066454689065248548 0.00017900017233416892 0 0.00065616332099321787 0.00014506876651395803 0 0.00070332918203650906 0.00015452162537843273 0 0.00062926604044960511 0.00011385595158518845 0 0.00062445636440291693 0.00013362233556269313 0 0.00065616332099321787 0.00014506876651395803 0 0.00067152883916680312 0.00010161472046746584 0 0.00065616332099321787 0.00014506876651395803 0 0.00070332918203650906 0.00015452162537843273 0 0.0007053266747684496 0.00021638831130719612 0 0.00066454689065248548 0.00017900017233416892 0 0.00070332918203650906 0.00015452162537843273 0 0.00075042385937287121 0.00012614955460159711 0 0.00070332918203650906 0.00015452162537843273 0 0.00076787960452546491 0.00019826552449002759 0 0.00075042385937287121 0.00012614955460159711 0 0.00076787960452546491 0.00019826552449002759 0 0.00080596221723378447 0.00017460233683312839 0 0.00075042385937287121 0.00012614955460159711 0 0.00067152883916680312 0.00010161472046746584 0 0.00070332918203650906 0.00015452162537843273 0 0.00076787960452546491 0.00019826552449002759 0 0.00080596221723378447 0.00017460233683312839 0 0.00087889193275949738 0.0003004696106158504 0 0.00076787960452546491 0.00019826552449002759 0 0.00076808974655936122 0.00025785239474241832 0 0.00087889193275949738 0.0003004696106158504 0 0.0007053266747684496 0.00021638831130719612 0 0.00070332918203650906 0.00015452162537843273 0 0.00076787960452546491 0.00019826552449002759 0 0.0007053266747684496 0.00021638831130719612 0 0.00076787960452546491 0.00019826552449002759 0 0.00076808974655936122 0.00025785239474241832 0 0.0012384341982561988 6.6175250577944579e-05 0 0.0011100940329123064 1.0204299844436998e-05 0 0.0011839705234259854 0.00024444710787270541 0 0.00098414463550742701 6.3657951121804922e-05 0 0.0011100940329123064 1.0204299844436998e-05 0 0.0011839705234259854 0.00024444710787270541 0 0.00089597352928976815 0.00012788098761634415 0 0.00087297175030103316 0.00029549311769730283 0 0.00098414463550742701 6.3657951121804922e-05 0 0.0011839705234259854 0.00024444710787270541 0 0.00087889193275949738 0.0003004696106158504 0 0.0010503667119790585 -9.246140748373242e-05 0 0.00098414463550742701 6.3657951121804922e-05 0 0.0011100940329123064 1.0204299844436998e-05 0 0.00092415862171542872 -6.670521823467432e-09 0 0.00089597352928976815 0.00012788098761634415 0 0.0011839705234259854 0.00024444710787270541 0 0.0012641097792274155 0.00045625536868360651 0 0.0010585810174825515 0.00047561753068325121 0 0.0012641097792274155 0.00045625536868360651 0 0.0010585810174825515 0.00047561753068325121 0 0.0011991788605042412 0.00068108451105874988 0 0.0010585810174825515 0.00047561753068325121 0 0.00087889193275949738 0.0003004696106158504 0 0.00083632402305056444 0.0004769748271278036 0 0.0011839705234259854 0.00024444710787270541 0 0.0010585810174825515 0.00047561753068325121 0 0.00087889193275949738 0.0003004696106158504 0 0.00076808974655936122 0.00025785239474241832 0 0.00087889193275949738 0.0003004696106158504 0 0.00069672865184946793 0.00031567446767658729 0 0.00087889193275949738 0.0003004696106158504 0 0.00083632402305056444 0.0004769748271278036 0 0.00069672865184946793 0.00031567446767658729 0 0.00083632402305056444 0.0004769748271278036 0 0.00066151177248084485 0.00044655879372409145 0 0.00069672865184946793 0.00031567446767658729 0 0.004428513666182134 -0.00070265022834344341 0 0.0045559094654223876 -0.00057740406618540937 0 0.0046617813133892723 -0.00070563448267587964 0 0.0045559094654223876 -0.00057740406618540937 0 0.0046617813133892723 -0.00070563448267587964 0 0.0046635933739767104 -0.00055386027648254832 0 0.00083632402305056444 0.0004769748271278036 0 0.00066151177248084485 0.00044655879372409145 0 0.00080279473470875131 0.00069493343185710456 0 0.0025698979453753221 -0.00021643693737974067 0 0.002649132323470331 5.0954649153295996e-06 0 0.004428513666182134 -0.00070265022834344341 0 0.0044542337767157292 -0.00096145626176783123 0 0.0046617813133892723 -0.00070563448267587964 0 0.00083632402305056444 0.0004769748271278036 0 0.00080279473470875131 0.00069493343185710456 0 0.00098354040486993508 0.00068569863571114225 0 0.00080279473470875131 0.00069493343185710456 0 0.00098354040486993508 0.00068569863571114225 0 0.00098913174562110812 0.00096237552939644401 0 0.002649132323470331 5.0954649153295996e-06 0 0.0034751405310339076 4.0479538359127072e-06 0 0.0046617813133892723 -0.00070563448267587964 0 0.0046635933739767104 -0.00055386027648254832 0 0.0047931789280401035 -0.0004918558899809607 0 0.0010965019147543581 0.00083574047054206773 0 0.00098354040486993508 0.00068569863571114225 0 0.00098913174562110812 0.00096237552939644401 0 0.0010965019147543581 0.00083574047054206773 0 0.00098354040486993508 0.00068569863571114225 0 0.0011991788605042412 0.00068108451105874988 0 0.0010965019147543581 0.00083574047054206773 0 0.001256444267824484 0.00093188296632519085 0 0.00098913174562110812 0.00096237552939644401 0 0.0010585810174825515 0.00047561753068325121 0 0.00083632402305056444 0.0004769748271278036 0 0.00098354040486993508 0.00068569863571114225 0 0.0010585810174825515 0.00047561753068325121 0 0.00098354040486993508 0.00068569863571114225 0 0.0011991788605042412 0.00068108451105874988 0 0.0012641097792274155 0.00045625536868360651 0 0.0011991788605042412 0.00068108451105874988 0 0.0014329470623285396 0.0006048929588066158 0 0.0012649218749879725 0.00079311139415470355 0 0.0012724120333727868 0.00089128227683391242 0 0.0013719538776343261 0.00076673479235091452 0 0.0011991788605042412 0.00068108451105874988 0 0.0012649218749879725 0.00079311139415470355 0 0.0013719538776343261 0.00076673479235091452 0 0.0011991788605042412 0.00068108451105874988 0 0.0012649218749879725 0.00079311139415470355 0 0.0011964490115799729 0.00083296737307645167 0 0.0010965019147543581 0.00083574047054206773 0 0.0011991788605042412 0.00068108451105874988 0 0.0011964490115799729 0.00083296737307645167 0 0.0010965019147543581 0.00083574047054206773 0 0.0011964490115799729 0.00083296737307645167 0 0.001256444267824484 0.00093188296632519085 0 0.0011964490115799729 0.00083296737307645167 0 0.0012724120333727868 0.00089128227683391242 0 0.001256444267824484 0.00093188296632519085 0 0.0012649218749879725 0.00079311139415470355 0 0.0011964490115799729 0.00083296737307645167 0 0.0012724120333727868 0.00089128227683391242 0 0.0016692875065690725 0.0010041095498660546 0 0.0017639432535307047 0.0009855701460192844 0 0.0032966405150285554 0.000619033154493423 0 0.0031150458942386353 0.00037225502871442113 0 0.0032842419961680298 -5.6780883681173926e-05 0 0.0017639432535307047 0.0009855701460192844 0 0.003076445595898091 0.00055995921557491855 0 0.0029668998566160908 0.00073201191523640031 0 0.0032966405150285554 0.000619033154493423 0 0.003103756324443751 0.00036992827095504724 0 0.0031983339582109887 0.00057580575982491737 0 0.003076445595898091 0.00055995921557491855 0 0.0019618028776378499 0.00086388904758690345 0 0.0019693305153218616 0.00085155796923816072 0 0.0019506569177679791 0.00085443152312909886 0 0.003076445595898091 0.00055995921557491855 0 0.0031819237105764498 0.00086987733293954629 0 0.0038864116223559352 0.00071737846421121565 0 0.0038136253873015439 0.00051739950542748349 0 0.0037119247206859724 0.00049232501083557869 0 0.0038864116223559352 0.00071737846421121565 0 0.0038136253873015439 0.00051739950542748349 0 0.0039346261808465548 0.00054652275291985344 0 0.0045897865293906661 0.00072732527375629706 0 0.0051741524464627223 0.00045711863091506445 0 0.0050944132798487786 0.00077817884496618104 0 0.0051065492568408716 0.00078095915998919823 0 0.0050743527445812507 0.00076998901335510305 0 0.0048091045985256499 0.00075905247510914676 0 0.0045897865293906661 0.00072732527375629706 0 0.0051741524464627223 0.00045711863091506445 0 0.0048873681234730517 0.00010930131041453913 0 0.0038864116223559352 0.00071737846421121565 0 0.0039346261808465548 0.00054652275291985344 0 0.0039548116092010211 0.00055154387272452615 0 0.003076445595898091 0.00055995921557491855 0 0.0048873681234730517 0.00010930131041453913 0 0.005126662126014943 -0.00021669520236065973 0 0.0049472865449517334 -0.00026963874261462729 0 0.0049622486632669906 -0.0004974258850252289 0 0.0048873681234730517 0.00010930131041453913 0 0.0034751405310339076 4.0479538359127072e-06 0 0.0048873681234730517 0.00010930131041453913 0 0.0050969696741697051 -0.00023002805517676148 0 0.0055238884065065986 -0.00015398400013959902 0 0.0051639826247235144 -0.00025543820982290913 0 0.0052077403501675596 5.9712066715654953e-05 0 0.0051639826247235144 -0.00025543820982290913 0 0.0050079320048368719 -1.9926426250379277e-05 0 0.0052077403501675596 5.9712066715654953e-05 0 0.0029668998566160908 0.00073201191523640031 0 0.0032966405150285554 0.000619033154493423 0 0.0036972881666202319 0.00059968715574162381 0 0.0017639432535307047 0.0009855701460192844 0 0.0034751405310339076 4.0479538359127072e-06 0 0.0032966405150285554 0.000619033154493423 0 0.0032842419961680298 -5.6780883681173926e-05 0 0.0036972881666202319 0.00059968715574162381 0 0.0034751405310339076 4.0479538359127072e-06 0 0.0052189573073555696 -0.00060801547273197428 0 0.0046635933739767104 -0.00055386027648254832 0 0.0047931789280401035 -0.0004918558899809607 0 0.0046107536693255277 -0.00044556691358545977 0 0.0049622486632669906 -0.0004974258850252289 0 0.0048289264679182023 -0.00037924550061963288 0 0.0046107536693255277 -0.00044556691358545977 0 0.0049472865449517334 -0.00026963874261462729 0 0.0049622486632669906 -0.0004974258850252289 0 0.0048289264679182023 -0.00037924550061963288 0 0.0048289264679182023 -0.00037924550061963288 0 0.0047743623944305705 -0.0003205858025452602 0 0.0046107536693255277 -0.00044556691358545977 0 0.0049472865449517334 -0.00026963874261462729 0 0.0048289264679182023 -0.00037924550061963288 0 0.0047743623944305705 -0.0003205858025452602 0 0.0050969696741697051 -0.00023002805517676148 0 0.0048042754451309176 -0.00031758368465388195 0 0.0051639826247235144 -0.00025543820982290913 0 0.0048349173379250944 -0.0001973133015331088 0 0.0047743623944305705 -0.0003205858025452602 0 0.0051639826247235144 -0.00025543820982290913 0 0.0048349173379250944 -0.0001973133015331088 0 0.0050079320048368719 -1.9926426250379277e-05 0 0.0048349173379250944 -0.0001973133015331088 0 0.0047743623944305705 -0.0003205858025452602 0 0.004700405813498453 -0.00023675266114453182 0 0.0048349173379250944 -0.0001973133015331088 0 0.004700405813498453 -0.00023675266114453182 0 0.0047090523592275661 -8.0637564717153811e-06 0 0.004700405813498453 -0.00023675266114453182 0 0.0045811710086292121 -0.00021274750156148682 0 0.0047090523592275661 -8.0637564717153811e-06 0 0.004700405813498453 -0.00023675266114453182 0 0.0045811710086292121 -0.00021274750156148682 0 0.0046107536693255277 -0.00044556691358545977 0 0.0047743623944305705 -0.0003205858025452602 0 0.004700405813498453 -0.00023675266114453182 0 0.0046107536693255277 -0.00044556691358545977 0 0.0044396657981773547 -0.00046931989152287397 0 0.0045811710086292121 -0.00021274750156148682 0 0.0046107536693255277 -0.00044556691358545977 0 0.0045559094654223876 -0.00057740406618540937 0 0.0046635933739767104 -0.00055386027648254832 0 0.0046107536693255277 -0.00044556691358545977 0 0.0044396657981773547 -0.00046931989152287397 0 0.0045559094654223876 -0.00057740406618540937 0 0.0046107536693255277 -0.00044556691358545977 0 0.0019431315928478236 0.00080014589713428596 0 0.001885161880391902 0.00084434883026095555 0 0.0018198099927457451 0.0007143641668430036 0 0.001885161880391902 0.00084434883026095555 0 0.0018198099927457451 0.0007143641668430036 0 0.0016894775355335973 0.0007584454424511011 0 0.0019431315928478236 0.00080014589713428596 0 0.001885161880391902 0.00084434883026095555 0 0.0019137356020974131 0.00084889119509463278 0 0.0019759558167865539 0.00064584499091622865 0 0.0019764591670940147 0.00074184481361355714 0 0.0021407250918001842 0.00054700309566269218 0 0.0019739875504380692 0.00048188356231305756 0 0.0020117764776401291 0.00062577794165466732 0 0.0021407250918001842 0.00054700309566269218 0 0.0020446203261388755 0.00042555635185018701 0 0.0019739875504380692 0.00048188356231305756 0 0.0020446203261388755 0.00042555635185018701 0 0.0019606283325333779 0.00039614791776726026 0 0.0019739875504380692 0.00048188356231305756 0 0.0020545247592129419 0.00041815950871990033 0 0.0017540934362134375 0.00039770781501646054 0 0.0019168169516335196 0.0004782942876738287 0 0.0019431315928478236 0.00080014589713428596 0 0.0018198099927457451 0.0007143641668430036 0 0.0019168169516335196 0.0004782942876738287 0 0.0018198099927457451 0.0007143641668430036 0 0.0016600038387350731 0.00061150649734178185 0 0.0017540934362134375 0.00039770781501646054 0 0.0019759558167865539 0.00064584499091622865 0 0.0016600038387350731 0.00061150649734178185 0 0.0015299457931356078 0.00071949970282184929 0 0.0014329470623285396 0.0006048929588066158 0 0.0016600038387350731 0.00061150649734178185 0 0.0015299457931356078 0.00071949970282184929 0 0.0016894775355335973 0.0007584454424511011 0 0.0018198099927457451 0.0007143641668430036 0 0.0016600038387350731 0.00061150649734178185 0 0.0016894775355335973 0.0007584454424511011 0 0.0011991788605042412 0.00068108451105874988 0 0.0014329470623285396 0.0006048929588066158 0 0.0013719538776343261 0.00076673479235091452 0 0.0015299457931356078 0.00071949970282184929 0 0.0014329470623285396 0.0006048929588066158 0 0.0013719538776343261 0.00076673479235091452 0 0.0017639432535307047 0.0009855701460192844 0 0.001712461590537001 0.00088448769705413858 0 0.0012724120333727868 0.00089128227683391242 0 0.0012523784438681028 0.00094476324293343958 0 0.0015390404404734988 0.00091998172109721053 0 0.0012724120333727868 0.00089128227683391242 0 0.0013719538776343261 0.00076673479235091452 0 0.0015390404404734988 0.00091998172109721053 0 0.0015299457931356078 0.00071949970282184929 0 0.0013719538776343261 0.00076673479235091452 0 0.0015390404404734988 0.00091998172109721053 0 0.001885161880391902 0.00084434883026095555 0 0.0016894775355335973 0.0007584454424511011 0 0.0015390404404734988 0.00091998172109721053 0 0.001885161880391902 0.00084434883026095555 0 0.0019377213329103045 0.00086251092060587629 0 0.0019217844987450374 0.0008479017487264519 0 0.0018851304094404011 0.00085105186914301854 0 0.001712461590537001 0.00088448769705413858 0 0.0015299457931356078 0.00071949970282184929 0 0.0016894775355335973 0.0007584454424511011 0 0.0015390404404734988 0.00091998172109721053 0 0.0019377213329103045 0.00086251092060587629 0 0.0019217844987450374 0.0008479017487264519 0 0.0019379979347198114 0.00084746348495306578 0 0.0019217844987450374 0.0008479017487264519 0 0.0019379979347198114 0.00084746348495306578 0 0.0019396530681312809 0.00084808002083566877 0 0.0019693305153218616 0.00085155796923816072 0 0.0019506569177679791 0.00085443152312909886 0 0.0019504831027984612 0.00084812049706850675 0 0.0019618028776378499 0.00086388904758690345 0 0.0019377213329103045 0.00086251092060587629 0 0.0019506569177679791 0.00085443152312909886 0 0.0019377213329103045 0.00086251092060587629 0 0.0019506569177679791 0.00085443152312909886 0 0.0019379979347198114 0.00084746348495306578 0 0.0019506569177679791 0.00085443152312909886 0 0.0019504831027984612 0.00084812049706850675 0 0.0019379979347198114 0.00084746348495306578 0 0.0019693305153218616 0.00085155796923816072 0 0.0019504831027984612 0.00084812049706850675 0 0.0019551078046744826 0.00084009395304833825 0 0.0019504831027984612 0.00084812049706850675 0 0.0019379979347198114 0.00084746348495306578 0 0.0019423291977273868 0.00084746162165467368 0 0.0019504831027984612 0.00084812049706850675 0 0.0019423291977273868 0.00084746162165467368 0 0.0019551078046744826 0.00084009395304833825 0 0.0019379979347198114 0.00084746348495306578 0 0.0019387262217820508 0.00084939404449331827 0 0.0019396530681312809 0.00084808002083566877 0 0.0019379979347198114 0.00084746348495306578 0 0.0019423291977273868 0.00084746162165467368 0 0.0019387262217820508 0.00084939404449331827 0 0.0019423291977273868 0.00084746162165467368 0 0.0019387262217820508 0.00084939404449331827 0 0.0019346661638590882 0.00085417132354962896 0 0.0019387262217820508 0.00084939404449331827 0 0.0019455706104316742 0.00085233527294042055 0 0.0019346661638590882 0.00085417132354962896 0 0.0019387262217820508 0.00084939404449331827 0 0.0019455706104316742 0.00085233527294042055 0 0.0019396530681312809 0.00084808002083566877 0 0.0019455706104316742 0.00085233527294042055 0 0.0019606468333593411 0.00085315686882289643 0 0.0019396530681312809 0.00084808002083566877 0 0.0019455706104316742 0.00085233527294042055 0 0.0019606468333593411 0.00085315686882289643 0 0.0019658309230837566 0.00086742324293920627 0 0.0019606468333593411 0.00085315686882289643 0 0.0019661465090264172 0.00085026797661420762 0 0.0019396530681312809 0.00084808002083566877 0 0.001977696024696884 0.00085472794979781234 0 0.0019606468333593411 0.00085315686882289643 0 0.0019661465090264172 0.00085026797661420762 0 0.001977696024696884 0.00085472794979781234 0 0.0019606468333593411 0.00085315686882289643 0 0.0019720327649536996 0.00085956327245666252 0 0.0019661465090264172 0.00085026797661420762 0 0.0019396530681312809 0.00084808002083566877 0 0.0019350977720831036 0.00084923127301022867 0 0.0019661465090264172 0.00085026797661420762 0 0.0019350977720831036 0.00084923127301022867 0 0.0019388537019679301 0.00085510727681870329 0 0.0019431315928478236 0.00080014589713428596 0 0.0019137356020974131 0.00084889119509463278 0 0.0019388537019679301 0.00085510727681870329 0 0.0019217844987450374 0.0008479017487264519 0 0.0019396530681312809 0.00084808002083566877 0 0.0019350977720831036 0.00084923127301022867 0 0.0019350977720831036 0.00084923127301022867 0 0.0019137356020974131 0.00084889119509463278 0 0.0019388537019679301 0.00085510727681870329 0 0.0019217844987450374 0.0008479017487264519 0 0.0019350977720831036 0.00084923127301022867 0 0.0019137356020974131 0.00084889119509463278 0 0.001885161880391902 0.00084434883026095555 0 0.0019217844987450374 0.0008479017487264519 0 0.0019137356020974131 0.00084889119509463278 0 0.0021778819458841813 0.00069110063183106256 0 0.0021407250918001842 0.00054700309566269218 0 0.0020117764776401291 0.00062577794165466732 0 0.0021778819458841813 0.00069110063183106256 0 0.0020117764776401291 0.00062577794165466732 0 0.0020997733588693102 0.0007392071373217452 0 0.0020117764776401291 0.00062577794165466732 0 0.0020997733588693102 0.0007392071373217452 0 0.0020116809984763485 0.00084816735718664055 0 0.0019764591670940147 0.00074184481361355714 0 0.002006287495277708 0.00084836962625752237 0 0.0019661465090264172 0.00085026797661420762 0 0.0019388537019679301 0.00085510727681870329 0 0.0020116809984763485 0.00084816735718664055 0 0.001977696024696884 0.00085472794979781234 0 0.0019661465090264172 0.00085026797661420762 0 0.0020116809984763485 0.00084816735718664055 0 0.0020997733588693102 0.0007392071373217452 0 0.0020116809984763485 0.00084816735718664055 0 0.0021937028444060066 0.00081207486964944716 0 0.0023066981308091554 0.0009427305441840674 0 0.0023266092621262403 0.00091282191936653079 0 0.0025325002796706231 0.00099830768520692672 0 0.0024799456855937561 0.00093592183144927709 0 0.0023482051399277551 0.00090122354401624485 0 0.0020116809984763485 0.00084816735718664055 0 0.0020003337279918022 0.00089665147770602929 0 0.0021937028444060066 0.00081207486964944716 0 0.001977696024696884 0.00085472794979781234 0 0.0020116809984763485 0.00084816735718664055 0 0.0019845717321171894 0.00086340297752177629 0 0.0020116809984763485 0.00084816735718664055 0 0.0020003337279918022 0.00089665147770602929 0 0.0019845717321171894 0.00086340297752177629 0 0.0024799456855937561 0.00093592183144927709 0 0.0024907891310848103 0.00088026718106242624 0 0.00242540446408088 0.00088628670368391964 0 0.0024799456855937561 0.00093592183144927709 0 0.0024907891310848103 0.00088026718106242624 0 0.0025859553055379452 0.00092892049115339721 0 0.0025612724102000869 0.000872400249150925 0 0.0024907891310848103 0.00088026718106242624 0 0.0025859553055379452 0.00092892049115339721 0 0.0025612724102000869 0.000872400249150925 0 0.0026963075679483904 0.00093617585249416838 0 0.0028263639682237175 0.00085122473916833682 0 0.0020409180642500576 0.00084353221603719608 0 0.0040869386919911042 0.00095540013498508758 0 0.0025612724102000869 0.000872400249150925 0 0.0025859553055379452 0.00092892049115339721 0 0.0026963075679483904 0.00093617585249416838 0 0.0020003337279918022 0.00089665147770602929 0 0.0019658309230837566 0.00086742324293920627 0 0.0019346661638590882 0.00085417132354962896 0 0.0025325002796706231 0.00099830768520692672 0 0.0026738953750819151 0.00099440847701232982 0 0.0027043127924330514 0.0010255278666836713 0 0.0025084733017152537 0.00094164534097583834 0 0.0026671974058765009 0.0010474543427489169 0 0.0023066981308091554 0.0009427305441840674 0 0.0021718889292147198 0.0009356065348685936 0 0.0026963075679483904 0.00093617585249416838 0 0.0027383943283668115 0.0010603978658189901 0 0.0027975089355504711 0.0009642213418970464 0 0.0025325002796706231 0.00099830768520692672 0 0.0024799456855937561 0.00093592183144927709 0 0.0026738953750819151 0.00099440847701232982 0 0.0025859553055379452 0.00092892049115339721 0 0.0026963075679483904 0.00093617585249416838 0 0.0027383943283668115 0.0010603978658189901 0 0.0024799456855937561 0.00093592183144927709 0 0.0025859553055379452 0.00092892049115339721 0 0.0027383943283668115 0.0010603978658189901 0 0.0020003337279918022 0.00089665147770602929 0 0.0019658309230837566 0.00086742324293920627 0 0.0019845717321171894 0.00086340297752177629 0 0.0019606468333593411 0.00085315686882289643 0 0.0019658309230837566 0.00086742324293920627 0 0.0019720327649536996 0.00085956327245666252 0 0.0019658309230837566 0.00086742324293920627 0 0.0019720327649536996 0.00085956327245666252 0 0.0019845717321171894 0.00086340297752177629 0 0.001977696024696884 0.00085472794979781234 0 0.0019720327649536996 0.00085956327245666252 0 0.0019845717321171894 0.00086340297752177629 0 0.0019455706104316742 0.00085233527294042055 0 0.0019658309230837566 0.00086742324293920627 0 0.0019346661638590882 0.00085417132354962896 0 0.0026671974058765009 0.0010474543427489169 0 0.0031819237105764498 0.00086987733293954629 0 0.0021718889292147198 0.0009356065348685936 0 0.0031819237105764498 0.00086987733293954629 0 0.0019423291977273868 0.00084746162165467368 0 0.0019346661638590882 0.00085417132354962896 0 0.0019551078046744826 0.00084009395304833825 0 0.0026738953750819151 0.00099440847701232982 0 0.0027043127924330514 0.0010255278666836713 0 0.0028816917054762222 0.0010360842267697922 0 0.0027383943283668115 0.0010603978658189901 0 0.002890063001554546 0.0010425684112145193 0 0.0030750946747434751 0.0011542584499857917 0 0.002890063001554546 0.0010425684112145193 0 0.0029511802642253958 0.00099524351592342078 0 0.0027975089355504711 0.0009642213418970464 0 0.0027383943283668115 0.0010603978658189901 0 0.002890063001554546 0.0010425684112145193 0 0.0027975089355504711 0.0009642213418970464 0 0.0045897865293906661 0.00072732527375629706 0 0.0031819237105764498 0.00086987733293954629 0 0.0051068312014344612 0.000781122093661584 0 0.0051319316500714951 0.0007918437609151039 0 0.0051145181405053237 0.00079753698982447472 0 0.0051319316500714951 0.0007918437609151039 0 0.0051308151053187289 0.00081543313340764209 0 0.0051145181405053237 0.00079753698982447472 0 0.0051308151053187289 0.00081543313340764209 0 0.0051145181405053237 0.00079753698982447472 0 0.0051072416709273816 0.00081672207915424238 0 0.0031819237105764498 0.00086987733293954629 0 0.0040780052725846493 0.00098887547230862879 0 0.002890063001554546 0.0010425684112145193 0 0.0030750946747434751 0.0011542584499857917 0 0.0029511802642253958 0.00099524351592342078 0 0.0051319316500714951 0.0007918437609151039 0 0.0051558679657357663 0.00083215309692487728 0 0.0051308151053187289 0.00081543313340764209 0 0.0051558679657357663 0.00083215309692487728 0 0.0051308151053187289 0.00081543313340764209 0 0.0051342881078589881 0.00083515636520687471 0 0.0051308151053187289 0.00081543313340764209 0 0.0051342881078589881 0.00083515636520687471 0 0.0051072416709273816 0.00081672207915424238 0 0.0051522557537823895 0.0008441185457439736 0 0.0051493494165696903 0.00085196584635822124 0 0.0051634204333637938 0.00085402786200792287 0 0.0070800712918881606 0.00084597956748287836 0 0.0070967016682070587 0.00086961047542028988 0 0.0069423580782972593 0.00086120815352316469 0 0.009320149388602145 0.001529718298714765 0 0.0093805098819170485 0.0013335151223604481 0 0.0096275916609208124 0.0015438875864936617 0 0.0051342881078589881 0.00083515636520687471 0 0.0051492030775329651 0.00085856430964466454 0 0.0051072416709273816 0.00081672207915424238 0 0.0064184494190028061 0.00074823577395842966 0 0.0060938046483741274 0.00084179632020722707 0 0.0051342881078589881 0.00083515636520687471 0 0.0051445334299066578 0.00084805453549397034 0 0.0051522557537823895 0.0008441185457439736 0 0.0058181673820131658 0.00062891170605010674 0 0.0064184494190028061 0.00074823577395842966 0 0.0051558679657357663 0.00083215309692487728 0 0.0051342881078589881 0.00083515636520687471 0 0.0051522557537823895 0.0008441185457439736 0 0.0051445334299066578 0.00084805453549397034 0 0.0051522557537823895 0.0008441185457439736 0 0.0051493494165696903 0.00085196584635822124 0 0.0064184494190028061 0.00074823577395842966 0 0.0074214072217952719 0.0011434102094226703 0 0.0063828375817729602 0.0010104063298910116 0 0.0062930004389997185 0.0010207399772638286 0 0.0062576623073360513 0.00094744273638704656 0 0.0074214072217952719 0.0011434102094226703 0 0.0040869386919911042 0.00095540013498508758 0 0.0026963075679483904 0.00093617585249416838 0 0.0027975089355504711 0.0009642213418970464 0 0.0028263639682237175 0.00085122473916833682 0 0.0051558679657357663 0.00083215309692487728 0 0.0051522557537823895 0.0008441185457439736 0 0.0051634204333637938 0.00085402786200792287 0 0.0029511802642253958 0.00099524351592342078 0 0.0027975089355504711 0.0009642213418970464 0 0.0028263639682237175 0.00085122473916833682 0 0.0040780052725846493 0.00098887547230862879 0 0.0040869386919911042 0.00095540013498508758 0 0.0063828375817729602 0.0010104063298910116 0 0.0062576623073360513 0.00094744273638704656 0 0.006277609570685197 0.00093913416568906511 0 0.0040869386919911042 0.00095540013498508758 0 0.0044402487474032521 0.00089283684783391206 0 0.0062930004389997185 0.0010207399772638286 0 0.0062576623073360513 0.00094744273638704656 0 0.0061598319058122413 0.0008875617176368958 0 0.0074214072217952719 0.0011434102094226703 0 0.0077049527196416494 0.0010612996024197989 0 0.009320149388602145 0.001529718298714765 0 0.0093805098819170485 0.0013335151223604481 0 0.0092349987419447499 0.0012073154909803061 0 0.0074214072217952719 0.0011434102094226703 0 0.0091434272267404797 0.0012243825707944909 0 0.0088160041569898435 0.00090490656583961315 0 0.008920893002656468 0.001172691151741773 0 0.0090736005168232069 0.0012325054175514208 0 0.0093805098819170485 0.0013335151223604481 0 0.0092349987419447499 0.0012073154909803061 0 0.0094819709142652617 0.0011625053691794998 0 0.0096770212740428102 0.00125817999424246 0 0.0093468200070256167 0.0013257009736723517 0 0.0092349987419447499 0.0012073154909803061 0 0.0094819709142652617 0.0011625053691794998 0 0.0091283181677888296 0.00090679047777572381 0 0.0098481283526858972 0.0013905006494518677 0 0.0097805567067126686 0.0013917291138042 0 0.0098395365832694391 0.0013678636509811778 0 0.0091434272267404797 0.0012243825707944909 0 0.0093468200070256167 0.0013257009736723517 0 0.008920893002656468 0.001172691151741773 0 0.0090736005168232069 0.0012325054175514208 0 0.0090471142701493163 0.0013993278937046714 0 0.0090736005168232069 0.0012325054175514208 0 0.0092522003334805387 0.0014667273256496573 0 0.0090471142701493163 0.0013993278937046714 0 0.0062327018946327431 0.00086450254156401722 0 0.0062413374455799033 0.00085703480501764099 0 0.0041698722097185661 0.00067504287968605246 0 0.0044402487474032521 0.00089283684783391206 0 0.0077049527196416494 0.0010612996024197989 0 0.0077880201944749905 0.0013034212700621184 0 0.0060972080162910759 0.00076072013354343813 0 0.0059505760791344463 0.00069508252543049769 0 0.0061598319058122413 0.0008875617176368958 0 0.006277609570685197 0.00093913416568906511 0 0.0063797389264021696 0.00097247851338907998 0 0.0063866801825011666 0.0011212039800319905 0 0.0025648274107796616 0.00077484898242936916 0 0.0025265260901075294 0.00082755223485262515 0 0.002617874206473584 0.00081914710408845725 0 0.0025648274107796616 0.00077484898242936916 0 0.0025265260901075294 0.00082755223485262515 0 0.0025170705770365194 0.00077283962037166299 0 0.0060972080162910759 0.00076072013354343813 0 0.0059505760791344463 0.00069508252543049769 0 0.0059096976578327902 0.00050736861418063898 0 0.0024907891310848103 0.00088026718106242624 0 0.0025265260901075294 0.00082755223485262515 0 0.0024565774867257601 0.00086213966345293088 0 0.0025612724102000869 0.000872400249150925 0 0.0024907891310848103 0.00088026718106242624 0 0.0025265260901075294 0.00082755223485262515 0 0.0025612724102000869 0.000872400249150925 0 0.0025265260901075294 0.00082755223485262515 0 0.002617874206473584 0.00081914710408845725 0 0.0062576623073360513 0.00094744273638704656 0 0.0060972080162910759 0.00076072013354343813 0 0.0061598319058122413 0.0008875617176368958 0 0.0062576623073360513 0.00094744273638704656 0 0.006277609570685197 0.00093913416568906511 0 0.0063797389264021696 0.00097247851338907998 0 0.0025612724102000869 0.000872400249150925 0 0.0026929203244470627 0.00089255123244139079 0 0.002617874206473584 0.00081914710408845725 0 0.0062670481675905672 0.00094875248005194728 0 0.0062327018946327431 0.00086450254156401722 0 0.0045851923258932144 0.0004620162235290459 0 0.0047174881958531832 0.00014702042234576986 0 0.0049258454157692158 0.00048424771495824288 0 0.0066705563182463392 0.00018743899788737359 0 0.0074373746264304536 0.00084098989694805955 0 0.009870851759023247 0.0012215207999962745 0 0.0098778425908890907 0.0012263151131856294 0 0.0098924358495972638 0.0012298116710572234 0 0.0044405799835931584 0.00016735072535729631 0 0.0046216627289674909 0.00017533974279907279 0 0.0045575582171229955 -2.9678179984482935e-06 0 0.0046216627289674909 0.00017533974279907279 0 0.0045575582171229955 -2.9678179984482935e-06 0 0.0047090523592275661 -8.0637564717153811e-06 0 0.0045811710086292121 -0.00021274750156148682 0 0.0045575582171229955 -2.9678179984482935e-06 0 0.0047090523592275661 -8.0637564717153811e-06 0 0.0044354268026031559 -0.00014871763945568733 0 0.0045811710086292121 -0.00021274750156148682 0 0.0045575582171229955 -2.9678179984482935e-06 0 0.0066705563182463392 0.00018743899788737359 0 0.0046934402312956069 0.00023314662906615102 0 0.0047174881958531832 0.00014702042234576986 0 0.0050498360002222409 0.00020926057917499021 0 0.0049258454157692158 0.00048424771495824288 0 0.0048349173379250944 -0.0001973133015331088 0 0.0047174881958531832 0.00014702042234576986 0 0.0050079320048368719 -1.9926426250379277e-05 0 0.0048491692287245796 -0.00020938644451487951 0 0.0046934402312956069 0.00023314662906615102 0 0.0047174881958531832 0.00014702042234576986 0 0.0050079320048368719 -1.9926426250379277e-05 0 0.0050498360002222409 0.00020926057917499021 0 0.0050079320048368719 -1.9926426250379277e-05 0 0.0050498360002222409 0.00020926057917499021 0 0.0052077403501675596 5.9712066715654953e-05 0 0.0050498360002222409 0.00020926057917499021 0 0.0049258454157692158 0.00048424771495824288 0 0.0052903136391264215 0.00051000691415270234 0 0.0098778425908890907 0.0012263151131856294 0 0.0098701536101306764 0.0012289192559283902 0 0.0099044821472556287 0.0012313072389812511 0 0.0074373746264304536 0.00084098989694805955 0 0.0079309157688340747 0.0010596446756738307 0 0.0079309157688340747 0.0010596446756738307 0 0.0084745063018118686 0.0012030659749343725 0 0.0098887624094156114 0.0015080354370160549 0 0.0098691524090972673 0.0014497473720069597 0 0.0096275916609208124 0.0015438875864936617 0 0.0050498360002222409 0.00020926057917499021 0 0.0052903136391264215 0.00051000691415270234 0 0.0052077403501675596 5.9712066715654953e-05 0 0.0048873681234730517 0.00010930131041453913 0 0.0079309157688340747 0.0010596446756738307 0 0.0055238884065065986 -0.00015398400013959902 0 0.0052903136391264215 0.00051000691415270234 0 0.0052077403501675596 5.9712066715654953e-05 0 0.0068738571709286572 0.00058775059051949989 0 0.0067958525015554315 0.00085502299613113492 0 0.0069872856443040192 0.00071917076324866109 0 0.0051741524464627223 0.00045711863091506445 0 0.0060938046483741274 0.00084179632020722707 0 0.0068903404025176321 0.00059205889601804276 0 0.0068738571709286572 0.00058775059051949989 0 0.0069872856443040192 0.00071917076324866109 0 0.0050944132798487786 0.00077817884496618104 0 0.0051145181405053237 0.00079753698982447472 0 0.0051072416709273816 0.00081672207915424238 0 0.0050944132798487786 0.00077817884496618104 0 0.0050743527445812507 0.00076998901335510305 0 0.0051072416709273816 0.00081672207915424238 0 0.0050944132798487786 0.00077817884496618104 0 0.0051068312014344612 0.000781122093661584 0 0.0051145181405053237 0.00079753698982447472 0 0.0070800712918881606 0.00084597956748287836 0 0.0069872856443040192 0.00071917076324866109 0 0.0069423580782972593 0.00086120815352316469 0 0.0067958525015554315 0.00085502299613113492 0 0.0069872856443040192 0.00071917076324866109 0 0.0069423580782972593 0.00086120815352316469 0 0.0074214072217952719 0.0011434102094226703 0 0.0084745063018118686 0.0012030659749343725 0 0.0098691524090972673 0.0014497473720069597 0 0.0096275916609208124 0.0015438875864936617 0 0.0094819709142652617 0.0011625053691794998 0 0.0093805098819170485 0.0013335151223604481 0 0.0096275916609208124 0.0015438875864936617 0 0.0094819709142652617 0.0011625053691794998 0 0.0098596092780284719 0.0014460182841947102 0 0.0096770212740428102 0.00125817999424246 0 0.0098691524090972673 0.0014497473720069597 0 0.0098481283526858972 0.0013905006494518677 0 0.0098819001703457938 0.0013839179671853016 0 0.0098481283526858972 0.0013905006494518677 0 0.0098807700674288443 0.0013584104851105596 0 0.0098395365832694391 0.0013678636509811778 0 0.0098481283526858972 0.0013905006494518677 0 0.0098807700674288443 0.0013584104851105596 0 0.0098819001703457938 0.0013839179671853016 0 0.0098807700674288443 0.0013584104851105596 0 0.0099145703642317031 0.0013437052441646307 0 0.0098819001703457938 0.0013839179671853016 0 0.0098807700674288443 0.0013584104851105596 0 0.0099145703642317031 0.0013437052441646307 0 0.0099193408827395572 0.0013217987017462086 0 0.0099145703642317031 0.0013437052441646307 0 0.0098819001703457938 0.0013839179671853016 0 0.0099385475612191135 0.0013763145106586807 0 0.0098691524090972673 0.0014497473720069597 0 0.0098819001703457938 0.0013839179671853016 0 0.0099385475612191135 0.0013763145106586807 0 0.0079309157688340747 0.0010596446756738307 0 0.010095121558370604 0.0012822713013111054 0 0.0098887624094156114 0.0015080354370160549 0 0.0098691524090972673 0.0014497473720069597 0 0.0099385475612191135 0.0013763145106586807 0 0.0098778425908890907 0.0012263151131856294 0 0.0099044821472556287 0.0012313072389812511 0 0.0098924358495972638 0.0012298116710572234 0 0.0099044821472556287 0.0012313072389812511 0 0.0099091008131887114 0.0012392273127887149 0 0.0098924358495972638 0.0012298116710572234 0 0.010095121558370604 0.0012822713013111054 0 0.009907038534119509 0.0013028810266047829 0 0.0099145703642317031 0.0013437052441646307 0 0.0099385475612191135 0.0013763145106586807 0 0.0099474728461673989 0.0012740174084283973 0 0.0099044821472556287 0.0012313072389812511 0 0.0099091008131887114 0.0012392273127887149 0 0.0099474728461673989 0.0012740174084283973 0 0.0099091008131887114 0.0012392273127887149 0 0.0099184491137973927 0.0012474757621408396 0 0.0099474728461673989 0.0012740174084283973 0 0.0098919932346306499 0.0012308838473507903 0 0.0099091008131887114 0.0012392273127887149 0 0.0099184491137973927 0.0012474757621408396 0 0.0086712025715750939 0.0006012085557326732 0 0.0066705563182463392 0.00018743899788737359 0 0.0098919932346306499 0.0012308838473507903 0 0.009870851759023247 0.0012215207999962745 0 0.0098924358495972638 0.0012298116710572234 0 0.0098919932346306499 0.0012308838473507903 0 0.0099091008131887114 0.0012392273127887149 0 0.0098924358495972638 0.0012298116710572234 0 0.0099336392085372146 0.0012423385627021231 0 0.0099622643217891476 0.001256033365895142 0 0.0099955572387747712 0.0012298367791485308 0 0.0099184491137973927 0.0012474757621408396 0 0.0099474728461673989 0.0012740174084283973 0 0.0099622643217891476 0.001256033365895142 0 0.0099336392085372146 0.0012423385627021231 0 0.0099184491137973927 0.0012474757621408396 0 0.0099622643217891476 0.001256033365895142 0 0.0099474728461673989 0.0012740174084283973 0 0.0099622643217891476 0.001256033365895142 0 0.0099581709056342262 0.0012800912785680021 0 0.0099622643217891476 0.001256033365895142 0 0.0099581709056342262 0.0012800912785680021 0 0.0099955572387747712 0.0012298367791485308 0 0.0099581709056342262 0.0012800912785680021 0 0.0099960855070496922 0.001252916984612503 0 0.0099955572387747712 0.0012298367791485308 0 0.0099581709056342262 0.0012800912785680021 0 0.0099108591921463398 0.0013029054225425164 0 0.0099960855070496922 0.001252916984612503 0 0.0099474728461673989 0.0012740174084283973 0 0.0099581709056342262 0.0012800912785680021 0 0.0099193408827395572 0.0013217987017462086 0 0.0099145703642317031 0.0013437052441646307 0 0.0099474728461673989 0.0012740174084283973 0 0.0099193408827395572 0.0013217987017462086 0 0.0099581709056342262 0.0012800912785680021 0 0.0099193408827395572 0.0013217987017462086 0 0.0098901462553934501 0.0013327253616465546 0 0.0098901462553934501 0.0013327253616465546 0 0.0098395365832694391 0.0013678636509811778 0 0.0098318270195354249 0.00134439122617912 0 0.0098807700674288443 0.0013584104851105596 0 0.0099193408827395572 0.0013217987017462086 0 0.0098901462553934501 0.0013327253616465546 0 0.0098807700674288443 0.0013584104851105596 0 0.0098901462553934501 0.0013327253616465546 0 0.0098395365832694391 0.0013678636509811778 0 0.0099581709056342262 0.0012800912785680021 0 0.0098901462553934501 0.0013327253616465546 0 0.0099108591921463398 0.0013029054225425164 0 0.0099108591921463398 0.0013029054225425164 0 0.009897564734890155 0.001276173670152988 0 0.0099960855070496922 0.001252916984612503 0 0.0099108591921463398 0.0013029054225425164 0 0.009897564734890155 0.001276173670152988 0 0.0098318270195354249 0.00134439122617912 0 0.0098901462553934501 0.0013327253616465546 0 0.0099108591921463398 0.0013029054225425164 0 0.0098318270195354249 0.00134439122617912 0 0.009897564734890155 0.001276173670152988 0 0.0099705731607969295 0.0012158434255787642 0 0.0099960855070496922 0.001252916984612503 0 0.0099705731607969295 0.0012158434255787642 0 0.010085069094735681 0.0011991465996301672 0 0.0099960855070496922 0.001252916984612503 0 0.009897564734890155 0.001276173670152988 0 0.0099705731607969295 0.0012158434255787642 0 0.0098621778664155918 0.0012155241264312508 0 0.0099705731607969295 0.0012158434255787642 0 0.0099791158499195291 0.001118785620274967 0 0.010085069094735681 0.0011991465996301672 0 0.0099705731607969295 0.0012158434255787642 0 0.0099791158499195291 0.001118785620274967 0 0.0098621778664155918 0.0012155241264312508 0 0.010212315824293638 0.0011415187192205432 0 0.0099791158499195291 0.001118785620274967 0 0.010085069094735681 0.0011991465996301672 0 0.010212315824293638 0.0011415187192205432 0 0.010085069094735681 0.0011991465996301672 0 0.010020983791336938 0.0012089680052766846 0 0.010085069094735681 0.0011991465996301672 0 0.0099960855070496922 0.001252916984612503 0 0.0099955572387747712 0.0012298367791485308 0 0.010085069094735681 0.0011991465996301672 0 0.0099955572387747712 0.0012298367791485308 0 0.010020983791336938 0.0012089680052766846 0 0.0099955572387747712 0.0012298367791485308 0 0.010020983791336938 0.0012089680052766846 0 0.0099506989330314603 0.0012402714344941774 0 0.0099042314317051988 0.0012845067253226372 0 0.0099388345656230108 0.0013555539554464737 0 0.0099506989330314603 0.0012402714344941774 0 0.0099388345656230108 0.0013555539554464737 0 0.010020983791336938 0.0012089680052766846 0 0.0099506989330314603 0.0012402714344941774 0 0.0099336392085372146 0.0012423385627021231 0 0.0099955572387747712 0.0012298367791485308 0 0.0099506989330314603 0.0012402714344941774 0 0.0092625069633810574 0.0014773383241495528 0 0.0092982964011675689 0.0014210590329394124 0 0.009204915056365396 0.0014398813921030554 0 0.0092625069633810574 0.0014773383241495528 0 0.0092522003334805387 0.0014667273256496573 0 0.009204915056365396 0.0014398813921030554 0 0.0092625069633810574 0.0014773383241495528 0 0.0092982964011675689 0.0014210590329394124 0 0.0093544322177095234 0.0014570594735562521 0 0.0067182195120165629 0.0013521720515512377 0 0.0065558583803919414 0.0011189465369104907 0 0.0066478152580084953 0.0014800459612999803 0 0.0065558583803919414 0.0011189465369104907 0 0.0063866801825011666 0.0011212039800319905 0 0.0066478152580084953 0.0014800459612999803 0 0.0077880201944749905 0.0013034212700621184 0 0.0081112515845424057 0.001384545861238008 0 0.0070650686020782266 0.0012120640798053914 0 0.0081112515845424057 0.001384545861238008 0 0.0070650686020782266 0.0012120640798053914 0 0.0062413374455799033 0.00085703480501764099 0 0.0041698722097185661 0.00067504287968605246 0 0.0049592134631683349 0.00053372505005801695 0 0.0025648274107796616 0.00077484898242936916 0 0.0025347068819093739 0.00072341262218477017 0 0.0025170705770365194 0.00077283962037166299 0 0.0059505760791344463 0.00069508252543049769 0 0.0059096976578327902 0.00050736861418063898 0 0.0057381094801796113 0.000454325563859847 0 0.0061925071815318719 0.00093394041166163573 0 0.0060688482085690405 0.00073749156475705899 0 0.0061988009307315361 0.00078417555996381069 0 0.0062413374455799033 0.00085703480501764099 0 0.0049592134631683349 0.00053372505005801695 0 0.0062413374455799033 0.00085703480501764099 0 0.0064773550747354389 0.0010109799099672636 0 0.0063797389264021696 0.00097247851338907998 0 0.0065005105345363285 0.0011094015838560756 0 0.0064347643975060142 0.0010904470031161354 0 0.0092625069633810574 0.0014773383241495528 0 0.0092522003334805387 0.0014667273256496573 0 0.0090471142701493163 0.0013993278937046714 0 0.0063797389264021696 0.00097247851338907998 0 0.0064347643975060142 0.0010904470031161354 0 0.0063866801825011666 0.0011212039800319905 0 0.0065558583803919414 0.0011189465369104907 0 0.0064347643975060142 0.0010904470031161354 0 0.0063866801825011666 0.0011212039800319905 0 0.0097805567067126686 0.0013917291138042 0 0.0097648098877481989 0.0013469101720057642 0 0.0096878377152173675 0.0013618190440445506 0 0.0093468200070256167 0.0013257009736723517 0 0.0095510366178277149 0.0014384455892499843 0 0.009224551261325405 0.0015195426715825953 0 0.0093468200070256167 0.0013257009736723517 0 0.0092625069633810574 0.0014773383241495528 0 0.0093985629579713924 0.001584276187663553 0 0.0093544322177095234 0.0014570594735562521 0 0.0097805567067126686 0.0013917291138042 0 0.0098395365832694391 0.0013678636509811778 0 0.0098318270195354249 0.00134439122617912 0 0.0097805567067126686 0.0013917291138042 0 0.0098318270195354249 0.00134439122617912 0 0.0097648098877481989 0.0013469101720057642 0 0.0097648098877481989 0.0013469101720057642 0 0.0097166700011687267 0.001278142796201021 0 0.0098060588056889542 0.0013013906145466641 0 0.009897564734890155 0.001276173670152988 0 0.0098318270195354249 0.00134439122617912 0 0.0098060588056889542 0.0013013906145466641 0 0.0098318270195354249 0.00134439122617912 0 0.0097648098877481989 0.0013469101720057642 0 0.0098060588056889542 0.0013013906145466641 0 0.0097648098877481989 0.0013469101720057642 0 0.0096878377152173675 0.0013618190440445506 0 0.0097166700011687267 0.001278142796201021 0 0.0096878377152173675 0.0013618190440445506 0 0.0097166700011687267 0.001278142796201021 0 0.0094373050137965906 0.0012597086000770386 0 0.0097166700011687267 0.001278142796201021 0 0.0096420588389352236 0.0011407729466289137 0 0.0094373050137965906 0.0012597086000770386 0 0.009897564734890155 0.001276173670152988 0 0.0098060588056889542 0.0013013906145466641 0 0.0098621778664155918 0.0012155241264312508 0 0.0097166700011687267 0.001278142796201021 0 0.0098060588056889542 0.0013013906145466641 0 0.0098621778664155918 0.0012155241264312508 0 0.0097166700011687267 0.001278142796201021 0 0.0098621778664155918 0.0012155241264312508 0 0.0097639093149448752 0.0011623085672374715 0 0.0099791158499195291 0.001118785620274967 0 0.0098621778664155918 0.0012155241264312508 0 0.0098565755498822658 0.0010966150385664827 0 0.0098621778664155918 0.0012155241264312508 0 0.0097639093149448752 0.0011623085672374715 0 0.0098565755498822658 0.0010966150385664827 0 0.0097639093149448752 0.0011623085672374715 0 0.0098565755498822658 0.0010966150385664827 0 0.0097528796377794359 0.0010340760045278539 0 0.0098337791787118951 0.00099261530696441685 0 0.0098565755498822658 0.0010966150385664827 0 0.0097528796377794359 0.0010340760045278539 0 0.00989727848316105 0.0010017395174957767 0 0.0099791158499195291 0.001118785620274967 0 0.0098565755498822658 0.0010966150385664827 0 0.0096420588389352236 0.0011407729466289137 0 0.0095059701057563731 0.0010822437014342088 0 0.0094373050137965906 0.0012597086000770386 0 0.0097166700011687267 0.001278142796201021 0 0.0097639093149448752 0.0011623085672374715 0 0.0096420588389352236 0.0011407729466289137 0 0.0096373144452117573 0.00098705118310882202 0 0.0096420588389352236 0.0011407729466289137 0 0.0097528796377794359 0.0010340760045278539 0 0.0097639093149448752 0.0011623085672374715 0 0.0096420588389352236 0.0011407729466289137 0 0.0097528796377794359 0.0010340760045278539 0 0.0096373144452117573 0.00098705118310882202 0 0.0096420588389352236 0.0011407729466289137 0 0.0095059701057563731 0.0010822437014342088 0 0.0094496399065284401 0.00093477325480001417 0 0.0095059701057563731 0.0010822437014342088 0 0.0093500251640051529 0.0010867382250679576 0 0.0092350311970785214 0.00093136734849076988 0 0.0093500251640051529 0.0010867382250679576 0 0.0091626822708857098 0.0010982553461296974 0 0.0093500251640051529 0.0010867382250679576 0 0.0092583056629994831 0.0012361693300852121 0 0.0091626822708857098 0.0010982553461296974 0 0.0093500251640051529 0.0010867382250679576 0 0.0092583056629994831 0.0012361693300852121 0 0.0094373050137965906 0.0012597086000770386 0 0.0095059701057563731 0.0010822437014342088 0 0.0093500251640051529 0.0010867382250679576 0 0.0094373050137965906 0.0012597086000770386 0 0.0092982964011675689 0.0014210590329394124 0 0.0094373050137965906 0.0012597086000770386 0 0.00930029799419178 0.0013324175285917448 0 0.0092982964011675689 0.0014210590329394124 0 0.0093544322177095234 0.0014570594735562521 0 0.0094373050137965906 0.0012597086000770386 0 0.0095510366178277149 0.0014384455892499843 0 0.0094289460619482023 0.0012304375852396415 0 0.0092583056629994831 0.0012361693300852121 0 0.0094373050137965906 0.0012597086000770386 0 0.00930029799419178 0.0013324175285917448 0 0.0092982964011675689 0.0014210590329394124 0 0.00930029799419178 0.0013324175285917448 0 0.0092016507943058889 0.0013770495296142223 0 0.0092982964011675689 0.0014210590329394124 0 0.009204915056365396 0.0014398813921030554 0 0.0092016507943058889 0.0013770495296142223 0 0.0090978585583546545 0.0015440592617871009 0 0.0092016507943058889 0.0013770495296142223 0 0.0090449263361645563 0.0012415002172622637 0 0.0090978585583546545 0.0015440592617871009 0 0.0090449263361645563 0.0012415002172622637 0 0.008737236101774102 0.001187585261134155 0 0.0081112515845424057 0.001384545861238008 0 0.0089003014638655668 0.0011820472955955223 0 0.0092583056629994831 0.0012361693300852121 0 0.00930029799419178 0.0013324175285917448 0 0.0092016507943058889 0.0013770495296142223 0 0.0092583056629994831 0.0012361693300852121 0 0.0090449263361645563 0.0012415002172622637 0 0.0091626822708857098 0.0010982553461296974 0 0.0092583056629994831 0.0012361693300852121 0 0.0092016507943058889 0.0013770495296142223 0 0.0090449263361645563 0.0012415002172622637 0 0.0089783457278135199 0.00099692466658732153 0 0.0090449263361645563 0.0012415002172622637 0 0.0091626822708857098 0.0010982553461296974 0 0.0089783457278135199 0.00099692466658732153 0 0.0090449263361645563 0.0012415002172622637 0 0.008737236101774102 0.001187585261134155 0 0.0078191338430823164 0.00096170179963729705 0 0.0076837160286167844 0.0010169276964126983 0 0.0077953806251826055 0.001100523433247457 0 0.0076963950741163406 0.00066664947167583723 0 0.0078191338430823164 0.00096170179963729705 0 0.0076837160286167844 0.0010169276964126983 0 0.0076963950741163406 0.00066664947167583723 0 0.0076837160286167844 0.0010169276964126983 0 0.0075005376954559505 0.00098581721412590553 0 0.0076837160286167844 0.0010169276964126983 0 0.0076339120547844639 0.0011642559621746719 0 0.0075005376954559505 0.00098581721412590553 0 0.0076837160286167844 0.0010169276964126983 0 0.0077206627722544311 0.0011677588962023028 0 0.0077953806251826055 0.001100523433247457 0 0.0076837160286167844 0.0010169276964126983 0 0.0077206627722544311 0.0011677588962023028 0 0.0076339120547844639 0.0011642559621746719 0 0.0077206627722544311 0.0011677588962023028 0 0.0076339120547844639 0.0011642559621746719 0 0.007687814121260044 0.0012470516287187419 0 0.0077206627722544311 0.0011677588962023028 0 0.0077483896169569392 0.0012394330675403211 0 0.007687814121260044 0.0012470516287187419 0 0.0077953806251826055 0.001100523433247457 0 0.0078005544704814727 0.0012732418252130548 0 0.0077483896169569392 0.0012394330675403211 0 0.0070650686020782266 0.0012120640798053914 0 0.0080057662673427375 0.0012364984508113049 0 0.0081112515845424057 0.001384545861238008 0 0.0083444684714843367 0.0010902292261858466 0 0.0078740239681989749 0.001306121650815117 0 0.0077953806251826055 0.001100523433247457 0 0.0078005544704814727 0.0012732418252130548 0 0.0079272452598200364 0.0013267767589594005 0 0.0079848115570452394 0.0012325909829701985 0 0.0077953806251826055 0.001100523433247457 0 0.0079848115570452394 0.0012325909829701985 0 0.0078191338430823164 0.00096170179963729705 0 0.0077953806251826055 0.001100523433247457 0 0.0077206627722544311 0.0011677588962023028 0 0.0077953806251826055 0.001100523433247457 0 0.0077483896169569392 0.0012394330675403211 0 0.004142224747366711 0.00073012665073243842 0 0.0032174675679087711 0.00044026452234973784 0 0.0028804824956620897 0.00039185284721164257 0 0.0077484340968485173 0.0013187034817208104 0 0.0075769421238981562 0.0013338757944328867 0 0.0078169254938738747 0.0013930088259796083 0 0.0078740239681989749 0.001306121650815117 0 0.0078005544704814727 0.0012732418252130548 0 0.0078377404823883733 0.0013241397279489637 0 0.0061925071815318719 0.00093394041166163573 0 0.0061988009307315361 0.00078417555996381069 0 0.0062428332717478427 0.00084198150260416901 0 0.0070650686020782266 0.0012120640798053914 0 0.005577697145218382 0.00081415127436276931 0 0.0078048036337337121 0.0013366863770094834 0 0.0077484340968485173 0.0013187034817208104 0 0.0078169254938738747 0.0013930088259796083 0 0.0078740239681989749 0.001306121650815117 0 0.0078377404823883733 0.0013241397279489637 0 0.007831962628449856 0.0013688415682620964 0 0.0078005544704814727 0.0012732418252130548 0 0.0078377404823883733 0.0013241397279489637 0 0.0078048036337337121 0.0013366863770094834 0 0.0078377404823883733 0.0013241397279489637 0 0.0078048036337337121 0.0013366863770094834 0 0.007831962628449856 0.0013688415682620964 0 0.0078048036337337121 0.0013366863770094834 0 0.007831962628449856 0.0013688415682620964 0 0.0078169254938738747 0.0013930088259796083 0 0.0078005544704814727 0.0012732418252130548 0 0.0078048036337337121 0.0013366863770094834 0 0.0077484340968485173 0.0013187034817208104 0 0.0078005544704814727 0.0012732418252130548 0 0.0077484340968485173 0.0013187034817208104 0 0.0077483896169569392 0.0012394330675403211 0 0.0077484340968485173 0.0013187034817208104 0 0.0077483896169569392 0.0012394330675403211 0 0.007687814121260044 0.0012470516287187419 0 0.0059723000374804066 0.0010677091631366624 0 0.0048119266684092735 0.00073291809581954061 0 0.0077484340968485173 0.0013187034817208104 0 0.007687814121260044 0.0012470516287187419 0 0.0075769421238981562 0.0013338757944328867 0 0.004142224747366711 0.00073012665073243842 0 0.0032174675679087711 0.00044026452234973784 0 0.004544957318070194 1.7562149628122361e-05 0 0.0076339120547844639 0.0011642559621746719 0 0.007687814121260044 0.0012470516287187419 0 0.0075769421238981562 0.0013338757944328867 0 0.0029923079832814862 0.00047611984047642164 0 0.0032174675679087711 0.00044026452234973784 0 0.0030876724958387261 0.00049827442765114783 0 0.0029923079832814862 0.00047611984047642164 0 0.0028034521037731291 0.00040292507494047738 0 0.0028345987019618678 0.00057585540894069208 0 0.0029923079832814862 0.00047611984047642164 0 0.0032174675679087711 0.00044026452234973784 0 0.0028034521037731291 0.00040292507494047738 0 0.0032375393536418261 0.00040560717194097675 0 0.0036809831014882437 0.00023484919987750414 0 0.0025347068819093739 0.00072341262218477017 0 0.0025178482880356132 0.00071589068160162221 0 0.0025170705770365194 0.00077283962037166299 0 0.0048119266684092735 0.00073291809581954061 0 0.0025788001207057189 0.00075158836567153968 0 0.0032174675679087711 0.00044026452234973784 0 0.0028804824956620897 0.00039185284721164257 0 0.0030876724958387261 0.00049827442765114783 0 0.0025178482880356132 0.00071589068160162221 0 0.0024613747873008835 0.0007847488785269048 0 0.0025170705770365194 0.00077283962037166299 0 0.0051322025168207821 0.00050196643567066888 0 0.0053079848170606448 0.00073206023814944296 0 0.0053886436227303987 0.00059270866148328628 0 0.0049592134631683349 0.00053372505005801695 0 0.0048119266684092735 0.00073291809581954061 0 0.0049592134631683349 0.00053372505005801695 0 0.005577697145218382 0.00081415127436276931 0 0.005577697145218382 0.00081415127436276931 0 0.0048119266684092735 0.00073291809581954061 0 0.0058730806225011029 -0.00015560169133551526 0 0.004544957318070194 1.7562149628122361e-05 0 0.0053538461880904241 0.00035449889273781251 0 0.0041949575347538124 0.0002052796938187654 0 0.0036809831014882437 0.00023484919987750414 0 0.0025812713232921313 0.00054833118070912149 0 0.0028034521037731291 0.00040292507494047738 0 0.0026613036316328353 0.00059112561773733466 0 0.0058730806225011029 -0.00015560169133551526 0 0.0053538461880904241 0.00035449889273781251 0 0.0063294832842450289 0.00072055032295122504 0 0.0059723000374804066 0.0010677091631366624 0 0.006385934446656377 0.0011329340562185037 0 0.004142224747366711 0.00073012665073243842 0 0.0053538461880904241 0.00035449889273781251 0 0.0055790784545581484 0.0010671933013841053 0 0.004142224747366711 0.00073012665073243842 0 0.004544957318070194 1.7562149628122361e-05 0 0.0053538461880904241 0.00035449889273781251 0 0.0076339120547844639 0.0011642559621746719 0 0.0075769421238981562 0.0013338757944328867 0 0.0072672694402094269 0.0012581266393052689 0 0.0053538461880904241 0.00035449889273781251 0 0.0055790784545581484 0.0010671933013841053 0 0.0063294832842450289 0.00072055032295122504 0 0.0076339120547844639 0.0011642559621746719 0 0.0072672694402094269 0.0012581266393052689 0 0.0075005376954559505 0.00098581721412590553 0 0.0072672694402094269 0.0012581266393052689 0 0.0075005376954559505 0.00098581721412590553 0 0.0071948003886788897 0.00090017333255726047 0 0.0074100080907576618 0.00075072943976103434 0 0.0075005376954559505 0.00098581721412590553 0 0.0071948003886788897 0.00090017333255726047 0 0.0072672694402094269 0.0012581266393052689 0 0.0071948003886788897 0.00090017333255726047 0 0.0069939767779990097 0.000994464991602621 0 0.0069995994853302686 0.00085939677331149959 0 0.0069939767779990097 0.000994464991602621 0 0.0068940527255963394 0.00097377819070222768 0 0.0069995994853302686 0.00085939677331149959 0 0.0071948003886788897 0.00090017333255726047 0 0.0069939767779990097 0.000994464991602621 0 0.0069939767779990097 0.000994464991602621 0 0.0068940527255963394 0.00097377819070222768 0 0.0068138613628978663 0.001094473718082245 0 0.0068977054656822832 0.0008282832517614451 0 0.0068940527255963394 0.00097377819070222768 0 0.0069321530040977308 0.00094466465584133752 0 0.0068138613628978663 0.001094473718082245 0 0.0063294832842450289 0.00072055032295122504 0 0.0068792781345813651 0.00081306764591505755 0 0.006923182605234334 0.00095092426402646336 0 0.0069937504804351647 0.00088973062355544278 0 0.0068940527255963394 0.00097377819070222768 0 0.0068138613628978663 0.001094473718082245 0 0.0070912049356618798 0.00096395509695838117 0 0.0068138613628978663 0.001094473718082245 0 0.0070912049356618798 0.00096395509695838117 0 0.0068792781345813651 0.00081306764591505755 0 0.0055790784545581484 0.0010671933013841053 0 0.0068138613628978663 0.001094473718082245 0 0.0063294832842450289 0.00072055032295122504 0 0.006385934446656377 0.0011329340562185037 0 0.0067778135049937063 0.001122523874179385 0 0.0072672694402094269 0.0012581266393052689 0 0.0069939767779990097 0.000994464991602621 0 0.0068138613628978663 0.001094473718082245 0 0.010129908500852535 0.00027228399499682816 0 0.01013055410328282 0.00031439786288274833 0 0.010159650319032648 0.00029485608532503672 0 0.0072094688183554833 0.00091938989525268573 0 0.0070420529798747725 0.0010307521999559032 0 0.0070061620425410477 0.00091302661421614035 0 0.0085833882604835748 0.00068489060661799809 0 0.0095911894967179549 0.00082212259738455914 0 0.0068940527255963394 0.00097377819070222768 0 0.0069321530040977308 0.00094466465584133752 0 0.0069229527939660687 0.00079899219921498131 0 0.0068977054656822832 0.0008282832517614451 0 0.0069659678584610488 0.00094849735381367841 0 0.0069321530040977308 0.00094466465584133752 0 0.0069659678584610488 0.00094849735381367841 0 0.0070061620425410477 0.00091302661421614035 0 0.0069321530040977308 0.00094466465584133752 0 0.0095911894967179549 0.00082212259738455914 0 0.0080584013269610431 0.00067966875710159336 0 0.0070061620425410477 0.00091302661421614035 0 0.0069229527939660687 0.00079899219921498131 0 0.0071105488512489615 0.00075793793745132911 0 0.0070061620425410477 0.00091302661421614035 0 0.0069321530040977308 0.00094466465584133752 0 0.0069229527939660687 0.00079899219921498131 0 0.0072094688183554833 0.00091938989525268573 0 0.0070061620425410477 0.00091302661421614035 0 0.0071105488512489615 0.00075793793745132911 0 0.0072699196604728818 0.00059565849284753795 0 0.0071105488512489615 0.00075793793745132911 0 0.0070472794684137453 0.0005807791039792921 0 0.0069229527939660687 0.00079899219921498131 0 0.0071105488512489615 0.00075793793745132911 0 0.0070472794684137453 0.0005807791039792921 0 0.0069937504804351647 0.00088973062355544278 0 0.007386005043712532 0.0004085370244920186 0 0.0070912049356618798 0.00096395509695838117 0 0.0074766440435264864 0.00046212812340154979 0 0.007074375912101161 0.0005947206175129779 0 0.0074766440435264864 0.00046212812340154979 0 0.007074375912101161 0.0005947206175129779 0 0.0070933884544014418 0.00016405891315405009 0 0.0070933884544014418 0.00016405891315405009 0 0.0071965081456222676 -5.2463132927188966e-05 0 0.0074845191294077131 5.1686757799855655e-05 0 0.0074766440435264864 0.00046212812340154979 0 0.0070933884544014418 0.00016405891315405009 0 0.0074845191294077131 5.1686757799855655e-05 0 0.0072699196604728818 0.00059565849284753795 0 0.0070472794684137453 0.0005807791039792921 0 0.0071804782401908383 0.00036851020407014518 0 0.007386005043712532 0.0004085370244920186 0 0.0065449353587865491 0.00048053889161225665 0 0.0074766440435264864 0.00046212812340154979 0 0.0074845191294077131 5.1686757799855655e-05 0 0.0077896023963495804 -7.2074534044671564e-05 0 0.0063294832842450289 0.00072055032295122504 0 0.0068092412153900406 0.00044231166674494525 0 0.0064573384935597521 0.0002049239635804355 0 0.0063294832842450289 0.00072055032295122504 0 0.0068792781345813651 0.00081306764591505755 0 0.0068092412153900406 0.00044231166674494525 0 0.0070912049356618798 0.00096395509695838117 0 0.007074375912101161 0.0005947206175129779 0 0.0068792781345813651 0.00081306764591505755 0 0.007074375912101161 0.0005947206175129779 0 0.0068792781345813651 0.00081306764591505755 0 0.0068092412153900406 0.00044231166674494525 0 0.007074375912101161 0.0005947206175129779 0 0.0070933884544014418 0.00016405891315405009 0 0.0068092412153900406 0.00044231166674494525 0 0.0068092412153900406 0.00044231166674494525 0 0.0064573384935597521 0.0002049239635804355 0 0.0067693304046028751 -0.00017555974516008914 0 0.0070933884544014418 0.00016405891315405009 0 0.0068092412153900406 0.00044231166674494525 0 0.0067693304046028751 -0.00017555974516008914 0 0.0070933884544014418 0.00016405891315405009 0 0.0071965081456222676 -5.2463132927188966e-05 0 0.0067693304046028751 -0.00017555974516008914 0 0.0058730806225011029 -0.00015560169133551526 0 0.0063294832842450289 0.00072055032295122504 0 0.0064573384935597521 0.0002049239635804355 0 0.0041949575347538124 0.0002052796938187654 0 0.0047731510204188886 0.00018197397495817798 0 0.0058730806225011029 -0.00015560169133551526 0 0.0064573384935597521 0.0002049239635804355 0 0.0067693304046028751 -0.00017555974516008914 0 0.0025812713232921313 0.00054833118070912149 0 0.0025588773104271087 0.0006414240447446762 0 0.0025524981985158381 0.00063544838500818358 0 0.0025588773104271087 0.0006414240447446762 0 0.0025524981985158381 0.00063544838500818358 0 0.0025472615611501475 0.00063614070169965746 0 0.0025524981985158381 0.00063544838500818358 0 0.0025472615611501475 0.00063614070169965746 0 0.0026265664126034491 0.00064143809712495254 0 0.0027317860910030956 0.0010027616153708387 0 0.0028292963512686763 0.00099445743713825162 0 0.002731448520360114 0.00089206541916929394 0 0.0027317860910030956 0.0010027616153708387 0 0.002601852248466876 0.00092102633194544945 0 0.002731448520360114 0.00089206541916929394 0 0.002328277598553237 0.00079386007324563652 0 0.0026466100241920106 0.0008463382219297352 0 0.0025588773104271087 0.0006414240447446762 0 0.0025472615611501475 0.00063614070169965746 0 0.0025501687762321053 0.00072514557300484438 0 0.0031491891451257293 0.0012649308631946193 0 0.0030111857128363932 0.0012940324405867605 0 0.003055962737314075 0.0011977004555679782 0 0.0050854899140251285 0.00066415076929383704 0 0.0040740452742728155 0.00079506233684530601 0 0.0065449353587865491 0.00048053889161225665 0 0.0040740452742728155 0.00079506233684530601 0 0.0052939175788496908 0.00073947101049158645 0 0.0053381608542442879 0.00067478263932695267 0 0.0053590332762771566 0.00072390163117417607 0 0.0055954175895109566 0.00083293435461739287 0 0.0052219094366138035 0.00012419298474811903 0 0.0045235378395751076 0.00028146913047538924 0 0.0074845191294077131 5.1686757799855655e-05 0 0.0077896023963495804 -7.2074534044671564e-05 0 0.0074285825081834801 -0.00025433350315324967 0 0.0040740452742728155 0.00079506233684530601 0 0.0044931438032959096 0.00045035755820235768 0 0.0065449353587865491 0.00048053889161225665 0 0.0044931438032959096 0.00045035755820235768 0 0.0027317860910030956 0.0010027616153708387 0 0.0028869516394763586 0.0010793141491035102 0 0.0028292963512686763 0.00099445743713825162 0 0.0047731510204188886 0.00018197397495817798 0 0.0044931438032959096 0.00045035755820235768 0 0.0029471801477441522 0.0010650725527388961 0 0.0028869516394763586 0.0010793141491035102 0 0.0028292963512686763 0.00099445743713825162 0 0.002328277598553237 0.00079386007324563652 0 0.0044931438032959096 0.00045035755820235768 0 0.0071965081456222676 -5.2463132927188966e-05 0 0.0067693304046028751 -0.00017555974516008914 0 0.0074285825081834801 -0.00025433350315324967 0 0.0071965081456222676 -5.2463132927188966e-05 0 0.0074845191294077131 5.1686757799855655e-05 0 0.0074285825081834801 -0.00025433350315324967 0 0.0028292963512686763 0.00099445743713825162 0 0.0028654612934978286 0.00092104032411687096 0 0.002731448520360114 0.00089206541916929394 0 0.0029471801477441522 0.0010650725527388961 0 0.0028292963512686763 0.00099445743713825162 0 0.0028654612934978286 0.00092104032411687096 0 0.0040740452742728155 0.00079506233684530601 0 0.002761795590264618 0.0010106993553939021 0 0.0030111857128363932 0.0012940324405867605 0 0.0028908346630107198 0.0010369032441754965 0 0.003055962737314075 0.0011977004555679782 0 0.0028908346630107198 0.0010369032441754965 0 0.0030405032937344863 0.0010612930687165336 0 0.003055962737314075 0.0011977004555679782 0 0.0028908346630107198 0.0010369032441754965 0 0.0030368053107573912 0.0009402846937830384 0 0.0029308277575884429 0.00084977476753695801 0 0.0028908346630107198 0.0010369032441754965 0 0.0030405032937344863 0.0010612930687165336 0 0.0030368053107573912 0.0009402846937830384 0 0.002761795590264618 0.0010106993553939021 0 0.0028292971206586009 0.00080830599059859441 0 0.0028908346630107198 0.0010369032441754965 0 0.0027984784865538472 0.00080041595879187116 0 0.0029308277575884429 0.00084977476753695801 0 0.0028654612934978286 0.00092104032411687096 0 0.0027984784865538472 0.00080041595879187116 0 0.002731448520360114 0.00089206541916929394 0 0.0028955402061249039 0.00072948766022453641 0 0.0027984784865538472 0.00080041595879187116 0 0.0029308277575884429 0.00084977476753695801 0 0.0030368053107573912 0.0009402846937830384 0 0.0029308277575884429 0.00084977476753695801 0 0.0030357890741529118 0.00077024033543427752 0 0.0028955402061249039 0.00072948766022453641 0 0.0029308277575884429 0.00084977476753695801 0 0.0030357890741529118 0.00077024033543427752 0 0.002601852248466876 0.00092102633194544945 0 0.002731448520360114 0.00089206541916929394 0 0.0026212486451083488 0.00083596351340352066 0 0.002601852248466876 0.00092102633194544945 0 0.0026212486451083488 0.00083596351340352066 0 0.0025702660343772492 0.00084989037087223772 0 0.0027880795951693818 0.00067414225898108145 0 0.0027984784865538472 0.00080041595879187116 0 0.002693456216362169 0.00078100758405334368 0 0.0027984784865538472 0.00080041595879187116 0 0.002731448520360114 0.00089206541916929394 0 0.002693456216362169 0.00078100758405334368 0 0.002731448520360114 0.00089206541916929394 0 0.002693456216362169 0.00078100758405334368 0 0.0026212486451083488 0.00083596351340352066 0 0.0025835834632079798 0.00074717217206521391 0 0.002693456216362169 0.00078100758405334368 0 0.0026212486451083488 0.00083596351340352066 0 0.0025835834632079798 0.00074717217206521391 0 0.0026212486451083488 0.00083596351340352066 0 0.0025622724700074526 0.00080593525207262842 0 0.0025835834632079798 0.00074717217206521391 0 0.002511230083204679 0.0007673514000657661 0 0.0025622724700074526 0.00080593525207262842 0 0.002511230083204679 0.0007673514000657661 0 0.0025622724700074526 0.00080593525207262842 0 0.0025324785183363009 0.00082902709691228926 0 0.0025622724700074526 0.00080593525207262842 0 0.0025702660343772492 0.00084989037087223772 0 0.0025324785183363009 0.00082902709691228926 0 0.0026212486451083488 0.00083596351340352066 0 0.0025622724700074526 0.00080593525207262842 0 0.0025702660343772492 0.00084989037087223772 0 0.0026466100241920106 0.0008463382219297352 0 0.0025390151230701707 0.00083579324421926009 0 0.002601852248466876 0.00092102633194544945 0 0.0025702660343772492 0.00084989037087223772 0 0.0025540716454591711 0.00084811403160428469 0 0.0025702660343772492 0.00084989037087223772 0 0.0025540716454591711 0.00084811403160428469 0 0.0025324785183363009 0.00082902709691228926 0 0.002557796040695962 0.00086417475824889683 0 0.0025540716454591711 0.00084811403160428469 0 0.0026321881887039667 0.00073694549610693746 0 0.0025540716454591711 0.00084811403160428469 0 0.002521502493608014 0.00084391456115385469 0 0.0025324785183363009 0.00082902709691228926 0 0.002557796040695962 0.00086417475824889683 0 0.0025540716454591711 0.00084811403160428469 0 0.002521502493608014 0.00084391456115385469 0 0.002557796040695962 0.00086417475824889683 0 0.002521502493608014 0.00084391456115385469 0 0.0024575150062683148 0.00085433136648663743 0 0.002521502493608014 0.00084391456115385469 0 0.0024742580302150631 0.00080566102080673822 0 0.0024575150062683148 0.00085433136648663743 0 0.002521502493608014 0.00084391456115385469 0 0.0025324785183363009 0.00082902709691228926 0 0.0024742580302150631 0.00080566102080673822 0 0.002511230083204679 0.0007673514000657661 0 0.0025324785183363009 0.00082902709691228926 0 0.0024742580302150631 0.00080566102080673822 0 0.0024343644352058397 0.00073885649467464736 0 0.002511230083204679 0.0007673514000657661 0 0.0024742580302150631 0.00080566102080673822 0 0.0024343644352058397 0.00073885649467464736 0 0.0024742580302150631 0.00080566102080673822 0 0.0023685211577911753 0.00079563500286866011 0 0.0023685211577911753 0.00079563500286866011 0 0.0023482051399277551 0.00090122354401624485 0 0.0024575150062683148 0.00085433136648663743 0 0.0024742580302150631 0.00080566102080673822 0 0.0023685211577911753 0.00079563500286866011 0 0.0024575150062683148 0.00085433136648663743 0 0.0023685211577911753 0.00079563500286866011 0 0.0021937028444060066 0.00081207486964944716 0 0.0023482051399277551 0.00090122354401624485 0 0.0020003337279918022 0.00089665147770602929 0 0.0021937028444060066 0.00081207486964944716 0 0.0023482051399277551 0.00090122354401624485 0 0.0024799456855937561 0.00093592183144927709 0 0.0023482051399277551 0.00090122354401624485 0 0.00242540446408088 0.00088628670368391964 0 0.0023482051399277551 0.00090122354401624485 0 0.00242540446408088 0.00088628670368391964 0 0.0024247024939306984 0.00087933606143022829 0 0.00242540446408088 0.00088628670368391964 0 0.0024247024939306984 0.00087933606143022829 0 0.0024565774867257601 0.00086213966345293088 0 0.0024907891310848103 0.00088026718106242624 0 0.00242540446408088 0.00088628670368391964 0 0.0024565774867257601 0.00086213966345293088 0 0.0023482051399277551 0.00090122354401624485 0 0.0024575150062683148 0.00085433136648663743 0 0.0024247024939306984 0.00087933606143022829 0 0.002557796040695962 0.00086417475824889683 0 0.0024575150062683148 0.00085433136648663743 0 0.0024247024939306984 0.00087933606143022829 0 0.002557796040695962 0.00086417475824889683 0 0.0024247024939306984 0.00087933606143022829 0 0.0024406169883973683 0.00087498406919464175 0 0.0024247024939306984 0.00087933606143022829 0 0.0024406169883973683 0.00087498406919464175 0 0.0024565774867257601 0.00086213966345293088 0 0.0025741177443232119 0.00086077755956780839 0 0.002675995688024427 0.00076014509053345112 0 0.0024406169883973683 0.00087498406919464175 0 0.0024565774867257601 0.00086213966345293088 0 0.00247865655265361 0.00082623023595950872 0 0.0025265260901075294 0.00082755223485262515 0 0.0024565774867257601 0.00086213966345293088 0 0.00247865655265361 0.00082623023595950872 0 0.0025265260901075294 0.00082755223485262515 0 0.00247865655265361 0.00082623023595950872 0 0.0025170705770365194 0.00077283962037166299 0 0.00247865655265361 0.00082623023595950872 0 0.0024613747873008835 0.0007847488785269048 0 0.0025170705770365194 0.00077283962037166299 0 0.002675995688024427 0.00076014509053345112 0 0.0025788001207057189 0.00075158836567153968 0 0.0029923079832814862 0.00047611984047642164 0 0.0030876724958387261 0.00049827442765114783 0 0.0028345987019618678 0.00057585540894069208 0 0.0028510025237832243 0.00073923293654987263 0 0.0030876724958387261 0.00049827442765114783 0 0.0028345987019618678 0.00057585540894069208 0 0.0024406169883973683 0.00087498406919464175 0 0.00247865655265361 0.00082623023595950872 0 0.0024613747873008835 0.0007847488785269048 0 0.0028034521037731291 0.00040292507494047738 0 0.0028345987019618678 0.00057585540894069208 0 0.0026613036316328353 0.00059112561773733466 0 0.0028345987019618678 0.00057585540894069208 0 0.0026613036316328353 0.00059112561773733466 0 0.0026321881887039667 0.00073694549610693746 0 0.0025812713232921313 0.00054833118070912149 0 0.0025588773104271087 0.0006414240447446762 0 0.0026613036316328353 0.00059112561773733466 0 0.0025588773104271087 0.0006414240447446762 0 0.0026613036316328353 0.00059112561773733466 0 0.0026321881887039667 0.00073694549610693746 0 0.0025588773104271087 0.0006414240447446762 0 0.0025501687762321053 0.00072514557300484438 0 0.0026321881887039667 0.00073694549610693746 0 0.0025501687762321053 0.00072514557300484438 0 0.0025540716454591711 0.00084811403160428469 0 0.0026321881887039667 0.00073694549610693746 0 0.002557796040695962 0.00086417475824889683 0 0.0028510025237832243 0.00073923293654987263 0 0.0026321881887039667 0.00073694549610693746 0 0.0028510025237832243 0.00073923293654987263 0 0.0028345987019618678 0.00057585540894069208 0 0.0026321881887039667 0.00073694549610693746 0 
</DataArray>
</PointData>
<CellData Scalars="region_id,cross_section_updated," Vectors="" Tensors="stress,">
<DataArray type="Float64" Name="region_id" format="ascii">
5 5 5 6 5 5 6 5 5 5 5 5 6 6 5 5 5 5 6 6 5 5 6 5 6 5 5 5 5 5 5 5 5 5 5 5 5 5 5 5 5 5 6 5 5 5 5 5 5 6 5 5 6 5 5 5 5 6 5 5 5 5 5 5 5 5 6 5 5 6 6 5 5 5 6 6 5 5 6 5 5 5 5 5 5 6 5 5 5 5 5 5 5 5 5 6 5 5 6 5 5 5 5 5 5 5 5 5 6 5 5 5 5 5 5 5 5 5 6 5 5 5 5 5 5 5 5 5 5 5 5 6 5 5 5 5 5 6 5 6 5 5 5 5 5 5 6 5 5 6 5 5 6 6 5 5 5 5 6 5 5 5 6 5 5 5 5 5 6 5 5 5 5 5 5 6 5 6 5 5 5 5 5 5 5 5 5 5 5 6 5 5 5 5 5 5 5 5 5 6 5 5 5 5 5 5 5 6 5 5 5 5 5 6 5 6 5 5 5 6 5 5 5 5 5 6 5 5 5 6 5 5 5 5 5 5 6 5 5 5 5 5 5 6 5 5 5 5 5 5 5 5 5 5 5 5 5 5 5 5 5 5 5 5 5 5 5 5 5 5 5 5 5 5 5 6 5 5 5 5 5 5 5 5 6 5 5 6 5 5 5 5 5 6 5 5 6 6 6 6 5 5 5 5 5 5 5 5 5 6 5 5 5 5 5 5 5 5 5 5 5 5 5 5 5 5 6 5 5 5 5 6 6 5 5 5 5 5 6 6 5 5 6 5 5 5 5 6 5 5 6 6 5 5 5 5 6 5 6 5 5 5 5 5 5 6 5 5 5 5 5 5 5 5 5 5 5 6 5 5 5 5 5 5 6 5 5 5 5 5 5 5 5 6 5 5 5 5 6 5 5 5 5 5 5 5 5 5 5 5 5 5 5 5 5 5 5 5 6 5 5 5 5 5 5 5 5 5 5 5 5 5 5 5 5 5 5 5 5 5 5 5 5 5 5 5 5 5 5 5 5 5 5 5 5 5 5 5 5 5 5 5 5 5 5 5 5 5 5 5 5 5 5 5 5 5 5 5 5 5 5 5 5 5 5 5 6 5 6 5 5 6 5 5 5 5 5 5 5 5 5 5 5 6 5 5 5 5 5 5 5 5 5 5 6 5 5 6 5 5 5 6 5 6 6 5 5 6 5 5 5 5 5 5 5 5 5 5 5 5 5 5 5 5 5 5 6 5 5 5 5 5 5 5 5 5 5 5 5 6 5 5 5 5 5 6 5 5 5 5 5 5 6 5 5 5 5 5 5 5 5 5 5 5 5 5 5 5 6 5 5 5 5 6 5 5 5 6 5 5 5 5 5 5 5 5 5 5 5 5 6 5 5 5 5 5 5 5 6 5 5 6 5 5 5 5 5 5 5 5 5 5 5 5 5 5 5 5 5 5 5 5 5 6 5 5 5 5 5 6 5 5 5 5 5 5 5 5 5 6 5 5 5 5 5 5 5 5 6 5 5 6 5 5 6 5 5 5 5 5 5 5 5 5 5 5 5 5 5 5 5 5 5 5 6 5 5 5 5 5 5 5 5 6 6 5 5 5 6 5 5 5 5 6 5 5 5 5 5 6 5 5 5 5 5 5 5 5 5 6 5 5 5 5 5 5 6 5 5 5 6 5 5 5 6 6 5 5 5 6 5 5 5 5 5 5 5 6 5 5 5 5 5 6 5 6 5 5 6 5 5 5 6 5 5 5 5 6 5 6 5 5 5 5 5 5 5 6 5 5 5 6 5 5 5 5 5 5 5 5 5 5 5 5 6 5 5 5 5 5 5 5 5 5 6 5 5 5 6 6 5 5 6 6 5 6 5 5 5 5 5 5 5 5 5 5 5 5 5 5 5 5 5 5 5 5 5 5 5 5 5 5 5 5 5 5 5 5 6 5 5 6 5 5 5 6 5 5 5 5 5 5 5 5 5 5 6 5 5 5 5 5 5 5 5 5 6 5 5 5 5 6 5 5 5 5 5 5 5 5 5 5 5 5 5 5 5 5 5 6 5 5 5 5 5 5 5 5 5 5 5 6 5 5 5 5 5 6 6 5 5 6 5 5 5 5 5 5 5 6 5 5 5 5 6 5 6 5 5 5 5 5 5 6 5 5 5 6 5 5 5 5 5 5 5 5 5 5 5 5 5 5 5 5 5 5 6 5 6 5 5 5 5 6 5 6 5 6 5 5 6 5 5 5 6 5 5 5 5 5 5 5 5 5 5 5 5 5 5 5 6 5 5 5 6 5 5 5 5 5 5 5 5 5 5 5 5 5 5 5 6 5 5 5 5 5 5 5 5 5 5 5 5 5 5 6 5 5 5 5 5 5 5 5 5 5 5 5 5 5 5 5 5 5 5 5 5 5 5 5 5 5 5 5 5 5 5 5 5 5 5 5 5 5 5 5 5 5 5 5 5 5 5 5 6 5 5 5 5 5 5 6 5 6 6 5 5 5 5 5 5 5 5 5 5 5 5 5 5 5 5 5 5 5 5 5 5 5 5 5 5 5 5 5 5 5 5 5 6 5 5 6 5 5 5 5 5 5 5 5 5 5 5 5 5 6 5 5 5 5 6 5 5 5 5 6 5 5 6 5 5 5 6 5 6 5 5 5 5 5 5 5 5 5 5 5 6 5 5 5 5 5 5 6 5 5 5 6 5 5 5 6 5 5 5 5 5 5 5 5 5 5 5 5 5 5 5 5 5 5 5 5 6 5 5 5 5 5 6 6 5 5 5 6 5 5 5 5 6 6 5 5 5 5 6 5 5 5 5 5 5 5 5 6 5 5 5 5 5 5 5 5 5 5 6 5 5 6 5 5 5 5 5 5 5 5 6 5 5 5 6 5 5 5 5 5 5 5 5 5 5 5 5 5 5 5 5 5 6 5 5 5 5 5 5 5 5 5 5 5 5 5 5 5 5 5 6 5 5 5 5 5 5 6 5 5 5 5 5 5 5 5 5 5 5 5 5 6 5 5 5 5 6 5 5 5 5 6 5 5 5 5 5 5 5 5 5 5 5 5 5 6 5 5 5 5 5 6 5 5 5 5 5 5 5 5 5 5 5 5 5 5 6 5 5 5 5 5 5 5 5 5 5 5 6 5 5 5 5 5 6 5 5 6 5 5 5 5 5 5 5 6 5 5 6 5 5 5 5 5 5 5 5 6 5 5 5 5 5 5 5 5 5 5 5 5 5 5 5 5 5 5 5 5 6 5 5 5 5 5 5 5 5 5 5 5 6 5 5 6 5 5 5 5 5 5 5 5 5 5 6 5 5 5 6 5 5 5 5 5 6 5 5 5 5 5 5 5 5 5 5 6 6 5 5 5 5 5 5 5 5 5 5 5 5 5 5 5 5 5 5 5 5 5 5 5 5 5 6 5 6 5 5 5 5 5 5 5 6 6 5 6 5 5 5 5 5 5 5 5 5 5 5 5 5 5 5 5 5 5 5 5 5 5 5 5 6 5 5 5 5 5 5 5 5 5 5 6 5 6 5 5 5 5 6 5 5 5 6 5 5 6 5 6 5 6 5 5 6 5 6 6 5 5 6 6 6 6 5 6 5 5 6 6 5 6 6 5 5 6 5 5 6 5 5 5 6 5 6 5 5 5 5 5 6 5 5 5 5 6 5 5 5 6 5 6 5 6 5 5 5 5 6 5 5 5 6 5 5 5 5 6 5 5 5 5 5 5 5 5 5 5 5 5 6 5 5 5 5 5 5 5 5 5 5 5 5 5 5 6 5 6 5 5 5 5 6 5 5 5 6 5 5 5 6 5 5 5 5 5 5 5 5 5 5 5 5 5 5 5 5 5 5 5 5 5 5 6 5 6 5 5 6 5 5 6 5 5 6 5 5 5 5 5 5 6 5 5 6 5 5 5 5 6 5 5 6 5 6 5 5 5 5 5 6 5 6 6 5 5 5 5 5 5 5 5 5 5 6 5 5 5 6 5 6 5 5 5 6 5 5 5 5 5 5 5 6 5 6 5 5 5 5 6 5 6 5 5 6 5 5 5 5 5 5 5 5 6 5 5 5 5 5 6 5 5 5 5 5 5 5 5 5 6 5 5 5 6 5 5 5 5 5 6 5 5 5 5 5 5 5 5 5 5 5 5 5 5 5 6 5 5 6 5 6 6 5 5 6 5 5 5 5 5 5 5 5 5 6 5 6 5 6 5 5 5 5 5 5 5 5 5 6 5 5 6 5 5 5 5 5 6 5 5 5 5 6 5 5 6 5 5 5 5 6 6 5 5 6 5 5 5 5 6 6 5 5 5 5 5 5 5 5 5 6 5 5 5 6 5 6 5 5 5 5 5 6 5 5 5 5 5 5 5 5 5 5 5 5 5 5 5 5 5 6 5 5 6 5 5 5 5 5 5 5 5 5 5 6 5 5 5 5 5 6 6 5 5 5 5 5 5 5 5 6 5 5 5 5 5 5 5 5 5 5 5 5 5 5 6 5 5 5 5 5 6 6 5 5 5 5 5 5 5 5 5 5 5 5 5 5 5 5 5 5 5 5 5 5 5 5 5 5 5 5 5 5 5 5 5 5 5 5 5 5 5 5 5 5 5 5 5 5 5 5 5 5 5 6 5 5 5 5 5 5 5 5 5 5 5 5 5 5 6 6 5 5 5 6 5 5 5 6 6 5 5 6 6 5 5 5 5 5 5 5 5 5 5 5 5 5 5 5 5 5 5 5 5 5 5 5 5 5 5 5 5 5 5 5 5 5 5 5 5 5 5 5 5 5 5 5 5 5 5 5 5 5 5 5 5 5 6 5 5 6 5 5 5 6 5 5 5 6 5 5 5 6 5 5 5 5 5 5 5 6 5 5 5 6 5 6 6 6 6 5 5 5 5 5 5 5 5 5 5 5 5 5 5 5 5 5 5 5 5 6 5 5 5 5 5 5 5 5 5 6 6 5 6 5 5 5 5 6 5 5 5 5 5 5 5 5 5 6 5 6 5 5 5 5 6 5 5 6 5 5 5 5 5 6 5 5 5 6 6 6 5 5 6 5 5 6 5 5 5 6 5 5 6 5 5 5 5 5 6 6 5 6 6 5 5 5 5 5 5 6 5 5 6 5 5 5 5 5 5 5 5 5 5 5 5 5 5 5 5 5 5 5 5 5 5 6 6 6 5 5 5 5 5 6 5 5 5 5 5 5 5 5 5 5 6 5 5 5 5 5 5 5 5 5 5 5 6 5 5 5 5 5 5 5 5 6 5 5 5 5 5 5 6 5 5 6 5 6 5 5 5 6 6 5 5 5 5 6 5 5 6 5 5 5 5 5 5 5 5 6 5 5 5 5 5 5 5 5 5 5 5 5 5 6 5 5 5 5 5 5 5 5 5 5 5 5 5 5 5 5 6 5 5 5 5 5 5 6 5 6 5 5 5 5 5 5 5 5 6 5 5 5 5 5 5 6 6 5 5 5 5 5 5 5 6 6 5 5 5 5 5 5 5 5 6 5 5 5 5 5 5 5 5 5 5 5 6 5 5 5 5 5 5 5 5 5 5 5 5 5 5 5 5 5 6 5 5 5 5 5 5 5 5 5 6 5 5 6 5 6 5 5 5 5 5 5 6 6 5 5 6 5 5 5 5 5 5 5 5 6 5 6 5 5 5 5 5 5 5 5 5 5 6 5 5 5 6 5 5 5 6 5 5 5 5 6 5 5 5 5 5 5 5 5 6 5 5 6 5 5 5 6 5 5 5 5 6 5 5 5 5 5 6 5 5 5 5 5 6 5 5 5 5 5 5 5 5 5 5 5 6 5 5 6 5 5 5 5 6 6 5 6 5 5 6 5 5 5 5 5 5 6 5 5 5 5 5 5 5 5 5 5 5 5 5 6 5 5 6 5 5 5 5 5 5 5 6 5 5 5 5 5 5 5 5 5 5 5 6 6 5 5 5 6 5 5 5 5 5 5 5 5 5 5 6 5 5 5 6 5 5 5 5 5 5 5 5 6 5 5 5 5 5 5 5 5 6 5 6 5 5 5 5 6 5 5 6 5 5 6 5 5 5 5 5 5 5 6 5 5 5 6 5 5 5 5 5 5 5 5 5 5 6 5 6 5 5 6 5 6 6 5 5 5 5 5 6 5 5 5 6 6 5 5 5 5 5 5 5 5 5 5 5 5 5 5 5 6 5 5 5 5 6 5 5 5 6 5 5 5 5 5 5 5 6 5 5 5 5 6 5 5 5 6 5 5 5 5 6 5 6 5 5 5 6 6 6 5 5 6 5 5 5 6 5 6 6 5 5 5 5 6 5 5 5 5 5 6 5 5 5 5 5 5 5 5 5 5 5 6 5 5 5 6 5 5 5 5 5 5 5 6 5 5 5 5 5 5 5 5 5 5 5 5 5 5 5 5 5 5 5 5 5 5 5 5 5 5 5 5 5 5 5 5 5 5 5 5 5 6 5 6 6 5 5 5 5 5 5 5 5 5 5 5 5 5 5 5 5 5 5 5 5 6 5 5 5 5 6 5 5 5 5 5 5 5 5 5 5 5 5 5 5 5 5 5 5 5 6 5 5 5 5 5 5 5 5 6 5 5 6 5 6 5 5 6 5 6 5 6 5 5 6 5 5 5 6 6 6 5 5 5 6 5 5 6 5 6 5 5 5 5 5 6 5 5 5 5 5 5 5 6 5 5 5 6 5 5 5 5 5 5 5 6 5 5 5 6 5 6 5 5 5 5 5 5 5 5 5 6 5 5 5 5 5 5 5 5 5 5 5 5 5 5 5 5 5 5 5 5 5 5 5 5 5 5 5 5 5 5 5 5 5 5 5 5 5 6 5 5 5 6 5 5 5 5 5 5 6 6 5 6 5 6 5 5 6 5 5 5 5 6 6 6 5 5 5 5 5 5 5 5 5 5 5 6 6 5 5 5 5 5 6 6 5 6 5 6 5 5 6 5 5 5 5 6 6 5 5 6 6 5 5 6 6 5 5 6 5 6 5 5 5 5 5 5 5 5 5 5 5 5 5 6 5 6 5 6 5 5 6 5 5 5 5 5 5 6 5 5 5 5 5 5 5 5 5 5 5 5 5 5 5 6 5 5 5 5 5 5 5 6 5 5 6 5 5 6 6 5 5 5 5 6 5 5 5 5 5 5 5 5 5 5 5 5 5 5 5 5 5 5 5 6 5 5 5 5 6 5 5 6 6 5 6 5 5 5 5 5 5 6 5 5 6 5 5 5 5 5 5 5 6 5 5 6 5 6 5 5 5 5 5 5 5 5 5 6 5 5 6 5 5 5 5 5 6 5 5 5 5 5 5 5 5 5 5 5 5 5 5 5 5 5 5 5 5 5 5 6 6 5 5 5 5 5 6 5 5 5 5 6 5 5 5 5 5 5 6 5 5 5 5 5 5 5 5 6 5 5 5 6 5 5 6 5 5 5 5 5 6 5 6 5 5 6 5 5 5 5 5 5 5 5 6 5 5 5 5 6 5 5 5 5 5 5 5 5 6 5 5 5 5 5 5 6 5 5 5 6 5 5 5 5 5 5 5 5 5 5 5 5 6 5 5 5 5 5 6 5 5 5 5 5 5 5 5 5 5 5 5 5 5 5 5 5 5 5 5 5 5 5 5 5 5 5 5 5 5 5 6 6 5 5 5 5 5 5 5 5 5 5 5 5 5 5 5 5 5 5 6 5 5 5 6 5 5 5 5 6 6 5 5 5 5 6 5 6 5 5 5 5 6 5 5 5 6 5 5 5 5 5 5 6 5 5 6 5 5 6 5 5 5 5 5 5 5 5 5 6 5 5 5 5 6 5 5 5 6 5 5 5 5 5 6 5 5 5 5 5 6 5 5 5 5 6 5 5 5 5 5 5 5 5 5 5 6 5 5 5 5 6 5 5 5 6 5 5 5 5 5 5 5 5 5 5 6 5 5 5 6 6 5 5 5 5 5 5 5 5 5 5 5 6 5 5 5 6 5 5 5 6 5 5 5 5 5 6 5 5 6 5 5 5 5 5 5 5 5 5 5 5 5 5 5 5 5 6 5 6 5 5 5 5 5 6 5 5 5 5 5 5 5 5 5 6 5 5 5 5 5 5 6 5 5 5 5 5 5 5 6 5 5 5 5 5 6 5 6 5 6 5 5 6 5 5 5 5 5 6 6 5 6 5 5 6 6 5 5 5 5 5 5 5 6 5 5 5 5 5 5 5 5 5 5 5 5 5 5 5 5 5 6 5 5 5 6 5 6 5 5 5 5 6 5 5 5 5 6 5 5 5 5 6 5 5 6 5 5 5 5 5 5 5 5 5 5 5 5 6 5 5 5 5 5 5 5 6 5 5 5 5 6 5 5 5 5 5 5 5 5 5 5 5 5 5 5 5 5 5 5 6 5 5 5 5 5 6 5 5 5 5 6 6 5 5 5 5 5 6 5 5 6 5 5 6 5 5 5 5 5 5 5 5 5 5 5 5 5 5 6 5 5 5 5 5 5 5 6 5 5 5 5 5 5 5 6 5 6 5 6 5 5 5 5 6 5 6 5 5 5 6 5 5 5 6 5 5 5 6 5 5 5 5 5 6 5 5 5 6 5 5 5 5 5 6 5 5 5 6 5 5 5 5 5 5 6 5 5 6 5 5 6 5 5 5 6 5 5 5 5 5 5 5 5 5 6 5 5 5 6 5 5 6 5 5 5 5 5 5 5 5 5 6 5 5 5 5 5 5 5 5 5 5 6 5 6 5 5 5 6 5 5 6 5 5 5 5 5 5 5 5 5 5 5 5 6 5 5 6 5 5 5 5 5 5 5 5 5 5 5 5 5 5 5 5 6 5 5 5 5 5 5 5 5 5 5 5 5 5 5 6 5 5 5 6 5 5 5 5 5 5 6 5 5 5 5 6 5 5 5 5 5 5 5 5 5 5 5 6 5 5 5 5 5 5 5 5 5 5 5 5 5 5 5 6 5 5 5 5 5 5 6 5 5 5 6 5 5 6 5 5 5 5 6 5 5 5 5 5 5 5 5 5 5 5 5 6 5 5 5 5 5 5 6 6 5 6 5 5 5 5 5 5 5 5 5 5 5 5 5 5 5 5 6 5 5 5 6 5 5 5 5 5 5 5 5 5 6 5 5 5 5 5 5 5 5 5 5 6 5 5 5 5 6 5 5 5 5 5 5 5 5 5 5 5 5 5 6 5 5 5 5 5 5 6 5 5 5 5 5 5 5 5 5 5 5 5 5 5 6 5 6 5 5 5 5 5 5 5 5 5 6 5 5 5 5 5 5 5 5 5 5 5 5 5 6 5 5 5 5 6 6 5 5 5 5 5 6 5 5 5 5 5 5 5 5 5 5 5 6 5 6 5 5 5 5 6 6 5 5 5 5 5 6 5 5 6 6 5 6 6 5 5 5 5 5 5 5 5 5 5 5 5 5 5 5 5 5 5 5 5 5 5 6 5 5 5 5 5 5 5 6 5 5 5 5 5 6 5 5 6 6 5 6 5 5 5 5 5 5 6 5 5 5 5 5 5 5 5 5 5 5 5 5 5 5 5 5 5 5 5 5 5 5 5 5 5 5 5 5 6 5 5 5 5 5 5 5 5 6 5 5 5 5 5 5 5 5 5 5 5 5 5 5 5 5 5 6 5 5 5 5 5 5 6 5 5 5 5 5 5 5 5 5 5 5 5 5 5 5 5 5 5 5 5 5 6 5 5 5 6 5 5 5 5 5 5 5 6 5 5 5 5 5 5 5 6 5 5 5 5 5 5 5 5 5 5 5 5 5 5 5 5 5 5 5 5 5 5 5 5 5 5 5 6 5 5 5 5 5 5 5 5 5 5 5 5 5 5 5 6 5 5 5 5 5 5 5 5 6 5 6 5 5 5 5 5 6 5 5 5 5 5 5 5 5 5 5 5 5 5 5 5 5 5 5 6 5 5 6 5 5 5 5 5 6 5 5 5 5 6 6 5 5 5 5 5 5 5 5 5 6 5 5 6 5 5 5 5 5 5 5 5 5 5 5 5 5 5 5 5 5 6 5 5 5 5 5 5 5 6 5 5 5 5 6 5 5 5 5 5 5 5 5 5 5 5 5 5 5 5 5 5 5 5 5 6 5 5 5 5 6 5 5 5 5 5 5 6 5 5 5 5 5 5 5 5 5 5 5 5 5 5 5 5 5 5 5 5 5 5 5 5 5 5 5 5 5 5 5 5 5 5 5 5 5 5 5 5 5 5 5 5 5 5 5 5 5 6 6 5 5 5 5 6 5 5 5 5 6 5 5 5 5 5 5 5 5 5 5 5 5 5 5 5 5 6 5 5 5 5 5 5 6 5 5 5 5 5 6 5 5 5 5 5 5 5 5 5 5 5 5 5 5 5 5 5 5 5 6 5 5 5 5 5 5 5 5 5 5 5 5 5 5 5 5 6 5 5 6 6 5 5 5 5 6 6 6 5 5 5 5 5 5 5 5 5 5 5 5 5 5 5 5 5 5 6 5 5 6 5 5 5 5 5 5 5 5 5 6 5 5 5 5 5 5 6 5 5 5 6 6 6 5 5 6 5 5 6 5 5 5 5 5 5 5 5 6 5 5 5 5 6 6 5 6 5 5 5 5 5 5 5 5 5 6 5 5 5 6 5 5 6 6 5 5 6 5 5 5 5 6 5 5 5 5 5 5 5 5 5 5 5 5 5 5 5 5 5 5 6 5 5 5 5 5 5 5 5 5 5 6 5 5 6 5 5 5 5 5 5 6 5 5 5 5 5 5 5 5 5 5 5 5 6 5 5 5 6 5 5 5 5 5 5 5 5 5 5 5 5 6 5 5 5 5 6 5 5 6 6 5 5 5 5 5 5 5 5 5 5 5 5 5 5 5 5 5 5 5 5 5 5 5 5 5 5 5 6 5 5 6 5 5 5 5 5 5 5 5 5 5 5 5 5 5 5 5 5 5 5 5 5 5 5 5 6 5 5 5 5 5 5 5 5 5 5 6 5 5 5 5 5 6 6 5 5 5 6 5 5 5 5 5 5 6 6 5 6 5 5 5 5 5 6 5 5 5 5 5 5 5 5 5 5 5 5 5 5 5 5 5 5 6 6 5 5 5 5 6 5 5 5 5 5 5 5 5 5 5 5 5 6 5 6 6 5 5 5 5 5 5 6 5 5 5 5 5 6 6 5 5 6 5 5 5 6 5 5 5 5 5 5 6 5 6 5 5 6 5 6 5 5 5 6 5 5 5 6 5 5 5 5 5 5 5 5 5 5 5 5 5 5 6 6 5 5 5 5 5 5 5 5 5 5 5 5 5 5 5 5 5 6 5 5 5 5 5 5 5 6 5 5 5 5 5 5 5 5 5 5 5 5 5 5 5 5 5 5 5 5 5 5 5 5 5 5 5 5 5 5 5 5 5 5 5 5 5 5 5 5 5 5 5 5 5 5 5 6 5 6 5 5 5 5 6 5 5 5 5 5 5 5 5 5 5 5 5 5 5 6 5 5 5 6 5 5 5 5 5 5 5 5 5 5 5 5 5 5 5 5 5 5 5 5 6 5 5 5 5 5 5 5 5 5 5 5 5 5 5 5 5 6 5 5 5 5 5 5 5 5 5 5 6 5 5 5 5 6 5 5 5 6 5 6 5 6 6 5 5 6 5 5 5 5 5 5 5 5 5 5 5 5 5 5 5 5 5 5 5 5 5 5 5 5 6 5 5 5 5 5 5 6 5 6 6 5 5 5 5 5 5 6 5 5 5 5 5 5 5 6 5 5 5 5 5 5 5 5 5 5 5 5 5 5 5 5 5 5 5 5 5 5 5 5 5 5 5 5 6 6 5 5 5 5 5 5 5 5 5 5 5 5 5 5 5 5 5 5 5 5 5 5 5 5 5 5 5 5 5 5 5 5 5 5 5 5 5 5 5 6 5 5 5 5 6 5 5 6 5 5 5 5 5 5 5 5 5 5 5 5 5 5 5 5 5 5 5 5 5 5 5 5 5 5 5 5 5 5 5 5 5 5 6 5 5 5 5 5 5 5 5 5 5 5 5 5 5 5 5 5 5 5 6 5 5 5 5 5 5 6 5 5 5 5 5 5 5 5 5 5 5 5 6 5 5 5 5 5 5 5 5 5 5 6 5 5 5 5 5 5 5 5 6 5 5 5 5 5 5 5 5 5 5 5 5 5 5 5 5 5 5 5 5 5 5 5 5 5 5 5 5 5 5 5 5 5 5 5 5 5 5 5 5 5 5 5 5 5 5 5 5 5 6 5 5 5 5 5 5 5 5 5 5 5 5 5 5 5 5 5 5 5 5 5 5 6 5 6 5 5 5 5 5 5 5 5 5 5 5 5 5 5 5 5 5 5 5 5 5 5 5 5 5 5 5 5 5 5 5 5 5 5 5 5 5 5 5 5 5 5 5 5 5 5 5 5 5 5 5 5 5 5 5 6 5 5 5 5 5 5 5 5 5 5 5 5 5 5 5 5 5 5 5 5 5 5 6 5 5 5 5 5 5 5 5 5 5 5 5 5 5 5 5 5 5 5 5 5 5 5 5 5 5 5 5 5 5 5 5 5 6 6 5 5 5 5 5 5 5 5 5 5 5 5 5 5 5 5 6 5 5 5 5 5 5 5 5 5 6 5 6 5 5 5 5 5 5 5 6 6 6 5 5 6 5 6 5 5 5 5 5 5 5 6 5 5 5 6 5 5 5 5 6 5 6 5 6 5 5 5 6 5 5 5 5 5 5 5 5 5 5 5 5 5 5 5 5 6 5 5 6 5 5 5 5 5 6 5 5 5 5 5 6 5 5 6 5 5 5 5 5 5 5 5 5 5 5 5 6 6 5 5 5 5 5 5 6 5 5 5 5 5 5 5 5 5 5 5 5 6 5 5 5 6 5 5 5 5 6 6 5 5 6 5 5 5 5 5 5 5 5 5 5 5 5 5 5 6 5 5 5 6 5 5 5 5 5 5 6 6 6 5 5 6 5 5 5 6 6 5 5 5 5 5 6 5 5 5 5 5 5 6 5 5 5 5 5 5 5 5 5 6 5 5 5 5 6 5 5 5 5 5 5 5 5 5 5 6 6 5 5 5 6 5 6 5 5 5 5 5 5 5 5 5 5 5 5 5 5 5 5 5 5 5 5 6 5 5 5 5 6 5 5 5 6 5 5 5 5 5 5 5 5 5 5 5 5 6 6 5 5 5 5 5 5 5 5 5 5 5 5 5 5 5 5 5 5 5 5 5 5 5 5 5 5 5 6 5 5 5 5 6 5 5 5 5 5 5 5 5 5 5 5 5 5 5 5 5 5 5 5 5 5 5 5 5 5 5 5 5 5 5 5 5 5 5 5 5 5 5 5 5 5 5 5 5 5 5 5 5 5 5 5 6 5 5 5 5 5 5 5 5 6 5 5 5 5 5 5 5 5 5 5 5 5 5 5 5 5 5 5 5 5 5 5 5 5 5 5 5 5 5 5 5 5 5 5 5 5 5 5 5 5 5 6 5 5 5 5 5 6 5 5 5 5 5 5 5 6 5 5 5 5 5 5 6 5 5 5 5 5 5 5 5 5 6 6 5 5 5 5 5 6 5 5 5 5 5 5 5 5 5 5 5 5 5 5 5 5 5 5 5 5 5 5 6 5 6 5 5 5 5 5 5 5 5 5 5 5 5 5 5 5 5 5 5 5 5 5 5 5 5 5 5 5 5 5 5 5 5 5 5 5 5 5 5 5 5 5 5 5 5 5 5 5 6 5 5 5 6 5 5 5 5 5 5 5 5 5 5 5 5 5 5 5 5 5 5 5 5 5 5 5 5 5 5 5 5 5 5 5 5 5 5 5 5 5 5 5 5 5 5 5 5 5 5 5 5 5 5 5 5 5 5 5 5 5 5 5 5 5 5 5 5 5 5 6 5 5 5 5 6 5 5 5 5 5 5 5 5 5 5 5 5 5 5 5 5 5 5 5 5 5 5 5 5 5 5 5 5 5 5 6 5 5 5 5 5 5 5 5 5 5 6 5 6 5 5 6 5 5 6 5 5 5 5 6 5 6 6 5 5 5 6 6 5 5 5 5 5 5 5 6 5 6 5 5 5 5 5 5 5 6 6 6 5 5 5 5 5 6 5 5 5 5 6 5 5 5 5 5 5 5 5 5 5 5 5 5 5 5 6 5 5 5 5 5 5 5 5 5 6 5 5 6 5 6 5 5 6 5 5 5 5 6 5 5 6 5 5 5 5 5 6 6 5 5 5 6 5 6 5 5 5 5 5 5 5 5 5 5 5 6 5 5 5 6 5 5 5 5 5 5 5 5 5 6 5 5 5 5 6 5 5 5 5 6 5 5 6 5 5 5 5 5 5 5 5 5 6 6 5 5 5 5 5 5 6 5 5 5 5 6 6 6 5 5 5 6 5 5 6 5 5 5 5 5 5 5 5 5 5 5 6 5 6 5 5 5 6 5 6 6 5 5 5 5 5 5 5 5 5 5 5 5 5 5 6 5 6 5 5 5 6 5 5 5 6 5 5 5 5 6 6 6 6 5 5 5 5 5 5 5 5 5 6 5 5 6 5 5 5 5 5 5 5 5 6 5 5 5 5 5 5 5 5 5 5 5 5 5 5 5 5 5 5 5 5 5 5 5 5 6 5 5 5 5 6 5 5 5 5 5 6 5 5 5 5 5 5 5 5 5 6 5 5 5 5 6 5 5 5 5 5 5 5 5 5 5 5 5 5 5 5 6 5 5 6 5 5 5 6 5 5 5 5 5 5 5 5 5 5 5 5 5 5 5 5 5 6 5 5 6 5 5 5 5 5 5 5 6 6 5 5 5 6 5 5 5 5 6 5 5 5 5 6 5 5 5 5 5 5 6 5 5 5 5 5 5 5 5 5 6 5 5 5 5 5 5 5 6 5 6 5 6 5 5 5 5 5 6 5 5 5 5 6 5 5 5 5 5 5 5 5 5 5 5 5 5 5 5 5 5 6 5 6 5 5 5 5 5 5 6 5 5 5 6 5 5 5 5 5 5 5 5 5 5 5 5 5 5 5 5 5 5 5 5 5 5 5 5 5 5 5 5 5 5 5 5 5 5 6 5 5 5 5 5 5 5 5 5 5 5 5 5 5 5 5 5 5 5 5 5 5 5 5 5 5 5 6 5 5 5 5 5 5 5 5 5 5 5 5 5 5 5 5 5 5 5 5 5 5 5 5 5 5 5 5 5 5 5 5 5 5 5 5 5 5 5 5 5 6 5 5 5 5 5 5 5 5 6 5 5 6 5 5 5 5 5 5 5 5 5 5 5 5 5 5 5 5 5 5 6 5 5 6 5 5 5 5 5 5 5 6 5 5 5 6 5 5 5 5 5 5 5 5 5 5 5 5 5 5 5 5 5 6 5 5 5 6 5 6 5 5 5 5 6 5 5 5 5 5 5 5 5 5 5 5 5 6 5 5 6 5 6 5 5 5 5 5 5 6 5 6 5 5 6 5 5 5 5 5 5 5 5 5 5 5 5 5 5 5 5 5 5 5 5 5 5 5 5 5 6 5 5 5 5 5 5 5 5 5 5 5 6 5 5 5 5 5 5 5 5 5 5 5 5 5 5 5 5 5 5 6 5 5 6 5 5 5 5 5 5 5 5 5 5 5 6 5 5 5 6 5 5 5 5 5 5 5 5 5 5 5 5 5 5 5 5 5 5 5 5 6 5 5 6 5 5 5 5 5 5 5 5 6 5 5 5 5 5 5 5 5 5 5 5 5 6 5 5 6 5 5 5 5 5 6 5 6 5 5 5 5 5 5 5 5 5 5 5 5 5 5 5 5 5 6 5 5 5 5 5 5 5 6 5 6 5 5 5 5 5 5 6 5 6 5 5 6 5 5 5 5 6 6 5 5 6 6 5 6 6 6 5 5 6 5 5 6 5 5 5 5 5 5 6 6 5 5 5 5 5 5 5 5 5 5 6 5 5 5 5 5 5 5 5 5 5 5 5 5 5 5 5 5 5 5 5 5 5 5 5 5 5 5 5 5 5 5 5 5 5 5 6 5 5 5 5 5 5 6 5 5 5 6 5 5 5 5 5 5 5 5 5 5 5 6 5 5 5 5 5 5 5 5 6 5 5 5 5 5 5 5 5 5 6 5 6 5 5 5 5 5 5 5 5 5 6 5 5 5 5 5 5 5 5 5 5 5 5 5 6 5 5 6 5 6 5 5 5 5 6 5 5 5 5 6 5 5 5 5 5 5 5 5 5 5 5 5 5 5 5 5 6 6 5 5 5 5 5 5 5 5 5 5 5 5 5 5 5 5 5 5 6 5 5 5 5 5 5 5 5 5 6 5 5 5 5 6 5 5 5 5 5 5 5 5 6 5 5 6 5 6 5 5 6 5 5 6 5 5 5 5 5 6 5 5 5 5 5 5 5 5 5 5 5 5 5 5 5 5 5 5 5 5 5 5 5 5 5 5 5 6 5 5 5 5 6 5 5 5 5 5 5 5 5 5 5 5 5 5 5 5 5 5 5 5 5 5 5 5 5 5 5 5 5 5 5 5 5 5 5 6 5 5 5 5 5 5 6 6 5 5 5 5 5 5 5 5 6 6 5 5 5 5 5 5 5 5 5 5 6 5 5 5 5 5 5 5 5 5 5 5 5 5 5 5 5 5 5 5 5 5 5 5 5 5 5 5 5 5 5 5 5 5 5 5 5 5 5 5 5 5 5 5 5 5 5 5 5 5 5 5 5 5 6 5 6 5 5 6 5 5 5 5 5 6 6 5 5 6 5 5 5 6 5 5 6 5 5 6 5 5 6 5 5 5 5 5 5 5 5 5 5 5 6 5 6 5 5 6 5 5 5 5 5 6 5 5 5 5 6 5 6 6 5 5 5 6 5 5 6 5 5 6 5 5 5 5 6 5 5 5 6 5 5 5 5 5 5 5 5 5 5 5 6 5 5 5 5 6 5 5 5 5 5 5 5 6 5 6 5 5 5 5 5 5 5 5 5 5 5 5 5 5 5 6 5 5 5 5 5 5 5 5 5 5 5 5 5 6 5 6 5 6 6 5 5 5 5 5 5 5 5 5 6 5 6 5 5 5 5 5 6 5 5 5 6 5 5 5 5 5 5 5 5 5 6 5 5 5 6 5 5 5 5 5 5 5 5 5 5 5 5 5 5 6 5 5 5 5 6 5 6 5 6 5 5 5 5 5 6 5 5 5 5 5 5 6 5 5 6 5 5 6 5 5 6 5 5 5 5 5 5 5 6 5 5 5 5 5 5 5 6 5 5 5 6 5 5 5 6 5 5 5 5 5 5 5 5 5 5 5 5 5 5 5 5 5 5 5 6 5 6 5 6 5 5 5 6 5 5 6 6 5 6 6 5 5 5 6 5 5 5 5 5 5 5 5 5 5 5 5 5 5 5 5 5 6 5 6 5 5 6 5 6 6 5 6 5 5 5 5 5 5 5 5 5 5 5 5 5 5 5 5 5 5 5 5 5 5 5 5 5 5 5 5 5 5 5 5 5 5 5 5 5 5 5 5 5 5 5 6 6 5 5 5 6 5 5 5 5 6 6 5 5 5 6 5 5 5 5 6 5 5 5 5 5 5 5 5 5 5 5 5 5 5 5 5 5 5 5 5 5 5 5 5 5 5 5 5 6 5 5 6 5 5 5 5 5 5 5 5 5 5 5 5 5 5 5 5 5 5 5 5 5 5 5 5 5 5 6 5 5 5 6 5 5 5 6 5 5 5 6 6 5 5 5 6 5 5 6 5 5 5 5 6 5 6 5 6 6 5 5 5 5 5 5 5 5 5 5 5 6 5 5 6 6 5 5 5 5 6 5 5 5 6 6 6 5 6 5 6 5 5 6 5 5 6 5 6 5 5 6 5 5 5 6 5 6 5 5 5 5 5 5 6 5 6 5 5 6 5 6 5 6 5 5 5 6 5 5 5 5 5 5 5 6 5 5 5 5 5 5 5 5 5 5 5 5 5 6 5 5 5 5 6 5 5 5 5 5 5 5 5 6 5 5 5 5 5 5 5 6 5 6 5 5 5 5 5 5 5 5 5 5 5 5 5 5 5 5 5 5 5 5 5 5 6 5 6 6 5 5 5 5 5 5 5 5 5 5 5 5 6 5 5 6 5 5 5 5 5 5 5 5 5 5 5 6 5 6 5 5 5 5 5 5 5 5 5 5 5 5 5 5 5 5 5 5 5 5 5 5 5 5 6 5 5 5 5 6 5 5 6 5 5 5 5 5 5 5 5 5 5 5 5 5 6 5 5 5 5 5 5 5 6 5 5 5 5 5 6 6 5 5 6 5 6 5 6 5 6 5 5 5 5 5 6 5 5 5 6 5 5 5 6 5 5 5 5 5 5 5 5 5 5 5 5 6 5 5 5 6 5 5 6 5 6 5 5 6 6 5 5 5 5 5 5 5 5 5 5 5 5 5 5 5 5 5 5 5 5 5 6 5 5 5 6 5 6 5 5 6 6 5 5 5 6 5 5 6 5 5 5 5 5 5 5 5 5 5 6 5 6 5 5 5 5 5 5 5 6 5 5 5 5 5 5 6 5 6 5 5 5 5 5 5 5 5 5 5 6 6 5 5 5 5 5 6 5 5 5 5 5 5 5 6 5 5 5 5 6 5 5 5 5 5 5 5 5 5 5 5 5 5 5 5 5 5 5 5 5 5 5 5 5 5 5 5 5 5 5 6 5 5 5 5 6 5 5 6 5 5 5 5 5 5 6 5 5 5 5 5 5 5 5 5 5 5 5 5 5 6 6 5 5 5 5 5 5 5 5 5 5 5 5 5 5 5 5 5 5 5 5 5 5 5 5 5 5 5 5 5 5 5 5 5 5 5 5 5 6 5 5 5 5 5 5 5 6 5 6 6 5 5 5 5 6 5 5 5 6 5 5 5 5 6 5 5 5 5 5 5 6 5 5 5 6 5 5 5 5 5 5 5 5 5 5 5 5 5 5 5 5 5 5 5 5 5 6 5 5 6 5 5 5 5 5 5 5 5 5 5 5 5 6 5 5 5 5 6 5 5 5 5 5 5 5 5 5 6 5 5 5 5 5 5 5 5 5 5 5 6 5 5 5 5 5 5 5 5 5 5 5 5 5 5 5 6 5 5 5 5 5 6 5 5 5 5 5 5 5 5 5 5 6 5 5 5 5 5 5 5 5 5 5 5 5 5 5 6 5 5 5 5 5 5 5 5 5 5 5 5 5 5 5 5 5 5 6 5 5 5 5 5 5 6 5 5 5 5 5 5 5 5 6 5 5 5 5 5 6 5 5 5 6 5 5 6 5 5 5 5 5 6 6 5 5 5 5 5 5 5 6 5 5 5 5 5 5 6 5 6 5 5 6 5 5 5 5 5 5 5 5 5 5 5 6 5 5 5 5 6 5 6 5 6 5 5 5 5 5 5 5 5 5 5 5 5 5 5 5 5 5 5 5 5 5 5 5 5 6 5 5 5 5 5 5 5 6 5 5 5 5 5 5 5 5 5 6 5 5 5 5 5 6 5 5 5 5 5 5 5 5 5 6 5 5 5 5 5 5 5 5 5 5 5 5 5 5 6 5 5 5 5 6 5 5 6 5 5 5 5 5 6 5 5 5 5 5 5 5 5 5 5 6 5 5 5 5 5 5 5 5 5 5 5 6 5 6 5 5 6 5 5 6 5 5 5 5 6 5 5 6 5 5 5 6 6 6 5 5 5 5 5 5 5 5 5 6 5 5 5 5 6 5 5 5 5 6 5 5 5 5 5 5 5 5 5 6 5 5 5 6 5 5 5 5 5 5 5 5 6 5 5 6 5 5 5 5 5 5 5 5 5 5 5 5 5 5 5 5 5 5 5 5 5 5 6 5 6 5 5 5 5 5 5 5 5 5 6 5 5 5 5 5 5 5 5 5 6 5 5 5 6 6 5 5 5 5 5 6 5 6 5 5 5 5 6 5 5 6 5 5 5 5 5 5 5 5 5 5 6 5 5 5 5 6 5 5 6 5 5 5 6 5 5 6 5 6 5 5 5 5 6 5 5 5 5 5 5 5 5 5 6 5 5 6 5 5 5 6 5 5 5 5 5 5 5 5 5 5 5 5 5 5 6 5 5 5 5 5 5 5 5 5 5 6 5 5 5 5 5 5 5 5 5 5 5 5 5 6 5 5 5 5 5 6 5 6 5 5 5 5 5 5 6 5 5 5 5 5 5 6 5 5 6 5 5 5 5 5 5 5 5 5 5 5 6 5 5 5 5 5 5 5 6 5 5 5 5 5 5 6 5 5 5 5 5 5 6 5 5 5 5 5 5 6 5 5 5 5 6 6 5 5 5 5 5 5 5 5 5 5 6 5 5 6 5 5 5 5 5 6 5 5 5 5 5 5 5 5 5 6 5 5 5 5 6 5 5 5 5 5 5 5 5 5 6 5 5 5 6 5 5 5 5 5 5 5 5 5 5 5 5 5 5 5 5 5 5 5 6 5 5 5 5 5 5 6 5 5 5 5 5 5 5 5 5 5 5 5 5 5 5 5 5 5 6 5 5 6 5 5 5 5 5 5 5 5 5 5 5 5 5 5 5 5 5 5 5 5 5 5 5 5 5 5 5 6 5 5 5 5 5 5 5 5 5 5 5 6 5 5 5 5 5 5 5 6 5 5 6 5 5 5 5 5 5 6 6 5 5 5 5 5 5 5 5 5 5 5 5 6 5 5 5 6 5 5 5 5 6 5 5 5 5 5 5 5 5 5 5 5 5 5 5 5 5 5 5 6 5 5 5 5 5 5 5 5 5 5 5 5 5 5 5 5 5 5 5 5 5 5 5 5 5 5 5 5 5 5 5 5 5 5 5 5 5 5 5 5 5 5 5 5 5 5 5 5 5 5 5 5 5 5 5 5 5 5 5 5 5 5 5 6 5 5 5 5 5 5 5 5 5 5 5 5 5 5 5 5 5 5 6 5 5 5 5 6 5 6 5 5 5 5 5 5 5 5 5 5 5 6 5 6 5 5 5 6 5 6 5 5 5 5 5 5 5 5 5 5 6 5 5 5 5 5 5 6 5 5 5 5 5 6 6 5 5 5 5 5 5 5 5 6 5 6 5 5 5 5 5 5 5 5 6 5 5 6 5 5 6 5 5 5 5 6 5 5 6 5 5 5 6 6 5 6 5 5 6 5 5 5 5 5 5 5 5 5 5 5 5 5 5 6 6 5 5 5 6 5 5 5 5 5 5 6 5 5 6 6 5 5 5 6 6 5 5 5 5 5 5 6 5 5 6 5 5 5 5 5 5 5 5 5 5 5 5 6 5 6 5 5 5 5 5 6 5 5 5 5 6 5 5 5 5 5 5 5 6 5 6 5 5 5 5 5 5 5 5 5 6 6 5 5 5 6 5 5 5 5 5 5 5 5 5 5 5 5 5 5 5 5 5 5 5 5 5 5 5 5 5 5 6 6 6 5 5 5 5 6 5 5 5 5 6 5 5 6 5 5 5 6 5 5 5 6 5 5 5 6 5 6 6 5 5 5 5 5 5 5 5 5 5 5 6 5 5 5 5 5 6 5 5 6 5 6 5 5 5 6 6 5 5 5 5 5 5 5 5 5 5 5 5 5 5 5 6 5 5 5 5 5 6 5 5 5 6 5 5 5 5 5 6 6 5 5 5 5 5 5 5 5 5 6 5 5 6 5 5 5 5 6 5 5 6 5 6 5 6 5 5 5 5 5 5 5 5 5 5 5 5 5 5 6 5 5 5 5 5 5 5 5 5 5 5 5 6 5 5 5 5 6 5 5 6 6 6 6 5 5 5 5 5 5 6 5 5 5 6 5 5 5 6 5 5 5 5 6 6 5 5 5 5 6 5 5 5 6 5 5 5 5 5 5 5 5 5 5 5 6 6 5 5 6 5 5 5 5 5 5 6 5 5 5 5 5 6 5 6 6 5 5 6 5 5 6 5 5 6 5 5 5 5 6 6 5 5 5 5 5 5 5 5 5 6 5 5 5 5 5 6 5 5 5 5 5 5 5 5 6 5 5 5 5 5 5 5 6 5 6 5 5 6 5 5 5 5 6 5 5 6 5 5 5 5 5 5 5 5 5 5 5 5 5 5 5 5 5 5 5 5 5 5 5 5 5 5 5 5 5 5 5 5 6 5 5 5 5 5 5 5 5 5 5 5 5 5 5 5 5 6 5 5 5 5 6 5 5 5 5 5 5 5 5 5 5 5 5 5 6 5 5 6 5 5 6 5 5 5 5 5 6 5 5 5 5 5 5 5 5 5 5 5 5 5 5 5 5 6 5 5 5 6 5 5 5 5 5 5 5 5 5 5 5 6 5 6 6 5 5 5 6 5 6 5 5 6 5 5 5 5 5 5 5 5 5 6 5 5 5 6 5 5 6 5 5 5 5 5 5 5 5 6 5 5 5 5 5 5 6 5 5 5 5 5 5 5 5 5 6 5 5 5 5 5 5 6 5 5 5 5 5 5 6 5 5 5 6 5 5 5 6 5 5 5 5 5 5 5 5 5 6 5 5 5 6 5 5 5 5 5 5 5 5 5 5 5 5 5 5 5 5 5 5 5 6 5 5 6 5 5 5 5 5 5 5 5 5 5 5 5 5 5 5 5 5 5 5 5 5 5 5 5 5 5 5 5 5 5 6 5 5 6 5 5 5 5 5 5 5 5 5 5 5 6 5 5 5 5 5 5 5 5 5 5 5 5 5 5 5 5 5 5 5 5 5 5 5 5 5 5 5 5 5 5 5 5 5 5 5 5 5 5 5 5 5 5 5 5 5 5 5 5 5 5 5 5 5 5 5 5 5 5 5 5 5 5 5 5 6 5 5 5 5 5 6 5 5 5 5 5 5 5 6 5 5 5 5 5 5 5 5 5 5 5 5 5 5 5 5 5 5 6 5 5 5 5 5 5 5 5 5 5 5 5 6 5 5 5 6 5 5 6 6 5 5 6 5 5 5 5 5 5 5 5 5 5 5 5 5 5 5 5 5 6 5 5 5 5 6 5 5 5 5 5 5 5 5 5 5 5 5 5 5 5 5 5 5 5 5 6 5 6 5 5 5 5 5 5 6 5 5 5 5 5 6 5 5 6 5 5 5 5 5 5 5 6 5 5 5 5 6 5 5 5 5 5 5 5 5 5 5 5 5 5 5 5 5 5 5 5 5 5 5 5 5 6 5 5 5 5 5 5 5 5 5 5 5 5 5 5 6 5 5 5 5 6 5 5 6 5 5 6 5 5 5 5 5 5 5 5 5 5 5 5 5 5 5 5 5 6 5 5 5 5 5 5 6 5 6 5 5 5 5 5 5 5 5 6 5 5 6 5 5 5 5 5 6 5 5 5 5 5 5 6 6 5 5 5 5 5 5 5 5 6 5 5 5 6 6 5 5 5 5 6 6 5 6 5 5 5 6 5 5 6 5 5 5 5 5 5 5 6 5 5 5 5 5 5 5 5 5 5 5 5 5 6 5 5 5 6 6 5 5 5 5 5 5 5 5 5 5 5 5 5 5 5 5 5 5 5 5 5 5 5 5 5 5 5 5 5 5 5 5 5 5 5 6 5 5 5 5 5 6 5 5 5 5 5 5 5 5 5 5 5 6 5 5 5 5 5 5 5 6 5 5 5 6 5 6 5 6 6 5 6 5 5 5 6 5 5 5 5 5 6 5 5 5 5 5 5 5 5 5 5 5 5 6 5 5 5 5 5 5 6 5 5 5 5 5 6 5 5 5 5 6 5 5 5 5 5 5 5 5 5 5 5 5 5 5 5 5 5 6 5 5 6 5 5 5 5 5 5 5 5 5 5 6 5 5 5 6 5 5 5 5 5 5 5 5 5 5 5 5 5 5 6 5 6 5 6 5 6 5 5 6 5 6 6 5 6 5 6 6 5 5 5 6 5 6 5 5 5 5 5 6 5 5 5 5 5 5 5 5 5 5 5 5 5 6 5 5 5 6 5 5 6 5 5 5 5 5 6 5 5 5 5 5 6 5 5 5 5 5 5 5 5 5 5 5 5 5 5 5 5 5 5 5 5 5 5 5 5 5 5 5 5 5 5 6 5 5 5 6 5 5 5 5 5 5 5 5 6 5 5 5 6 6 5 5 5 5 5 5 5 5 5 6 6 5 5 5 5 5 6 5 5 5 6 5 5 5 5 5 5 5 5 6 5 6 5 5 6 5 6 5 5 5 6 5 6 5 6 5 6 5 5 6 5 5 6 5 5 6 6 6 5 5 5 5 5 5 5 5 5 5 5 6 5 6 5 5 5 5 5 6 5 5 6 5 5 5 5 6 6 5 5 6 5 5 6 5 5 5 5 5 5 6 5 5 6 5 5 5 5 5 5 5 6 5 5 5 6 5 5 5 5 6 5 5 5 5 5 5 5 5 5 5 5 5 5 5 5 5 5 5 5 5 5 5 5 5 5 5 5 5 5 5 5 5 5 5 5 5 5 6 6 6 6 5 5 5 6 6 5 5 5 5 5 6 6 5 5 5 5 5 5 5 5 5 5 5 5 5 5 5 5 5 5 5 5 5 5 5 5 5 5 5 5 5 6 5 5 5 5 5 6 5 5 5 5 5 5 5 5 5 5 5 5 5 5 6 6 5 5 5 5 5 5 5 5 6 5 5 5 5 5 5 5 5 6 5 5 5 5 5 5 6 5 6 5 5 5 6 6 6 5 6 5 5 6 5 5 5 5 5 5 5 5 5 5 5 5 5 6 5 5 5 6 5 5 5 6 5 5 5 6 5 5 5 5 5 6 5 5 5 5 5 6 5 5 5 5 5 5 5 5 5 5 6 5 5 5 5 5 5 6 5 5 6 6 5 5 5 6 6 5 6 5 6 5 5 5 5 6 5 5 5 5 6 5 5 5 5 5 5 5 5 5 5 5 5 5 5 5 5 6 5 5 5 5 5 5 5 5 5 5 5 5 5 5 5 5 5 5 5 5 5 5 5 6 5 5 5 5 6 5 5 5 5 5 5 5 5 5 5 5 
</DataArray>
<DataArray type="Float64" Name="stress" NumberOfComponents="9" format="ascii">
1500.0795981458214 179.50762578408614 0 179.50762578408614 -67.433568768829673 0 0 0 0 1706.1027057572192 -17.479734114186858 0 -17.479734114186858 1.050432342368085 0 0 0 0 1398.2583713936401 211.73020460221724 0 211.73020460221724 -32.446816433926983 0 0 0 0 6.4936446364853104 2.6385066779348492 0 2.6385066779348492 2.5957896504871676 0 0 0 0 76.64995669300697 1.5374669959423422 0 1.5374669959423422 -9.6206493110697693 0 0 0 0 775.9292411046772 193.29284818870724 0 193.29284818870724 64.233370342177125 0 0 0 0 5.3921813742119298 -1.8531541435392569 0 -1.8531541435392569 0.43413542395858551 0 0 0 0 1252.0235888736643 293.92577584017596 0 293.92577584017596 -15.003082861869281 0 0 0 0 1193.1628892914669 77.897290957389743 0 77.897290957389743 -49.506089654867765 0 0 0 0 1149.369318037574 248.56348141513033 0 248.56348141513033 -2.1075792794762247 0 0 0 0 1141.8936580027366 313.40558584862532 0 313.40558584862532 80.356313470898243 0 0 0 0 -1.9390642157177354 -7.0451277461609765 0 -7.0451277461609765 -1.016942817097771 0 0 0 0 20.247891616752685 0.54050369428982492 0 0.54050369428982492 -0.33166440890585674 0 0 0 0 1.9569528867457606 0.049650010103022169 0 0.049650010103022169 0.11068064101496612 0 0 0 0 27.686213394908918 1.2966868488269081 0 1.2966868488269081 5.198804534170101 0 0 0 0 23.603193043458305 -1.3513977557422279 0 -1.3513977557422279 0.21980536422345764 0 0 0 0 39.185245720331295 1.78890645349646 0 1.78890645349646 -7.5142357026089597 0 0 0 0 1750.399080380337 777.86690150093295 0 777.86690150093295 185.00546074363396 0 0 0 0 11.394818611095303 -4.5290681665065193 0 -4.5290681665065193 0.11235061795154605 0 0 0 0 2.563875242204066 -0.24297858305786235 0 -0.24297858305786235 -0.17274833249511909 0 0 0 0 -9.9952633013763261 -6.8067326553800145 0 -6.8067326553800145 0.6277071627830253 0 0 0 0 13.17716196103629 -3.5798678074555803 0 -3.5798678074555803 11.747524276891001 0 0 0 0 5.2691249293927598 -1.6123102896506225 0 -1.6123102896506225 -0.30622348664077786 0 0 0 0 11.743363663677883 -11.717346383062862 0 -11.717346383062862 0.0017938451124346621 0 0 0 0 -0.020224981964464206 -0.091039546085127654 0 -0.091039546085127654 -0.041065027755508542 0 0 0 0 36.992300488025649 -1.9918624215119853 0 -1.9918624215119853 -0.0059403110757637895 0 0 0 0 26.747370403383684 -5.5252723212730182 0 -5.5252723212730182 3.0724306196775153 0 0 0 0 -7.2371074076654622 -13.246686125317074 0 -13.246686125317074 0.010178498084157684 0 0 0 0 -25.605196136692939 -2.8342990429822441 0 -2.8342990429822441 3.1452846263509642 0 0 0 0 10.100682388052519 -6.2186556894750851 0 -6.2186556894750851 -4.4382577668475598 0 0 0 0 -5.7031558154521917 -3.4599434953285426 0 -3.4599434953285426 5.5256590556589131 0 0 0 0 -8.2441772337333532 -8.3070278003207765 0 -8.3070278003207765 1.5998094656622399 0 0 0 0 9.9311687050030741 -3.2159747969249448 0 -3.2159747969249448 5.9619591489065442 0 0 0 0 36.038818592095595 -5.9333068057295133 0 -5.9333068057295133 2.3945373873779197 0 0 0 0 33.239206391001062 -12.679867410224936 0 -12.679867410224936 -0.010219227062031206 0 0 0 0 59.139204562270606 -14.998549828601231 0 -14.998549828601231 1.0294984930380204 0 0 0 0 37.007846096315916 -5.2167501595871464 0 -5.2167501595871464 7.2494758380977515 0 0 0 0 35.913620866423116 -8.868307449994095 0 -8.868307449994095 -1.6301955587746235 0 0 0 0 5.5080555095883028 -4.9833533421384786 0 -4.9833533421384786 9.7798423436234145 0 0 0 0 35.322396802068397 -20.960465965345975 0 -20.960465965345975 -6.1094724419082205 0 0 0 0 35.775809510612817 6.2404564674386833 0 6.2404564674386833 -0.83019536384242087 0 0 0 0 52.864191719269002 -19.525946208454414 0 -19.525946208454414 6.1201183529407359 0 0 0 0 0.31062644643930781 0.23388743680573043 0 0.23388743680573043 0.25703864939128035 0 0 0 0 89.125081538666564 -13.186306056453994 0 -13.186306056453994 -4.7737794776197333 0 0 0 0 -9.2986143282651028 -12.580935972934244 0 -12.580935972934244 6.7722424015538465 0 0 0 0 -6.0414073689680663 -12.230966692057635 0 -12.230966692057635 -6.5406462121806186 0 0 0 0 6.3299968474020716 -6.834505317045803 0 -6.834505317045803 -0.086847197438601142 0 0 0 0 -18.97880315886141 -3.5427597616111797 0 -3.5427597616111797 11.295119673671621 0 0 0 0 -20.498960831588192 -23.726763618167411 0 -23.726763618167411 1.8071147455134167 0 0 0 0 12.884582562119562 -8.3314864029348001 0 -8.3314864029348001 -2.3854603389314288 0 0 0 0 32.438674282046122 -2.4231312440523993 0 -2.4231312440523993 -0.66770319936892975 0 0 0 0 36.86193747204743 4.7091977762793533 0 4.7091977762793533 -0.098920080650373166 0 0 0 0 13.604734714346606 -8.4883282202156209 0 -8.4883282202156209 -2.0659107102576253 0 0 0 0 -33.505740659122239 -49.570797349881204 0 -49.570797349881204 -17.81401353524457 0 0 0 0 24.117388634153031 -7.5960634217028655 0 -7.5960634217028655 1.7779113343211179 0 0 0 0 29.641596585506704 24.77788054641897 0 24.77788054641897 213.7350961238775 0 0 0 0 128.00621587698697 -25.962136959395878 0 -25.962136959395878 -10.427397698332697 0 0 0 0 0.095335341994100986 -0.0062096290798479004 0 -0.0062096290798479004 0.32851266985816352 0 0 0 0 42.406637859407056 -7.1548460158978884 0 -7.1548460158978884 18.596963990973506 0 0 0 0 -36.519152253294578 3.2798399396144786 0 3.2798399396144786 37.816765096709446 0 0 0 0 40.598859954490763 47.828325321227396 0 47.828325321227396 -5.2431657054123093 0 0 0 0 60.037107299023774 -124.55480555213444 0 -124.55480555213444 -18.306833457931695 0 0 0 0 232.68150333486119 -12.049518477417621 0 -12.049518477417621 -25.381080552998355 0 0 0 0 69.729094965587137 1.2070511389514422 0 1.2070511389514422 10.664672123713558 0 0 0 0 29.068282400063254 -63.117759949466176 0 -63.117759949466176 -31.329255160326284 0 0 0 0 15.354621151105675 7.1047893127545194 0 7.1047893127545194 -157.89897774041992 0 0 0 0 8.9042575721521331 -6.6375501845187088 0 -6.6375501845187088 -3.8358901500886615 0 0 0 0 16.519815058923996 -7.8182875211025404 0 -7.8182875211025404 -1.0657021116569609 0 0 0 0 0.26426123212877428 -98.533239490414644 0 -98.533239490414644 -29.487914545577723 0 0 0 0 16.683152281768514 -7.4400358312165267 0 -7.4400358312165267 -3.4303657371559702 0 0 0 0 24.831338174983443 -0.47405918396062674 0 -0.47405918396062674 -4.3012829267886703 0 0 0 0 62.565833049556204 38.52014940737098 0 38.52014940737098 21.415469528691574 0 0 0 0 23.934721390498453 0.6012014569176527 0 0.6012014569176527 -5.1526887480828627 0 0 0 0 5.8996919284600153 -66.074215331987148 0 -66.074215331987148 29.566009527334245 0 0 0 0 -2.3004960218270867 -6.0232663384963256 0 -6.0232663384963256 1.3875857579733666 0 0 0 0 31.75324021375426 -17.355246438280098 0 -17.355246438280098 0.40825838442837892 0 0 0 0 18.670885939216532 -32.851586855244022 0 -32.851586855244022 -5.5952031913898281 0 0 0 0 33.736096924621961 -39.614053922710582 0 -39.614053922710582 -2.91575421435914 0 0 0 0 1.1157119463913183 -3.9806450390594179 0 -3.9806450390594179 1.8007979271301655 0 0 0 0 40.218071809336834 -1.6380387333252244 0 -1.6380387333252244 -1.4716366629126938 0 0 0 0 25.395879112977127 1.5792937062882544 0 1.5792937062882544 2.5168135226702857 0 0 0 0 23.927431152595091 -0.54516420936499088 0 -0.54516420936499088 2.4547656144103058 0 0 0 0 1255.2413651457009 -7.4763932663399499 0 -7.4763932663399499 -15.136900614597849 0 0 0 0 1427.7057519987029 75.388550326409359 0 75.388550326409359 -133.35188133019042 0 0 0 0 1.912492029790883 -36.604192252834594 0 -36.604192252834594 -21.434688374323436 0 0 0 0 1.138575232644488 -0.75637753409719011 0 -0.75637753409719011 0.85681080298569046 0 0 0 0 1497.1268511856833 -77.426964299486471 0 -77.426964299486471 -63.69035356741108 0 0 0 0 564.18916538778012 4.904822469608682 0 4.904822469608682 17.44180717547556 0 0 0 0 993.50750260514178 -253.710872426696 0 -253.710872426696 -1.5120014638757624 0 0 0 0 958.85723403494558 108.28630175348289 0 108.28630175348289 -130.05380890904519 0 0 0 0 1292.882906052917 -129.989166121989 0 -129.989166121989 -39.75604410773397 0 0 0 0 1356.0579159141671 32.220469749916091 0 32.220469749916091 -143.80462045827227 0 0 0 0 1336.6438519440526 76.746091021894472 0 76.746091021894472 -106.63014402886753 0 0 0 0 1226.1566877675868 240.94428065909676 0 240.94428065909676 103.04903893410221 0 0 0 0 1254.7033762640567 105.8731496910686 0 105.8731496910686 -67.85941242867932 0 0 0 0 1.0288932652037843 0.9631947768063327 0 0.9631947768063327 1.0614366669297655 0 0 0 0 69.449679646684672 -11.40858052635096 0 -11.40858052635096 43.184426716876175 0 0 0 0 425.296642783469 271.767451595583 0 271.767451595583 149.45085005962949 0 0 0 0 0.70905766532925085 -3.351692425907558 0 -3.351692425907558 1.774920571616132 0 0 0 0 1467.4883536719208 187.66344763677063 0 187.66344763677063 -6.6871644853678873 0 0 0 0 967.29759301702506 92.156468676704819 0 92.156468676704819 20.352404467635836 0 0 0 0 922.7088423504465 -10.403021279260628 0 -10.403021279260628 -92.536309858980133 0 0 0 0 917.56855554750655 142.8113985546168 0 142.8113985546168 -138.34685022339573 0 0 0 0 1004.164832178918 10.951085030931324 0 10.951085030931324 -71.46619073146212 0 0 0 0 1241.2888200903362 95.344024931593665 0 95.344024931593665 -65.845251435773321 0 0 0 0 1221.9765354987758 39.194060302793091 0 39.194060302793091 -139.91654611940072 0 0 0 0 274.15444610379927 1.5901163614100398 0 1.5901163614100398 -22.406755806771628 0 0 0 0 9.3538425268507126 51.471607998657845 0 51.471607998657845 -57.360522847000027 0 0 0 0 1.4045495290066299 0.18054108367055477 0 0.18054108367055477 0.0088192167650281705 0 0 0 0 143.44137310557562 -201.97596774590656 0 -201.97596774590656 171.00142530931683 0 0 0 0 62.509699031066702 -45.748579930961675 0 -45.748579930961675 -14.532932921955648 0 0 0 0 103.14765332054958 28.796255189281204 0 28.796255189281204 -51.884165717594392 0 0 0 0 192.7865902859885 -44.977509131518346 0 -44.977509131518346 -14.931220514852171 0 0 0 0 188.24309598124455 -54.366176298532764 0 -54.366176298532764 34.245947920046376 0 0 0 0 187.98762226368126 -39.872694169981415 0 -39.872694169981415 6.8157121689671953 0 0 0 0 167.88903122922056 2.7293999507934945 0 2.7293999507934945 -26.987102942790202 0 0 0 0 156.32614095983081 -31.595753445403304 0 -31.595753445403304 -0.023644062093046331 0 0 0 0 72.581336708077288 -2.4050468044790989 0 -2.4050468044790989 12.773106948859819 0 0 0 0 0.058026147731879973 -0.018954454012568789 0 -0.018954454012568789 -0.014913085902761705 0 0 0 0 -0.69280974118737504 -6.2294748634095924 0 -6.2294748634095924 17.872061763005618 0 0 0 0 13.517605681015993 -41.288191967718149 0 -41.288191967718149 14.175367255852457 0 0 0 0 -8.4360036058496917 -11.773722326377197 0 -11.773722326377197 0.015364843417521069 0 0 0 0 70.705799854096085 -22.295283673840114 0 -22.295283673840114 -24.854063571111851 0 0 0 0 -8.445603646234531 -11.871843752119121 0 -11.871843752119121 -0.028110260458775613 0 0 0 0 -29.007193361001555 -23.549802600473136 0 -23.549802600473136 -25.712561166965472 0 0 0 0 3.2450980055218679 -13.017918369619295 0 -13.017918369619295 -29.64712231626001 0 0 0 0 -18.096086422272492 -33.98577015489181 0 -33.98577015489181 -17.808750399418592 0 0 0 0 -31.464079768717056 -16.408478547773058 0 -16.408478547773058 -14.260413881048606 0 0 0 0 -25.555257132480619 -33.786472737680612 0 -33.786472737680612 -10.510105287783915 0 0 0 0 5.398707139029284 1.0959882985861773 0 1.0959882985861773 0.086707678040799152 0 0 0 0 -39.085476350177487 -19.726454292452914 0 -19.726454292452914 -16.017256622653406 0 0 0 0 1.1129964040189719 -0.77679434205392539 0 -0.77679434205392539 -0.68735352757971868 0 0 0 0 -19.433067615427717 -19.475720673239181 0 -19.475720673239181 -19.567689759432369 0 0 0 0 -7.1849399069214996 -19.195821395133464 0 -19.195821395133464 -9.1427753702221253 0 0 0 0 11.423277284819051 -19.870489843815562 0 -19.870489843815562 -27.45914720639982 0 0 0 0 7.0657946484498098 -37.150253816292462 0 -37.150253816292462 -13.285117855736658 0 0 0 0 6.9571677668573102 -4.9438953915777688 0 -4.9438953915777688 -44.656230611666928 0 0 0 0 3.8722039664571071 0.91499934518949289 0 0.91499934518949289 -0.2894928138127506 0 0 0 0 29.771766837032374 -20.907328861285748 0 -20.907328861285748 -34.335658372070725 0 0 0 0 2.0078692163584293 -0.50373136393590556 0 -0.50373136393590556 -0.82854358957973062 0 0 0 0 3.2355833447800251 0.64929910655403944 0 0.64929910655403944 0.23284246141996334 0 0 0 0 1.7300742796505801 -15.537298546996908 0 -15.537298546996908 -19.007270138209996 0 0 0 0 80.693405943449761 -1.273163811496822 0 -1.273163811496822 -11.029220570874173 0 0 0 0 80.806019361516519 16.676652149736384 0 16.676652149736384 -14.512201561612159 0 0 0 0 69.737699817072098 2.8329683200629736 0 2.8329683200629736 3.801551981787199 0 0 0 0 58.567977829054144 14.278876262976201 0 14.278876262976201 -7.0296083166003029 0 0 0 0 0.16809064716657929 0.044366872659509227 0 0.044366872659509227 -0.008532222798113609 0 0 0 0 73.403752211961546 18.995687195926195 0 18.995687195926195 1.9257930517727289 0 0 0 0 49.258807715188595 2.7829902758945373 0 2.7829902758945373 -7.2527219470601771 0 0 0 0 0.3779974917727742 0.1588440770866697 0 0.1588440770866697 0.035289709202732888 0 0 0 0 -4.5072463622345822 -17.216436120121358 0 -17.216436120121358 -34.912123901597511 0 0 0 0 -72.483055280332337 -38.656687042018802 0 -38.656687042018802 -15.487255138490269 0 0 0 0 0.56023480032017403 0.030618955413714843 0 0.030618955413714843 -0.11272480352748554 0 0 0 0 0.82933868943827349 -0.48503146166275712 0 -0.48503146166275712 -0.17442756950900321 0 0 0 0 91.371694062065217 19.027454339280382 0 19.027454339280382 1.3439269724043417 0 0 0 0 -45.350826692316332 -22.407046675545566 0 -22.407046675545566 -20.751160767915927 0 0 0 0 -44.82095507219492 -17.065096018082244 0 -17.065096018082244 -26.286657013752411 0 0 0 0 -32.90074342781736 -31.982744855604935 0 -31.982744855604935 -36.386795953810633 0 0 0 0 0.010414447848035024 -0.067646503697719851 0 -0.067646503697719851 -0.0040066356305064055 0 0 0 0 -33.268366201453318 -23.839795468494241 0 -23.839795468494241 -25.727226586467566 0 0 0 0 -53.070721179799875 -27.122139883592546 0 -27.122139883592546 -23.415367902561805 0 0 0 0 -16.476049844757654 -36.217991001596076 0 -36.217991001596076 -23.665217706970392 0 0 0 0 0.29763638547874649 0.033750187353305705 0 0.033750187353305705 -0.0086067465664952103 0 0 0 0 173.56735734517497 -8.1155182895091151 0 -8.1155182895091151 17.710447377805323 0 0 0 0 107.08018446608548 -18.411117100804937 0 -18.411117100804937 6.5252704035590092 0 0 0 0 179.34045415034052 -13.24666620272038 0 -13.24666620272038 -0.50448179177750818 0 0 0 0 -8.8337701297205058 -75.240352925101163 0 -75.240352925101163 -18.312139376067641 0 0 0 0 -46.228712680616809 -64.187403107068178 0 -64.187403107068178 -18.033451700645578 0 0 0 0 0.36561634069420279 -0.21310317968131187 0 -0.21310317968131187 -0.089742192580743452 0 0 0 0 196.7146488238177 36.342624357718812 0 36.342624357718812 0.15600097206093011 0 0 0 0 87.505130220466526 2.659380181887367 0 2.659380181887367 3.1379501783124795 0 0 0 0 98.783516893017804 -21.251751096731319 0 -21.251751096731319 4.7727606310592776 0 0 0 0 114.42798415284415 -25.006817471490258 0 -25.006817471490258 5.6054168375171045 0 0 0 0 126.97763992196997 -25.263089602603728 0 -25.263089602603728 0.75144522647005374 0 0 0 0 117.5173443280728 -17.22697563640423 0 -17.22697563640423 0.029386175111004911 0 0 0 0 0.22058793765777551 0.033049361370146357 0 0.033049361370146357 -0.010427860238689204 0 0 0 0 47.973886767649674 -11.336110668882668 0 -11.336110668882668 0.00549857174755036 0 0 0 0 0.28344687826285764 0.15938987599136567 0 0.15938987599136567 0.0124639039632366 0 0 0 0 93.034613975880347 -15.92304728834007 0 -15.92304728834007 3.9616626642453951 0 0 0 0 103.54689782584319 -17.962626136692144 0 -17.962626136692144 0.27680060628241776 0 0 0 0 108.30298213679998 -23.024556458955168 0 -23.024556458955168 0.62787334842901998 0 0 0 0 79.313822019419604 -10.301043808181944 0 -10.301043808181944 -45.757041182490909 0 0 0 0 74.12841037659382 -9.298277594547784 0 -9.298277594547784 -0.18515926697581619 0 0 0 0 69.739174022517545 -62.362044380150643 0 -62.362044380150643 19.453095787601683 0 0 0 0 104.8378231723691 -71.050759494899239 0 -71.050759494899239 -55.463157780121833 0 0 0 0 29.847237037422019 -28.111321023202592 0 -28.111321023202592 -7.6114184405185199 0 0 0 0 -30.848539381855517 27.14049428894052 0 27.14049428894052 49.248314848079417 0 0 0 0 236.57936395832877 161.08841948986631 0 161.08841948986631 17.042668964887298 0 0 0 0 -77.472635133293807 -92.782024189567295 0 -92.782024189567295 18.4768386221584 0 0 0 0 2.0381535729675591 -1.0102075417928376 0 -1.0102075417928376 0.1228033660289567 0 0 0 0 96.925644143106183 -26.986614294809272 0 -26.986614294809272 -37.633526118712894 0 0 0 0 85.04025849604659 100.92525099576818 0 100.92525099576818 61.505948883896394 0 0 0 0 69.966518964851275 -2.2296426300360963 0 -2.2296426300360963 -14.036824977300512 0 0 0 0 25.708306502139749 -26.41755194489798 0 -26.41755194489798 -9.5281244324614818 0 0 0 0 21.37496362485399 -23.382209764090703 0 -23.382209764090703 -9.0316642752961798 0 0 0 0 95.014461158534687 68.085176824204694 0 68.085176824204694 39.637416494765148 0 0 0 0 121.903889362482 5.6516192242197008 0 5.6516192242197008 -36.851919669053586 0 0 0 0 18.671865797827195 6.3319552664650018 0 6.3319552664650018 26.720587783350652 0 0 0 0 -46.765637174212316 -83.805179598069287 0 -83.805179598069287 -33.772930153820482 0 0 0 0 3.6096232215453767 -3.3303816662080763 0 -3.3303816662080763 1.3075271680772749 0 0 0 0 87.321624189324211 66.496235572560934 0 66.496235572560934 6.6151277757479079 0 0 0 0 112.24228090426186 -67.92938906354722 0 -67.92938906354722 -51.270951804978331 0 0 0 0 68.027655746551318 15.51132854810524 0 15.51132854810524 -32.865435033206836 0 0 0 0 35.888258975905046 -20.5457238078817 0 -20.5457238078817 -47.336807617753351 0 0 0 0 50.353951386212429 23.029492796893663 0 23.029492796893663 -34.781230229010646 0 0 0 0 49.938800243764149 33.845816572040455 0 33.845816572040455 8.4685549418866799 0 0 0 0 19.388308508270711 32.704267303185858 0 32.704267303185858 60.313178701017179 0 0 0 0 1.1763782750263658 0.93145199186267291 0 0.93145199186267291 0.40027805593293314 0 0 0 0 64.187929585357779 12.379162102240187 0 12.379162102240187 -6.0985242323605462 0 0 0 0 124.0275198113377 30.964688009908393 0 30.964688009908393 -0.62888592004672006 0 0 0 0 26.270029340372275 -11.242373439232523 0 -11.242373439232523 7.0383190379943272 0 0 0 0 90.118582698654791 -32.772936497536044 0 -32.772936497536044 14.298511661185643 0 0 0 0 4.1899737797775742 0.85580306557750063 0 0.85580306557750063 -0.70937329642509894 0 0 0 0 0.87539547590673195 0.29223478061413743 0 0.29223478061413743 -0.26704183017237276 0 0 0 0 30.403748709824868 13.459781165853641 0 13.459781165853641 -23.166904448471591 0 0 0 0 3.5158676792427457 0.66250586533030997 0 0.66250586533030997 -0.64081775721969592 0 0 0 0 4.098939357267227 6.1167685803096674 0 6.1167685803096674 -25.175517723178928 0 0 0 0 43.029779764066916 -46.849359058141204 0 -46.849359058141204 58.98786472890265 0 0 0 0 113.77259076488554 -59.046239897089819 0 -59.046239897089819 -5.2750333362708091 0 0 0 0 1.2564663168488295 -0.0097778366254530624 0 -0.0097778366254530624 -0.57099739952425854 0 0 0 0 87.339786946380627 -51.642303576056008 0 -51.642303576056008 -7.2866999276345723 0 0 0 0 27.327497211947048 11.764232002241826 0 11.764232002241826 8.6720351068128139 0 0 0 0 131.03998851653887 15.966617739098972 0 15.966617739098972 -9.7140480354217686 0 0 0 0 18.293988377190544 36.029289783285172 0 36.029289783285172 13.701895226047359 0 0 0 0 170.08974869341546 -57.721857860327852 0 -57.721857860327852 -23.529655706060908 0 0 0 0 0.80443536828017059 0.39932332672981374 0 0.39932332672981374 -0.25332209669110761 0 0 0 0 3.4075429688818986 6.314025046725888 0 6.314025046725888 17.794550211905232 0 0 0 0 -15.261271932075033 -3.0149792391145276 0 -3.0149792391145276 19.964640229328808 0 0 0 0 39.799783297872636 1.822375509600306 0 1.822375509600306 2.6486698755314819 0 0 0 0 -0.49153588098874579 -0.4094711478366122 0 -0.4094711478366122 2.0879931473894735 0 0 0 0 46.684160873879591 20.913410577976606 0 20.913410577976606 -13.976845856812929 0 0 0 0 148.4347121070532 60.636037355051101 0 60.636037355051101 -14.014287446489675 0 0 0 0 249.71589479406975 58.911096424155907 0 58.911096424155907 -54.251725014713486 0 0 0 0 -33.922221690541846 -45.865474656781743 0 -45.865474656781743 91.060839014173098 0 0 0 0 254.40833814866562 -172.8054334771839 0 -172.8054334771839 34.936383833115102 0 0 0 0 -33.47163675417687 178.43604937139051 0 178.43604937139051 -70.926271709164965 0 0 0 0 1.7179569411805744 0.63761690372504631 0 0.63761690372504631 -0.077838707460184439 0 0 0 0 164.6609201944957 69.752400231282579 0 69.752400231282579 -84.247872480291676 0 0 0 0 428.86366993858246 14.670959906672152 0 14.670959906672152 -2.6963096526045831 0 0 0 0 224.47830613021142 -126.99517055413484 0 -126.99517055413484 143.08856944929923 0 0 0 0 40.147411132766138 -0.71025107494964246 0 -0.71025107494964246 32.764308477150067 0 0 0 0 238.04985127728287 9.5647960041378575 0 9.5647960041378575 -52.957611326766795 0 0 0 0 -14.512695356199401 -72.188202212283187 0 -72.188202212283187 -40.407871457470989 0 0 0 0 3.6669467028341671 1.3483239070508048 0 1.3483239070508048 -0.35299674919115653 0 0 0 0 148.70226328277931 69.229649048698917 0 69.229649048698917 -100.36623414377617 0 0 0 0 122.59537719141372 -82.736099030304132 0 -82.736099030304132 27.078133335645688 0 0 0 0 106.20076136582429 -62.508730624528312 0 -62.508730624528312 2.2919555359641777 0 0 0 0 110.23106969920809 -68.884806996280034 0 -68.884806996280034 -5.1021928617782351 0 0 0 0 -27.587614888587268 -83.233908294660949 0 -83.233908294660949 5.3344997874651199 0 0 0 0 139.53365379774914 12.151623699833166 0 12.151623699833166 -89.490377893021503 0 0 0 0 224.29336393220001 -131.99287308523117 0 -131.99287308523117 74.894755121949174 0 0 0 0 341.5413001676061 -84.819604214947617 0 -84.819604214947617 -24.92528080994208 0 0 0 0 289.88447500889743 -65.237547082796084 0 -65.237547082796084 -25.20022569055385 0 0 0 0 279.07134488573138 -85.073867621494031 0 -85.073867621494031 -4.6475507283355455 0 0 0 0 176.80366487453284 -84.083388900005275 0 -84.083388900005275 13.749815282304382 0 0 0 0 332.37542785017285 -136.74875350419603 0 -136.74875350419603 28.32685980143674 0 0 0 0 412.76154426808353 -76.686385855361323 0 -76.686385855361323 -29.201780019924968 0 0 0 0 394.82420861817081 -25.668832627239681 0 -25.668832627239681 -21.025994427731888 0 0 0 0 293.46659791111415 -39.810632219205566 0 -39.810632219205566 3.4517011861267974 0 0 0 0 337.98338339541806 -22.914150041473761 0 -22.914150041473761 -19.528337091799528 0 0 0 0 297.0622186823075 -48.883730880315952 0 -48.883730880315952 -18.821598083801518 0 0 0 0 312.08145169862109 -60.284960768646613 0 -60.284960768646613 -12.93867520509184 0 0 0 0 240.92441724779928 -84.491793878803392 0 -84.491793878803392 27.496368595767251 0 0 0 0 243.04827574169985 -29.507385256322479 0 -29.507385256322479 3.2082234788938422 0 0 0 0 360.66783159908664 -86.27866293778311 0 -86.27866293778311 -20.91058172387303 0 0 0 0 316.28468980395701 -67.901286996671388 0 -67.901286996671388 -30.763621952873564 0 0 0 0 316.34572699501587 -67.32997573654626 0 -67.32997573654626 -28.745344879884669 0 0 0 0 286.75483748307397 -45.17452744769615 0 -45.17452744769615 -20.195394337168295 0 0 0 0 285.27941482882306 -63.524382584264089 0 -63.524382584264089 -13.437433091525179 0 0 0 0 324.14870724893262 -34.619106780053819 0 -34.619106780053819 -19.549216360952936 0 0 0 0 310.05841975891235 -72.46271030426928 0 -72.46271030426928 36.400506422866414 0 0 0 0 336.00762913934159 -42.978706110886755 0 -42.978706110886755 -16.428251868558405 0 0 0 0 327.61606852240948 41.56278759126215 0 41.56278759126215 145.87228953173837 0 0 0 0 552.38480767176225 -61.341245424241009 0 -61.341245424241009 -16.99547671625831 0 0 0 0 19.892069518864446 3.7227515855993261 0 3.7227515855993261 37.540586906726276 0 0 0 0 1.3834192939374645 1.6095331384966514 0 1.6095331384966514 1.0461955218520496 0 0 0 0 59.860602905217092 48.024490957426337 0 48.024490957426337 68.241977364116678 0 0 0 0 54.992847467421598 2.0161056276534985 0 2.0161056276534985 1.4884587856346343 0 0 0 0 34.330796972541066 -30.350775327064667 0 -30.350775327064667 6.6559436368215756 0 0 0 0 508.6257175287883 -251.96394093265445 0 -251.96394093265445 76.451961641464948 0 0 0 0 301.0789628010607 -140.71152810844214 0 -140.71152810844214 58.278534755957935 0 0 0 0 37.870594628795516 -5.895695413487033 0 -5.895695413487033 2.4755947108615146 0 0 0 0 35.860624882763659 -23.402214981007432 0 -23.402214981007432 12.190675117022067 0 0 0 0 42.340425399786909 3.7738326110796834 0 3.7738326110796834 -4.3841010767579576 0 0 0 0 -3.043969298486104 -6.1387188328046687 0 -6.1387188328046687 3.6735412632197182 0 0 0 0 39.995578785230464 -23.635923015116703 0 -23.635923015116703 14.612687029871722 0 0 0 0 19.367051886572881 -16.188740361811227 0 -16.188740361811227 9.7205044653999266 0 0 0 0 5.1933034157771303 -1.0907431721593355 0 -1.0907431721593355 2.5001720063283974 0 0 0 0 44.026438060165674 -14.262916853274135 0 -14.262916853274135 -22.11412342309039 0 0 0 0 43.68033156427191 -3.1268934772908779 0 -3.1268934772908779 -10.903337495322376 0 0 0 0 40.941791699910027 -3.9523497917550685 0 -3.9523497917550685 -6.3197863823174885 0 0 0 0 40.699871392862406 -2.7492046638094507 0 -2.7492046638094507 -1.28856410259732 0 0 0 0 112.14911301101347 1.9483850847095709 0 1.9483850847095709 -29.14286050140413 0 0 0 0 35.700025248871626 -7.0163425477846886 0 -7.0163425477846886 0.91126615197472427 0 0 0 0 60.561901939199743 -34.526853325191041 0 -34.526853325191041 -5.7254278271343537 0 0 0 0 -24.59336235187584 -45.680301846378597 0 -45.680301846378597 29.582537935701566 0 0 0 0 9.6574160743710884 -18.829777641862947 0 -18.829777641862947 4.758832051169712 0 0 0 0 8.7574100334105367 1.0450876115020762 0 1.0450876115020762 5.8281015952135942 0 0 0 0 0.9482572286937021 -6.9094325810699146 0 -6.9094325810699146 24.600022254813581 0 0 0 0 -0.64339712267405957 -12.159112695474917 0 -12.159112695474917 -11.056119235167783 0 0 0 0 -29.534872950167482 -79.226461605406826 0 -79.226461605406826 2.3679839179148985 0 0 0 0 170.16230822035141 -15.707330532717776 0 -15.707330532717776 60.795704557338013 0 0 0 0 72.312048125226283 -115.37123477752436 0 -115.37123477752436 -34.320447703214086 0 0 0 0 -47.28805581733468 -20.744226329858293 0 -20.744226329858293 7.8036092386131486 0 0 0 0 101.89714206624922 -51.825256123335748 0 -51.825256123335748 -27.126966297146282 0 0 0 0 206.92379345502559 0.040520381298392749 0 0.040520381298392749 -8.9376523248206468 0 0 0 0 130.23757721593574 33.739556286793459 0 33.739556286793459 53.164289566654588 0 0 0 0 134.04309236122026 59.963462941980055 0 59.963462941980055 30.609585093397072 0 0 0 0 -0.72706051176646724 -55.742297794986371 0 -55.742297794986371 -33.893437154780258 0 0 0 0 6.2462219936967642 -7.0472408857207753 0 -7.0472408857207753 5.6725818038963318 0 0 0 0 140.34780698649411 18.721741231712485 0 18.721741231712485 23.580164602913101 0 0 0 0 111.33520325698919 53.587597658886125 0 53.587597658886125 34.338008142454783 0 0 0 0 90.339717199376537 -5.2275332204326901 0 -5.2275332204326901 -0.70204557866873074 0 0 0 0 55.607616887467884 19.668414600485789 0 19.668414600485789 20.358529729131078 0 0 0 0 108.04405410109757 52.932349354068037 0 52.932349354068037 42.93153170786718 0 0 0 0 174.46680530562298 76.101210607261237 0 76.101210607261237 47.754282450857318 0 0 0 0 65.640943021775456 9.7584789843053841 0 9.7584789843053841 37.169788917147343 0 0 0 0 121.9427359381225 78.663049976510592 0 78.663049976510592 54.984229384241189 0 0 0 0 84.27663946012035 42.22486339104762 0 42.22486339104762 71.062909054747252 0 0 0 0 79.82999778872454 14.242222793672795 0 14.242222793672795 5.7702363708585835 0 0 0 0 72.608590374846244 -6.4891043234247263 0 -6.4891043234247263 12.061039810681905 0 0 0 0 78.903486100447481 8.705066268328892 0 8.705066268328892 -17.75088751947078 0 0 0 0 27.077170485674287 -14.206503655536835 0 -14.206503655536835 14.392143244486306 0 0 0 0 54.211824310272277 -44.927783207841799 0 -44.927783207841799 -15.406441228503354 0 0 0 0 79.826824861316709 -55.122783384102831 0 -55.122783384102831 -27.625199582525511 0 0 0 0 137.50609152527613 25.570115114037662 0 25.570115114037662 17.706891392290117 0 0 0 0 6.6183569256116073 2.0184859568638771 0 2.0184859568638771 -0.67372260611367896 0 0 0 0 -11.647086560184107 -71.532457235035281 0 -71.532457235035281 -17.446361368768692 0 0 0 0 43.262694753750111 0.003843432504595512 0 0.003843432504595512 -9.1024793131696242 0 0 0 0 41.713601581603143 1.6520993861031457 0 1.6520993861031457 -3.995719064216928 0 0 0 0 58.302917859215086 22.283832215378538 0 22.283832215378538 -17.438013230897923 0 0 0 0 31.228408434185354 -2.1847294410042384 0 -2.1847294410042384 -0.13074707832312238 0 0 0 0 12.273042175220823 -2.4102326737769744 0 -2.4102326737769744 2.1568325931075787 0 0 0 0 64.548152466770262 -21.577279170000566 0 -21.577279170000566 -71.274418018618462 0 0 0 0 40.20769749066676 11.699962488454219 0 11.699962488454219 -38.891548138058624 0 0 0 0 75.831474101956701 -14.743479198763907 0 -14.743479198763907 -21.103212520192301 0 0 0 0 11.49661496677254 6.811062547524557 0 6.811062547524557 9.7351843585925053 0 0 0 0 67.862624238627177 40.405235855389719 0 40.405235855389719 5.3132571193802676 0 0 0 0 3.171215502657752 -0.40517621563153483 0 -0.40517621563153483 -3.4333136462727358 0 0 0 0 34.053577661901414 -5.3696321214684639 0 -5.3696321214684639 -0.81059107018813514 0 0 0 0 36.831546072520723 17.536827793480597 0 17.536827793480597 -3.5907886094447576 0 0 0 0 47.958848318068704 10.638049972202225 0 10.638049972202225 -25.568648529344273 0 0 0 0 7.1461549312537329 -0.4399839337868201 0 -0.4399839337868201 -0.99783685500946895 0 0 0 0 54.574029591711223 -37.733090079108479 0 -37.733090079108479 -32.500724488814512 0 0 0 0 -26.144941412407206 12.176256401241744 0 12.176256401241744 6.8233703298360524 0 0 0 0 30.455427682894879 -8.9779320755307168 0 -8.9779320755307168 -29.423000339686496 0 0 0 0 14.893675987012102 10.305768175028902 0 10.305768175028902 -12.764389340836487 0 0 0 0 1.9697444213324928 0.33436224876521692 0 0.33436224876521692 -2.1369180458591535 0 0 0 0 8.2658728190241959 -19.75097055521114 0 -19.75097055521114 -22.373153668543182 0 0 0 0 27.149783802717138 11.222839124232777 0 11.222839124232777 -14.92603113761561 0 0 0 0 2.2777820926569916 -1.6721824323629235 0 -1.6721824323629235 -1.0714819793024448 0 0 0 0 11.971427778930462 -4.4561528258145735 0 -4.4561528258145735 -7.0890777702014507 0 0 0 0 7.625637022916635 2.214605017945587 0 2.214605017945587 -3.591552464478923 0 0 0 0 15.534138863014959 -30.498971432463577 0 -30.498971432463577 -137.36373736368068 0 0 0 0 6.0556703674408254 1.9065587647032771 0 1.9065587647032771 -14.397086564376878 0 0 0 0 64.474937418125592 18.290991945090923 0 18.290991945090923 -26.894810546006738 0 0 0 0 3.0425578542116938 0.27236609417057878 0 0.27236609417057878 -3.4774995056327 0 0 0 0 36.808338116090454 -43.501659345347434 0 -43.501659345347434 -54.49081360661603 0 0 0 0 15.831608698035183 -1.4269506942162486 0 -1.4269506942162486 -6.276494741606097 0 0 0 0 12.830572388171277 17.16432362673504 0 17.16432362673504 -14.927327693234304 0 0 0 0 32.214537304423175 11.298965136086451 0 11.298965136086451 -168.39406629841369 0 0 0 0 78.923104637062352 14.227275118519884 0 14.227275118519884 -156.96460737114512 0 0 0 0 4.1800690967647824 -52.642191829599369 0 -52.642191829599369 -157.56615683362179 0 0 0 0 106.39989677835911 -61.780974544583501 0 -61.780974544583501 -167.40360646439217 0 0 0 0 -32.174734113365048 -178.13067036610613 0 -178.13067036610613 -231.53327791786523 0 0 0 0 -1.832449912948718 -2.2293344574819685e-05 0 -2.2293344574819685e-05 1.5481548021369633 0 0 0 0 81.522901489784999 -63.006269275329032 0 -63.006269275329032 -197.81390865895764 0 0 0 0 132.09690011492421 -79.039051206612953 0 -79.039051206612953 -78.105723469555841 0 0 0 0 16.916273953003838 -66.084975874068391 0 -66.084975874068391 -77.139012155604405 0 0 0 0 165.79076516242549 -42.933297105239888 0 -42.933297105239888 -149.55486096725281 0 0 0 0 440.18712800049252 -306.63384200233872 0 -306.63384200233872 171.64346443595912 0 0 0 0 156.12367071951303 -143.99197493533907 0 -143.99197493533907 85.755481690777401 0 0 0 0 101.20367167060795 -166.26558076437129 0 -166.26558076437129 186.73278273799303 0 0 0 0 95.037818115190021 -106.36625700528555 0 -106.36625700528555 37.615557935872459 0 0 0 0 175.17342198154438 -170.56484380652148 0 -170.56484380652148 39.215801997989956 0 0 0 0 126.18033069053308 -203.56253024182482 0 -203.56253024182482 162.52507685449706 0 0 0 0 170.65308367744728 -49.844005440100773 0 -49.844005440100773 126.25631113712487 0 0 0 0 -0.77259549921571136 1.1319554548467892 0 1.1319554548467892 2.2620650644508435 0 0 0 0 -60.315019836187275 302.5252363891791 0 302.5252363891791 32.756033187913687 0 0 0 0 337.04720904281567 -496.7336559684652 0 -496.7336559684652 337.61441987879664 0 0 0 0 -122.94569906476681 181.79573582811156 0 181.79573582811156 5.081597120081824 0 0 0 0 67.022286847732175 -172.75918650342905 0 -172.75918650342905 -171.34277327877516 0 0 0 0 -62.43546760949539 -428.97377913476703 0 -428.97377913476703 114.28855389597356 0 0 0 0 266.59463155572666 -96.503177793624161 0 -96.503177793624161 -174.94360782706144 0 0 0 0 1.9024090544189676 0.60160846740453877 0 0.60160846740453877 -0.82796097516661282 0 0 0 0 175.37634595231498 -321.4048688515806 0 -321.4048688515806 -33.700780526158724 0 0 0 0 492.39141657786968 -327.60187698573418 0 -327.60187698573418 -356.28434299559603 0 0 0 0 93.411695627738482 -174.88324529350336 0 -174.88324529350336 -18.484714142520033 0 0 0 0 162.79121240654058 -132.93587192995574 0 -132.93587192995574 -59.993958612260712 0 0 0 0 77.855446523506544 108.01275561118155 0 108.01275561118155 -41.290497982922034 0 0 0 0 -23.99856828800057 -254.07414813885387 0 -254.07414813885387 -30.011813420629096 0 0 0 0 -67.236479245113514 -80.288354905432811 0 -80.288354905432811 -83.404314228910152 0 0 0 0 -23.625791242840933 -132.36628615081781 0 -132.36628615081781 -24.289248959120414 0 0 0 0 1.2542995699509163 -1.9641541710157497 0 -1.9641541710157497 3.3621084812155653 0 0 0 0 -346.60951193752771 21.48481515788967 0 21.48481515788967 408.46032930667843 0 0 0 0 286.75374384399902 -26.031659172600826 0 -26.031659172600826 -60.797003094872707 0 0 0 0 326.65129574898674 143.27411154120023 0 143.27411154120023 22.785636381585618 0 0 0 0 63.958822357812096 -61.807014259359903 0 -61.807014259359903 -58.496042064488847 0 0 0 0 -1.1817042632707526 -1.9833939057141805 0 -1.9833939057141805 -5.7347479066173834 0 0 0 0 132.8622503570441 70.258208915193336 0 70.258208915193336 47.112766546374587 0 0 0 0 18.029412492884148 1.1134740267473262 0 1.1134740267473262 -77.366909974653709 0 0 0 0 -167.66338704792543 -62.859814707852479 0 -62.859814707852479 206.46333326149011 0 0 0 0 -30.634830111637712 -81.724261711753684 0 -81.724261711753684 41.113038048839599 0 0 0 0 -41.100962557218736 -74.881281296022962 0 -74.881281296022962 83.756567122391289 0 0 0 0 -122.11325559338729 19.409980256457402 0 19.409980256457402 7.7102845214596982 0 0 0 0 -160.87369139487055 -118.72634417009687 0 -118.72634417009687 376.96523689475271 0 0 0 0 -124.76653234881087 -84.025725508537107 0 -84.025725508537107 91.061521940076545 0 0 0 0 -64.724756115552736 -207.86840376934708 0 -207.86840376934708 124.88223226399771 0 0 0 0 -39.132569748311653 -156.66997554560453 0 -156.66997554560453 151.82670636335183 0 0 0 0 -22.099355460271909 -137.23748904974133 0 -137.23748904974133 3.3198699805252545 0 0 0 0 -145.06423883132811 -100.13523676532779 0 -100.13523676532779 37.606505885732417 0 0 0 0 37.538173545515747 -210.32804428900664 0 -210.32804428900664 66.673831091907232 0 0 0 0 -21.171001601735043 -93.340179852369374 0 -93.340179852369374 -69.167213044698201 0 0 0 0 343.79510687926813 -249.62149821412686 0 -249.62149821412686 23.377188990620198 0 0 0 0 158.24182361354178 -148.66956201893458 0 -148.66956201893458 -28.395419219043333 0 0 0 0 -5.9111926806072006 -55.05551675995315 0 -55.05551675995315 -9.3901675947136027 0 0 0 0 101.215722824767 12.402369972141855 0 12.402369972141855 307.84287681914839 0 0 0 0 -17.599941453365318 58.133192679096737 0 58.133192679096737 -58.803773544476144 0 0 0 0 20.859193054482162 11.023644878183894 0 11.023644878183894 5.3055545915006235 0 0 0 0 -13.173178722492594 41.381037712296347 0 41.381037712296347 -63.295477594562499 0 0 0 0 226.36725578202822 -469.75820750865353 0 -469.75820750865353 135.78631092055036 0 0 0 0 -3.6898400607169606 -456.08274469642856 0 -456.08274469642856 156.07276342823616 0 0 0 0 218.33615851502145 -359.77239789706834 0 -359.77239789706834 96.888307926000834 0 0 0 0 1.5296218091825722 -279.74266326124967 0 -279.74266326124967 174.2634241909376 0 0 0 0 -96.299245315851294 -354.22088413626847 0 -354.22088413626847 323.33211243235598 0 0 0 0 -12.611600601827377 -237.25676054978089 0 -237.25676054978089 59.983270320917427 0 0 0 0 -149.271203043696 -562.23239887171076 0 -562.23239887171076 199.53496282731965 0 0 0 0 -270.93558264977037 -246.2382719006938 0 -246.2382719006938 633.13817014529013 0 0 0 0 -170.22443306543573 -277.94327048422713 0 -277.94327048422713 271.11932791781817 0 0 0 0 -3.5632227555397549 75.07567231295252 0 75.07567231295252 -51.67629375213437 0 0 0 0 526.3875781571187 320.56843564349947 0 320.56843564349947 598.99939652277772 0 0 0 0 -806.65294308352168 -1074.589110137744 0 -1074.589110137744 1112.0372083284997 0 0 0 0 -3.2358407742576674 61.341774487143994 0 61.341774487143994 -59.878390328880414 0 0 0 0 -0.96967170878633624 66.676594137780739 0 66.676594137780739 -53.617150100646541 0 0 0 0 -1.0759212993652909 67.854270374632506 0 67.854270374632506 -47.814814490044228 0 0 0 0 -3.1198349838959984 60.299761417230911 0 60.299761417230911 -43.732125007987634 0 0 0 0 0.82222793358960189 60.828388366475338 0 60.828388366475338 -44.554055410724686 0 0 0 0 -7.945326611661585 57.802878996722939 0 57.802878996722939 -46.746979858573468 0 0 0 0 -3.1972196304996032 58.856914485804737 0 58.856914485804737 -53.613339316576507 0 0 0 0 -6.5832674503471935 54.335961195285563 0 54.335961195285563 -47.625807089183127 0 0 0 0 -6.116536107576394 56.572079819932242 0 56.572079819932242 -37.541310151264042 0 0 0 0 -19.879812447492441 54.56574084248723 0 54.56574084248723 -41.754545384319499 0 0 0 0 -18.224271986517124 51.298795833770782 0 51.298795833770782 -47.577219540067745 0 0 0 0 -9.4007677194167627 53.471347595881525 0 53.471347595881525 -58.314397603262478 0 0 0 0 -12.568492145052005 57.239119032182316 0 57.239119032182316 -41.80643139501808 0 0 0 0 -10.550368290947517 50.12748911296967 0 50.12748911296967 -40.9987903942706 0 0 0 0 -14.464101860241499 55.882419160953759 0 55.882419160953759 -48.409031267116006 0 0 0 0 -1.3374262075885781 52.597026470662058 0 52.597026470662058 -39.94454245797715 0 0 0 0 -10.132012907102762 52.138587340426056 0 52.138587340426056 -31.484987479308984 0 0 0 0 -11.891111429838929 43.150673509218905 0 43.150673509218905 -32.708969202177286 0 0 0 0 -3.0503072228239034 44.059958711128729 0 44.059958711128729 -42.080013070004043 0 0 0 0 -13.06936003271403 38.958839695361803 0 38.958839695361803 -44.38813568136959 0 0 0 0 12.946846532286145 46.678497460524341 0 46.678497460524341 -17.678802509630259 0 0 0 0 42.564938250201521 52.466245756511853 0 52.466245756511853 -21.667021984698295 0 0 0 0 28.709652233043016 42.916287549032859 0 42.916287549032859 -13.190684982000676 0 0 0 0 27.145065583870746 47.618446143073015 0 47.618446143073015 -22.843416781225642 0 0 0 0 -3.2335255822054023 44.191209883315423 0 44.191209883315423 -23.03449547837954 0 0 0 0 2.6295105801254977 49.224784320656909 0 49.224784320656909 -22.008494065038576 0 0 0 0 12.897836519041448 45.241785440643071 0 45.241785440643071 -26.761072121895268 0 0 0 0 8.2050771761132637 52.063628338342824 0 52.063628338342824 -23.199739816816873 0 0 0 0 7.1552402324741706 48.225927123605288 0 48.225927123605288 -36.476912143392838 0 0 0 0 -0.045319552227738313 55.944126310048887 0 55.944126310048887 -31.274375678231081 0 0 0 0 9.9622769333436736 51.892472371431722 0 51.892472371431722 -34.702403401277479 0 0 0 0 13.573568676045397 56.798252149548716 0 56.798252149548716 -28.069134280280878 0 0 0 0 24.812248003887362 52.731150593886014 0 52.731150593886014 -25.616452722747454 0 0 0 0 14.869010584923672 46.554730627635763 0 46.554730627635763 -26.783613916226386 0 0 0 0 25.862709670131153 47.469690477215067 0 47.469690477215067 -19.708304448678973 0 0 0 0 39.541223159583751 50.91423460508031 0 50.91423460508031 -29.03321947479526 0 0 0 0 25.171426785225776 52.678138208767905 0 52.678138208767905 -24.417064177359862 0 0 0 0 24.563304791103292 50.465083201443576 0 50.465083201443576 -32.465204712018021 0 0 0 0 12.59698126433068 54.577652952646531 0 54.577652952646531 -27.046608191985797 0 0 0 0 13.304166560366866 59.443955823820943 0 59.443955823820943 -32.209099847415928 0 0 0 0 14.129105411397177 60.37634792893914 0 60.37634792893914 -36.437173612370998 0 0 0 0 23.958801650234818 46.065237243701631 0 46.065237243701631 -33.094727147534286 0 0 0 0 5.5322579161729664 60.211390213755294 0 60.211390213755294 -34.282823221208275 0 0 0 0 13.560897080089489 54.364845451144447 0 54.364845451144447 -35.745662932138657 0 0 0 0 2.7893920875649201 66.425777916772859 0 66.425777916772859 -41.321984785789937 0 0 0 0 2.6019359278579941 56.846421724635093 0 56.846421724635093 -38.146617509784846 0 0 0 0 3.1176426810998237 69.581659013160788 0 69.581659013160788 -45.255965754794943 0 0 0 0 0.26481645182502689 64.659028819039577 0 64.659028819039577 -42.558205764558807 0 0 0 0 6.3953805451928929 58.041641236040959 0 58.041641236040959 -35.33440446757777 0 0 0 0 -5.7077960805909242 66.492803068305875 0 66.492803068305875 -34.965197414109753 0 0 0 0 15.034460463331925 50.098140526867155 0 50.098140526867155 -38.192255387022669 0 0 0 0 -19.373806133612561 48.407848551427151 0 48.407848551427151 -35.342143188026967 0 0 0 0 575.41048228678119 -270.14051639395643 0 -270.14051639395643 71.439024416194343 0 0 0 0 -121.72702513320837 -158.23805572238371 0 -158.23805572238371 -0.61033157833685436 0 0 0 0 2.2358087057934881 0.11283473390599497 0 0.11283473390599497 -0.10872161141045544 0 0 0 0 -11.190980018029222 75.13034305205565 0 75.13034305205565 -38.714404237742656 0 0 0 0 0.57049839107131106 -1.2230084140208675 0 -1.2230084140208675 9.6004983961596135 0 0 0 0 708.62349744239327 -20.573701106421595 0 -20.573701106421595 14.667630078990896 0 0 0 0 641.78942361924419 -94.53240952320553 0 -94.53240952320553 149.40817925618012 0 0 0 0 28.603618855953471 17.465434884349516 0 17.465434884349516 10.066168128184962 0 0 0 0 678.3535947408318 -220.82662373556172 0 -220.82662373556172 5.54272778719087 0 0 0 0 392.69269251075457 96.440417764748304 0 96.440417764748304 -76.345042313232625 0 0 0 0 435.5245020114553 -126.63769457365194 0 -126.63769457365194 116.17118004494387 0 0 0 0 527.472162399441 -150.43344359557682 0 -150.43344359557682 -18.10213697382369 0 0 0 0 701.89768192675547 -65.520774131520966 0 -65.520774131520966 -27.086822344007714 0 0 0 0 -0.45877392763577518 40.37879562012904 0 40.37879562012904 50.357612359900486 0 0 0 0 491.74096919451404 -228.34250007428273 0 -228.34250007428273 66.592200660046956 0 0 0 0 1499.7083359656081 -75.177230908514844 0 -75.177230908514844 -106.48781377204588 0 0 0 0 1345.1685076571066 -99.73470078610427 0 -99.73470078610427 -131.06554128368452 0 0 0 0 1184.6391993515863 -174.47174509662355 0 -174.47174509662355 87.093543088162875 0 0 0 0 1243.5884514633981 -74.04015628773675 0 -74.04015628773675 -139.08033748170322 0 0 0 0 3.0351017453488183 1.9003149440012379 0 1.9003149440012379 -4.7835782340685746 0 0 0 0 442.56755214704754 -62.178413356623047 0 -62.178413356623047 21.136661055477049 0 0 0 0 840.01348119891918 115.4745277282253 0 115.4745277282253 -168.23527521679071 0 0 0 0 1160.4013069612065 -239.05860632818673 0 -239.05860632818673 -132.07181451797345 0 0 0 0 1395.4113346065692 -183.56315724845413 0 -183.56315724845413 -174.88959842621716 0 0 0 0 1385.6260410444393 15.011810683047845 0 15.011810683047845 -47.569902367185286 0 0 0 0 1375.0644948951985 -19.886906143175743 0 -19.886906143175743 18.166528227770996 0 0 0 0 1423.3258635230668 2.3280772834088737 0 2.3280772834088737 -31.521992045570734 0 0 0 0 1402.9788287060146 67.262841874373748 0 67.262841874373748 140.90982829195445 0 0 0 0 496.78229341788392 337.30867418226717 0 337.30867418226717 227.85470443853791 0 0 0 0 1711.0008112175456 -276.49855115594335 0 -276.49855115594335 21.893629446887083 0 0 0 0 3.3367445031191494 0.70365186657053158 0 0.70365186657053158 -0.28623596089213882 0 0 0 0 18.444567417517646 -6.7284173362527468 0 -6.7284173362527468 4.2248390938832472 0 0 0 0 982.64455796602851 -139.23092122886678 0 -139.23092122886678 23.373536960403797 0 0 0 0 5.280601015419002 -3.2120277838295479 0 -3.2120277838295479 1.9895324030408035 0 0 0 0 1416.0709398590716 -61.189875316978188 0 -61.189875316978188 -55.810697293966285 0 0 0 0 34.649460002216074 1.3194562226317501 0 1.3194562226317501 -1.5970024229256481 0 0 0 0 36.690628491429379 -4.5343758363042639 0 -4.5343758363042639 -11.511986321139034 0 0 0 0 4.7612174022028118 -4.5947412001228685 0 -4.5947412001228685 -0.68765677943835313 0 0 0 0 30.524648305552546 -0.22784847534148867 0 -0.22784847534148867 -14.447812580801838 0 0 0 0 19.927586493431434 -1.0670191876657746 0 -1.0670191876657746 -4.9375164304059727 0 0 0 0 3.6204458205726411 -2.18790506959472 0 -2.18790506959472 -0.55447439002533727 0 0 0 0 18.199338846363389 9.4182339119599021 0 9.4182339119599021 -10.38682443810012 0 0 0 0 30.794888371849083 1.9421722125889573 0 1.9421722125889573 -7.8518174671744418 0 0 0 0 22.624787996949607 5.0307801017676397 0 5.0307801017676397 -4.4905648136125285 0 0 0 0 17.311149159478191 -20.643779896460472 0 -20.643779896460472 6.6041898408666384 0 0 0 0 22.863332112756325 0.56474270196486032 0 0.56474270196486032 -0.67261090512693045 0 0 0 0 43.579614174035669 -17.402373380063409 0 -17.402373380063409 3.8780144026110293 0 0 0 0 38.735183446893643 -11.483703966651547 0 -11.483703966651547 -0.4573108891769273 0 0 0 0 37.728921488593187 -11.283585867543479 0 -11.283585867543479 1.7737047842167613 0 0 0 0 39.298052963571536 -11.107879647282743 0 -11.107879647282743 0.57246280704839592 0 0 0 0 39.159686870712903 -11.970058564725832 0 -11.970058564725832 -0.49507796530951964 0 0 0 0 40.721126027448918 5.2371845715842937 0 5.2371845715842937 -7.2033062874916141 0 0 0 0 45.267748169928382 -3.3352244771717778 0 -3.3352244771717778 -5.9588020059645714 0 0 0 0 32.93334560803487 8.1512021891680888 0 8.1512021891680888 -8.2930591978126813 0 0 0 0 27.006480591164291 -2.3215630529631426 0 -2.3215630529631426 -5.5488564556735582 0 0 0 0 35.293912447494222 -7.1702627345130168 0 -7.1702627345130168 -11.739464573210824 0 0 0 0 33.878741198444914 -5.6108580970884532 0 -5.6108580970884532 -3.5714051623267551 0 0 0 0 26.52499372947932 17.841503413510281 0 17.841503413510281 46.535074209777576 0 0 0 0 56.126123399728385 -42.28694387870496 0 -42.28694387870496 7.7101377099138517 0 0 0 0 92.290876157316234 -21.22950897534713 0 -21.22950897534713 -45.164777648760264 0 0 0 0 87.065188239750569 17.466759364597351 0 17.466759364597351 4.0774169222318051 0 0 0 0 62.517087849686504 -27.527766073190378 0 -27.527766073190378 1.7790545652073888 0 0 0 0 -0.71941849380809231 -0.044407847883277896 0 -0.044407847883277896 0.69262030804667862 0 0 0 0 5.846729128548759 -61.717350892057198 0 -61.717350892057198 -29.93788572057008 0 0 0 0 18.183580776235431 0.59630711854049423 0 0.59630711854049423 -1.408719503823022 0 0 0 0 28.167701597871201 10.315333708415324 0 10.315333708415324 7.9813926406040423 0 0 0 0 58.965171062638547 -13.854818388026672 0 -13.854818388026672 -1.8950865702220199 0 0 0 0 28.885117036041265 -2.1832273966347202 0 -2.1832273966347202 -6.2257250951885226 0 0 0 0 28.695887226558625 -5.2878650715211108 0 -5.2878650715211108 -13.953273261284323 0 0 0 0 6.4921972767806437 11.575763287016116 0 11.575763287016116 -5.5218602657688223 0 0 0 0 55.549872927743309 -3.8471169327083885 0 -3.8471169327083885 -6.4653228047586708 0 0 0 0 54.131150283847091 -6.4740801067222264 0 -6.4740801067222264 3.9302252206864523 0 0 0 0 45.776974915177561 -12.217761716814493 0 -12.217761716814493 0.64391537719984626 0 0 0 0 14.409385285991448 -3.0077505550355568 0 -3.0077505550355568 1.1497274041546177 0 0 0 0 47.715028627691936 -19.287364711514954 0 -19.287364711514954 -4.7003809529491036 0 0 0 0 -0.18603744947035139 0.94447849995755462 0 0.94447849995755462 -0.83449928791980987 0 0 0 0 107.01867643755395 -11.050633538757054 0 -11.050633538757054 -12.300468668957706 0 0 0 0 48.177397816471057 -26.799880456685145 0 -26.799880456685145 22.594266043172411 0 0 0 0 31.234665605144983 18.090896702555114 0 18.090896702555114 28.96535629823542 0 0 0 0 44.641816796429339 22.71983196734935 0 22.71983196734935 -20.74647527190416 0 0 0 0 51.888735131176873 -14.654465992909955 0 -14.654465992909955 -17.034707470155752 0 0 0 0 20.77725450471732 3.5020832763254006 0 3.5020832763254006 -3.1793650264932896 0 0 0 0 96.847236064164463 225.15042888885182 0 225.15042888885182 -445.66455575124144 0 0 0 0 -101.26283607465484 132.39925496170531 0 132.39925496170531 -168.54628603097103 0 0 0 0 121.07413260760768 -68.221498808891852 0 -68.221498808891852 53.662182011913785 0 0 0 0 26.966504699212237 121.89621057376246 0 121.89621057376246 -274.72053591585632 0 0 0 0 52.474616730978596 -0.62688301519597189 0 -0.62688301519597189 -162.58047054625445 0 0 0 0 18.669272271075897 16.200635439509853 0 16.200635439509853 -25.611964322889321 0 0 0 0 19.112466611872605 1.4135849326408838 0 1.4135849326408838 -4.8081529731770818 0 0 0 0 2.6681135912622267 17.286031250352664 0 17.286031250352664 -198.27320243825443 0 0 0 0 96.860845738774515 -21.967824670600152 0 -21.967824670600152 -81.28365174247017 0 0 0 0 147.27790296292005 60.976117176951391 0 60.976117176951391 -187.48622203081521 0 0 0 0 326.58547570467636 -100.51514005610841 0 -100.51514005610841 -77.090610736106029 0 0 0 0 136.45270203261134 51.630069980656259 0 51.630069980656259 24.375944147106566 0 0 0 0 15.373453953321587 63.877053213282153 0 63.877053213282153 -186.98015952562255 0 0 0 0 -4.3099807314902137 37.226109050813911 0 37.226109050813911 -68.030107063158809 0 0 0 0 129.11845786492268 13.530266978895725 0 13.530266978895725 -87.368965219250214 0 0 0 0 -54.776681576235205 120.32958483349321 0 120.32958483349321 76.014746644239494 0 0 0 0 -2.6925627069140319 -32.816072248741875 0 -32.816072248741875 -1.9019850164852414 0 0 0 0 563.03427961783746 57.771245420179525 0 57.771245420179525 16.916547274109035 0 0 0 0 -5.7677127843139715 230.44699584925741 0 230.44699584925741 -476.10690174480135 0 0 0 0 -98.616850660855562 -46.511662664835356 0 -46.511662664835356 -116.44459797525728 0 0 0 0 106.29790206131111 24.293638120634707 0 24.293638120634707 -174.91500945443292 0 0 0 0 -149.04548936546234 24.247273997723624 0 24.247273997723624 -12.174252895180473 0 0 0 0 -0.43374537319273809 0.22817452092754564 0 0.22817452092754564 1.5046408524996928 0 0 0 0 -4.3587161488594575 35.692740724808303 0 35.692740724808303 101.32691715814055 0 0 0 0 4.0984818581964646 -49.403199117312944 0 -49.403199117312944 29.674946538175011 0 0 0 0 1623.5625516417022 54.467724028970643 0 54.467724028970643 -219.62604289225771 0 0 0 0 73.035857617516115 497.37449744907411 0 497.37449744907411 -253.5002044436591 0 0 0 0 8.5324482559874468 1.394830727693595 0 1.394830727693595 -0.44962276669028695 0 0 0 0 1581.475209860122 -872.58008333270857 0 -872.58008333270857 357.18596924228927 0 0 0 0 105.81612954119009 -95.483683162512079 0 -95.483683162512079 -216.61797127252495 0 0 0 0 487.23579792759483 -88.843353995000399 0 -88.843353995000399 14.503501210845045 0 0 0 0 18.644574200720271 3.9132278749231659 0 3.9132278749231659 -1.7117938985080281 0 0 0 0 482.25121747814774 -265.70117743025816 0 -265.70117743025816 76.844302852405264 0 0 0 0 1356.8084746209986 -386.84746602213079 0 -386.84746602213079 -90.719444899476173 0 0 0 0 790.87226756436212 -128.31512788830304 0 -128.31512788830304 -120.72629527837921 0 0 0 0 790.15734397223059 -176.75377221152726 0 -176.75377221152726 -43.047389826382954 0 0 0 0 1768.1184445955059 -136.96156616095459 0 -136.96156616095459 -183.30984542226113 0 0 0 0 1374.5127133799756 -90.911615798366697 0 -90.911615798366697 -136.87508902224013 0 0 0 0 1500.2362766750057 -62.612648115808852 0 -62.612648115808852 178.02334239226158 0 0 0 0 1642.912480783245 -164.09465532099497 0 -164.09465532099497 -11.428190320281566 0 0 0 0 1500.0768581621351 -5.1284323255953668 0 -5.1284323255953668 254.97802585806437 0 0 0 0 1506.8425912069251 194.27031704722884 0 194.27031704722884 -103.47736637790941 0 0 0 0 178.04449286425552 53.589230462634205 0 53.589230462634205 18.571431626028968 0 0 0 0 202.97712843659974 -1.4843480214950233 0 -1.4843480214950233 44.0049268147758 0 0 0 0 7.7875793546951684 0.98310066386864126 0 0.98310066386864126 0.066662631270836159 0 0 0 0 1506.2910756302506 -370.31115188170924 0 -370.31115188170924 -43.186242771955676 0 0 0 0 1198.8924963460256 307.20180147708487 0 307.20180147708487 284.09037858205409 0 0 0 0 432.31021778618924 668.9920580441817 0 668.9920580441817 164.89677235169967 0 0 0 0 1313.5440122384098 -98.267440474722633 0 -98.267440474722633 -41.287240222050293 0 0 0 0 1254.2886556061144 -220.99680401644079 0 -220.99680401644079 83.420093320496449 0 0 0 0 1498.0511434559385 -237.64895259145555 0 -237.64895259145555 -58.009784116477547 0 0 0 0 1199.5059376149202 -279.09659152578342 0 -279.09659152578342 156.86421288666222 0 0 0 0 4.0642396734653836 -1.580493494253254 0 -1.580493494253254 0.45413397527651983 0 0 0 0 480.96747999231411 -327.50793433679286 0 -327.50793433679286 158.59875915985305 0 0 0 0 691.62494998293005 165.56927875996587 0 165.56927875996587 175.80684303856603 0 0 0 0 1.746856039580079 -0.59802671290655596 0 -0.59802671290655596 -2.9630011123392541 0 0 0 0 1117.7665923103359 71.668106796469473 0 71.668106796469473 47.330203336122281 0 0 0 0 1005.4784506863834 -6.8489976113812361 0 -6.8489976113812361 37.744387537864561 0 0 0 0 867.58415195150519 -60.074897582946335 0 -60.074897582946335 27.36649072635953 0 0 0 0 980.07219450863215 -55.50978236250188 0 -55.50978236250188 -56.923031961976335 0 0 0 0 892.12641906437602 -30.921459754245575 0 -30.921459754245575 4.2506359942606196 0 0 0 0 724.72052269560663 -23.271931298503659 0 -23.271931298503659 36.443058868300227 0 0 0 0 776.52607878976596 -107.61470056158743 0 -107.61470056158743 -24.705274617109808 0 0 0 0 650.56781451766074 110.05289168955653 0 110.05289168955653 -123.18118404805227 0 0 0 0 810.41012672695615 -31.321578240419399 0 -31.321578240419399 84.149835323495154 0 0 0 0 992.75180218214518 21.373711621502707 0 21.373711621502707 -57.293169626505232 0 0 0 0 1090.1426649871373 -85.761130768252485 0 -85.761130768252485 -80.609264415726557 0 0 0 0 852.83880631475768 -100.27422861096534 0 -100.27422861096534 1.2538790585535935 0 0 0 0 573.38088112336482 -94.828994553072278 0 -94.828994553072278 19.024982977352465 0 0 0 0 758.91243315426254 34.162992355323468 0 34.162992355323468 -6.8270776745131343 0 0 0 0 659.88282115809307 4.4438224463679035 0 4.4438224463679035 10.835296329355515 0 0 0 0 502.69307671769093 -84.427426467191367 0 -84.427426467191367 65.817616820414514 0 0 0 0 915.7001563580834 -137.03892427233723 0 -137.03892427233723 90.810651389191207 0 0 0 0 870.05815008768332 -31.419034959831606 0 -31.419034959831606 -39.213810728380963 0 0 0 0 736.52512924925941 -98.659999351867441 0 -98.659999351867441 53.133153401808613 0 0 0 0 858.5926965917497 -22.770270588001722 0 -22.770270588001722 3.397891451382975 0 0 0 0 853.01873912152951 -1.0655155345693856 0 -1.0655155345693856 88.937733361816058 0 0 0 0 3.8589958491242236 -1.8529329388988813 0 -1.8529329388988813 0.19503054820306193 0 0 0 0 557.8970163111735 -388.11104374161772 0 -388.11104374161772 -72.949016055000286 0 0 0 0 2037.3623370295309 129.67878834235523 0 129.67878834235523 -314.08214460687162 0 0 0 0 1499.6951270305171 10.238132997920083 0 10.238132997920083 -329.05007611491953 0 0 0 0 1499.0505914915902 553.31861369065359 0 553.31861369065359 -25.460980096799304 0 0 0 0 767.71762261640288 359.24001407364096 0 359.24001407364096 -76.849967833319766 0 0 0 0 2.6085228215502996 -1.8800737323983725 0 -1.8800737323983725 -5.8180728847963072 0 0 0 0 1714.8440704311345 235.77571166590937 0 235.77571166590937 -166.1710515270459 0 0 0 0 97.47895066111596 25.240091831189943 0 25.240091831189943 5.1568592942693456 0 0 0 0 84.892378866345098 3.3424966442908044 0 3.3424966442908044 -10.290271141775229 0 0 0 0 92.236474448161971 39.142032338840238 0 39.142032338840238 -8.3611455040382516 0 0 0 0 72.851133740171917 -19.757633469314555 0 -19.757633469314555 4.5008231850055722 0 0 0 0 126.39675180708946 -0.42495277445033253 0 -0.42495277445033253 4.8550574707886689 0 0 0 0 142.47112821084374 55.4920542330375 0 55.4920542330375 5.0820099156957257 0 0 0 0 121.15689387475686 13.606709301563246 0 13.606709301563246 11.744464724666656 0 0 0 0 0.54441886836684716 -112.09773215180968 0 -112.09773215180968 2.6557048614038195 0 0 0 0 3.0881389642546146 -4.7723147990142678 0 -4.7723147990142678 6.9559506894407228 0 0 0 0 72.712400375698053 63.949505983851623 0 63.949505983851623 135.95815044724168 0 0 0 0 315.74627309640528 115.01396738604467 0 115.01396738604467 -13.738763966674696 0 0 0 0 508.02814246729986 21.099130328980721 0 21.099130328980721 -89.805637201150603 0 0 0 0 491.64586345592761 -116.30952161518218 0 -116.30952161518218 -33.155276828894102 0 0 0 0 94.918068065196394 -66.510489062876886 0 -66.510489062876886 -214.70841610657862 0 0 0 0 102.69461105808205 8.4756479119014827 0 8.4756479119014827 -49.255137054028182 0 0 0 0 133.73227250437412 83.117768178513643 0 83.117768178513643 -108.31050578985742 0 0 0 0 81.979702538928905 -10.442056124088595 0 -10.442056124088595 49.940396309151993 0 0 0 0 4.2115698713041851 -6.2416319404586282 0 -6.2416319404586282 8.7222324116613166 0 0 0 0 881.9025424790641 61.778028966799702 0 61.778028966799702 -3.9210966563628062 0 0 0 0 213.96337441804644 -38.398961306077126 0 -38.398961306077126 994.98945256947081 0 0 0 0 2.5127772309504941 -2.7573605197391124 0 -2.7573605197391124 4.8736666628272864 0 0 0 0 718.49552483649086 137.21666196059755 0 137.21666196059755 -38.445996696978682 0 0 0 0 20.075014168044618 607.57785512213081 0 607.57785512213081 260.08892146801008 0 0 0 0 5.0239500068679277 -0.12653260693551882 0 -0.12653260693551882 0.78656513939353601 0 0 0 0 -129.85011586179462 171.90098982893119 0 171.90098982893119 706.78585292080868 0 0 0 0 121.81056973351951 147.22206678910516 0 147.22206678910516 -13.648823952831663 0 0 0 0 75.724626946444914 113.64787003971742 0 113.64787003971742 127.39294849549242 0 0 0 0 129.71112059745064 188.54977314131838 0 188.54977314131838 187.78830685159028 0 0 0 0 227.00833754170162 244.45560657894885 0 244.45560657894885 -320.99027361911169 0 0 0 0 101.0187646177219 23.824240314150757 0 23.824240314150757 154.49475345485496 0 0 0 0 106.48936260803748 35.397740151742255 0 35.397740151742255 82.181960571795571 0 0 0 0 49.073288109462737 53.500020452938315 0 53.500020452938315 55.707093598078245 0 0 0 0 50.893318353548239 51.109345291709815 0 51.109345291709815 9.8631039315578164 0 0 0 0 89.746797146741301 59.173980313788888 0 59.173980313788888 48.461478890338185 0 0 0 0 62.528218040213687 77.879928616103825 0 77.879928616103825 70.674592409318848 0 0 0 0 7.1057279044762254 3.5070953991735223 0 3.5070953991735223 8.5535751589227402 0 0 0 0 10.740024312213791 37.569128827937675 0 37.569128827937675 51.224661762150845 0 0 0 0 62.477434630985954 36.799109754224105 0 36.799109754224105 -8.1951710382531928 0 0 0 0 90.173848168124096 69.980449547869966 0 69.980449547869966 16.207811172087872 0 0 0 0 89.616957491609355 79.341730576075179 0 79.341730576075179 -7.222610203629074 0 0 0 0 78.465830086670394 107.05896586362314 0 107.05896586362314 28.917872010980318 0 0 0 0 102.35485441867422 18.502194702026884 0 18.502194702026884 -15.288030132205222 0 0 0 0 72.629993702736101 28.931825022480552 0 28.931825022480552 -18.940057047276241 0 0 0 0 -0.37389448499529898 -0.42178263639101843 0 -0.42178263639101843 0.13638597706317412 0 0 0 0 85.921605293417088 1.4414414765311676 0 1.4414414765311676 -6.7791090882553817 0 0 0 0 65.996598275131191 1.2431781397344821 0 1.2431781397344821 -0.0601001510185597 0 0 0 0 26.16766839517004 -0.258666509736031 0 -0.258666509736031 2.4750975442939307 0 0 0 0 19.903611332898436 1.5718187438493487 0 1.5718187438493487 5.4213372180529404 0 0 0 0 36.77124220271071 2.3833077621702614 0 2.3833077621702614 -0.18721714769708342 0 0 0 0 41.59742908008775 32.644776121356699 0 32.644776121356699 26.764736043732228 0 0 0 0 23.400613268411689 -2.1563590312598535 0 -2.1563590312598535 -2.2715390985263184 0 0 0 0 26.415885237955081 7.0363618536134709 0 7.0363618536134709 1.4401075657442561 0 0 0 0 8.9120159370638845 3.8404552671988612 0 3.8404552671988612 1.2286053840474671 0 0 0 0 11.148836883210414 6.0807551993415778 0 6.0807551993415778 0.8519249877755577 0 0 0 0 9.230113290141162 5.395622724296345 0 5.395622724296345 0.33431090132233976 0 0 0 0 23.43018845581355 4.0779210341333965 0 4.0779210341333965 -7.8169059158346954 0 0 0 0 185.19873360195197 -67.324562488672655 0 -67.324562488672655 316.19791869870721 0 0 0 0 15.044999976080902 1.6341684104652523 0 1.6341684104652523 -0.22963798469927732 0 0 0 0 164.92861609394458 -297.15402071570804 0 -297.15402071570804 346.17686082805312 0 0 0 0 1.1814913227644865 19.386796705019151 0 19.386796705019151 -10.987454262030951 0 0 0 0 263.99514433630611 -358.86153529315504 0 -358.86153529315504 372.0201708486577 0 0 0 0 19.966875624835666 3.5377032915096152 0 3.5377032915096152 52.643037610254851 0 0 0 0 4.9541493626466746 -0.24751789272548663 0 -0.24751789272548663 -3.0464591381341766 0 0 0 0 240.47884121256357 -216.38466456420883 0 -216.38466456420883 156.55885156487957 0 0 0 0 301.6561144753914 -103.30613936483735 0 -103.30613936483735 14.227084201299022 0 0 0 0 130.29581979484556 -178.09928490135025 0 -178.09928490135025 190.35098180230693 0 0 0 0 326.03863813787666 -227.65759090864617 0 -227.65759090864617 108.27518217334091 0 0 0 0 187.31087692195433 -84.303837477663507 0 -84.303837477663507 69.964498122466694 0 0 0 0 6.4232236281245996 2.7631916871429425 0 2.7631916871429425 -0.62274439381174096 0 0 0 0 405.12086390122931 -206.5759756255818 0 -206.5759756255818 86.626374961168949 0 0 0 0 70.721257784178306 -53.343373518527073 0 -53.343373518527073 520.36684113100875 0 0 0 0 403.05126899140305 28.964479402067127 0 28.964479402067127 459.65695491265114 0 0 0 0 244.6708013867501 -303.8561202291346 0 -303.8561202291346 607.5050932503982 0 0 0 0 18.069995808600652 -291.10611983572761 0 -291.10611983572761 357.34978545462855 0 0 0 0 -133.35741560329916 -71.695756439991555 0 -71.695756439991555 473.00997063152226 0 0 0 0 -845.52328949459115 -250.77100631621698 0 -250.77100631621698 541.16480965101459 0 0 0 0 -111.90499374703359 -295.45366181713962 0 -295.45366181713962 814.58040201127324 0 0 0 0 692.32070374645627 -365.61588037970688 0 -365.61588037970688 177.99960921124307 0 0 0 0 -0.051535966331972549 -0.15185099404174451 0 -0.15185099404174451 0.9279810715670016 0 0 0 0 -307.07432706334293 -332.59726239072756 0 -332.59726239072756 700.49784444857323 0 0 0 0 -130.67528195959312 -196.20896279250201 0 -196.20896279250201 757.14363234151733 0 0 0 0 -102.70984946494718 -399.69617997258956 0 -399.69617997258956 489.30421745769127 0 0 0 0 169.44821241981117 -226.26002356608569 0 -226.26002356608569 531.35042605050126 0 0 0 0 -212.55818554664438 -271.90929407549174 0 -271.90929407549174 -60.668871161244553 0 0 0 0 131.71764207199885 -120.98775686159041 0 -120.98775686159041 113.34157655591991 0 0 0 0 4.08443827458259 -2.3932059310119733 0 -2.3932059310119733 0.42483628940726625 0 0 0 0 -254.26967017906281 5.0544483163033647 0 5.0544483163033647 42.423983041174438 0 0 0 0 390.56902828407084 -437.65759441736719 0 -437.65759441736719 33.660800666248974 0 0 0 0 175.4572952908693 -132.58286964367483 0 -132.58286964367483 -381.21817353725902 0 0 0 0 15.272709151671513 0.12225724969175156 0 0.12225724969175156 0.016969214792789872 0 0 0 0 84.940140620608872 -22.32168591058678 0 -22.32168591058678 -7.9439044925325355 0 0 0 0 8.5309784159956052 -27.663158212689297 0 -27.663158212689297 65.883469326330555 0 0 0 0 -152.77849893561233 -74.367921725445925 0 -74.367921725445925 106.96470234484104 0 0 0 0 2.3229959338856183 -1.0864185910078774 0 -1.0864185910078774 3.6329965832156477 0 0 0 0 3.6949473406003364 -1.4144017225999361 0 -1.4144017225999361 -0.23453627600330418 0 0 0 0 245.13072404398372 -237.3955608590862 0 -237.3955608590862 214.72840848584926 0 0 0 0 144.48224185353774 -885.95871932000534 0 -885.95871932000534 764.58549884496847 0 0 0 0 522.296081393637 36.085725823473467 0 36.085725823473467 -725.37679730241246 0 0 0 0 9.4186804934594477 -3.7782983213840109 0 -3.7782983213840109 -0.29242559007127367 0 0 0 0 238.87756089648974 -156.39314320873319 0 -156.39314320873319 53.159274202347149 0 0 0 0 200.50898406574561 -155.8910346482744 0 -155.8910346482744 125.33276384980348 0 0 0 0 -71.430343930223898 -149.49037575271694 0 -149.49037575271694 -157.45200612122193 0 0 0 0 -110.25502013679125 10.664404301494045 0 10.664404301494045 11.650619676795486 0 0 0 0 120.31326603648995 -335.76852858548114 0 -335.76852858548114 413.1924163864403 0 0 0 0 48.942852214515824 170.10914521743462 0 170.10914521743462 431.27733700962199 0 0 0 0 757.28867723738222 -307.84907486343843 0 -307.84907486343843 -386.52808873769527 0 0 0 0 7.6646072733210673 -1.9732677887779175 0 -1.9732677887779175 3.2332483750344112 0 0 0 0 611.27270381875405 -86.05800260514161 0 -86.05800260514161 -35.132317560003003 0 0 0 0 83.463297552520089 -176.40148023137613 0 -176.40148023137613 447.13389594481384 0 0 0 0 484.92403313289515 296.34940618019613 0 296.34940618019613 91.207675876693202 0 0 0 0 -2.1400018479907885 41.080843160203116 0 41.080843160203116 -41.951667276877984 0 0 0 0 -112.16919836365196 74.243795281049017 0 74.243795281049017 141.38227718142775 0 0 0 0 17.896044887016558 9.6349214514976715 0 9.6349214514976715 6.8626008341728397 0 0 0 0 99.95745743965017 49.742196406673202 0 49.742196406673202 -20.517832885860116 0 0 0 0 40.939262941127211 -11.911936442768537 0 -11.911936442768537 3.4107475620293974 0 0 0 0 163.89131653985169 23.56131202595293 0 23.56131202595293 -134.82635109241164 0 0 0 0 93.755033900220951 -187.45935317936915 0 -187.45935317936915 -27.140035440380871 0 0 0 0 0.33331393196850456 0.62360583121562385 0 0.62360583121562385 0.77917877588336104 0 0 0 0 -120.83524982942617 -195.53664783187105 0 -195.53664783187105 -94.221941157820766 0 0 0 0 146.56500828592107 62.826995019001515 0 62.826995019001515 -37.768262941452122 0 0 0 0 112.33150534320885 15.470294224410736 0 15.470294224410736 -84.937720918102059 0 0 0 0 3.4940881236397772 -3.0545754750757652 0 -3.0545754750757652 3.443791567574408 0 0 0 0 -176.3326566181313 39.125785974887549 0 39.125785974887549 19.182386186309486 0 0 0 0 44.530824798363028 -59.852385836856683 0 -59.852385836856683 162.35541647778558 0 0 0 0 416.4880423001996 -6.5435247018131122 0 -6.5435247018131122 -85.727169667422572 0 0 0 0 -175.8098481820158 60.680442151974937 0 60.680442151974937 287.42576235982597 0 0 0 0 6.7509240432110573 2.9023557043406392 0 2.9023557043406392 1.3257398433904495 0 0 0 0 246.00247822907841 -178.19354721150967 0 -178.19354721150967 -385.2685726221257 0 0 0 0 40.230833283466268 -9.5298077338807943 0 -9.5298077338807943 1.3092279087386922 0 0 0 0 325.35406762253297 101.68685321726412 0 101.68685321726412 -172.48667801817555 0 0 0 0 469.83344108174606 -95.891499635575201 0 -95.891499635575201 -372.52108924914592 0 0 0 0 -34.89293091516447 -37.298763121793399 0 -37.298763121793399 -215.48894064883484 0 0 0 0 -133.92352106221369 -268.85871678074136 0 -268.85871678074136 271.8073741158949 0 0 0 0 201.68544731588554 91.317769081008692 0 91.317769081008692 -92.694408232933711 0 0 0 0 165.45550835067843 43.482904361660985 0 43.482904361660985 -130.16248765593377 0 0 0 0 262.25063024144765 -153.59002978712351 0 -153.59002978712351 -14.386787101268965 0 0 0 0 1.852219089073472 -1.6595836531005723 0 -1.6595836531005723 0.95160099786587793 0 0 0 0 -78.805840823200924 -81.986505312839427 0 -81.986505312839427 149.4690623597387 0 0 0 0 436.45817897735105 214.21272585857025 0 214.21272585857025 23.722603941249872 0 0 0 0 -55.680776772776881 -95.780566989266845 0 -95.780566989266845 -8.963327833229414 0 0 0 0 0.05436181920439509 -5.6156380084699009 0 -5.6156380084699009 0.34277679836287644 0 0 0 0 -16.543581309008005 -38.379843792987231 0 -38.379843792987231 3.8960374593443703 0 0 0 0 -50.644093998086646 -107.05558238628055 0 -107.05558238628055 -15.583967163681791 0 0 0 0 -33.478632551963528 -42.918693360688849 0 -42.918693360688849 8.8600910748396018 0 0 0 0 -29.485844393760999 -23.827331857408183 0 -23.827331857408183 5.1540762301192444 0 0 0 0 27.045630483873538 -21.751732687790536 0 -21.751732687790536 2.8063358787494508 0 0 0 0 51.218853422116808 -18.899942209108758 0 -18.899942209108758 -67.019116459156066 0 0 0 0 375.98453258500194 101.80852252184877 0 101.80852252184877 -193.5901091565147 0 0 0 0 -278.77036789512931 -55.566809975004617 0 -55.566809975004617 186.34468405383905 0 0 0 0 -22.480782596692734 86.998696880005809 0 86.998696880005809 114.47610338599907 0 0 0 0 431.21035938190471 -18.541843057526421 0 -18.541843057526421 -156.59629280640274 0 0 0 0 289.78288129835164 -9.3419483503007541 0 -9.3419483503007541 -161.94541729230059 0 0 0 0 156.94586703056848 35.822995312274088 0 35.822995312274088 -36.543870505336599 0 0 0 0 0.52511037333256638 -0.072807536659934335 0 -0.072807536659934335 -0.099285172164703894 0 0 0 0 363.81677285687556 70.210196547252679 0 70.210196547252679 -79.599715270178422 0 0 0 0 365.61208394224377 42.699193419939547 0 42.699193419939547 -33.702312322042417 0 0 0 0 387.42376692017933 -16.909065428836129 0 -16.909065428836129 -16.139186950299973 0 0 0 0 394.97249409844517 6.8252960513141261 0 6.8252960513141261 -73.726672880016622 0 0 0 0 272.85219796710953 79.038592437356328 0 79.038592437356328 50.506493104870515 0 0 0 0 -3.4669730839486874 -58.991873994489652 0 -58.991873994489652 -18.170888254537658 0 0 0 0 45.616531512208894 -15.109218642633095 0 -15.109218642633095 21.624738487044169 0 0 0 0 -76.287071382294926 85.4647477550335 0 85.4647477550335 -14.935578961672036 0 0 0 0 -7.6348051624227082 -14.686245121070897 0 -14.686245121070897 -21.55838726967977 0 0 0 0 0.02674232515133923 -0.15096966318333438 0 -0.15096966318333438 1.5597088876677399 0 0 0 0 -28.385683342767152 80.744172997268379 0 80.744172997268379 -77.161879183497149 0 0 0 0 -4.1870321315655019 1.4726515201168695 0 1.4726515201168695 1.2102256450679079 0 0 0 0 -38.931188164147898 4.9483820845962327 0 4.9483820845962327 0.67051711546901061 0 0 0 0 1.9209063135438065 -0.39824451286996165 0 -0.39824451286996165 3.5432974902407341 0 0 0 0 4.9869960856113025 0.86235915123724638 0 0.86235915123724638 1.0708581264805836 0 0 0 0 -0.97567323682596907 -2.5534152992540839 0 -2.5534152992540839 2.700339586539485 0 0 0 0 0.38759781717817532 0.93699216748063918 0 0.93699216748063918 1.0149328571023943 0 0 0 0 0.82523081387935093 0.94709711060907731 0 0.94709711060907731 5.0718797838911964 0 0 0 0 4.6202683699736475 5.2639373029162364 0 5.2639373029162364 2.3680539233441014 0 0 0 0 -20.709684451507201 23.047184030020844 0 23.047184030020844 -10.90949910744348 0 0 0 0 0.73576271933475823 0.95314948811710565 0 0.95314948811710565 2.7129078585671493 0 0 0 0 -26.82087275752383 -5.3767161276052775 0 -5.3767161276052775 12.673698455515478 0 0 0 0 -1.7990332364934147 2.609730483135877 0 2.609730483135877 -11.139738359130206 0 0 0 0 107.46504653774173 86.072224082707635 0 86.072224082707635 34.647009179646375 0 0 0 0 137.60497242387646 72.269797249030489 0 72.269797249030489 -37.888756531938142 0 0 0 0 128.87090191815878 59.535541237556572 0 59.535541237556572 -53.555918329354881 0 0 0 0 -14.230876341778639 62.081807793296321 0 62.081807793296321 191.29091450073702 0 0 0 0 -19.15571039912038 -33.860093617602516 0 -33.860093617602516 19.452602116583876 0 0 0 0 -33.626383336581057 -11.363502717253141 0 -11.363502717253141 71.173192208875435 0 0 0 0 21.372542910223274 24.699171466825419 0 24.699171466825419 -59.638640206753735 0 0 0 0 -6.4605254273737955 -2.807680532251652 0 -2.807680532251652 -50.599685889510397 0 0 0 0 14.397894439229276 12.48628173117595 0 12.48628173117595 -10.53080449571371 0 0 0 0 9.8750902042374946 35.960713511151425 0 35.960713511151425 -8.2100506111873983 0 0 0 0 24.454613189482188 48.250350597995293 0 48.250350597995293 -3.9786203748681146 0 0 0 0 10.773330307623837 34.461488712796836 0 34.461488712796836 -30.189904261445008 0 0 0 0 -0.3660210500456742 35.915680433726266 0 35.915680433726266 -24.682913887957511 0 0 0 0 12.506960634298594 23.02641766129932 0 23.02641766129932 -42.528677066209639 0 0 0 0 -6.0390189690660918 18.235566079459204 0 18.235566079459204 -28.485459370312697 0 0 0 0 -2.7693085579594481 23.743286412309317 0 23.743286412309317 -78.561089848731626 0 0 0 0 -6.4825960509770084 14.910861984256371 0 14.910861984256371 -39.897254799446728 0 0 0 0 -0.76199431409077079 31.199182878344885 0 31.199182878344885 -50.61253512607982 0 0 0 0 12.007951292172947 -3.2121693962617428 0 -3.2121693962617428 -106.01729836513596 0 0 0 0 12.855412127242744 14.728179305750018 0 14.728179305750018 -77.06496661075056 0 0 0 0 12.8206551502808 23.915407887989886 0 23.915407887989886 -124.02517221620587 0 0 0 0 -10.147099105110101 58.611725507352276 0 58.611725507352276 -77.812524138944354 0 0 0 0 -8.3013364650942094 30.961764161649626 0 30.961764161649626 -53.792420967656653 0 0 0 0 -14.163648375077173 42.722220561054883 0 42.722220561054883 -55.246208883936561 0 0 0 0 -11.146976645530231 38.142405822059914 0 38.142405822059914 -67.390269965707375 0 0 0 0 -17.599395584489685 40.855448538543214 0 40.855448538543214 -59.408164493714139 0 0 0 0 -19.184654529410182 71.770270833221957 0 71.770270833221957 -33.229952252750081 0 0 0 0 69.662672186517739 126.15052938261715 0 126.15052938261715 -40.707644758314984 0 0 0 0 -6.6391312803461915 51.275807754359448 0 51.275807754359448 -114.12474019230012 0 0 0 0 -13.548332593796658 74.924208031839498 0 74.924208031839498 -121.89323769504335 0 0 0 0 34.377243213623643 -1.2333425966188449 0 -1.2333425966188449 -0.30046903536318892 0 0 0 0 19.009973787131457 57.857929472760134 0 57.857929472760134 -175.64075236544204 0 0 0 0 44.853840190018673 -20.429469320308272 0 -20.429469320308272 66.542674410116661 0 0 0 0 5.2504370526011002 4.9471238389373475 0 4.9471238389373475 -2.8680279042242827 0 0 0 0 58.942746947435126 15.807433573493483 0 15.807433573493483 21.175122238915719 0 0 0 0 66.822560246997455 -77.925927880530708 0 -77.925927880530708 5.8146384475085142 0 0 0 0 30.468885936003062 11.319116476304771 0 11.319116476304771 122.50821331203315 0 0 0 0 3.5800203737607035 -3.1483909374603058 0 -3.1483909374603058 1.6401388535806003 0 0 0 0 43.414272430916753 -86.190770348042406 0 -86.190770348042406 -92.937174699516163 0 0 0 0 -83.234326705725834 -145.46725369170531 0 -145.46725369170531 -75.08300180506285 0 0 0 0 -23.327226148539921 -28.413819863548269 0 -28.413819863548269 -56.299078593231002 0 0 0 0 -49.406627417531126 -35.03217967954879 0 -35.03217967954879 6.6936338410578173 0 0 0 0 8.9840521957812598 -27.614595790310887 0 -27.614595790310887 -66.929976549979528 0 0 0 0 -3.4853939801323577 29.271412904470367 0 29.271412904470367 -4.2781164774451099 0 0 0 0 44.783635943087575 -2.2640064380386775 0 -2.2640064380386775 3.8398728921347356 0 0 0 0 -6.4438419886428164 -9.4317997679895598 0 -9.4317997679895598 74.199510096601898 0 0 0 0 10.313365238513143 18.839068303376848 0 18.839068303376848 39.609531558473009 0 0 0 0 39.016296527581289 13.766721643148003 0 13.766721643148003 11.890814907602476 0 0 0 0 25.434166005514186 0.81491589669310116 0 0.81491589669310116 -0.099589721054914815 0 0 0 0 7.1594968664248881 12.415853658917968 0 12.415853658917968 15.685614724792231 0 0 0 0 126.75438261632053 -71.976213924414253 0 -71.976213924414253 17.076072858912994 0 0 0 0 36.730704413232615 -19.529596437282308 0 -19.529596437282308 37.598453612953563 0 0 0 0 62.220031940116314 -0.24620078487532737 0 -0.24620078487532737 -7.8307282805180876 0 0 0 0 134.04996349135672 -110.150594668385 0 -110.150594668385 68.600634252823511 0 0 0 0 179.16569906438144 -21.990569851422606 0 -21.990569851422606 -5.8164832432166804 0 0 0 0 102.08466084534439 9.3137693215440436 0 9.3137693215440436 -46.224435790342795 0 0 0 0 17.342972442464088 -53.051771233263025 0 -53.051771233263025 160.06786457273392 0 0 0 0 -6.350144950174581 -7.8507815189973371 0 -7.8507815189973371 73.843344465493828 0 0 0 0 0.58421368625133141 -1.3772647538502518 0 -1.3772647538502518 1.0477369684698745 0 0 0 0 56.836842164255359 -44.49003939720842 0 -44.49003939720842 16.233166854303818 0 0 0 0 47.157285948385834 -69.35461102678164 0 -69.35461102678164 52.84588786161612 0 0 0 0 3.3333582525156089 -37.703050888098005 0 -37.703050888098005 35.075205201066183 0 0 0 0 -21.16272690198457 -24.078579556280602 0 -24.078579556280602 46.507969206003509 0 0 0 0 2.5549730059330074 -2.5955301775627539 0 -2.5955301775627539 1.5473130849466976 0 0 0 0 -2.5696401362874894 -9.7305662307377361 0 -9.7305662307377361 18.494357863651203 0 0 0 0 -20.051317081939487 -19.972769826177682 0 -19.972769826177682 12.905843720515804 0 0 0 0 -24.499685382657844 -3.1232207258689186 0 -3.1232207258689186 -7.4496702702517723 0 0 0 0 -44.717310057349096 -19.523765335157805 0 -19.523765335157805 29.199928671308953 0 0 0 0 -38.021079091413412 20.987258370385916 0 20.987258370385916 40.659108086000742 0 0 0 0 -10.502335472461709 10.9403154671636 0 10.9403154671636 26.017820994332396 0 0 0 0 -26.854739588336088 -0.16886623504160525 0 -0.16886623504160525 27.422579385294739 0 0 0 0 -20.548265213539707 -10.399415555887572 0 -10.399415555887572 30.034043889877239 0 0 0 0 -23.55644526163951 -11.792040610327717 0 -11.792040610327717 31.82494523310379 0 0 0 0 -11.98349451152535 -19.437952625498838 0 -19.437952625498838 34.41828229588873 0 0 0 0 -7.6104246765680728 -6.303284797849301 0 -6.303284797849301 28.841695053843068 0 0 0 0 -11.697767581885273 -12.381621671536777 0 -12.381621671536777 23.202976835857044 0 0 0 0 -3.2898135438445024 -21.205412055367105 0 -21.205412055367105 17.727106190624909 0 0 0 0 -6.6233990040673234 -12.121644148010091 0 -12.121644148010091 16.517698756219033 0 0 0 0 -1.5353403322405939 -19.079747696472623 0 -19.079747696472623 7.9835789040917007 0 0 0 0 0.25318321537633892 -14.965987276790656 0 -14.965987276790656 16.95329597863747 0 0 0 0 16.397787169458752 0.52678586820911733 0 0.52678586820911733 0.39278156002046671 0 0 0 0 14.629379081185668 -5.2087351878505448 0 -5.2087351878505448 3.5054089281570602 0 0 0 0 6.5853256958835118 -18.953098180314555 0 -18.953098180314555 -2.018589766689729 0 0 0 0 0.46392457077672589 -25.562488290580404 0 -25.562488290580404 5.9417743189694647 0 0 0 0 -2.0610794847856795 -9.8719794147782576 0 -9.8719794147782576 -8.4798029678677267 0 0 0 0 -2.1246151141203882 -26.172619341407426 0 -26.172619341407426 10.762505070688348 0 0 0 0 -5.8324387203829247 -24.324860760573756 0 -24.324860760573756 18.807762396626458 0 0 0 0 40.504142386354943 -39.605600371453875 0 -39.605600371453875 12.14707068963753 0 0 0 0 9.4122300176495628 -32.995658009033832 0 -32.995658009033832 18.294615037258154 0 0 0 0 67.558645167335271 -23.966867833256856 0 -23.966867833256856 -37.08080782874822 0 0 0 0 29.062553653729992 -1.1551533221982027 0 -1.1551533221982027 -16.654742237923983 0 0 0 0 51.854166310022265 -3.8675078784040124 0 -3.8675078784040124 -42.806901214191384 0 0 0 0 179.24118335905951 -63.467448507348308 0 -63.467448507348308 -47.886390826846537 0 0 0 0 27.099030650078632 -5.6612435349783041 0 -5.6612435349783041 -0.022326975666698612 0 0 0 0 21.502332753152587 4.3162419546924866 0 4.3162419546924866 -6.8365023484584526 0 0 0 0 78.275502868760668 -18.338901232988064 0 -18.338901232988064 -36.26906869274103 0 0 0 0 75.243678395505412 -31.856284688893538 0 -31.856284688893538 -59.382712472335697 0 0 0 0 78.68600042377966 -25.13499065378727 0 -25.13499065378727 -49.747043348594161 0 0 0 0 -225.49809683538479 108.46544275283122 0 108.46544275283122 -17.638272817795951 0 0 0 0 0.90397030807162082 6.6026470733744098 0 6.6026470733744098 -3.743175248328046 0 0 0 0 35.243312177113459 -3.0635629052986868 0 -3.0635629052986868 -2.5374450320527684 0 0 0 0 -31.286761826340808 21.497068405675236 0 21.497068405675236 17.281075856535608 0 0 0 0 14.229266341324546 17.172713691214994 0 17.172713691214994 -26.101596685094023 0 0 0 0 37.709775202901433 1.6230044894880562 0 1.6230044894880562 -3.2012508927438503 0 0 0 0 65.782016735236539 -35.922705697335914 0 -35.922705697335914 -47.511987313643658 0 0 0 0 109.06687024497296 -58.748685417728666 0 -58.748685417728666 -17.371229671213769 0 0 0 0 70.336675312388252 -27.251851347098182 0 -27.251851347098182 -34.519506425165673 0 0 0 0 67.208330407233007 -32.006463861573138 0 -32.006463861573138 -37.94530689918065 0 0 0 0 -3.5810738372838387 -125.04898472226864 0 -125.04898472226864 26.877363492939821 0 0 0 0 70.985798832962246 58.741182855017314 0 58.741182855017314 1.38301127727118 0 0 0 0 -5.7090113385011136 -20.511982386746865 0 -20.511982386746865 -10.589927176482888 0 0 0 0 2.4620559538231177 -4.1760270611751338 0 -4.1760270611751338 4.9409024176920315 0 0 0 0 9.2171067093859165 -1.7728450062993488 0 -1.7728450062993488 0.82311507041875132 0 0 0 0 10.503161753187669 0.63949110362500505 0 0.63949110362500505 -12.968204745011235 0 0 0 0 19.326873971191162 3.2485122488506022 0 3.2485122488506022 1.1075630707528035 0 0 0 0 7.7152561396906094 -7.2620076839941134 0 -7.2620076839941134 0.046401179686654359 0 0 0 0 2.2844852485622376 -3.233320832070337 0 -3.233320832070337 4.6709399774801428 0 0 0 0 -97.634740936093294 -19.469319387199448 0 -19.469319387199448 10.492908207798905 0 0 0 0 0.83671475509681947 -0.88940864444245449 0 -0.88940864444245449 -0.047850232917256541 0 0 0 0 -95.57185465881696 23.730046749921328 0 23.730046749921328 139.73474037950746 0 0 0 0 166.22942649211836 -106.62172272707971 0 -106.62172272707971 122.14880524988257 0 0 0 0 99.952658516605879 37.991207192718321 0 37.991207192718321 -75.7696226304231 0 0 0 0 44.341238815204179 -18.116343965249428 0 -18.116343965249428 179.54141187111782 0 0 0 0 2.3531150741619058 2.691637686568356 0 2.691637686568356 19.83237371638279 0 0 0 0 103.04402937400846 -90.422211729208584 0 -90.422211729208584 85.43295183367627 0 0 0 0 1.3474534146893049 -1.5434511207438781 0 -1.5434511207438781 1.6388250662721049 0 0 0 0 493.68211156532561 -77.32131573383117 0 -77.32131573383117 -2.9192793635420458 0 0 0 0 516.59503941129697 153.78000694541652 0 153.78000694541652 -40.905922097135772 0 0 0 0 340.05262763988139 -145.84791897639752 0 -145.84791897639752 103.14635751804281 0 0 0 0 -0.32172308668016214 0.71715667656602022 0 0.71715667656602022 2.5631487173821412 0 0 0 0 61.420627956331373 66.739994925987048 0 66.739994925987048 19.228739078640501 0 0 0 0 -106.25446328350881 -28.493597671916632 0 -28.493597671916632 25.069747586142512 0 0 0 0 16.939701518478614 1.985893229275689 0 1.985893229275689 16.848883633609148 0 0 0 0 8.0033395579957869 14.822942159626109 0 14.822942159626109 26.832350567630783 0 0 0 0 20.170925687381896 -2.4448843962336468 0 -2.4448843962336468 -4.2561812732851649 0 0 0 0 5.813241193704016 -2.6302146020248074 0 -2.6302146020248074 15.680706211618599 0 0 0 0 -7.6810018267296982 -5.1814980610730572 0 -5.1814980610730572 15.817017874927842 0 0 0 0 -5.0044289544239291 -8.546141439166604 0 -8.546141439166604 19.380836917089255 0 0 0 0 204.81623667349777 -51.821082414429839 0 -51.821082414429839 -11.247635778932931 0 0 0 0 326.38438862199109 75.787679099712705 0 75.787679099712705 -0.15062727702024858 0 0 0 0 266.13126779829327 62.732688048021487 0 62.732688048021487 -56.694757561611368 0 0 0 0 243.46364880160399 59.674025209889805 0 59.674025209889805 128.62727898124513 0 0 0 0 191.25894591838824 70.440947811688829 0 70.440947811688829 -78.357078360091236 0 0 0 0 214.01746314222873 22.588306786808062 0 22.588306786808062 -3.9522093978685007 0 0 0 0 256.35969243082218 13.149763339665242 0 13.149763339665242 -53.745914596371676 0 0 0 0 229.74547709816397 3.0699527687684167 0 3.0699527687684167 -13.752954774850878 0 0 0 0 230.13465873946961 7.8246607038441169 0 7.8246607038441169 -81.547705507038245 0 0 0 0 241.88837417744799 22.911911209742073 0 22.911911209742073 -36.901409762842832 0 0 0 0 1.9382841895202958 -2.9365886344247407 0 -2.9365886344247407 7.1529062583639522 0 0 0 0 -3.0145941972368746 -9.467030541949498 0 -9.467030541949498 17.059927473865173 0 0 0 0 1.4228232072902962 -1.1743518817627603 0 -1.1743518817627603 6.5535577238019229 0 0 0 0 179.07855695230683 -7.9536215011244167 0 -7.9536215011244167 -2.4907674337001708 0 0 0 0 260.31583499753788 -2.6476029220452233 0 -2.6476029220452233 -4.5682081074019152 0 0 0 0 -2.1239682334835379 -10.682136944665672 0 -10.682136944665672 9.7317501102334063 0 0 0 0 0.039781820181815419 -3.5445382364914622 0 -3.5445382364914622 2.7654041457062704 0 0 0 0 3.2537218951622506 -4.7833434726723318 0 -4.7833434726723318 10.665120669147763 0 0 0 0 15.98550181466635 -8.8258502913413395 0 -8.8258502913413395 8.8674961869046456 0 0 0 0 4.7294175704243973 -4.1453798237437418 0 -4.1453798237437418 8.3774458753893519 0 0 0 0 -48.508185821248844 -30.271411725449184 0 -30.271411725449184 110.60361178154199 0 0 0 0 1.3034843916359904 -5.7072143997005682 0 -5.7072143997005682 22.60390504902977 0 0 0 0 112.02413588403942 -88.616483131943824 0 -88.616483131943824 102.77250369203739 0 0 0 0 339.8262710357194 -84.122226865169068 0 -84.122226865169068 -2.0258666146264659 0 0 0 0 1.1194432134514685 -0.2485847518872637 0 -0.2485847518872637 4.2024789686540167 0 0 0 0 143.55338772996402 139.26777722126673 0 139.26777722126673 -14.252992030125142 0 0 0 0 226.21560152781967 124.82244714315289 0 124.82244714315289 -63.175707877219338 0 0 0 0 131.96099294230362 -39.004906819607811 0 -39.004906819607811 39.487948556486572 0 0 0 0 2.4439354740001917 -3.5608456121223035 0 -3.5608456121223035 3.5213240791149767 0 0 0 0 159.47828193818896 45.222425459415831 0 45.222425459415831 150.2846131940853 0 0 0 0 351.69257181848297 33.171134905816189 0 33.171134905816189 -8.0208110447647414 0 0 0 0 346.67695261817062 1.7490717987053586 0 1.7490717987053586 -21.313133829358549 0 0 0 0 -23.651283972534657 -40.764749515718677 0 -40.764749515718677 -8.3542345374195861 0 0 0 0 -16.666519517892539 -14.337168090583205 0 -14.337168090583205 35.914941422575112 0 0 0 0 32.644651184864415 7.9696786160311035 0 7.9696786160311035 -10.757529445992077 0 0 0 0 31.106343452665897 -16.564014378087506 0 -16.564014378087506 -15.200817051494894 0 0 0 0 12.551225681956566 4.8346491143875241 0 4.8346491143875241 13.727358484150265 0 0 0 0 27.086772486381506 -36.633271424457909 0 -36.633271424457909 90.40626577204651 0 0 0 0 -49.298150057149542 8.6050786211485786 0 8.6050786211485786 163.77617683743307 0 0 0 0 52.221545653857902 0.58648632622262653 0 0.58648632622262653 67.635912374314671 0 0 0 0 -47.318620070056568 58.601876962746758 0 58.601876962746758 34.192600130111089 0 0 0 0 -65.569238874035364 40.144435562862313 0 40.144435562862313 84.906490709396763 0 0 0 0 -7.7990782515344108 2.5410653537967409 0 2.5410653537967409 75.213647195032976 0 0 0 0 -10.756347159594952 20.878479472671415 0 20.878479472671415 10.545639858494228 0 0 0 0 1.4926603074596052 -1.6388716729635995 0 -1.6388716729635995 0.97809286490189629 0 0 0 0 -42.117419207242165 -22.825777595559444 0 -22.825777595559444 32.393468906036105 0 0 0 0 494.70947782633266 33.001869079377144 0 33.001869079377144 -83.479696968248604 0 0 0 0 212.61634113812397 49.5997201252992 0 49.5997201252992 -15.849568546315318 0 0 0 0 1.4110752727032985 -3.3451227483800032 0 -3.3451227483800032 11.247016075895633 0 0 0 0 9.7564712206185504 -0.99372533156019927 0 -0.99372533156019927 8.1760335377539946 0 0 0 0 -27.1249726166443 -100.13580950611338 0 -100.13580950611338 77.746771210238222 0 0 0 0 219.14963090016408 -193.9240746781033 0 -193.9240746781033 3.0652604065808475 0 0 0 0 219.80065554687462 -191.91971679396895 0 -191.91971679396895 -127.47876190456883 0 0 0 0 227.28835867663656 40.615400297958786 0 40.615400297958786 -216.84727991003984 0 0 0 0 229.09881785990638 74.047804577790018 0 74.047804577790018 126.80640394451522 0 0 0 0 488.36443503583723 -32.424229296481371 0 -32.424229296481371 72.58721659704679 0 0 0 0 186.81441951941451 106.07815860058093 0 106.07815860058093 246.88436910688614 0 0 0 0 -84.539189704333694 172.89380478065502 0 172.89380478065502 139.90191640790499 0 0 0 0 171.3916631023676 108.28507854374485 0 108.28507854374485 -30.175924898431994 0 0 0 0 -41.681214842504232 105.00646670478213 0 105.00646670478213 70.511350840199441 0 0 0 0 127.04214194700035 -9.1974725112292504 0 -9.1974725112292504 5.3130590632605106 0 0 0 0 498.31223415379509 -0.65602903407842206 0 -0.65602903407842206 -59.384554767472366 0 0 0 0 -145.21420643571946 208.36595303298378 0 208.36595303298378 -35.006222836732299 0 0 0 0 611.40024645753556 -281.52051300413365 0 -281.52051300413365 99.005264112969712 0 0 0 0 2.0451936620899573 1.528504781714858 0 1.528504781714858 0.89709322394776225 0 0 0 0 476.58811448620872 110.44727015226206 0 110.44727015226206 33.118364888677547 0 0 0 0 -198.99226746322802 -33.911081044769112 0 -33.911081044769112 213.88703629120454 0 0 0 0 105.50418329116656 73.271248423444206 0 73.271248423444206 160.57409392397204 0 0 0 0 178.2465003346806 -2.5031999243649068 0 -2.5031999243649068 113.95925133175569 0 0 0 0 316.21251032492182 -77.362734979971108 0 -77.362734979971108 16.047385351584353 0 0 0 0 17.919354722374919 -128.03508560236196 0 -128.03508560236196 12.70842390794428 0 0 0 0 190.23630950952975 92.260692744765521 0 92.260692744765521 24.972448995242132 0 0 0 0 87.06618050050929 140.92899251278965 0 140.92899251278965 12.863463420785422 0 0 0 0 161.29558431770764 47.315240960436043 0 47.315240960436043 -119.47233442384686 0 0 0 0 161.37236748318173 34.483150728185556 0 34.483150728185556 123.09302833983598 0 0 0 0 123.41499143359943 73.459842130400034 0 73.459842130400034 109.96826010927589 0 0 0 0 219.36150039833592 -105.61826256272099 0 -105.61826256272099 120.9868607194847 0 0 0 0 234.97852381765551 -82.33205987417449 0 -82.33205987417449 153.60376477767477 0 0 0 0 345.99689823246717 -248.00296642362002 0 -248.00296642362002 133.72482844677955 0 0 0 0 8.3659635298155663 4.4769793383299543 0 4.4769793383299543 1.1231480416358357 0 0 0 0 388.22324414310424 -214.08734433238124 0 -214.08734433238124 122.36278839002739 0 0 0 0 -73.299662011488181 145.241748714952 0 145.241748714952 -108.57949207415236 0 0 0 0 -45.856890140448741 76.109185297244267 0 76.109185297244267 -162.29669646663297 0 0 0 0 36.194587595966368 155.83860800818428 0 155.83860800818428 -88.88399415478176 0 0 0 0 -31.206838179846955 75.457954722639855 0 75.457954722639855 -3.5266475143750995 0 0 0 0 10.00257841497114 102.36522262507367 0 102.36522262507367 13.831735749215056 0 0 0 0 -25.339155675770598 102.64806909581989 0 102.64806909581989 -125.72831824601025 0 0 0 0 -112.27678617434617 34.46648869016083 0 34.46648869016083 26.9235240912069 0 0 0 0 19.810352627057 -3.8412877468701936 0 -3.8412877468701936 18.787452454080267 0 0 0 0 17.354890592767333 -6.3148630459841115 0 -6.3148630459841115 22.014480427119935 0 0 0 0 16.762166175274615 -5.8084165161267265 0 -5.8084165161267265 23.579358719352513 0 0 0 0 17.971858235961918 -3.2628317399379512 0 -3.2628317399379512 14.129594984017785 0 0 0 0 18.463458347512642 -5.8973476234541522 0 -5.8973476234541522 22.022847209901926 0 0 0 0 19.669367766512551 -3.5360214216448185 0 -3.5360214216448185 16.937888317199395 0 0 0 0 19.11401636102255 5.3631792503217639 0 5.3631792503217639 7.6101091926084337 0 0 0 0 16.264993546261394 -1.4588455076418541 0 -1.4588455076418541 17.566558570772031 0 0 0 0 22.532063442511571 -0.098778888069318782 0 -0.098778888069318782 -2.0101224449136907 0 0 0 0 20.962898888192285 -1.5110240701760631 0 -1.5110240701760631 -1.8374984938236594 0 0 0 0 19.068593946347391 1.8668897220281906 0 1.8668897220281906 -2.6822963666454598 0 0 0 0 20.887471023615944 0.88083613094295288 0 0.88083613094295288 4.9504745970261865 0 0 0 0 22.259466495983361 -2.5009862804299701 0 -2.5009862804299701 0.26042898929063085 0 0 0 0 20.52908512765498 -3.0767833412805885 0 -3.0767833412805885 7.1932969442368631 0 0 0 0 24.050560001152917 -3.6182607185028246 0 -3.6182607185028246 1.5294817482994176 0 0 0 0 27.582149534031487 -6.1531609997246051 0 -6.1531609997246051 -11.831014047538702 0 0 0 0 19.884800235080547 -4.5005824118306919 0 -4.5005824118306919 13.574412105172087 0 0 0 0 22.690645340097035 -1.6675737854116051 0 -1.6675737854116051 1.1711598111915009 0 0 0 0 23.563171184777275 0.66931037138647298 0 0.66931037138647298 -5.765466669725356 0 0 0 0 23.052685999333335 -5.1469494174752981 0 -5.1469494174752981 8.0498771486763872 0 0 0 0 28.675405593687174 -9.5789810862861486 0 -9.5789810862861486 9.5413591461874603 0 0 0 0 18.784470963453714 -6.865742758586066 0 -6.865742758586066 18.835856189900369 0 0 0 0 19.607480107479205 -8.1769729099887627 0 -8.1769729099887627 19.308099174609197 0 0 0 0 15.485879952033429 -6.5540351987915528 0 -6.5540351987915528 28.633912172901091 0 0 0 0 27.177147180631437 -17.814036743591487 0 -17.814036743591487 28.868628489887669 0 0 0 0 22.854520624870929 -12.11446601607031 0 -12.11446601607031 21.504587036758949 0 0 0 0 33.678423565610501 -11.22313676475369 0 -11.22313676475369 18.747315394691213 0 0 0 0 34.203929938765214 -11.035777708387741 0 -11.035777708387741 14.381197631775024 0 0 0 0 46.38946799234327 -10.522459751312454 0 -10.522459751312454 8.2600006740231038 0 0 0 0 31.988383005329524 -1.3928760646567753 0 -1.3928760646567753 2.5684830104401044 0 0 0 0 35.269809277000604 -5.9522477720006464 0 -5.9522477720006464 2.4388598417517642 0 0 0 0 27.343733591493219 -8.2318313231371576 0 -8.2318313231371576 14.24042594929719 0 0 0 0 29.995436975841585 -2.8118343252776867 0 -2.8118343252776867 -3.1699687854816148 0 0 0 0 26.529739790850726 -3.4345855884621415 0 -3.4345855884621415 2.4544643787048699 0 0 0 0 20.659639015184439 -5.5904425034163978 0 -5.5904425034163978 -2.9878482049480226 0 0 0 0 21.946975482142079 1.7783645614199486 0 1.7783645614199486 -1.4459140732369633 0 0 0 0 21.792150791884524 1.0957832953372986 0 1.0957832953372986 -0.9342919557584537 0 0 0 0 28.669639761235885 3.6216473047214777 0 3.6216473047214777 -2.673013406312748 0 0 0 0 34.526529375394603 -0.86642310637489572 0 -0.86642310637489572 0.16089919109072071 0 0 0 0 7.5447258659469298 12.440066202434025 0 12.440066202434025 17.998946018054994 0 0 0 0 2.3568652300027662 -1.4994250386423538 0 -1.4994250386423538 2.5031387647333361 0 0 0 0 10.571097693016782 1.339196814992647 0 1.339196814992647 3.1192526885770349 0 0 0 0 12.61918867796885 9.0627643835464369 0 9.0627643835464369 3.1428149189905525 0 0 0 0 -11.049300360758934 -11.80426127860153 0 -11.80426127860153 12.260687440585457 0 0 0 0 56.937100125240249 -4.5611765123499026 0 -4.5611765123499026 9.4687601861123767 0 0 0 0 43.001405572601016 7.0669677433998004 0 7.0669677433998004 0.33315983680586214 0 0 0 0 27.309383176814663 12.127906035621209 0 12.127906035621209 -0.82084235570437158 0 0 0 0 0.58307166250876108 -1.0395081334112 0 -1.0395081334112 0.43598898404183473 0 0 0 0 4.0139464197955022 47.343122815309499 0 47.343122815309499 41.834807864293907 0 0 0 0 0.089928188330752334 -1.9706911698594602 0 -1.9706911698594602 11.097652283115297 0 0 0 0 0.21929458940130164 -0.70169609875327765 0 -0.70169609875327765 4.6050133010634005 0 0 0 0 49.732074323341294 -64.895767539083295 0 -64.895767539083295 18.797371738473203 0 0 0 0 93.113661449916435 160.91036146617841 0 160.91036146617841 76.455429279660166 0 0 0 0 63.236447821473121 -66.173421477225929 0 -66.173421477225929 5.4084231613010161 0 0 0 0 39.875682359182974 25.870095205858775 0 25.870095205858775 46.191218433591871 0 0 0 0 84.676174333727431 -42.095787995536455 0 -42.095787995536455 9.5252087765288707 0 0 0 0 27.296866368964402 -31.252029104783105 0 -31.252029104783105 17.493922985526297 0 0 0 0 26.728629175418973 4.1624435049632211 0 4.1624435049632211 12.592075244087937 0 0 0 0 19.768303525204828 -18.021773302750717 0 -18.021773302750717 75.506996022590556 0 0 0 0 55.810993934614771 -26.03883982714828 0 -26.03883982714828 28.078065756809337 0 0 0 0 16.344312965251447 -9.5609563307730241 0 -9.5609563307730241 37.657933000808953 0 0 0 0 14.792062166437063 -4.6187247184026319 0 -4.6187247184026319 27.059873001509004 0 0 0 0 13.484029032271792 -3.3447598299726451 0 -3.3447598299726451 29.819531045568056 0 0 0 0 4.2679816622630824 9.1061725953147743 0 9.1061725953147743 25.833609668439749 0 0 0 0 17.179560236156703 -5.2101063297969858 0 -5.2101063297969858 32.099709773202449 0 0 0 0 14.326617822463049 24.742033939396265 0 24.742033939396265 22.470966840133769 0 0 0 0 8.6405639777713077 -1.4428602262614731 0 -1.4428602262614731 44.465634056610725 0 0 0 0 -14.423738068440798 18.421311371933371 0 18.421311371933371 24.298760306464487 0 0 0 0 14.436832266252168 10.746869564223289 0 10.746869564223289 12.786605393826278 0 0 0 0 8.5776503112101636 22.650371454310744 0 22.650371454310744 13.533273849555655 0 0 0 0 20.848872704863425 28.375124832487245 0 28.375124832487245 -18.399046918490285 0 0 0 0 18.098259963733653 2.2668181312500337 0 2.2668181312500337 13.450937462264392 0 0 0 0 14.963255595589544 9.8281665559372868 0 9.8281665559372868 14.389657632681519 0 0 0 0 15.12207151421444 -5.170181783942553 0 -5.170181783942553 23.375946079365349 0 0 0 0 12.790988777107486 -1.5822611485418747 0 -1.5822611485418747 25.522272315254668 0 0 0 0 24.838955747842192 -3.7398007798728941 0 -3.7398007798728941 18.577646321257816 0 0 0 0 20.546853630358328 15.67838326854789 0 15.67838326854789 -40.198696663889677 0 0 0 0 22.959931146205236 22.50110847050496 0 22.50110847050496 -25.959749602316833 0 0 0 0 21.59019369397538 31.342799233909943 0 31.342799233909943 -40.070471151043421 0 0 0 0 20.933879075963887 25.45743006467444 0 25.45743006467444 -17.684411331027604 0 0 0 0 -1.8691142583829787 42.803969228775429 0 42.803969228775429 -15.865965827366608 0 0 0 0 2.7324559368062182 1.5662221263545462 0 1.5662221263545462 14.631724785093866 0 0 0 0 15.432609492179836 65.522816723314293 0 65.522816723314293 -100.98060865324922 0 0 0 0 56.70783385723449 -18.030023766863792 0 -18.030023766863792 -92.777640176654984 0 0 0 0 37.270140746175144 5.4127774554939325 0 5.4127774554939325 0.53965957768272754 0 0 0 0 141.17327284749081 115.925575884002 0 115.925575884002 -341.02625606852064 0 0 0 0 63.659540767885233 -7.2061399675201301 0 -7.2061399675201301 -159.32521754454532 0 0 0 0 39.656000627197827 5.6306663463594742 0 5.6306663463594742 0.24662251548803427 0 0 0 0 -67.472169971239055 41.048555008613164 0 41.048555008613164 -2.0758222482115798 0 0 0 0 -6.6062249062888441 25.476387643172529 0 25.476387643172529 -8.4301165291087727 0 0 0 0 -42.910757581943471 -25.509296762810322 0 -25.509296762810322 44.370069813674945 0 0 0 0 49.50942928182576 -65.240855949294257 0 -65.240855949294257 19.807843943217449 0 0 0 0 -1.0298959151332383 -68.129391633998864 0 -68.129391633998864 59.587825553059247 0 0 0 0 -98.641797715289613 -194.93935069615179 0 -194.93935069615179 78.388624910286353 0 0 0 0 162.42633866914184 368.40691055779814 0 368.40691055779814 71.557090089658857 0 0 0 0 -4.8067053422402068 -13.902041322053265 0 -13.902041322053265 -42.826576125954489 0 0 0 0 22.89553525667494 -6.5860112776237791 0 -6.5860112776237791 64.601872983653379 0 0 0 0 43.187091402525652 -64.398709037305593 0 -64.398709037305593 -39.676765635397253 0 0 0 0 29.862273554638769 -62.380469423846684 0 -62.380469423846684 53.919612129609732 0 0 0 0 22.699156578752138 -10.840057159164246 0 -10.840057159164246 -17.032342935993483 0 0 0 0 63.887265650570342 -29.218368378847799 0 -29.218368378847799 -22.566457684985181 0 0 0 0 -0.6600219986381155 -0.34445167497414664 0 -0.34445167497414664 -0.59888789193694603 0 0 0 0 -2.6748059625035125 9.6110676564859432 0 9.6110676564859432 -17.670911315827311 0 0 0 0 69.078428098276348 -80.978724597434251 0 -80.978724597434251 10.75862027859921 0 0 0 0 27.273447892789648 3.1015458922258858 0 3.1015458922258858 22.157329350721739 0 0 0 0 205.33366467666565 57.86198475159938 0 57.86198475159938 -411.60163920769901 0 0 0 0 27.702381724562212 2.8768803285380473 0 2.8768803285380473 -0.32818055425390713 0 0 0 0 47.691106238782595 144.2464426740496 0 144.2464426740496 -99.231577396186935 0 0 0 0 185.04436161901322 -120.83692222291018 0 -120.83692222291018 -2.1217167510282025 0 0 0 0 361.63187512432251 -284.33914988601487 0 -284.33914988601487 49.66445922314324 0 0 0 0 -81.058215306649799 -386.05802932933875 0 -386.05802932933875 46.738420042457165 0 0 0 0 -1.0765341673376554 -1.9561301269902405 0 -1.9561301269902405 -2.1353143541468862 0 0 0 0 -17.051489753582246 -162.21313829860421 0 -162.21313829860421 194.2751350790204 0 0 0 0 364.51125893343124 -345.73964052352244 0 -345.73964052352244 184.69625958061715 0 0 0 0 0.66540142480487141 -5.5648866457321553 0 -5.5648866457321553 -7.2575360558830457 0 0 0 0 40.564542971340416 104.76749375551566 0 104.76749375551566 -245.95365980414823 0 0 0 0 32.212237268064655 -30.682576813657079 0 -30.682576813657079 -82.776571788480851 0 0 0 0 288.94090434016471 -362.89748162058811 0 -362.89748162058811 190.12551170608199 0 0 0 0 24.212846863691283 5.9389051067079759 0 5.9389051067079759 -0.23334158400404348 0 0 0 0 338.30349661128639 -385.01545761299894 0 -385.01545761299894 537.0428951298702 0 0 0 0 0.19802942598816031 0.71078352436655812 0 0.71078352436655812 -0.02122078132744365 0 0 0 0 446.82836347069315 -186.09152984176211 0 -186.09152984176211 131.04607271975078 0 0 0 0 157.69366532619642 -64.987045229777067 0 -64.987045229777067 141.15785198094841 0 0 0 0 86.724853516949224 25.100044825812347 0 25.100044825812347 40.506029321629285 0 0 0 0 139.88551176309556 -138.25451672932513 0 -138.25451672932513 260.28558128545365 0 0 0 0 83.354943083964827 -28.393337132189743 0 -28.393337132189743 -17.835676888041803 0 0 0 0 179.79714965350286 -168.73181448725239 0 -168.73181448725239 81.696773077171429 0 0 0 0 69.345556657856832 14.979366290414816 0 14.979366290414816 87.901597903887364 0 0 0 0 23.346562411754348 163.71025500366159 0 163.71025500366159 138.42058580145067 0 0 0 0 -52.136150665082823 68.90859448263177 0 68.90859448263177 110.53846354145986 0 0 0 0 106.7910071031074 18.17544043621831 0 18.17544043621831 -429.05812365130123 0 0 0 0 104.41295437991107 -6.3577966558432308 0 -6.3577966558432308 -282.19874181494089 0 0 0 0 37.261312690466198 4.3833796482314913 0 4.3833796482314913 -0.19246744507518265 0 0 0 0 -100.8531884620661 70.207849790690602 0 70.207849790690602 -33.087670545128105 0 0 0 0 40.738496370033317 -120.86139418904963 0 -120.86139418904963 -168.32958209167191 0 0 0 0 48.431087827449574 -109.57277326730951 0 -109.57277326730951 -20.679807987424056 0 0 0 0 280.07689126510854 195.48639958674079 0 195.48639958674079 -117.83131185178217 0 0 0 0 13.547101291968801 24.41364690812825 0 24.41364690812825 154.51358450879741 0 0 0 0 -36.441184685808821 220.75358112772247 0 220.75358112772247 165.03146147547454 0 0 0 0 4.2482298209842977 1.6144567788227198 0 1.6144567788227198 -0.059359515916146507 0 0 0 0 56.588342998256849 -41.351625869453358 0 -41.351625869453358 43.231410231089242 0 0 0 0 103.16097812749058 10.149727138190656 0 10.149727138190656 -300.05641611402973 0 0 0 0 72.597131190503205 207.70032723977943 0 207.70032723977943 45.246305448401927 0 0 0 0 10.687741273394785 0.74725827296264224 0 0.74725827296264224 0.034926342807302557 0 0 0 0 1.7722196793845342 200.12289136462323 0 200.12289136462323 97.911714878611747 0 0 0 0 -59.848969317495175 85.855271785703792 0 85.855271785703792 32.81997179191103 0 0 0 0 -25.020919455798321 178.00316659115066 0 178.00316659115066 108.14464871702307 0 0 0 0 10.32805874049593 -1.5217437571941881 0 -1.5217437571941881 0.44711976064927195 0 0 0 0 253.70988437141659 -102.64654106628552 0 -102.64654106628552 -135.01999576284516 0 0 0 0 233.30367246859714 14.988583032582028 0 14.988583032582028 -265.09026876239318 0 0 0 0 -8.7721886524013826 -1.1478428220734145 0 -1.1478428220734145 4.5931080454049145 0 0 0 0 -85.944234247467193 14.744136612752754 0 14.744136612752754 50.248973084784666 0 0 0 0 -145.32156290876719 -162.89890336268417 0 -162.89890336268417 69.851125491283483 0 0 0 0 95.649795623430691 -164.58175633845508 0 -164.58175633845508 223.04520273264961 0 0 0 0 136.58326714419127 45.087793889133081 0 45.087793889133081 176.97923689234631 0 0 0 0 306.1992349138236 34.979383528645485 0 34.979383528645485 -84.382427885443803 0 0 0 0 506.41500505507247 -218.2516720653739 0 -218.2516720653739 163.96991473013759 0 0 0 0 121.70194564768462 35.913279762617549 0 35.913279762617549 810.94832498514006 0 0 0 0 373.79579640070733 116.96147662959856 0 116.96147662959856 35.011836913188233 0 0 0 0 145.95250748900798 -61.324010723915762 0 -61.324010723915762 -13.897859305967359 0 0 0 0 -360.47937680412906 -172.15415753523439 0 -172.15415753523439 32.578723183499278 0 0 0 0 1193.8469192228677 -467.54626886504457 0 -467.54626886504457 -593.74839928819529 0 0 0 0 87.574323230448499 86.905913234305217 0 86.905913234305217 -34.458466341035432 0 0 0 0 161.47976114436642 -46.035671396507951 0 -46.035671396507951 -84.413456633177702 0 0 0 0 867.54000393131946 459.13238201839272 0 459.13238201839272 257.75121672279965 0 0 0 0 -2.9394862019782977 17.351678955738237 0 17.351678955738237 6.1815081218712749 0 0 0 0 -0.1243738795437821 56.132233930863322 0 56.132233930863322 273.31570721741718 0 0 0 0 225.68424105831764 136.40700120357548 0 136.40700120357548 -19.027259145605967 0 0 0 0 23.190268023196957 6.1566743051133423 0 6.1566743051133423 0.33136088623455789 0 0 0 0 115.72866784358666 60.105157168931726 0 60.105157168931726 -350.65448879401475 0 0 0 0 91.677732268571162 51.476150447268765 0 51.476150447268765 -121.46790493337676 0 0 0 0 3.3894842719273583 -70.357271204327162 0 -70.357271204327162 -13.656361806776943 0 0 0 0 108.11650185423059 6.9169668073387811 0 6.9169668073387811 -320.86565096437556 0 0 0 0 -24.151258801188305 -120.31362430174178 0 -120.31362430174178 -395.32197312135469 0 0 0 0 10.630407105456769 2.9490786767171269 0 2.9490786767171269 -3.0087508151428981 0 0 0 0 19.819058000739773 1.9644287461441778 0 1.9644287461441778 1.409561455321156 0 0 0 0 -24.601325548776458 49.785900206425254 0 49.785900206425254 46.646405324915577 0 0 0 0 -47.888302112163728 10.911100074747196 0 10.911100074747196 11.270070363422377 0 0 0 0 4.4299310570847936 -31.398592229631269 0 -31.398592229631269 -60.724752530430237 0 0 0 0 22.048784251386738 -11.886381502971842 0 -11.886381502971842 5.7541329591897075 0 0 0 0 -0.93274622635914994 -77.284261696239071 0 -77.284261696239071 -17.842974914986513 0 0 0 0 -2.4576567958300757 0.10142247614931676 0 0.10142247614931676 26.280259566461204 0 0 0 0 8.2142321849614177 -44.537946322545494 0 -44.537946322545494 58.310801747408192 0 0 0 0 19.866903064844081 -59.686224280169938 0 -59.686224280169938 -30.531049885386722 0 0 0 0 17.266225039339748 -13.561239260982731 0 -13.561239260982731 4.397441165014313 0 0 0 0 -2.9553377741960651 -2.9584250835326635 0 -2.9584250835326635 1.3293943993037576 0 0 0 0 -1.090196783596312 -15.168186417713585 0 -15.168186417713585 -2.1508425768245356 0 0 0 0 -30.541019539296997 -29.921753543945883 0 -29.921753543945883 26.339447012474416 0 0 0 0 11.110225835148682 -35.37966035612839 0 -35.37966035612839 114.35022561567422 0 0 0 0 35.608694479443784 -4.9778153255645208 0 -4.9778153255645208 -38.053803504331349 0 0 0 0 -0.82568887319629569 0.53623606477537422 0 0.53623606477537422 -0.11746704704476313 0 0 0 0 295.39602454797085 -33.893892907447487 0 -33.893892907447487 -1.966274396533521 0 0 0 0 430.22128302289053 129.08568012995724 0 129.08568012995724 36.95737539939163 0 0 0 0 196.34228276211999 55.737276526397409 0 55.737276526397409 60.19684977704361 0 0 0 0 108.83220889859751 -53.414652333867167 0 -53.414652333867167 49.292477561273714 0 0 0 0 1500.4490600610504 284.00860710273031 0 284.00860710273031 -235.30950655574944 0 0 0 0 770.7532253676286 365.88952202405801 0 365.88952202405801 89.89730341838829 0 0 0 0 767.13507656377635 398.71969497273028 0 398.71969497273028 -110.22070208290528 0 0 0 0 534.4085945989633 792.30631697372633 0 792.30631697372633 695.50934144260896 0 0 0 0 11.75958440772053 -0.29695721977412681 0 -0.29695721977412681 1.5361019440977441 0 0 0 0 1497.1175036900026 717.36041795019162 0 717.36041795019162 11.296969534304631 0 0 0 0 80.414491707267416 9.7858946073616266 0 9.7858946073616266 70.145137938109229 0 0 0 0 1495.9791919453119 -1393.3529133313107 0 -1393.3529133313107 1028.5080331017903 0 0 0 0 92.97572169976317 -45.164649833231124 0 -45.164649833231124 -153.24706645669323 0 0 0 0 46.871433301885304 -10.653004073563977 0 -10.653004073563977 76.143630923819615 0 0 0 0 51.59368330844427 -91.866835714797844 0 -91.866835714797844 -9.635273394611886 0 0 0 0 29.114159565683281 -100.57555995213949 0 -100.57555995213949 -21.685199067834219 0 0 0 0 176.33663716714196 73.935061702318706 0 73.935061702318706 -174.2168961469032 0 0 0 0 209.98658977899504 -373.63737441054076 0 -373.63737441054076 367.85644931190177 0 0 0 0 594.54935090896561 -478.59699399353212 0 -478.59699399353212 -8.6330823694679566 0 0 0 0 30.43514445594171 -0.16453819421208915 0 -0.16453819421208915 0.13305813485376772 0 0 0 0 29.83269477950671 52.380988961523258 0 52.380988961523258 -106.65472602189638 0 0 0 0 195.23035905020879 -15.167850963615251 0 -15.167850963615251 -233.14944126726166 0 0 0 0 42.290281098870778 -1.2623173354151938 0 -1.2623173354151938 -0.64446183595133233 0 0 0 0 519.64192209153043 -107.0441983458804 0 -107.0441983458804 -88.98533878566343 0 0 0 0 56.531219845097439 -217.50079349932247 0 -217.50079349932247 -92.319538383968052 0 0 0 0 403.89479378627038 -384.9985126037397 0 -384.9985126037397 -53.397900219367614 0 0 0 0 1354.9331586704147 -307.73711530574406 0 -307.73711530574406 -124.69655140483138 0 0 0 0 157.20633720541264 -160.85772453208523 0 -160.85772453208523 120.21112835298061 0 0 0 0 613.76815542820395 -75.160743598341568 0 -75.160743598341568 53.724564827783297 0 0 0 0 608.57843506206336 -434.54043921513664 0 -434.54043921513664 -4.8808833150860238 0 0 0 0 540.27223712098294 -519.68110701010414 0 -519.68110701010414 -115.15060125001266 0 0 0 0 1.5846840177414721 -0.85155508981168992 0 -0.85155508981168992 -2.7114284400625124 0 0 0 0 1500.7140028648728 -877.62495292533379 0 -877.62495292533379 -148.710042603744 0 0 0 0 1317.3228548996012 -361.59272256402704 0 -361.59272256402704 -85.788548784273729 0 0 0 0 1196.1068319885126 -350.5388226162525 0 -350.5388226162525 -170.56588994151861 0 0 0 0 2.3195456254401479 -2.2821678152622269 0 -2.2821678152622269 -5.5544916725180062 0 0 0 0 1243.5676417440654 -253.52369476889072 0 -253.52369476889072 227.1737773540485 0 0 0 0 1253.747410958375 -305.3186249799661 0 -305.3186249799661 -135.52685024721993 0 0 0 0 1140.6219360639684 -139.99676071463577 0 -139.99676071463577 -226.47272062721714 0 0 0 0 1499.4223014074423 -253.99928781188581 0 -253.99928781188581 -191.40390407619049 0 0 0 0 385.65202109522306 -113.39711710793659 0 -113.39711710793659 136.81957109459006 0 0 0 0 807.66412818357639 -219.63410898557254 0 -219.63410898557254 151.04656538288202 0 0 0 0 614.34069235424613 -61.751878848260844 0 -61.751878848260844 131.1860816182284 0 0 0 0 1183.7844240318484 -117.23329128016965 0 -117.23329128016965 -41.079730163854492 0 0 0 0 467.63171711240648 40.011726621300681 0 40.011726621300681 67.559356234573755 0 0 0 0 606.25395517004836 -120.30182598670729 0 -120.30182598670729 117.40100111042125 0 0 0 0 643.40028666887702 -4.0851282562139204 0 -4.0851282562139204 48.719421212794032 0 0 0 0 362.11834076957621 -83.133839809881977 0 -83.133839809881977 63.476699434043439 0 0 0 0 246.65928882372464 65.740108825571838 0 65.740108825571838 102.48066840548717 0 0 0 0 156.50197537767053 -20.274567071792944 0 -20.274567071792944 154.45724131236443 0 0 0 0 9.6145569594655171 110.10388627004545 0 110.10388627004545 126.90974860934352 0 0 0 0 106.77226232630346 33.676331863816955 0 33.676331863816955 39.843256114629988 0 0 0 0 109.40815405772992 -111.96702926744523 0 -111.96702926744523 197.41296934322054 0 0 0 0 1.2138887245079317 -1.6648310369590575 0 -1.6648310369590575 2.7834501643642495 0 0 0 0 -63.428475173421248 22.028812312851059 0 22.028812312851059 187.85101471895189 0 0 0 0 307.73900859379501 15.868670329340034 0 15.868670329340034 34.227899034407585 0 0 0 0 65.038775733895818 -76.080090660278415 0 -76.080090660278415 207.44669897484616 0 0 0 0 222.57912368757752 123.12769038624893 0 123.12769038624893 -61.267454640123816 0 0 0 0 -0.75884459238477575 84.375808354796789 0 84.375808354796789 266.29978138018913 0 0 0 0 26.80242828156679 24.053144076939347 0 24.053144076939347 -105.39617105005641 0 0 0 0 -18.710783458039941 54.273998912690246 0 54.273998912690246 -119.40610590011335 0 0 0 0 96.332906421966982 78.246492202218491 0 78.246492202218491 -164.16802667112745 0 0 0 0 -1.8690518472576514 122.33618741444403 0 122.33618741444403 -177.32998469645622 0 0 0 0 -18.461147018008887 19.848580578561354 0 19.848580578561354 -49.243079986736234 0 0 0 0 73.973135878659377 -27.569027484922984 0 -27.569027484922984 -270.56072309819501 0 0 0 0 27.753497928350953 -7.5041202540565308 0 -7.5041202540565308 -16.326045364806362 0 0 0 0 128.54256689730755 95.93655834730319 0 95.93655834730319 -274.82240061013505 0 0 0 0 205.04910331265091 -10.939335848882877 0 -10.939335848882877 -21.110064931244608 0 0 0 0 43.468672393443285 9.3666599710869889 0 9.3666599710869889 165.77848095207526 0 0 0 0 60.22315901820275 6.040910119027771 0 6.040910119027771 -46.94609352325449 0 0 0 0 17.982607886164715 -30.848017953874887 0 -30.848017953874887 21.505850698167251 0 0 0 0 0.024565489639611471 -0.098971595045254546 0 -0.098971595045254546 1.9490615159157194 0 0 0 0 97.077273384341879 -33.52698847485982 0 -33.52698847485982 -3.2211180911494921 0 0 0 0 66.804950953927076 -18.032405030869707 0 -18.032405030869707 7.4922048226776496 0 0 0 0 63.35517293221983 -22.400929097503536 0 -22.400929097503536 8.7284548583784556 0 0 0 0 60.995829058525487 -27.817220099563087 0 -27.817220099563087 2.9481599053671168 0 0 0 0 66.64483930481984 -22.484643317272212 0 -22.484643317272212 3.1162815492900791 0 0 0 0 88.696657040481114 -24.802383691593604 0 -24.802383691593604 10.222287207958743 0 0 0 0 0.17563564778711171 0.081040182515547343 0 0.081040182515547343 -0.13101277676432765 0 0 0 0 86.966002322102213 -37.677233781991816 0 -37.677233781991816 13.134866547740558 0 0 0 0 141.12372857398168 -25.515487830980305 0 -25.515487830980305 -3.0923791354321111 0 0 0 0 58.529883185116432 -9.7125159741353286 0 -9.7125159741353286 9.5266825666883506 0 0 0 0 87.754175336769549 24.34035814219601 0 24.34035814219601 4.944773777854607 0 0 0 0 67.802514945963139 -7.9646810916925688 0 -7.9646810916925688 -5.2485730511416477 0 0 0 0 68.084447205677179 -19.709986864512757 0 -19.709986864512757 19.338156574732466 0 0 0 0 64.065682311373621 -23.743618821668861 0 -23.743618821668861 40.928962313902844 0 0 0 0 82.720734654104945 -52.075782971814533 0 -52.075782971814533 4.7869018675603456 0 0 0 0 156.49225915605939 -51.366544714517318 0 -51.366544714517318 15.373806095159352 0 0 0 0 94.074905977830781 -17.270855619222061 0 -17.270855619222061 16.42877559037106 0 0 0 0 87.704178686062733 -50.625135205890956 0 -50.625135205890956 57.955573255713944 0 0 0 0 -1.6237206307416727 -9.1875834522624018 0 -9.1875834522624018 -3.0305486877779231 0 0 0 0 -4.7340819072890099 -13.606690714631441 0 -13.606690714631441 58.625516507695011 0 0 0 0 0.14259768327711364 0.24463720748504691 0 0.24463720748504691 0.66853851265704201 0 0 0 0 9.1241702351956064 -5.9515161845716307 0 -5.9515161845716307 -11.025011979894884 0 0 0 0 -39.010692048789224 18.068890918777527 0 18.068890918777527 29.353935156123384 0 0 0 0 174.93928421016278 -53.128044397693316 0 -53.128044397693316 36.607696683734048 0 0 0 0 178.44108484787802 -33.846970219500733 0 -33.846970219500733 48.452342343611463 0 0 0 0 0.20339915738360015 0.014797404388140034 0 0.014797404388140034 1.1673963918239512 0 0 0 0 -33.791116626134453 17.833005373655681 0 17.833005373655681 34.383151029891053 0 0 0 0 314.47306642961144 -118.56476242276767 0 -118.56476242276767 22.563298379771595 0 0 0 0 261.65011360862002 -62.115107152291927 0 -62.115107152291927 85.062303154375087 0 0 0 0 -98.451913171094418 -68.891706818020225 0 -68.891706818020225 68.614020930060406 0 0 0 0 0.17362799789178329 -0.20993341257000564 0 -0.20993341257000564 -0.62013887106162091 0 0 0 0 95.549709542042365 -14.387682540772346 0 -14.387682540772346 13.369368218298234 0 0 0 0 194.02430323313808 -42.879855216447424 0 -42.879855216447424 -2.3428261491646936 0 0 0 0 161.67672764049064 18.132119621800356 0 18.132119621800356 20.722599500293882 0 0 0 0 -14.316272538885187 -41.217319069555231 0 -41.217319069555231 51.492486503563327 0 0 0 0 -45.551458874243735 12.973491773952333 0 12.973491773952333 16.090633876851598 0 0 0 0 -3.4221363829783513 -38.105442499452749 0 -38.105442499452749 109.60874246829064 0 0 0 0 127.90329987124551 -100.46351503117216 0 -100.46351503117216 43.837319195935208 0 0 0 0 93.949146991047201 -70.686510005224875 0 -70.686510005224875 21.91854952162555 0 0 0 0 24.819773095024175 -71.663346810408996 0 -71.663346810408996 45.473782211340847 0 0 0 0 67.716255497131897 -103.47269538735407 0 -103.47269538735407 35.959371503444174 0 0 0 0 25.288652188473364 -62.974274980737256 0 -62.974274980737256 -1.9138403655097136 0 0 0 0 151.32195648577908 -9.3346156085182201 0 -9.3346156085182201 -109.59476734754639 0 0 0 0 221.86452286226722 -40.241751632157118 0 -40.241751632157118 -17.850606086406628 0 0 0 0 0.25576747849742842 -0.51496618005189454 0 -0.51496618005189454 0.9321192667350946 0 0 0 0 -107.31578958594582 -76.865393925469235 0 -76.865393925469235 50.084108755555533 0 0 0 0 -1.0733293508174029 -107.27464888168518 0 -107.27464888168518 39.442695865923042 0 0 0 0 -1.5393772033585265 -36.509350664147576 0 -36.509350664147576 19.139935319788208 0 0 0 0 46.54511742673094 -53.164105990989093 0 -53.164105990989093 -2.1564731702134381 0 0 0 0 -27.295291671769746 10.52947076910003 0 10.52947076910003 -18.745072120577106 0 0 0 0 0.45023610814075898 -0.78203720692385215 0 -0.78203720692385215 -2.5822055636327192 0 0 0 0 123.66011906331026 18.805171615081402 0 18.805171615081402 1.3498642315333598 0 0 0 0 185.50426698133538 -3.6002233137576596 0 -3.6002233137576596 -7.6220582357827098 0 0 0 0 64.451995587121871 -4.5778522215654309 0 -4.5778522215654309 -11.185622198274586 0 0 0 0 113.32938447302377 -36.896084522500722 0 -36.896084522500722 -8.3012988433496346 0 0 0 0 72.737286406480507 -41.914046134312869 0 -41.914046134312869 -33.596775253201059 0 0 0 0 106.0777008617377 -20.028499419731723 0 -20.028499419731723 -9.7292718057720151 0 0 0 0 135.12010174529337 6.1231568974254671 0 6.1231568974254671 -15.304736115529622 0 0 0 0 84.964382065333012 -12.037414950619926 0 -12.037414950619926 -10.506043893323834 0 0 0 0 72.525488286419204 -28.555215374302549 0 -28.555215374302549 -13.365867390798712 0 0 0 0 95.773177629906172 -6.3809394607628356 0 -6.3809394607628356 -19.350178619479976 0 0 0 0 84.488268292197745 -21.408583317435358 0 -21.408583317435358 -16.320219884508504 0 0 0 0 72.69704455370811 -17.925588333411135 0 -17.925588333411135 -11.46989744956943 0 0 0 0 70.880385612989357 -14.64142959186114 0 -14.64142959186114 -13.643254443183537 0 0 0 0 48.127065818382221 -56.190250953715918 0 -56.190250953715918 44.877737423799829 0 0 0 0 0.58053907316007081 -1.2423477441969824 0 -1.2423477441969824 1.8144080373333957 0 0 0 0 5.8781942099687967 -46.278214487686199 0 -46.278214487686199 -27.193398667020205 0 0 0 0 23.53792556376095 -12.600525212734873 0 -12.600525212734873 -2.4837415690340947 0 0 0 0 72.916011890246182 -5.7759880110964561 0 -5.7759880110964561 -19.316450139379981 0 0 0 0 73.723566697046635 -12.9753907317357 0 -12.9753907317357 -9.5878675842620282 0 0 0 0 29.834815008209716 23.463677481761046 0 23.463677481761046 13.069608229743881 0 0 0 0 78.20844563854547 10.165813632998908 0 10.165813632998908 -28.553487021104413 0 0 0 0 77.931758229903608 -33.883239189557933 0 -33.883239189557933 -5.7976291236444268 0 0 0 0 24.851650165299361 -45.474304029147959 0 -45.474304029147959 53.238660057397936 0 0 0 0 -3.8142550492772216 -49.845246745114082 0 -49.845246745114082 66.891515166506792 0 0 0 0 2.5877138287892194 -25.011866376658329 0 -25.011866376658329 44.083898512819019 0 0 0 0 22.817919986272699 -71.164331069660449 0 -71.164331069660449 74.639827192374014 0 0 0 0 0.14102257075980718 -0.0096841240600351597 0 -0.0096841240600351597 0.70747943303404037 0 0 0 0 -28.693809228609211 -2.7895946027127252 0 -2.7895946027127252 41.993420240974388 0 0 0 0 216.21405538399904 -10.353083608500356 0 -10.353083608500356 -37.211562949605764 0 0 0 0 65.480919508885108 -36.858871434093089 0 -36.858871434093089 -10.432359746610643 0 0 0 0 66.319483066269981 -32.72154551533832 0 -32.72154551533832 6.3820555223680913 0 0 0 0 83.857348505605387 -32.560419739504823 0 -32.560419739504823 -4.7145237091514787 0 0 0 0 0.075354876351194866 -0.3419104448072634 0 -0.3419104448072634 1.9841099103600304 0 0 0 0 137.82408144771443 -111.28629174398678 0 -111.28629174398678 108.27532360201531 0 0 0 0 38.384892797264911 -30.026412711822047 0 -30.026412711822047 9.8553030157590911 0 0 0 0 0.19333605480289995 -0.1355755270377994 0 -0.1355755270377994 -0.13001669692988838 0 0 0 0 114.12090332876414 -31.113282898775708 0 -31.113282898775708 -4.1785341626450645 0 0 0 0 166.60525725717707 -40.890392529562803 0 -40.890392529562803 -2.831974002827053 0 0 0 0 103.07797154752643 -29.386073328487612 0 -29.386073328487612 0.12774563565824337 0 0 0 0 104.49315223249778 -22.249633599485776 0 -22.249633599485776 4.070709455769844 0 0 0 0 131.63637627546245 -77.439648246844655 0 -77.439648246844655 -47.241694031381599 0 0 0 0 129.97653466726933 -47.332612838671537 0 -47.332612838671537 -21.446694737276005 0 0 0 0 57.344476100071461 -44.355091775704324 0 -44.355091775704324 17.965007399884314 0 0 0 0 0.24044965788470929 0.021713539286568384 0 0.021713539286568384 -0.08045889840094711 0 0 0 0 187.36787609993985 -102.78081081389635 0 -102.78081081389635 98.151824019864989 0 0 0 0 184.35446518161325 -63.257711391823037 0 -63.257711391823037 24.170709508654568 0 0 0 0 0.14072846559298169 -0.043991400427884741 0 -0.043991400427884741 0.55643004035939492 0 0 0 0 -53.373913667605393 -3.558701848343194 0 -3.558701848343194 44.760102914849043 0 0 0 0 221.00422733961659 -125.25072819537361 0 -125.25072819537361 3.6023850523834255 0 0 0 0 140.53501868505919 -99.794534596732632 0 -99.794534596732632 33.12958431998095 0 0 0 0 120.69353157239402 -87.562840215357198 0 -87.562840215357198 47.068153207071759 0 0 0 0 104.289655989116 -83.057109661818615 0 -83.057109661818615 54.829082793285806 0 0 0 0 109.67393857555908 -66.556485834321251 0 -66.556485834321251 104.593844708191 0 0 0 0 66.859235271980197 -83.396139399960447 0 -83.396139399960447 185.68677868057398 0 0 0 0 91.919025181988218 -147.82964508790957 0 -147.82964508790957 36.532697369947641 0 0 0 0 0.14974200079737265 -0.037728814118148435 0 -0.037728814118148435 -1.7641833777452056 0 0 0 0 74.493255182899247 19.563337325351068 0 19.563337325351068 -21.704959950849521 0 0 0 0 -8.8541796824010817 -95.947837334483353 0 -95.947837334483353 -47.605511848556901 0 0 0 0 228.17709599073919 140.33931800326064 0 140.33931800326064 40.127244327738026 0 0 0 0 293.56515180892166 -31.781575869739981 0 -31.781575869739981 -74.165085532937979 0 0 0 0 33.428819880226911 80.009352827256521 0 80.009352827256521 168.62794728400206 0 0 0 0 4.6116478573503628 0.095986682028410542 0 0.095986682028410542 16.625279403923741 0 0 0 0 9.8694274265153581 30.216572723208316 0 30.216572723208316 54.65041304293527 0 0 0 0 4.7762693030035734 19.793712285963693 0 19.793712285963693 11.990987263589659 0 0 0 0 6.077794697027457 17.275803010446282 0 17.275803010446282 11.958250891384978 0 0 0 0 11.247309766910803 17.019545911114847 0 17.019545911114847 12.634003479870103 0 0 0 0 10.720017852948331 23.295731609919869 0 23.295731609919869 25.682058565633952 0 0 0 0 33.987674527163108 32.565408388724954 0 32.565408388724954 -2.090387692449525 0 0 0 0 23.407912440391556 35.978563491910336 0 35.978563491910336 16.260669953729462 0 0 0 0 73.354544838363836 32.414219480827029 0 32.414219480827029 -34.311945838388624 0 0 0 0 71.705794129250535 61.984313480972929 0 61.984313480972929 20.669932157953482 0 0 0 0 51.462303272259305 31.531774218355952 0 31.531774218355952 -2.893422346240861 0 0 0 0 29.607277734854506 20.377386228758212 0 20.377386228758212 -8.5796904981810087 0 0 0 0 51.596169217589704 14.797352254827189 0 14.797352254827189 -12.3721658504966 0 0 0 0 31.499404875410619 10.724399461534915 0 10.724399461534915 -13.104920493157564 0 0 0 0 44.459915748995172 3.9265834310882983 0 3.9265834310882983 -24.837578365736348 0 0 0 0 0.24916019665432909 0.16407059753603193 0 0.16407059753603193 -5.2813817359791173 0 0 0 0 39.109393610711777 -1.1995179737304227 0 -1.1995179737304227 -17.082720971056403 0 0 0 0 71.095840253583447 -19.28778599876739 0 -19.28778599876739 0.039029181901014454 0 0 0 0 107.49448816987353 -11.323783570176758 0 -11.323783570176758 -5.8289586614984046 0 0 0 0 172.97269807866951 -11.926404535535283 0 -11.926404535535283 -17.886974793642594 0 0 0 0 58.622705963698309 11.865063819707167 0 11.865063819707167 -23.485029558643092 0 0 0 0 11.846939113770532 2.2091982727789627 0 2.2091982727789627 -8.8825641368209176 0 0 0 0 2.9608735637830819 0.62279093441549094 0 0.62279093441549094 -8.160502016852206 0 0 0 0 10.412081988793716 4.8111333840561201 0 4.8111333840561201 -9.4987938480452385 0 0 0 0 11.187304908592978 9.9722978938850702 0 9.9722978938850702 0.065220595116898039 0 0 0 0 8.1208795289524005 4.7632973570148351 0 4.7632973570148351 -5.9152015564184239 0 0 0 0 11.771463969265255 13.169158545392747 0 13.169158545392747 -1.2525569532730287 0 0 0 0 -4.5178220152878374 4.316266568002586 0 4.316266568002586 -4.7104560515015725 0 0 0 0 7.9276817137586022 6.2306174067059601 0 6.2306174067059601 -6.5038621372201533 0 0 0 0 4.4498777688950213 8.3574923711321389 0 8.3574923711321389 10.140975892965457 0 0 0 0 -2.1821118633610306 5.0647624837780398 0 5.0647624837780398 -4.9471251990380445 0 0 0 0 8.3713749611834345 11.923143530042541 0 11.923143530042541 -7.8155069549543441 0 0 0 0 8.6147112171274784 9.9298101288836733 0 9.9298101288836733 -2.0993914476912323 0 0 0 0 15.544437102144229 14.285121858963763 0 14.285121858963763 1.418163472258243 0 0 0 0 16.988051945954339 22.670593536029958 0 22.670593536029958 5.7372467511880032 0 0 0 0 22.347125217671362 27.298873245337713 0 27.298873245337713 8.9042985591581783 0 0 0 0 28.959193453190437 19.37352062416781 0 19.37352062416781 -4.9609732657028189 0 0 0 0 20.098181913234384 22.178090559068867 0 22.178090559068867 5.8145270258127937 0 0 0 0 21.778847469632638 17.810967095903663 0 17.810967095903663 -4.9276272561655459 0 0 0 0 21.636209823804393 20.685817780561692 0 20.685817780561692 -3.4001434725043111 0 0 0 0 13.401074146184783 23.498401250338475 0 23.498401250338475 -3.8166285056834965 0 0 0 0 2.4591186280222788 6.2785661458673108 0 6.2785661458673108 -4.7371066773599129 0 0 0 0 14.008950055434752 12.609033288591263 0 12.609033288591263 -0.27736689572790851 0 0 0 0 24.880773609560038 10.157271478473149 0 10.157271478473149 -0.81176591994426417 0 0 0 0 27.914579753643011 14.527189142452244 0 14.527189142452244 -24.351260249073221 0 0 0 0 11.638381629576465 -0.087876216258782947 0 -0.087876216258782947 -4.7947192128446039 0 0 0 0 34.187111354982335 23.290558478443927 0 23.290558478443927 -23.379746749247033 0 0 0 0 29.952643810589507 33.305116206494063 0 33.305116206494063 -7.2413357509612979 0 0 0 0 35.250594403314608 26.129592595710164 0 26.129592595710164 -25.03027928882193 0 0 0 0 34.854917982921734 17.86942904057922 0 17.86942904057922 -22.758555782861094 0 0 0 0 34.430603803186386 14.786689453684176 0 14.786689453684176 -9.0766981534825391 0 0 0 0 20.869604557663259 13.807369553660189 0 13.807369553660189 0.90315397324915514 0 0 0 0 31.246297629069886 22.78809265277232 0 22.78809265277232 -29.160361333853245 0 0 0 0 35.323275536369692 18.886613010802648 0 18.886613010802648 -26.347532496362419 0 0 0 0 33.415345609801079 23.102235804888494 0 23.102235804888494 -26.198420835278284 0 0 0 0 33.460896683041938 21.424715996177383 0 21.424715996177383 -18.38043178239468 0 0 0 0 34.930296518205978 26.150895128355671 0 26.150895128355671 -20.54919229226698 0 0 0 0 32.954928678289434 23.19893238402301 0 23.19893238402301 -21.588920307866374 0 0 0 0 32.62092172625853 24.230427609124717 0 24.230427609124717 -22.105705520644278 0 0 0 0 29.989679723723384 24.434518901422962 0 24.434518901422962 -26.726602565902112 0 0 0 0 29.467571106255491 24.473700073677264 0 24.473700073677264 -21.999801198142222 0 0 0 0 15.927860699556049 6.2729464715910126 0 6.2729464715910126 -5.6101612329807722 0 0 0 0 32.998521303126111 6.5242651779732981 0 6.5242651779732981 0.76307999851246955 0 0 0 0 3.7241338341480681 -1.5593515620872171 0 -1.5593515620872171 -1.7347732559325095 0 0 0 0 52.928274409348603 -32.554820333991699 0 -32.554820333991699 -28.2688928690377 0 0 0 0 28.957539659188114 3.7068429447263043 0 3.7068429447263043 2.9631021209643222 0 0 0 0 44.49413368754324 -9.1695895177167017 0 -9.1695895177167017 13.45754091974959 0 0 0 0 39.927512650945573 3.5615415365641638 0 3.5615415365641638 0.10068817630167359 0 0 0 0 28.541437182373556 14.245702852005024 0 14.245702852005024 -4.8394470786474812 0 0 0 0 28.175400939294377 15.364261129801093 0 15.364261129801093 -8.2028314938484073 0 0 0 0 24.701551987349376 21.528149323537264 0 21.528149323537264 -6.8154127806888027 0 0 0 0 29.255881642282475 25.071468739959869 0 25.071468739959869 -19.809148553491468 0 0 0 0 36.237700045152451 22.816368619883178 0 22.816368619883178 -21.564899928211389 0 0 0 0 31.253262665335569 22.265610532747587 0 22.265610532747587 -16.233529950390221 0 0 0 0 36.784042556018903 15.457131939235751 0 15.457131939235751 -12.512307720979834 0 0 0 0 36.156417929989402 23.201480015381776 0 23.201480015381776 -23.936500554993472 0 0 0 0 38.215859893492961 20.380030126509723 0 20.380030126509723 -20.516316508512318 0 0 0 0 41.052294795377748 14.226305670636066 0 14.226305670636066 -17.161664099937298 0 0 0 0 29.966615944831005 29.87569901506474 0 29.87569901506474 -25.770470145779655 0 0 0 0 33.381856268498268 24.212725959578052 0 24.212725959578052 -20.85404735879365 0 0 0 0 35.004228438810969 24.618912264933442 0 24.618912264933442 -21.238176025734901 0 0 0 0 35.170206146168312 22.889579271663365 0 22.889579271663365 -14.896665715165909 0 0 0 0 36.157867103283479 14.442859199817121 0 14.442859199817121 -12.160578461206569 0 0 0 0 51.014270749074058 2.2330368819493742 0 2.2330368819493742 -3.7608554277717303 0 0 0 0 45.316022481223627 3.1881188521642798 0 3.1881188521642798 -0.26476226344129827 0 0 0 0 48.143618913643877 19.81591528954641 0 19.81591528954641 -17.905652364547223 0 0 0 0 24.565175643043403 29.174001718250565 0 29.174001718250565 -20.493827601964085 0 0 0 0 -2.1895316890459071 43.394579900146823 0 43.394579900146823 -13.171929598619045 0 0 0 0 32.457701210383675 16.540825393915156 0 16.540825393915156 -29.322586857444094 0 0 0 0 24.4318489037266 12.484343212072361 0 12.484343212072361 -2.5309129617539572 0 0 0 0 20.058768836266609 15.054061845952376 0 15.054061845952376 -9.3439534026898627 0 0 0 0 22.553504361311951 10.788852628705001 0 10.788852628705001 -4.4289010878307717 0 0 0 0 16.807342391407019 21.849308884157665 0 21.849308884157665 -12.662210813941073 0 0 0 0 -9.2611210176335135 24.848781096193989 0 24.848781096193989 -11.098605568744006 0 0 0 0 -0.26968523796040245 13.50383292414358 0 13.50383292414358 -1.7359500707616462 0 0 0 0 3.6889979447641963 6.7615641069772892 0 6.7615641069772892 -9.8900895303704601 0 0 0 0 4.2369979280047119 -0.61368437044802704 0 -0.61368437044802704 -7.7779675408428375 0 0 0 0 5.4305043165417146 9.7089792645496686 0 9.7089792645496686 -13.896008799765241 0 0 0 0 1.5808873599762592 -3.9286362736738738 0 -3.9286362736738738 4.9189020378298665 0 0 0 0 4.2349819471840142 0.9045356010990151 0 0.9045356010990151 0.17830287470405715 0 0 0 0 0.82482863960037278 -3.1860154938653249 0 -3.1860154938653249 -0.68713954382050346 0 0 0 0 -0.58124788474822253 34.3017036817443 0 34.3017036817443 45.495328262042676 0 0 0 0 -0.86808171868683814 0.81772167419085262 0 0.81772167419085262 1.6455577824179901 0 0 0 0 22.814608751797095 20.495721719578796 0 20.495721719578796 8.2020036737749251 0 0 0 0 83.746584342301503 55.363564242395114 0 55.363564242395114 18.39102756885859 0 0 0 0 15.4628154165257 27.053371212487946 0 27.053371212487946 9.8170136542839828 0 0 0 0 30.441467227195972 41.543119573688045 0 41.543119573688045 5.3943775430943788 0 0 0 0 57.527243802727753 12.538069020247804 0 12.538069020247804 3.769396649353439 0 0 0 0 55.323974173554234 6.1107834701562069 0 6.1107834701562069 -5.384081341700039 0 0 0 0 69.851631625508162 -10.540646694925272 0 -10.540646694925272 6.7694863597189396 0 0 0 0 123.79169687647664 -21.39109929998267 0 -21.39109929998267 18.637396308557982 0 0 0 0 116.94082741551574 -95.490402564183569 0 -95.490402564183569 80.825108635728611 0 0 0 0 -13.371958063959028 -34.76736322186116 0 -34.76736322186116 53.701919009052745 0 0 0 0 68.860521863949543 26.011917687982532 0 26.011917687982532 7.7325447946041095 0 0 0 0 49.231492712482577 -9.2687949146293249 0 -9.2687949146293249 93.987534770652928 0 0 0 0 94.065317722080408 65.828257592393243 0 65.828257592393243 53.646899307115746 0 0 0 0 33.345864321328918 -5.3897780777424487 0 -5.3897780777424487 32.299820589300907 0 0 0 0 65.374350523665271 33.045757840100123 0 33.045757840100123 18.950192163494194 0 0 0 0 53.32764576077534 13.260569221644346 0 13.260569221644346 -13.022540784289504 0 0 0 0 14.881795796421102 -1.8836060681860545 0 -1.8836060681860545 21.920871638092649 0 0 0 0 32.969914327321021 -2.0642959934912142 0 -2.0642959934912142 17.596714183924632 0 0 0 0 19.301389755175023 -4.6178438843611502 0 -4.6178438843611502 25.780488918126139 0 0 0 0 42.79810558146346 -16.527541168430616 0 -16.527541168430616 32.09301542484377 0 0 0 0 47.754576160309171 1.248680210327052 0 1.248680210327052 30.374727239739514 0 0 0 0 32.973811673300588 -4.3609324570081753 0 -4.3609324570081753 17.358421580153845 0 0 0 0 28.087389247535612 -9.9883739443121158 0 -9.9883739443121158 22.751055018466786 0 0 0 0 45.677062877020944 7.0247229940078455 0 7.0247229940078455 -12.309853173556235 0 0 0 0 -0.3846643734863826 0.77325348667608118 0 0.77325348667608118 -8.8606355723259753 0 0 0 0 62.653933128994595 6.4575415228039788 0 6.4575415228039788 1.8194413859428096 0 0 0 0 35.755464936996304 -11.326098304461141 0 -11.326098304461141 -3.4370619620435718 0 0 0 0 93.680497875663264 -16.699286441069887 0 -16.699286441069887 -11.333066644421933 0 0 0 0 38.733367392942455 3.2521985208614979 0 3.2521985208614979 -6.9823828443564935 0 0 0 0 31.50287849160668 11.335424946036795 0 11.335424946036795 -10.384250211122094 0 0 0 0 17.572360046970715 12.906211264438404 0 12.906211264438404 -8.8267519697300258 0 0 0 0 29.30694052907711 8.7575865139568236 0 8.7575865139568236 -11.230631779163559 0 0 0 0 30.381787746699956 11.133257003610424 0 11.133257003610424 -7.6374663668538787 0 0 0 0 26.504052211426369 6.3738939254544675 0 6.3738939254544675 -8.0942398521868881 0 0 0 0 17.329171463431976 16.927595019367118 0 16.927595019367118 -11.375602080982656 0 0 0 0 20.333621706005445 8.7929471356200821 0 8.7929471356200821 -6.3033612171948965 0 0 0 0 8.5845457198201984 9.588329255042936 0 9.588329255042936 -14.940629220737719 0 0 0 0 20.676938463967421 6.2548276043609476 0 6.2548276043609476 -9.7880937903144325 0 0 0 0 4.5338589007483279 20.84474031904665 0 20.84474031904665 -21.105809984794178 0 0 0 0 34.163063224696543 12.512967361746519 0 12.512967361746519 -13.804068607600641 0 0 0 0 39.129556495147881 5.2758972930121786 0 5.2758972930121786 -13.383994743371659 0 0 0 0 14.105587114256195 7.2919744687490038 0 7.2919744687490038 -19.074662429857653 0 0 0 0 3.0696507475354076 1.622637476226557 0 1.622637476226557 -12.661065900839223 0 0 0 0 50.097262657513966 10.980664893120547 0 10.980664893120547 -4.7148766840423093 0 0 0 0 5.9866203013325503 0.91770956237610335 0 0.91770956237610335 1.9946389378756066 0 0 0 0 62.396534540329867 -18.275489490429436 0 -18.275489490429436 -41.881269001882174 0 0 0 0 0.4391632296050787 -0.71667546093947365 0 -0.71667546093947365 -0.15203342458044811 0 0 0 0 28.159785372942679 80.729075873378179 0 80.729075873378179 29.024090996585592 0 0 0 0 35.282905813910929 47.915597473229354 0 47.915597473229354 -72.226172367270237 0 0 0 0 19.383731199890544 2.4089294697369468 0 2.4089294697369468 -9.0255775612527618 0 0 0 0 49.195563745966865 -6.1871553373905783 0 -6.1871553373905783 -30.73690314184546 0 0 0 0 30.81508022182976 4.4779032654211566 0 4.4779032654211566 -6.1094309401119959 0 0 0 0 39.106654471585898 -1.4988218632407211 0 -1.4988218632407211 -4.1342704944918296 0 0 0 0 16.050497659226632 1.8401965957142643 0 1.8401965957142643 -2.5122322759594624 0 0 0 0 30.766375672506911 1.4992792435139108 0 1.4992792435139108 4.5574181439724271 0 0 0 0 5.1231540924036381 27.502235916654627 0 27.502235916654627 -31.677374776792021 0 0 0 0 36.020059604147946 0.36906881563989202 0 0.36906881563989202 -10.94428563761906 0 0 0 0 9.3552141289260362 4.9020467007050001 0 4.9020467007050001 -14.909206528305731 0 0 0 0 23.81030421967624 5.0056664868459189 0 5.0056664868459189 -11.455650671389764 0 0 0 0 16.958530117546371 6.9850236887964119 0 6.9850236887964119 -13.380489642970337 0 0 0 0 10.229071907939215 3.8406433192822078 0 3.8406433192822078 -7.1064250737417751 0 0 0 0 3.7785222142010753 33.478082505263046 0 33.478082505263046 4.3727747017737784 0 0 0 0 1.5153332999172662 2.7273512746748558 0 2.7273512746748558 -4.8845871852013545 0 0 0 0 19.761605542789496 9.5771889979633862 0 9.5771889979633862 -21.65464637775483 0 0 0 0 13.775699909641579 4.2790337657638933 0 4.2790337657638933 -9.5100719046102036 0 0 0 0 27.83493857245087 8.1785299431537712 0 8.1785299431537712 -17.624515186701068 0 0 0 0 15.942305122709399 4.9946750894953311 0 4.9946750894953311 -14.613634021403413 0 0 0 0 6.6421924853455856 10.561696033936569 0 10.561696033936569 -2.9747929180506771 0 0 0 0 17.209714946180611 7.8108993099763211 0 7.8108993099763211 -8.5085139738748694 0 0 0 0 15.334074767396032 10.488047523269302 0 10.488047523269302 -22.336031636198186 0 0 0 0 16.147102187823563 3.5074695894561936 0 3.5074695894561936 -2.9992948522668232 0 0 0 0 19.544823380386603 2.0055191270563961 0 2.0055191270563961 -2.6727885953000676 0 0 0 0 16.118093257916371 5.3980240062139728 0 5.3980240062139728 -12.267752702433427 0 0 0 0 11.240681377834537 2.4149097550912053 0 2.4149097550912053 -0.45733231532811658 0 0 0 0 6.7783594155563094 4.182232994904707 0 4.182232994904707 -0.95486370613193627 0 0 0 0 31.400813938083957 -7.6518829131077837 0 -7.6518829131077837 3.7484217063806682 0 0 0 0 25.671584056111442 0.25370557482816025 0 0.25370557482816025 -3.9441747119080901 0 0 0 0 17.843460040920384 4.5330262877937706 0 4.5330262877937706 -1.9876362945122894 0 0 0 0 25.775631675249315 0.90175878614627436 0 0.90175878614627436 -1.5985531257833827 0 0 0 0 24.505504119088073 4.4602188976646175 0 4.4602188976646175 -7.6038892989353144 0 0 0 0 7.0920919132569811 -0.64143288348991589 0 -0.64143288348991589 -1.1824688653547994 0 0 0 0 28.304256094083485 2.0377119584472894 0 2.0377119584472894 -2.4423636099227224 0 0 0 0 25.753803177407462 1.07172190202823 0 1.07172190202823 -2.0243211857723509 0 0 0 0 24.654020899228271 1.9846279035107273 0 1.9846279035107273 -2.3436010758218799 0 0 0 0 22.935179310484557 6.191567521985947 0 6.191567521985947 -3.4096506096814938 0 0 0 0 -32.464746752928477 71.216893501529512 0 71.216893501529512 -48.423614357235238 0 0 0 0 5.8979779158787231 -0.49686440894932815 0 -0.49686440894932815 -1.7051027765117617 0 0 0 0 28.572848628075008 3.6691410517744316 0 3.6691410517744316 -2.7608358779246487 0 0 0 0 24.746792758178344 -1.9266503226745044 0 -1.9266503226745044 -2.6878234135347157 0 0 0 0 28.533891013039465 0.89665145604180907 0 0.89665145604180907 -1.4271035321039562 0 0 0 0 23.243398875933053 0.085964709261133976 0 0.085964709261133976 -1.1659782263436682 0 0 0 0 21.240276977958274 -1.7355828134340072 0 -1.7355828134340072 -0.17691025026806528 0 0 0 0 22.836151469894745 -1.315769821628292 0 -1.315769821628292 -6.0574905153608114 0 0 0 0 22.871176278502389 -1.4008254737204311 0 -1.4008254737204311 -6.0308019663316372 0 0 0 0 18.149244248452305 -5.9681763977024502 0 -5.9681763977024502 -5.4535567445468587 0 0 0 0 47.445812173404192 -6.6465704111873727 0 -6.6465704111873727 -0.021607017929959227 0 0 0 0 27.242191724564691 -13.707355006183661 0 -13.707355006183661 7.766599226783228 0 0 0 0 23.172599924290324 4.3079286289809602 0 4.3079286289809602 -6.0604049152959174 0 0 0 0 32.363555472611552 0.70701488450919214 0 0.70701488450919214 -1.9836144635992241 0 0 0 0 87.293666026962455 -5.3867474037042484 0 -5.3867474037042484 -69.413765323491589 0 0 0 0 29.545811465070983 41.747966210216646 0 41.747966210216646 -74.293044559315604 0 0 0 0 21.332690125635331 2.995232488454791 0 2.995232488454791 -1.3126987256703049 0 0 0 0 105.10887018797803 28.659135099866035 0 28.659135099866035 -84.944315585342338 0 0 0 0 0.98134043667846527 5.5491000827784731 0 5.5491000827784731 -1.1183920570079471 0 0 0 0 -28.089521892406992 -7.2729400082785105 0 -7.2729400082785105 -49.544314719356407 0 0 0 0 22.189271756477424 0.87955138123162868 0 0.87955138123162868 -5.287590197695657 0 0 0 0 40.540131923634362 -9.4862558814129443 0 -9.4862558814129443 -33.916356625301887 0 0 0 0 13.245375002090441 15.183614518000923 0 15.183614518000923 -9.7130789251600902 0 0 0 0 30.432980569089523 -3.6623463388999653 0 -3.6623463388999653 -12.264540995084644 0 0 0 0 33.994338259328288 91.494097584340125 0 91.494097584340125 -48.367538437785697 0 0 0 0 21.956651512348905 4.2276466790768472 0 4.2276466790768472 -4.2888591272823415 0 0 0 0 23.639176669883454 14.56171005299484 0 14.56171005299484 -16.516885465713244 0 0 0 0 21.260564717053057 2.9216007761658602 0 2.9216007761658602 7.7599964972778253 0 0 0 0 44.803284267333311 -50.187909958739965 0 -50.187909958739965 -46.088781321696842 0 0 0 0 28.76782992431027 -0.071530612433480911 0 -0.071530612433480911 -0.55513940268178019 0 0 0 0 14.159506358540966 10.477313573044739 0 10.477313573044739 -12.761873316660058 0 0 0 0 20.751612514228327 1.4008809814481538 0 1.4008809814481538 -4.3712941606263485 0 0 0 0 34.900474579122601 3.9442900118451689 0 3.9442900118451689 -4.8436723126415018 0 0 0 0 27.475303368971254 6.5418789754614863 0 6.5418789754614863 -11.827240008923582 0 0 0 0 23.441911481302867 4.9384089818247876 0 4.9384089818247876 -3.4118279314303415 0 0 0 0 11.730460498256434 95.547077917653041 0 95.547077917653041 -111.03517902013664 0 0 0 0 69.92127431570043 22.115679139773192 0 22.115679139773192 -72.009248872089984 0 0 0 0 59.08544734111274 22.037927280212216 0 22.037927280212216 -44.65978528719279 0 0 0 0 29.98658272675857 51.251969307905483 0 51.251969307905483 -116.85975537093509 0 0 0 0 -12.458806266608008 11.645521074234694 0 11.645521074234694 -25.153457919117045 0 0 0 0 3.0733672548576578 36.325358944887057 0 36.325358944887057 -28.61891394671693 0 0 0 0 57.405052979185712 -55.734080264134036 0 -55.734080264134036 26.903904015658554 0 0 0 0 68.106085637438809 -59.393840450996322 0 -59.393840450996322 1.6452632395905766 0 0 0 0 72.627943749899714 -84.056184541016137 0 -84.056184541016137 70.233094675375924 0 0 0 0 29.51962666514919 -24.25588414952324 0 -24.25588414952324 2.2454961920466303 0 0 0 0 70.191233722158358 22.882986102177256 0 22.882986102177256 56.704512293166999 0 0 0 0 43.924857757509017 -17.523252628006048 0 -17.523252628006048 29.587389758340123 0 0 0 0 16.692362157654458 0.25353282892985041 0 0.25353282892985041 -0.094822187787593437 0 0 0 0 18.175334744537395 -16.296630819698521 0 -16.296630819698521 60.430231632017467 0 0 0 0 58.980954404178192 -37.430730389537075 0 -37.430730389537075 4.4677210578647646 0 0 0 0 71.016833692771797 -70.352399791392259 0 -70.352399791392259 67.42269378884157 0 0 0 0 76.364825442520669 -80.8597164304133 0 -80.8597164304133 28.884530434731289 0 0 0 0 118.76554339149493 -132.44713043021773 0 -132.44713043021773 91.194976315285203 0 0 0 0 82.72905228187301 -127.4842208859543 0 -127.4842208859543 215.81776826338501 0 0 0 0 20.054640137237584 -50.395937481757755 0 -50.395937481757755 134.05956039258092 0 0 0 0 340.68531752109629 -84.592215554161839 0 -84.592215554161839 40.594185301205698 0 0 0 0 31.298692202231905 -8.3457475735206117 0 -8.3457475735206117 8.5700701427549575 0 0 0 0 135.83061785670975 1.8077326090044323 0 1.8077326090044323 4.1599878995657491 0 0 0 0 88.305247885567951 162.85801455284388 0 162.85801455284388 154.99351069993963 0 0 0 0 -125.62537262035039 -107.84114192347351 0 -107.84114192347351 266.03093885593807 0 0 0 0 1.454938916987885 -0.77005351184720894 0 -0.77005351184720894 -2.1100977246815091 0 0 0 0 99.779157969845983 -68.623371307108755 0 -68.623371307108755 -345.09465678172319 0 0 0 0 2.1343582876473022 0.51066594094580964 0 0.51066594094580964 -0.53704875690753417 0 0 0 0 1.6198565480117395 -0.57150710510177305 0 -0.57150710510177305 -3.3064153523437199 0 0 0 0 0.75387887946239118 -0.54589917660538489 0 -0.54589917660538489 -1.2164275976197239 0 0 0 0 84.760078640312713 -37.503781427493777 0 -37.503781427493777 11.761005783775545 0 0 0 0 -52.182609608153143 191.46310021586874 0 191.46310021586874 98.20027128853917 0 0 0 0 551.05979964201833 109.04865850623628 0 109.04865850623628 -275.83585341357957 0 0 0 0 171.37137971297489 140.0226983885459 0 140.0226983885459 -38.462475629549772 0 0 0 0 6.0108902224307741 0.20856898520826617 0 0.20856898520826617 0.19663692878473016 0 0 0 0 -17.729202275564603 -29.45431046359613 0 -29.45431046359613 30.484085096719355 0 0 0 0 -83.538964146641774 352.55269370000678 0 352.55269370000678 -96.317642254232851 0 0 0 0 417.14319050890481 -110.55941357773554 0 -110.55941357773554 24.929552597486691 0 0 0 0 0.45624498344675857 0.52420086845289404 0 0.52420086845289404 0.06115700184737527 0 0 0 0 319.96549400920048 -177.06815813674621 0 -177.06815813674621 97.950689185145166 0 0 0 0 215.72430653306947 -52.71607137072715 0 -52.71607137072715 49.76128057554979 0 0 0 0 257.74327727156924 -181.05404055760664 0 -181.05404055760664 81.176579137166755 0 0 0 0 0.2587321246688532 0.72915208338062243 0 0.72915208338062243 -0.45433070870076309 0 0 0 0 88.728232734953053 -79.664254871956018 0 -79.664254871956018 53.574355094364364 0 0 0 0 188.54611226179986 -25.331898426980842 0 -25.331898426980842 -21.026012021255156 0 0 0 0 204.68488499727027 -21.244269856744722 0 -21.244269856744722 14.192524921531003 0 0 0 0 216.9881625152484 -49.462187416822417 0 -49.462187416822417 -0.80775365309636982 0 0 0 0 162.36254424455547 17.705819631886698 0 17.705819631886698 -14.750994319601887 0 0 0 0 300.92146105313441 1.0838292631551667 0 1.0838292631551667 -15.299596212844563 0 0 0 0 194.01913690750371 25.811782657405502 0 25.811782657405502 -19.528154817016912 0 0 0 0 326.42182105780194 52.64424848612498 0 52.64424848612498 11.845408215856878 0 0 0 0 158.26386626090971 82.500448556390893 0 82.500448556390893 21.456109607916915 0 0 0 0 90.598630463260633 40.182483206919642 0 40.182483206919642 -11.407109309644511 0 0 0 0 84.671058348225415 42.754899276854985 0 42.754899276854985 -2.0152894539351109 0 0 0 0 85.597167573971092 38.32038798033409 0 38.32038798033409 17.266628021037832 0 0 0 0 127.86731595637684 69.527971049562439 0 69.527971049562439 8.4894167329100583 0 0 0 0 62.378879376003169 58.843530514295708 0 58.843530514295708 5.0925088797057469 0 0 0 0 42.548991081258464 40.060998039543108 0 40.060998039543108 -6.9635924993108347 0 0 0 0 42.567898959037848 39.792442707583177 0 39.792442707583177 -13.150143919035031 0 0 0 0 31.157943021527899 40.385937612793896 0 40.385937612793896 20.500790509355738 0 0 0 0 47.103884229931282 -23.628517739773088 0 -23.628517739773088 -25.902109832481528 0 0 0 0 85.463716920559818 -19.038433780354808 0 -19.038433780354808 -149.09832920295821 0 0 0 0 111.99396568808879 85.700225748773391 0 85.700225748773391 51.713812947630231 0 0 0 0 8.072669347131523 -0.6980379331862423 0 -0.6980379331862423 -3.1838731558618747 0 0 0 0 13.989457846000732 2.8394871672155659 0 2.8394871672155659 -1.6063643865555228 0 0 0 0 6.0446629936619019 -0.46638244541968277 0 -0.46638244541968277 -3.5364201365897543 0 0 0 0 9.892948522734514 -4.4519978724965767 0 -4.4519978724965767 1.4140317585010962 0 0 0 0 4.2216584382813664 -2.5660829521758188 0 -2.5660829521758188 -2.0245570962357977 0 0 0 0 22.317582309155114 -1.3306195759673756 0 -1.3306195759673756 -0.073185439383451012 0 0 0 0 24.841227893179166 -15.608763882271433 0 -15.608763882271433 -1.0350799067464322 0 0 0 0 12.066860004532096 -7.1000649349912024 0 -7.1000649349912024 -0.2341838348670997 0 0 0 0 22.906154006938777 -0.91138782625705517 0 -0.91138782625705517 -1.3525134598812656 0 0 0 0 15.020129339052801 2.30037426420472 0 2.30037426420472 -3.8953770050447361 0 0 0 0 13.636081329865121 2.8301410529356268 0 2.8301410529356268 -1.8892524825350012 0 0 0 0 18.684118501636476 6.1136588765484703 0 6.1136588765484703 -4.0214402633391728 0 0 0 0 -80.110183092649095 30.161059694308506 0 30.161059694308506 16.85186784376674 0 0 0 0 4.379172456395974 4.1453885949776463 0 4.1453885949776463 -3.9288737841024286 0 0 0 0 -24.819910614893161 95.76637316164306 0 95.76637316164306 28.607730864062432 0 0 0 0 -44.188711491773574 21.409055575103821 0 21.409055575103821 34.900444407670221 0 0 0 0 -54.047608597191356 40.1889530195524 0 40.1889530195524 7.3675718730805784 0 0 0 0 11.484757806534617 4.8849622668243455 0 4.8849622668243455 -1.0849893397498818 0 0 0 0 15.916286374347692 2.5328052180675513 0 2.5328052180675513 -4.0957875301751301 0 0 0 0 13.326275297215034 1.7218632197386796 0 1.7218632197386796 -2.9013078757911899 0 0 0 0 -0.77631468887525834 3.385416200389983 0 3.385416200389983 -0.87605255280870153 0 0 0 0 17.328411687785774 4.5815616089408877 0 4.5815616089408877 -3.5315020872358218 0 0 0 0 13.398135502982768 5.7118087140206626 0 5.7118087140206626 0.32419934847712284 0 0 0 0 6.1319043262909219 -0.064318661194427307 0 -0.064318661194427307 -4.7277880021281105 0 0 0 0 -101.87656865014287 -51.722424255431179 0 -51.722424255431179 63.501114244242558 0 0 0 0 -57.908027804882295 -102.68791305053117 0 -102.68791305053117 -110.45785136200857 0 0 0 0 1.8913358218924259 -0.2974968383673513 0 -0.2974968383673513 -3.8899999525560816 0 0 0 0 2.4379388759844005 -0.67757072478298142 0 -0.67757072478298142 -4.2630977847647955 0 0 0 0 1.1174250286615148 -0.25245268720947678 0 -0.25245268720947678 -0.32024440402406684 0 0 0 0 4.1340963436305174 -6.3596882688786991 0 -6.3596882688786991 -11.080984637429992 0 0 0 0 4.0517791353086068 -6.9979413579084166 0 -6.9979413579084166 -8.9104920162369581 0 0 0 0 3.1724144990758383 0.40832874227517379 0 0.40832874227517379 -2.7667311194556312 0 0 0 0 3.4038454320470919 0.45677486278009383 0 0.45677486278009383 -2.5379878168685082 0 0 0 0 4.4741818326267691 -1.2008782821092012 0 -1.2008782821092012 -3.4794115785336608 0 0 0 0 6.051525685517845 -10.562157686432101 0 -10.562157686432101 -4.6359827225460322 0 0 0 0 9.2652165541985596 -10.560392447986942 0 -10.560392447986942 -19.25872370112279 0 0 0 0 11.184463255514856 -4.1809379698383964 0 -4.1809379698383964 -9.3901389085947642 0 0 0 0 1.0868472833062697 -10.283294923436188 0 -10.283294923436188 -8.7132129619153602 0 0 0 0 10.978821918310132 1.7015123543091022 0 1.7015123543091022 -15.397664385820917 0 0 0 0 6.5881892964013673 -1.7674773878799988 0 -1.7674773878799988 -1.0929915137406347 0 0 0 0 0.50631093853735365 1.4356206756326628 0 1.4356206756326628 -1.5863056112094771 0 0 0 0 4.6768298134246677 0.73685546592607665 0 0.73685546592607665 -4.5379913724419687 0 0 0 0 4.5170603827140781 -0.69545268475625655 0 -0.69545268475625655 0.17335170820411383 0 0 0 0 22.294288370296272 -2.2967127818139943 0 -2.2967127818139943 -10.988363299680259 0 0 0 0 13.887185794203106 -10.422713229131489 0 -10.422713229131489 -17.48030695411444 0 0 0 0 15.255221860656093 4.3211289782441327 0 4.3211289782441327 -23.674524605782835 0 0 0 0 27.209954681911768 -3.9999222401070256 0 -3.9999222401070256 -17.919565171600198 0 0 0 0 7.0760215336013061 -5.9145668279288657 0 -5.9145668279288657 1.2780525432958711 0 0 0 0 14.75534123172838 12.277073809934507 0 12.277073809934507 5.6358238857176275 0 0 0 0 159.49106854911224 -2.3959534009184722 0 -2.3959534009184722 -27.500195529211396 0 0 0 0 70.478093526962766 -2.3201494246452512 0 -2.3201494246452512 -26.69029179806202 0 0 0 0 32.79569524226099 -58.037368895412101 0 -58.037368895412101 65.985749550980188 0 0 0 0 78.066820579626437 61.758579723309595 0 61.758579723309595 19.869605437744895 0 0 0 0 1.6149508718675065 -0.40429821052716086 0 -0.40429821052716086 0.11706042713095099 0 0 0 0 -42.335042542135852 35.443478873065146 0 35.443478873065146 -3.1337174905404481 0 0 0 0 41.946393684334907 -3.9533001447874767 0 -3.9533001447874767 -6.1120887410669127 0 0 0 0 45.475012931019592 -54.574585120175641 0 -54.574585120175641 32.036869616075364 0 0 0 0 21.445973450269364 10.146494308979069 0 10.146494308979069 -4.3636647663082559 0 0 0 0 12.04619185536194 27.931084864737194 0 27.931084864737194 -4.3519108677514993 0 0 0 0 28.616479325939995 5.6737853383394423 0 5.6737853383394423 -3.9609570741331579 0 0 0 0 25.003323582179291 128.18098600314397 0 128.18098600314397 3.9344400337297714 0 0 0 0 56.500079939535681 -8.9491616861488623 0 -8.9491616861488623 -20.979189690457545 0 0 0 0 9.2349283846488106 28.309221546548258 0 28.309221546548258 5.6698671817790398 0 0 0 0 20.74965796796765 10.43775232503387 0 10.43775232503387 -4.8237121071587561 0 0 0 0 41.297851548438302 7.4841329487121584 0 7.4841329487121584 4.6455126691465125 0 0 0 0 33.427268758197727 5.3469796450963543 0 5.3469796450963543 8.2712657194372241 0 0 0 0 34.482960979355994 -19.952624883483395 0 -19.952624883483395 23.983164801816315 0 0 0 0 53.357700627559097 -35.401104364556886 0 -35.401104364556886 7.9526351246008176 0 0 0 0 1.5374292608285032 -16.307098840005892 0 -16.307098840005892 12.45302069435229 0 0 0 0 127.30319734388377 -65.288151901901585 0 -65.288151901901585 -24.779456494234637 0 0 0 0 73.349291875623749 -17.323954692076768 0 -17.323954692076768 -60.752235847702877 0 0 0 0 28.175654065261657 6.0234462542763509 0 6.0234462542763509 -5.0620942482792568 0 0 0 0 48.348976716014477 0.31540144805187253 0 0.31540144805187253 -25.540543098161891 0 0 0 0 25.446974242305906 9.5254711138110189 0 9.5254711138110189 -4.6295621488323642 0 0 0 0 51.206594496528851 15.476191103459996 0 15.476191103459996 -47.389178215729771 0 0 0 0 25.55527117360316 -11.802053426940034 0 -11.802053426940034 -11.451467421449706 0 0 0 0 52.285093506741759 5.8167530779040817 0 5.8167530779040817 -3.3496603001140102 0 0 0 0 48.238313069719879 -0.12637870857088274 0 -0.12637870857088274 -5.5624781269489176 0 0 0 0 23.494577934235746 5.8851698757029851 0 5.8851698757029851 -4.3758456018244898 0 0 0 0 34.513501185589121 -13.359832801313402 0 -13.359832801313402 11.150975834971632 0 0 0 0 15.998588259816167 -5.9182703967870331 0 -5.9182703967870331 -2.0437083266886722 0 0 0 0 41.198121959627315 -4.2126872772105344 0 -4.2126872772105344 -3.15084529975843 0 0 0 0 41.211063609363919 2.9551724728157751 0 2.9551724728157751 1.4500638593449366 0 0 0 0 23.915939966403144 13.208666321897571 0 13.208666321897571 -11.081121984720804 0 0 0 0 52.77415399158599 -31.784716842812884 0 -31.784716842812884 2.1607436048152522 0 0 0 0 8.2162186661780652 13.093127300528636 0 13.093127300528636 15.086457281485821 0 0 0 0 24.344928961316327 -14.37085053490614 0 -14.37085053490614 -21.342642691957337 0 0 0 0 53.03776623291651 24.811013412586419 0 24.811013412586419 -45.342668420583649 0 0 0 0 62.533188037762784 14.894592716282681 0 14.894592716282681 0.87962952870066147 0 0 0 0 33.42547549579831 -22.417971704888714 0 -22.417971704888714 26.506276089634298 0 0 0 0 28.164784835422324 -8.8758387508783017 0 -8.8758387508783017 -8.508459709081194 0 0 0 0 -47.683739533083326 -107.94424084058846 0 -107.94424084058846 158.3187357102961 0 0 0 0 33.246884970476806 1.2455037924491981 0 1.2455037924491981 -3.7553604945043961 0 0 0 0 39.425495206149662 27.755464074810519 0 27.755464074810519 -37.71338018209542 0 0 0 0 198.70497652000086 17.524159461892168 0 17.524159461892168 -131.66267219818383 0 0 0 0 -17.026443623446539 -15.006081158919642 0 -15.006081158919642 45.254368637565676 0 0 0 0 19.861144948621131 53.490619484425224 0 53.490619484425224 -58.941885174443257 0 0 0 0 84.071812423881966 26.728319903981173 0 26.728319903981173 -56.789389694731881 0 0 0 0 2.0891383346628931 0.046157323793611482 0 0.046157323793611482 -0.53168242021685863 0 0 0 0 62.858515595917197 7.2709389780546871 0 7.2709389780546871 29.870823612153572 0 0 0 0 114.06410307326269 -6.4712182490507075 0 -6.4712182490507075 -20.117780322233557 0 0 0 0 96.826643540568625 -61.715225432592405 0 -61.715225432592405 11.523789438194854 0 0 0 0 24.060145241857754 -4.3824740645839029 0 -4.3824740645839029 14.454862508213864 0 0 0 0 41.15591569817343 -13.718621835602789 0 -13.718621835602789 3.3050241040350556 0 0 0 0 25.963895972943646 -17.293890374907733 0 -17.293890374907733 25.166388271286905 0 0 0 0 28.993881255700217 6.1698601412338121 0 6.1698601412338121 -9.3649628582197693 0 0 0 0 32.6963276934448 11.491436575188573 0 11.491436575188573 45.299883697406813 0 0 0 0 19.728057202295986 -28.89433447081592 0 -28.89433447081592 -2.9780516968028223 0 0 0 0 34.462868312894813 1.1753513076350344 0 1.1753513076350344 -3.1877973147419993 0 0 0 0 -7.1241908348274592 78.937883356181374 0 78.937883356181374 -95.003916419241477 0 0 0 0 46.677444429458319 -25.505698172630559 0 -25.505698172630559 -52.5044515796817 0 0 0 0 23.59939569833756 -20.42249273214145 0 -20.42249273214145 0.063716670997564506 0 0 0 0 -0.80933942664665914 -0.71339230203339321 0 -0.71339230203339321 5.4183335635766721 0 0 0 0 20.827482733321858 -16.564965432263989 0 -16.564965432263989 -3.5036991011720602 0 0 0 0 110.73990455234565 -34.57658605271547 0 -34.57658605271547 22.47764886951893 0 0 0 0 202.42245200312342 -40.07482287132882 0 -40.07482287132882 -2.6986608743368379 0 0 0 0 202.04262278742686 -47.565943573523661 0 -47.565943573523661 4.6220030339286495 0 0 0 0 202.10681007360199 -48.961035683515561 0 -48.961035683515561 5.818893734713356 0 0 0 0 0.1313918055160882 -0.46927739276512836 0 -0.46927739276512836 3.4875653201492351 0 0 0 0 196.89541732188059 -56.208869619076268 0 -56.208869619076268 28.921585267834303 0 0 0 0 -25.287000401127727 -13.525872208237246 0 -13.525872208237246 25.668453871087877 0 0 0 0 10.318702704375255 -25.22352548925096 0 -25.22352548925096 4.2833872271373821 0 0 0 0 9.9000951320165314 -21.763664307461113 0 -21.763664307461113 4.1483119658314536 0 0 0 0 75.558585202583117 5.9338111015234745 0 5.9338111015234745 -1.5174486002556478 0 0 0 0 50.012373727919567 -46.712896629628631 0 -46.712896629628631 14.667047359753042 0 0 0 0 28.085024622215769 -0.32717483320243446 0 -0.32717483320243446 -23.065189291547085 0 0 0 0 27.152174678449228 -9.457687021732454 0 -9.457687021732454 -5.6787564054616269 0 0 0 0 20.040860045299496 -31.408644525683656 0 -31.408644525683656 -7.3972015119375101 0 0 0 0 -17.624383572560419 -2.1476009836724188 0 -2.1476009836724188 -16.352994973697605 0 0 0 0 10.752010471528138 -12.370686276409742 0 -12.370686276409742 -18.110759261275462 0 0 0 0 11.20338938023815 4.4497612465888778 0 4.4497612465888778 -31.713397227165871 0 0 0 0 14.774413246558311 -21.630917679153868 0 -21.630917679153868 -6.2591132675679546 0 0 0 0 4.5070142537933862 2.6124207231061973 0 2.6124207231061973 -8.218122675786617 0 0 0 0 123.70635479793003 -34.394171867894329 0 -34.394171867894329 -55.749947345918372 0 0 0 0 4.7274065337984421 1.6741203573752736 0 1.6741203573752736 -0.26461404188393445 0 0 0 0 10.282462530406065 -18.706647631111309 0 -18.706647631111309 -30.355171363746649 0 0 0 0 27.101691971363479 20.473908020117921 0 20.473908020117921 -27.8183053958968 0 0 0 0 30.009325507249208 -0.71100642581743756 0 -0.71100642581743756 -4.3764804807669657 0 0 0 0 -25.113717543608161 -40.177704268119669 0 -40.177704268119669 83.194939931050612 0 0 0 0 6.6791471601067709 -0.52641922134508845 0 -0.52641922134508845 6.371848587740164 0 0 0 0 11.268865578297566 0.46777698513873567 0 0.46777698513873567 2.1683617331780622 0 0 0 0 43.471487574483717 -2.1690158965382125 0 -2.1690158965382125 -2.595808852738628 0 0 0 0 36.646190198486465 -6.4583714324494395 0 -6.4583714324494395 0.90571664488675196 0 0 0 0 23.367667289644988 -1.4858408100877742 0 -1.4858408100877742 -5.1537372045004544 0 0 0 0 64.491135002930605 -28.384495745448703 0 -28.384495745448703 11.863148170662498 0 0 0 0 28.379560921128814 3.0429567771980146 0 3.0429567771980146 10.715797198750806 0 0 0 0 15.51618461022008 -12.431165354936184 0 -12.431165354936184 3.4900432789097522 0 0 0 0 179.50326069323475 -91.871076449678071 0 -91.871076449678071 22.826235323576839 0 0 0 0 166.55840051620638 -7.389214429405115 0 -7.389214429405115 -35.458631437023087 0 0 0 0 6.3587315488180707 -20.805424579169653 0 -20.805424579169653 105.97651305610066 0 0 0 0 149.32918425289947 -4.8746818783508843 0 -4.8746818783508843 -47.916052786176351 0 0 0 0 28.734685927443934 77.33527091625092 0 77.33527091625092 -207.86656033628242 0 0 0 0 -113.97794946280374 -42.125630961244269 0 -42.125630961244269 -14.603821428808828 0 0 0 0 8.0648919365147407 -2.676056261631345 0 -2.676056261631345 -5.2295519993787805 0 0 0 0 -65.781868033461251 -192.52470995553699 0 -192.52470995553699 -111.81858737554921 0 0 0 0 23.243595020368897 7.7944594389067845 0 7.7944594389067845 2.8627295565450179 0 0 0 0 140.2605315600731 -89.617774143030147 0 -89.617774143030147 -307.34057522206331 0 0 0 0 8.8156023489069373 -5.2239385310662581 0 -5.2239385310662581 -6.1694594822124067 0 0 0 0 18.802931043003127 3.5007636543247003 0 3.5007636543247003 -1.2515182210299827 0 0 0 0 24.115718954350086 13.035628091132821 0 13.035628091132821 -18.184365711955024 0 0 0 0 27.177478076815532 2.8175555256461848 0 2.8175555256461848 -2.4248025074484758 0 0 0 0 -445.74175114337413 96.856815615418157 0 96.856815615418157 277.67747820152101 0 0 0 0 99.847168668624818 -327.52380684375845 0 -327.52380684375845 -1.8588890869500574 0 0 0 0 30.50710715922105 -6.0127739970529319 0 -6.0127739970529319 -7.2144886877874796 0 0 0 0 16.952637243224217 6.1046576461797599 0 6.1046576461797599 4.6722471692382896 0 0 0 0 23.517256250925129 1.3399627891054706 0 1.3399627891054706 15.370398095464452 0 0 0 0 36.568381342345674 -3.5738894470008518 0 -3.5738894470008518 4.3201945658557719 0 0 0 0 26.689869407564913 5.7440400595633587 0 5.7440400595633587 -3.7854921845324405 0 0 0 0 32.06973302816823 -15.252536693888715 0 -15.252536693888715 27.476372535955761 0 0 0 0 46.067737196519374 -16.824620965556662 0 -16.824620965556662 -7.8194618355069299 0 0 0 0 26.180708289061798 4.8015057671012169 0 4.8015057671012169 -4.5715612149252998 0 0 0 0 30.450072589461342 -14.835201534051748 0 -14.835201534051748 21.250435796210695 0 0 0 0 32.009689274236734 -20.110548998849282 0 -20.110548998849282 9.064066595148212 0 0 0 0 29.987837763383141 16.438269524648938 0 16.438269524648938 -47.306032593673947 0 0 0 0 14.40478883324613 -23.046464794468505 0 -23.046464794468505 13.48463848667123 0 0 0 0 13.085658927499935 6.5061494418676737 0 6.5061494418676737 19.519042498775661 0 0 0 0 -0.969488712155818 0.52422831829143313 0 0.52422831829143313 5.3533715557967323 0 0 0 0 266.17495941573725 384.20177192684798 0 384.20177192684798 -66.933253851773088 0 0 0 0 19.132681252907787 -396.09905099347236 0 -396.09905099347236 614.29487822209921 0 0 0 0 9.4785592912428456 -0.8450933993464389 0 -0.8450933993464389 10.882050071403683 0 0 0 0 28.60084805776205 2.686746353334911 0 2.686746353334911 8.4249596122181174 0 0 0 0 21.524768250667265 5.8661281411812496 0 5.8661281411812496 -3.1169094655128164 0 0 0 0 34.451124997842271 65.628213008678131 0 65.628213008678131 -6.3187703114177225 0 0 0 0 12.800524129082987 -8.6443772385041484 0 -8.6443772385041484 19.777026112085878 0 0 0 0 3.6786949378016702 2.0283761142101184 0 2.0283761142101184 10.910980515413435 0 0 0 0 86.436738033470647 39.304793786505002 0 39.304793786505002 -150.2435147941045 0 0 0 0 -287.79698364166688 207.92881886310229 0 207.92881886310229 97.628483732582936 0 0 0 0 -95.753606340616898 -18.039013289514969 0 -18.039013289514969 7.7451083129283234 0 0 0 0 10.939152055749219 5.4641824513607844 0 5.4641824513607844 6.1162186946963857 0 0 0 0 -4.8309669166400653 1.4101927406548329 0 1.4101927406548329 2.7028325090091689 0 0 0 0 4.9486649406098788 16.393490656423694 0 16.393490656423694 2.9839005563930638 0 0 0 0 24.908710769679601 -7.4491669981582049 0 -7.4491669981582049 9.7421579675849159 0 0 0 0 49.513943339665218 9.0046448771188849 0 9.0046448771188849 -3.7841660806714117 0 0 0 0 23.588689614635214 11.568266235978346 0 11.568266235978346 -3.1034647525067927 0 0 0 0 27.898064569837516 25.869908515818025 0 25.869908515818025 -5.2315371423879924 0 0 0 0 17.82493952603545 9.4195014302300137 0 9.4195014302300137 -3.3908882883136471 0 0 0 0 19.372012388148505 5.560115534881902 0 5.560115534881902 0.060901834900960239 0 0 0 0 32.04869581199091 11.198721652902066 0 11.198721652902066 -5.0922002707226852 0 0 0 0 14.124817203715137 16.718896477198186 0 16.718896477198186 -1.9024294049342594 0 0 0 0 21.056629555388177 13.994465259294774 0 13.994465259294774 -2.3597963288894999 0 0 0 0 9.5778982972324229 37.704784718115803 0 37.704784718115803 -11.017772189793504 0 0 0 0 14.018323994559978 27.358140068179495 0 27.358140068179495 -9.163327669010414 0 0 0 0 7.272957157169003 29.25476328012769 0 29.25476328012769 -10.049503370047205 0 0 0 0 50.880476972473843 19.374221861156911 0 19.374221861156911 -11.688847814850533 0 0 0 0 36.671264727876405 29.771063448923655 0 29.771063448923655 -10.880813067669351 0 0 0 0 29.584750771005929 26.580184424908907 0 26.580184424908907 -23.3094183934802 0 0 0 0 27.507407776345644 21.597806070362708 0 21.597806070362708 -10.338153762904085 0 0 0 0 34.058968988170818 28.20808228621388 0 28.20808228621388 -27.489116763637867 0 0 0 0 28.979440653813072 10.062987801853183 0 10.062987801853183 -47.675701584507578 0 0 0 0 7.3615661869100393 2.2973780942438928 0 2.2973780942438928 -1.3473526633692163 0 0 0 0 27.412602958054777 19.737272234687566 0 19.737272234687566 -23.249942140181403 0 0 0 0 29.143277122439031 8.7668397807806286 0 8.7668397807806286 41.182123352814529 0 0 0 0 48.937301246786262 27.591387061485754 0 27.591387061485754 -6.3255821939855537 0 0 0 0 7.233346345406126 4.4245100230061958 0 4.4245100230061958 -3.0109836038532198 0 0 0 0 -0.19677084453292082 25.057910860327404 0 25.057910860327404 -1.3381947586885872 0 0 0 0 21.654771204893166 9.6130036304422646 0 9.6130036304422646 -3.8956705648176873 0 0 0 0 2.2728134226415477 5.8312508392207718 0 5.8312508392207718 12.881685094779641 0 0 0 0 72.870008351335855 13.919975801689475 0 13.919975801689475 -8.2186340795501565 0 0 0 0 51.564659103263693 8.4308695117550201 0 8.4308695117550201 -9.6140826139080673 0 0 0 0 33.46101776764408 19.475640001101169 0 19.475640001101169 15.598257478070991 0 0 0 0 34.039901274383737 15.304219801794602 0 15.304219801794602 11.291843052094237 0 0 0 0 1.777645363800886 -1.2489850241145639 0 -1.2489850241145639 0.46090433178509915 0 0 0 0 35.961515474402404 11.494961237654024 0 11.494961237654024 -3.2634788232414849 0 0 0 0 74.790329695167202 16.761478780076715 0 16.761478780076715 -7.7524035515923515 0 0 0 0 80.007196024384939 6.7956163191701933 0 6.7956163191701933 -17.987045381702274 0 0 0 0 81.280760204717808 3.7678395518873913 0 3.7678395518873913 -17.319946503155052 0 0 0 0 68.994471831270857 8.5818790881466498 0 8.5818790881466498 -6.6675082300248505 0 0 0 0 139.11564162232753 16.353601807270479 0 16.353601807270479 -7.0338113386873893 0 0 0 0 48.30769892907847 2.5908057561889564 0 2.5908057561889564 5.8354202074660861 0 0 0 0 72.183719891343571 -3.8384377767259821 0 -3.8384377767259821 0.42847772469622214 0 0 0 0 41.117310372668726 -4.874266541859015 0 -4.874266541859015 14.126684432378624 0 0 0 0 18.658206279600563 -26.293824323812942 0 -26.293824323812942 64.722580895732108 0 0 0 0 35.830770214550284 10.510272477966907 0 10.510272477966907 14.4211797843559 0 0 0 0 105.91363287862987 -36.617394363972892 0 -36.617394363972892 17.693778696084109 0 0 0 0 -2.2034191377533716 41.208602201049416 0 41.208602201049416 34.480768031193577 0 0 0 0 31.148385203792714 34.548189498322927 0 34.548189498322927 -46.770285744196599 0 0 0 0 8.8259467653479078 9.0847269880082422 0 9.0847269880082422 19.039556882531997 0 0 0 0 31.281651946087209 -26.232865814363095 0 -26.232865814363095 -101.8936955744723 0 0 0 0 20.255906096179388 -145.07527117525331 0 -145.07527117525331 -53.524848158419218 0 0 0 0 1.2377558226128542 -0.30270237758336549 0 -0.30270237758336549 -0.11510038696300162 0 0 0 0 91.364840203217682 69.449534228559855 0 69.449534228559855 46.201975169190064 0 0 0 0 40.264700000730954 -123.03102501699516 0 -123.03102501699516 -36.495390331278827 0 0 0 0 1.2916514444004719 -0.37546112780363572 0 -0.37546112780363572 0.051163532629770359 0 0 0 0 76.301423098993837 -41.432928583486046 0 -41.432928583486046 61.049299360372402 0 0 0 0 48.010863376952329 44.392378471858933 0 44.392378471858933 -10.75061484832645 0 0 0 0 151.23755607223575 -30.9744466938605 0 -30.9744466938605 -3.3247483043855937 0 0 0 0 109.42113249685281 -20.737156889999824 0 -20.737156889999824 -5.2873644045621404 0 0 0 0 126.06689029375138 38.741429680769897 0 38.741429680769897 20.377123925764181 0 0 0 0 46.082857560026241 25.823471650341219 0 25.823471650341219 19.033466861831357 0 0 0 0 108.39864233069602 -21.491254842098158 0 -21.491254842098158 -5.8221832449335125 0 0 0 0 88.586779891375045 -15.886121980131293 0 -15.886121980131293 -6.90930881248795 0 0 0 0 4.2520867643033853 9.0786971281654587 0 9.0786971281654587 13.359194850388803 0 0 0 0 -5.8474991780130949 -43.668371683199553 0 -43.668371683199553 -87.729425227233151 0 0 0 0 2.853598118178553 -0.84315376397713493 0 -0.84315376397713493 -0.096332486915739146 0 0 0 0 12.787894498833339 -1.5956504665093689 0 -1.5956504665093689 13.911118023163908 0 0 0 0 3.5522163178502524 2.6658725329494928 0 2.6658725329494928 15.414452702384722 0 0 0 0 8.9196202190832992 2.1003598544158422 0 2.1003598544158422 7.5288905513731379 0 0 0 0 0.23168743194264607 17.449643217494597 0 17.449643217494597 -2.4435974063301273 0 0 0 0 3.4669278073815804 -9.8535341333937367 0 -9.8535341333937367 1.8457382331579311 0 0 0 0 9.0829548719812294 3.2237222086995629 0 3.2237222086995629 1.1493618067631428 0 0 0 0 7.010736659506108 2.4066996501074183 0 2.4066996501074183 0.75234473142491698 0 0 0 0 31.59642528844779 18.927888677339979 0 18.927888677339979 -20.463510029186409 0 0 0 0 -19.472284547973686 -55.675703421313528 0 -55.675703421313528 42.988382408517964 0 0 0 0 84.375452571952337 -52.669330427390832 0 -52.669330427390832 -113.97861577041931 0 0 0 0 -17.277219043462537 -11.391866256604203 0 -11.391866256604203 9.3205853908827976 0 0 0 0 143.19328514363951 -45.055411082753949 0 -45.055411082753949 -16.189364556324108 0 0 0 0 69.819726894507767 -49.023496242232113 0 -49.023496242232113 8.2701271587395695 0 0 0 0 23.254158146453847 -16.514778891186324 0 -16.514778891186324 18.136113848360537 0 0 0 0 -35.319236725779774 69.56721552869476 0 69.56721552869476 46.084709940823359 0 0 0 0 2.7465343183940973 1.2377277704096539 0 1.2377277704096539 0.54224787537799246 0 0 0 0 121.30153069020162 213.84234733557673 0 213.84234733557673 89.548603919598008 0 0 0 0 132.48101920312911 232.47604878611332 0 232.47604878611332 71.719773269939424 0 0 0 0 215.6416381388517 -74.309553206717283 0 -74.309553206717283 8.3791281583748969 0 0 0 0 54.540440003984259 -150.9984702594179 0 -150.9984702594179 267.74576195470752 0 0 0 0 76.213585675046488 -59.64162675522482 0 -59.64162675522482 -59.196365454405623 0 0 0 0 271.98511611526283 153.31370060287452 0 153.31370060287452 71.965559649106581 0 0 0 0 90.312581976522779 45.478660295779491 0 45.478660295779491 20.559228744740722 0 0 0 0 82.852534451281826 41.158519699298495 0 41.158519699298495 21.216405566415347 0 0 0 0 21.966949053289227 26.064292738500527 0 26.064292738500527 47.726027932178567 0 0 0 0 81.411543565060128 34.510435190936732 0 34.510435190936732 25.491166901223096 0 0 0 0 22.902194285481528 41.008324599382149 0 41.008324599382149 40.300471202254357 0 0 0 0 79.386882850369147 71.850477226610565 0 71.850477226610565 56.678166846123531 0 0 0 0 -38.579018007514605 -14.758774340838272 0 -14.758774340838272 53.005339898036709 0 0 0 0 -30.501078815752408 45.300493427662332 0 45.300493427662332 116.95898709867947 0 0 0 0 10.49709153443689 -3.6234357715361725 0 -3.6234357715361725 1.2996956036806835 0 0 0 0 -1.4781318093082518 -21.345857661511559 0 -21.345857661511559 9.1193708138630427 0 0 0 0 13.737272712474805 9.8805346300741803 0 9.8805346300741803 26.79415037687113 0 0 0 0 14.91697580939217 -5.8170618843234934 0 -5.8170618843234934 4.6856776316481046 0 0 0 0 10.956982228664856 13.750316893183594 0 13.750316893183594 44.992000212560924 0 0 0 0 11.402113422052935 -7.8056460554098521 0 -7.8056460554098521 36.652651259886625 0 0 0 0 4.90732976288621 -1.6080071286358333 0 -1.6080071286358333 -0.74367391807889049 0 0 0 0 19.125755139607904 -6.4676817890390801 0 -6.4676817890390801 2.5461719490836843 0 0 0 0 38.509369785548188 -6.77805351461393 0 -6.77805351461393 2.4986962973603113 0 0 0 0 62.302012502623256 10.897235940801238 0 10.897235940801238 14.000152502281196 0 0 0 0 40.3579416889188 21.057456004208689 0 21.057456004208689 38.790628528287925 0 0 0 0 35.5228721120111 12.512698192773087 0 12.512698192773087 24.157474620024914 0 0 0 0 27.631122540915385 13.457695439592726 0 13.457695439592726 41.570843913521458 0 0 0 0 20.55232874029025 0.35883943192141032 0 0.35883943192141032 37.655640737499198 0 0 0 0 5.7585845259018242 5.4880951628033472 0 5.4880951628033472 46.384925178723279 0 0 0 0 9.4143018301620032 5.6043158199474874 0 5.6043158199474874 46.233989081694745 0 0 0 0 14.803529490931396 12.063829383446091 0 12.063829383446091 45.808019072988827 0 0 0 0 19.858962073740258 10.076764011250816 0 10.076764011250816 40.903638370025874 0 0 0 0 24.720838387562253 22.449786557854623 0 22.449786557854623 53.463153853515905 0 0 0 0 39.172287214285461 29.692106248498021 0 29.692106248498021 55.853005221810008 0 0 0 0 40.436412973205734 14.386411713309371 0 14.386411713309371 41.922273933649194 0 0 0 0 51.495212357061973 18.717421047414064 0 18.717421047414064 42.731274700089671 0 0 0 0 -6.4430221236980287 18.836337852695806 0 18.836337852695806 70.020043311778409 0 0 0 0 -7.8381639139988692 -3.5679826722109738 0 -3.5679826722109738 40.57839788074466 0 0 0 0 6.1117712302311702 6.49196430666683 0 6.49196430666683 47.764970536297369 0 0 0 0 6.7731418008625042 8.6399560589889006 0 8.6399560589889006 47.458688022319848 0 0 0 0 7.4874217679534922 8.2795728917672022 0 8.2795728917672022 42.573757517695412 0 0 0 0 9.4233110491932166 10.898087459513135 0 10.898087459513135 36.267434694448639 0 0 0 0 12.627796454813506 18.910777203573616 0 18.910777203573616 42.780915386487322 0 0 0 0 15.317331224752706 12.807342320557837 0 12.807342320557837 36.8658900401133 0 0 0 0 24.298184864648647 14.096668868499137 0 14.096668868499137 15.588338855900474 0 0 0 0 14.655535254063579 9.3064318020740302 0 9.3064318020740302 20.706808508247377 0 0 0 0 6.7545855005155317 0.35481358366178029 0 0.35481358366178029 37.454801800461155 0 0 0 0 12.688391228875844 7.7671917476325234 0 7.7671917476325234 19.752104185563894 0 0 0 0 24.279622992115037 21.506604664585211 0 21.506604664585211 -3.6623530201839003 0 0 0 0 24.082623357728153 21.743731644924623 0 21.743731644924623 17.533329434551433 0 0 0 0 37.937717579115997 -10.669551358547778 0 -10.669551358547778 62.939788755394375 0 0 0 0 16.772766976268031 17.751138983737292 0 17.751138983737292 26.473128783620268 0 0 0 0 13.198250898582046 -0.41022805739339674 0 -0.41022805739339674 16.987789703711542 0 0 0 0 2.6235946178931044 4.4150010736179865 0 4.4150010736179865 23.837397429777241 0 0 0 0 17.119062597197171 -1.6238679807548451 0 -1.6238679807548451 24.508979090858702 0 0 0 0 6.9322134464164265 6.2726934287625227 0 6.2726934287625227 46.916529007236647 0 0 0 0 15.995744477531844 9.8772368251895841 0 9.8772368251895841 -8.7768440324789481 0 0 0 0 7.4754436485964106 13.703504804766908 0 13.703504804766908 -3.8385061723997751 0 0 0 0 10.67182159369986 25.895133601834914 0 25.895133601834914 -34.111172977382012 0 0 0 0 -103.58071546631618 76.37689204782464 0 76.37689204782464 -6.6314787647606863 0 0 0 0 17.272208233676793 6.717593449944161 0 6.717593449944161 -25.060137236181617 0 0 0 0 -47.079841544342344 46.203711531937643 0 46.203711531937643 -16.994111965864249 0 0 0 0 -15.92899408887024 42.446044649757823 0 42.446044649757823 -39.121634433037798 0 0 0 0 46.945425437832455 60.272897449917991 0 60.272897449917991 -123.39621523662117 0 0 0 0 -34.380604573925666 13.612260686562422 0 13.612260686562422 -16.289418770250904 0 0 0 0 -56.644080780293734 16.103928189982639 0 16.103928189982639 -5.7465636382439698 0 0 0 0 -33.363337708877225 28.859740193547395 0 28.859740193547395 -13.247378217770347 0 0 0 0 -2.7372065822601144 25.45745227181078 0 25.45745227181078 -10.503931269721761 0 0 0 0 -5.8531351690035081 31.241588432408207 0 31.241588432408207 -18.486865426046279 0 0 0 0 16.21619527018629 28.017687697451493 0 28.017687697451493 -17.648356664447874 0 0 0 0 10.242559533828171 32.379897124776107 0 32.379897124776107 -14.470940079486354 0 0 0 0 -8.2245691208772769 32.052989833907418 0 32.052989833907418 -6.4244404228738858 0 0 0 0 -2.7959038274093473 28.156330666687609 0 28.156330666687609 -15.668802973012589 0 0 0 0 17.000852262906427 -1.0730572345216558 0 -1.0730572345216558 -2.6144379075800148 0 0 0 0 10.422018530400237 30.814518754028541 0 30.814518754028541 -1.5186228796774799 0 0 0 0 17.52095068206836 18.145524084794033 0 18.145524084794033 -3.9101959966783397 0 0 0 0 23.687357497728954 34.491423407678383 0 34.491423407678383 -11.86294849503247 0 0 0 0 22.929611658934391 31.368027043135299 0 31.368027043135299 4.6161237731321307 0 0 0 0 73.848914436217456 10.363445513342185 0 10.363445513342185 7.5524363241340779 0 0 0 0 35.768245470854708 26.853277688178707 0 26.853277688178707 5.7019267159939773 0 0 0 0 39.646010071206547 18.33842481226975 0 18.33842481226975 1.2047376570238839 0 0 0 0 109.45226731477916 -17.608731924039684 0 -17.608731924039684 7.460233796302191 0 0 0 0 39.719100496911778 10.908842541055094 0 10.908842541055094 21.333660409615959 0 0 0 0 72.446216287338757 4.6504336270846807 0 4.6504336270846807 -4.6459103956506169 0 0 0 0 164.2932685749447 12.385061054726208 0 12.385061054726208 -4.2798754186519545 0 0 0 0 41.498627068307542 18.77027285929853 0 18.77027285929853 23.191933371747837 0 0 0 0 43.81736807346897 28.233507390741124 0 28.233507390741124 18.511266159640854 0 0 0 0 35.342075221808045 27.818896302060011 0 27.818896302060011 31.94460587908884 0 0 0 0 2.2431340945648799 1.9242705525364059 0 1.9242705525364059 1.5008918351699427 0 0 0 0 3.2408496040017525 2.5681814969289256 0 2.5681814969289256 1.9094875734362644 0 0 0 0 16.520596328948159 64.587605025939411 0 64.587605025939411 -47.652204379908653 0 0 0 0 -6.3603875803528354 59.750270239928795 0 59.750270239928795 -48.30768175331832 0 0 0 0 17.21613513160446 110.68620290194511 0 110.68620290194511 21.042207439606955 0 0 0 0 31.192412161122064 18.340543464142183 0 18.340543464142183 9.1015236894416027 0 0 0 0 118.0945519625966 -92.317531012060954 0 -92.317531012060954 101.02527553190177 0 0 0 0 10.305128374286141 63.388697945657896 0 63.388697945657896 -38.698395202351094 0 0 0 0 8.3889317689754535 10.126939599274237 0 10.126939599274237 -6.7972795769483128 0 0 0 0 21.623031719329248 10.36904562445975 0 10.36904562445975 1.3933513333229979 0 0 0 0 13.967356862220868 10.298892224295948 0 10.298892224295948 -0.16925406420439382 0 0 0 0 102.08451434246672 20.032985388366797 0 20.032985388366797 -61.942404760393401 0 0 0 0 -7.3573481552302837 41.252623310746458 0 41.252623310746458 -65.710789457532485 0 0 0 0 -8.1619666036898479 44.076920989860461 0 44.076920989860461 17.59280667267392 0 0 0 0 23.538445298279413 -5.5036746492084845 0 -5.5036746492084845 -8.7644047146950363 0 0 0 0 129.1538994725488 27.883921926416406 0 27.883921926416406 -47.548490101170046 0 0 0 0 -6.3574732928100275 41.148667485653732 0 41.148667485653732 -15.999403138095659 0 0 0 0 41.694294715705837 -3.0120726726263456 0 -3.0120726726263456 -46.133437781919383 0 0 0 0 49.460164056716167 27.851571580668406 0 27.851571580668406 -35.934324910605937 0 0 0 0 50.141526774317754 30.021518308405348 0 30.021518308405348 -29.330742076292154 0 0 0 0 64.967109921624797 10.430009900278492 0 10.430009900278492 -21.17137079429267 0 0 0 0 30.216095861505892 46.971818202068789 0 46.971818202068789 -37.248324478356153 0 0 0 0 48.390620362988557 28.894293698345791 0 28.894293698345791 -37.462691990041861 0 0 0 0 21.054707610514015 43.932855025443132 0 43.932855025443132 -32.825103261096046 0 0 0 0 25.062565744636231 46.335941394740985 0 46.335941394740985 -58.072036361418213 0 0 0 0 24.562578326702351 55.816776147254132 0 55.816776147254132 -37.461104102227182 0 0 0 0 24.843101216582113 39.302487626012606 0 39.302487626012606 -31.721021025619848 0 0 0 0 54.998559902160196 42.882492657463445 0 42.882492657463445 -38.033715497694175 0 0 0 0 65.768747459631413 34.418398782871463 0 34.418398782871463 -43.025164894429508 0 0 0 0 55.114477035393406 34.814439178918263 0 34.814439178918263 -32.586563373344688 0 0 0 0 87.015087128907908 30.412325615379814 0 30.412325615379814 -35.216673816345065 0 0 0 0 39.196084191047703 52.565183090850951 0 52.565183090850951 -34.121163437179348 0 0 0 0 40.965100771762081 42.992650228531602 0 42.992650228531602 -30.170170317711381 0 0 0 0 66.135356456696172 41.576797775907835 0 41.576797775907835 -32.835477077542237 0 0 0 0 37.608469884187798 44.434907435275818 0 44.434907435275818 -30.197223394414323 0 0 0 0 39.891078097655736 46.623228789057976 0 46.623228789057976 -22.102563008043944 0 0 0 0 48.398362556952634 50.512755387208927 0 50.512755387208927 -30.901859960231377 0 0 0 0 52.189570122332952 52.829113668839454 0 52.829113668839454 -23.29159319864084 0 0 0 0 62.760585264972178 41.03241127099318 0 41.03241127099318 -26.298564965908781 0 0 0 0 48.858830643829606 46.763770484464658 0 46.763770484464658 -25.063571366554243 0 0 0 0 65.559980711924254 39.038820499363396 0 39.038820499363396 -29.782557947868554 0 0 0 0 95.520321859847172 33.907102004111948 0 33.907102004111948 -30.607891077552381 0 0 0 0 70.202228951784491 49.920703608124313 0 49.920703608124313 -21.503344438222484 0 0 0 0 71.326118756987853 40.788548177187295 0 40.788548177187295 -19.655358934278411 0 0 0 0 94.742605801340687 56.767041929979314 0 56.767041929979314 -13.188690169492475 0 0 0 0 41.404373076191405 48.518992846737092 0 48.518992846737092 -1.7924196511294213 0 0 0 0 41.434077753976453 49.030120687482849 0 49.030120687482849 -14.365407621635768 0 0 0 0 44.379252633532815 45.522544890724475 0 45.522544890724475 -18.257529599271948 0 0 0 0 66.241261765302625 55.801782529017146 0 55.801782529017146 -16.658592998910535 0 0 0 0 170.62311302293892 -25.358778681396643 0 -25.358778681396643 -19.672620622694922 0 0 0 0 108.40023903778638 -6.4217173384245143 0 -6.4217173384245143 -25.022470639941275 0 0 0 0 123.68327317188232 26.661212105042978 0 26.661212105042978 -28.296438406152447 0 0 0 0 128.06980457203463 32.927656909012512 0 32.927656909012512 -20.040427380710753 0 0 0 0 96.111870894364984 34.71873132962628 0 34.71873132962628 -30.057858837188178 0 0 0 0 129.53362506355552 12.641095821767976 0 12.641095821767976 -36.177629378275014 0 0 0 0 111.93870952200086 -8.854078634445159 0 -8.854078634445159 -26.460922082554362 0 0 0 0 91.832233553648621 -2.8076205293998555 0 -2.8076205293998555 -27.535871882862921 0 0 0 0 83.753952407409088 17.48678787850622 0 17.48678787850622 -35.235432585373132 0 0 0 0 99.68027824440469 11.419350819756346 0 11.419350819756346 -36.075667019837056 0 0 0 0 65.113538173285633 19.432624337952348 0 19.432624337952348 -30.560820732902357 0 0 0 0 83.238063714052259 9.6483520650135688 0 9.6483520650135688 -31.768803230542858 0 0 0 0 83.134630077394831 8.5975742774846822 0 8.5975742774846822 -24.508431898219897 0 0 0 0 60.13093365507666 9.3637415922767104 0 9.3637415922767104 -2.4770183410482787 0 0 0 0 92.698270162407425 -5.3677862607573843 0 -5.3677862607573843 -22.127672777516182 0 0 0 0 53.190358365798602 -26.32671675069605 0 -26.32671675069605 -2.5716824526907658 0 0 0 0 97.40434025254217 -48.403893709185013 0 -48.403893709185013 7.0137771190375133 0 0 0 0 1.9956155473810213 -2.3183360779848954 0 -2.3183360779848954 -1.4900466467820479 0 0 0 0 34.92817628427656 -1.0766811649513102 0 -1.0766811649513102 -2.8693800702185399 0 0 0 0 0.41422901264169809 -0.95116755523917007 0 -0.95116755523917007 -1.8697758103757991 0 0 0 0 -0.89651943910394039 -9.3833690203075548 0 -9.3833690203075548 -10.350974399611005 0 0 0 0 47.40069701644461 -6.2816066312025214 0 -6.2816066312025214 -1.4191844797987869 0 0 0 0 1.4180476498523404 -1.1107244526236144 0 -1.1107244526236144 -0.86922834232673907 0 0 0 0 -3.7317906238204159 -7.5498780343957606 0 -7.5498780343957606 -11.078204986720721 0 0 0 0 129.21062405098928 64.764864522605421 0 64.764864522605421 -20.275649834499745 0 0 0 0 98.044944419503736 47.865648141444581 0 47.865648141444581 3.4911395736210125 0 0 0 0 0.64584924282888068 -0.21342140435715606 0 -0.21342140435715606 -0.20898537390201355 0 0 0 0 -13.512692884534772 -11.729061502711829 0 -11.729061502711829 -70.621312663098252 0 0 0 0 -11.626519303606983 -20.556822751356322 0 -20.556822751356322 -32.027694892207364 0 0 0 0 4.6961730555049144 -17.19426100685223 0 -17.19426100685223 -44.880597928547104 0 0 0 0 17.558450643932403 7.0132438389154146 0 7.0132438389154146 -2.0949806226065735 0 0 0 0 33.681379720903351 10.590842466046979 0 10.590842466046979 -13.56916764884906 0 0 0 0 34.323941179914982 -6.3768616340930748 0 -6.3768616340930748 -5.238825332228771 0 0 0 0 19.516347061289707 17.984177086081218 0 17.984177086081218 1.604898157591947 0 0 0 0 0.11679193765196771 1.1800275250286196 0 1.1800275250286196 -1.6486362372490859 0 0 0 0 0.75426539934414905 8.8812507014517905 0 8.8812507014517905 0.054632330273761909 0 0 0 0 4.5511861105114804 -0.4212233342395848 0 -0.4212233342395848 4.7154463210490576 0 0 0 0 -16.698829265980748 3.0864672207442254 0 3.0864672207442254 -0.94240061953178156 0 0 0 0 2.7159157872010837 1.7509354555329537 0 1.7509354555329537 -19.578831273969627 0 0 0 0 11.490784101730242 14.625131229687895 0 14.625131229687895 -0.94892787278604374 0 0 0 0 13.46368396696198 13.559279453652948 0 13.559279453652948 -23.37099023250488 0 0 0 0 0.23352978075308783 7.3869734990589961 0 7.3869734990589961 -4.2942697756052439 0 0 0 0 1.8333625939845035 1.3445657390344898 0 1.3445657390344898 -1.0095226194934064 0 0 0 0 -0.18451056023968704 6.2834752656547437 0 6.2834752656547437 1.4424917733244911 0 0 0 0 10.743196397834254 9.3245880965724837 0 9.3245880965724837 -14.694127998813769 0 0 0 0 12.458151553511925 -5.9760407721687443 0 -5.9760407721687443 -33.849908539085618 0 0 0 0 2.9055568699687289 -1.6943745581711127 0 -1.6943745581711127 -13.528075962294574 0 0 0 0 4.3987179943687806 -0.6786783479103633 0 -0.6786783479103633 -6.074231684548522 0 0 0 0 0.58486510142765269 -2.5889806166739184 0 -2.5889806166739184 -6.185883255865976 0 0 0 0 0.71732007697298705 -2.1246503294158998 0 -2.1246503294158998 -5.4689603802455444 0 0 0 0 1.8605460974017589 -0.90887892225241274 0 -0.90887892225241274 -4.3934260894306885 0 0 0 0 1.6412781671221737 -1.3300659818535436 0 -1.3300659818535436 -3.0624490559158097 0 0 0 0 2.0166401975184272 -1.5566287547603679 0 -1.5566287547603679 -3.1089025128137564 0 0 0 0 2.3429603735785349 -2.2353620630815385 0 -2.2353620630815385 -4.7246820812861188 0 0 0 0 2.8389791861918638 -8.2665571703116711 0 -8.2665571703116711 -6.2417849543646753 0 0 0 0 -4.1066280208979151 -6.1572604086320837 0 -6.1572604086320837 -5.2000667587622047 0 0 0 0 0.4143417259438138 0.83774334668851225 0 0.83774334668851225 -2.7205311958368839 0 0 0 0 -6.2196616381479544 -5.551787833239473 0 -5.551787833239473 -7.0962892894807226 0 0 0 0 4.6510256858655339 -6.1001912554014552 0 -6.1001912554014552 2.0373681946321085 0 0 0 0 13.236789169306576 2.7573925188053181 0 2.7573925188053181 1.9980605546649812 0 0 0 0 9.4083703473916103 -7.6115519020132751 0 -7.6115519020132751 1.551591527647588 0 0 0 0 5.9040220734241302 -3.0822247924477892 0 -3.0822247924477892 -4.2836296567024874 0 0 0 0 30.880306400017616 -3.778868364571025 0 -3.778868364571025 2.8786242118067094 0 0 0 0 20.669892559355503 3.7693305857476389 0 3.7693305857476389 0.011722969530637783 0 0 0 0 29.369107648184581 7.6051613631150303 0 7.6051613631150303 4.0763528704861614 0 0 0 0 20.239457363275505 -3.1054438258696564 0 -3.1054438258696564 3.5868527528341474 0 0 0 0 32.132314258411498 13.433777433272553 0 13.433777433272553 3.1108242546099696 0 0 0 0 20.432665743333928 12.942618630062952 0 12.942618630062952 24.991432466318884 0 0 0 0 27.108716348368034 16.372712861799869 0 16.372712861799869 12.606801152779099 0 0 0 0 15.700520361013332 -3.9708380133218952 0 -3.9708380133218952 -4.1583591697478823 0 0 0 0 55.01785365269825 2.3957256915101652 0 2.3957256915101652 -4.4024236015228553 0 0 0 0 -16.58325820077215 26.668740880823538 0 26.668740880823538 12.039039423789745 0 0 0 0 0.025241620485914495 0.30871029796400151 0 0.30871029796400151 0.78347574194867597 0 0 0 0 10.97794612825237 30.924448239895924 0 30.924448239895924 7.7884883607327424 0 0 0 0 49.788951642749453 42.078633959282229 0 42.078633959282229 -2.9062611676256438 0 0 0 0 65.908326773835142 -4.9115789186350867 0 -4.9115789186350867 -61.391291003035349 0 0 0 0 -2.1433368164734929 19.520600824155558 0 19.520600824155558 12.784570095439221 0 0 0 0 15.248535740385705 10.932811847467065 0 10.932811847467065 -25.379381422254482 0 0 0 0 7.2546224169345805 41.379427314074292 0 41.379427314074292 18.232925939827965 0 0 0 0 23.854709429282593 42.206877661076419 0 42.206877661076419 16.660450999464501 0 0 0 0 9.7212541374397006 9.5082811241013232 0 9.5082811241013232 9.2738568239969936 0 0 0 0 1.1354925370214914 31.222249521313358 0 31.222249521313358 -46.126181525944048 0 0 0 0 14.135136617380013 6.1580256358620193 0 6.1580256358620193 2.013209103632764 0 0 0 0 11.678127196399998 2.4248315639365856 0 2.4248315639365856 0.96290973152840964 0 0 0 0 1.3939740482383058 8.5702277662808228 0 8.5702277662808228 6.8963340506513759 0 0 0 0 4.098900411268815 0.46317634300212163 0 0.46317634300212163 0.31917779517989819 0 0 0 0 27.861404389856034 -29.75525528316939 0 -29.75525528316939 -63.079838259988961 0 0 0 0 12.232592770596966 6.0965174645248794 0 6.0965174645248794 2.7282635631115681 0 0 0 0 -8.0124232754460536 -1.4510976603824588 0 -1.4510976603824588 19.535055497646681 0 0 0 0 -10.659402181932819 5.2455613924888667 0 5.2455613924888667 5.4656625989307486 0 0 0 0 23.71340280166271 9.6526777735434486 0 9.6526777735434486 0.7956546562569673 0 0 0 0 0.91794275099528022 24.934759696510014 0 24.934759696510014 -11.16923181453933 0 0 0 0 13.230589456470625 11.103665146896788 0 11.103665146896788 -0.055870454837304351 0 0 0 0 11.06498473395186 -0.34013690193899038 0 -0.34013690193899038 12.131463840552328 0 0 0 0 13.036666829486421 11.563810243384125 0 11.563810243384125 -0.15337285201553641 0 0 0 0 12.981513161594194 11.605094976531973 0 11.605094976531973 0.49380119414968249 0 0 0 0 25.296093550990918 5.7674124588586437 0 5.7674124588586437 -1.3993374469682749 0 0 0 0 18.672196917923429 4.1617995792737474 0 4.1617995792737474 7.2869434240337796 0 0 0 0 19.536410516038814 4.5900171297188024 0 4.5900171297188024 2.379710568437531 0 0 0 0 15.937240939922049 14.868096807174652 0 14.868096807174652 -5.2545063872604487 0 0 0 0 18.877455897244204 8.238101405810319 0 8.238101405810319 -0.98858322690363964 0 0 0 0 22.625980726767011 10.977908532005472 0 10.977908532005472 -3.2659633864884654 0 0 0 0 11.000926681994414 5.4598720104148626 0 5.4598720104148626 -2.8332082179399252 0 0 0 0 24.504396375974466 9.7439386638599785 0 9.7439386638599785 -4.3904791117317927 0 0 0 0 19.758430213856627 4.397673842750919 0 4.397673842750919 -4.6504961642904163 0 0 0 0 12.607244943577825 1.5528625894349943 0 1.5528625894349943 -16.396223976892543 0 0 0 0 20.328377215031651 10.677163014925895 0 10.677163014925895 -2.9244425738260134 0 0 0 0 16.158354361027833 5.2387349064608255 0 5.2387349064608255 1.2828282895225469 0 0 0 0 16.545001934384345 9.0061917946445078 0 9.0061917946445078 0.091543918888760345 0 0 0 0 13.278192578640301 11.118208224484079 0 11.118208224484079 -0.90010275313795773 0 0 0 0 1.5631536312891114 2.2710604829521515 0 2.2710604829521515 0.37061681134658997 0 0 0 0 13.24091251928985 5.4832872951276386 0 5.4832872951276386 -16.24999042164211 0 0 0 0 10.011650578100671 37.162360529504596 0 37.162360529504596 7.0261444551417753 0 0 0 0 -6.5651493015739106 17.019004200748498 0 17.019004200748498 -5.5004788170504071 0 0 0 0 14.939664749137592 1.0236621836347695 0 1.0236621836347695 -9.1517282127258568 0 0 0 0 27.680576849867066 2.4796910067175304 0 2.4796910067175304 -11.157453128954785 0 0 0 0 3.4059899361147252 5.8798417264400058 0 5.8798417264400058 -1.1610306860357689 0 0 0 0 -2.7254960074378687 4.6294716753529883 0 4.6294716753529883 7.6223086039822192 0 0 0 0 14.401660457053367 8.314335503619418 0 8.314335503619418 -5.4729241904406081 0 0 0 0 7.0148725754552288 11.121901492736924 0 11.121901492736924 2.7148588292093336 0 0 0 0 18.253993634481237 5.4101820052697462 0 5.4101820052697462 -4.2010298701810918 0 0 0 0 12.094144867591339 9.7705864086394136 0 9.7705864086394136 0.59278708489652776 0 0 0 0 8.0410161987756368 8.5658257552457133 0 8.5658257552457133 -3.1500007703995463 0 0 0 0 3.8045942727621878 8.0055008548863498 0 8.0055008548863498 -2.27610889555217 0 0 0 0 -6.9119086131831864 -3.6445628269420922 0 -3.6445628269420922 -5.9667596905997016 0 0 0 0 15.782228664153365 5.8212785185436644 0 5.8212785185436644 1.2461970800561111 0 0 0 0 14.604432673164411 16.339884573048948 0 16.339884573048948 12.491213748680821 0 0 0 0 81.880918357121118 36.65078073110908 0 36.65078073110908 -23.431981909792967 0 0 0 0 0.080105916235666541 0.82122345347809933 0 0.82122345347809933 -1.1020181951930113 0 0 0 0 65.601230323540221 24.663742521868244 0 24.663742521868244 -7.5788344866336956 0 0 0 0 -11.357868941791821 13.712625448013569 0 13.712625448013569 -7.397670244283006 0 0 0 0 18.302137508722808 -30.574015448918999 0 -30.574015448918999 -4.0245727177480148 0 0 0 0 14.026690093962245 5.5126779637442951 0 5.5126779637442951 2.7234677809707377 0 0 0 0 2.0810486183472676 4.5397493819779129 0 4.5397493819779129 -5.4241487227462812 0 0 0 0 -35.428864162298851 3.9034287573716711 0 3.9034287573716711 10.26094982193456 0 0 0 0 4.0298908904470636 -0.99335973978738323 0 -0.99335973978738323 2.0172810432056307 0 0 0 0 -8.7108199950162088 8.3947125673561231 0 8.3947125673561231 11.005475514711975 0 0 0 0 18.564927952771541 0.075385614833521686 0 0.075385614833521686 3.5109493140987524 0 0 0 0 19.322628639600225 11.832901454921569 0 11.832901454921569 -0.54126022135210405 0 0 0 0 15.999271454511472 2.2181942986690046 0 2.2181942986690046 5.3765200711264924 0 0 0 0 17.335572250332916 13.433512168777725 0 13.433512168777725 -9.6414383842147799 0 0 0 0 8.0015958998927772 10.090560787311652 0 10.090560787311652 0.47158894384131433 0 0 0 0 20.221429735545797 5.8074822767804477 0 5.8074822767804477 -3.3390660815945283 0 0 0 0 18.342935170549026 9.9770278698048287 0 9.9770278698048287 -3.3714667050810476 0 0 0 0 14.131127768407282 8.1955661695667033 0 8.1955661695667033 1.4278391568919577 0 0 0 0 3.0799643731033406 5.4781107829266062 0 5.4781107829266062 2.8537815360618914 0 0 0 0 27.370270179148065 8.1367650080687781 0 8.1367650080687781 2.8259941835588052 0 0 0 0 40.710431219894417 4.0015524880906668 0 4.0015524880906668 -2.9690359111248199 0 0 0 0 25.090744556495338 1.4418121029255531 0 1.4418121029255531 -1.5860641928045993 0 0 0 0 25.279632979203598 1.2646702884542833 0 1.2646702884542833 -1.4661777767331046 0 0 0 0 20.282527812205444 -4.0844788234346936 0 -4.0844788234346936 -2.8372396172763956 0 0 0 0 32.118019144454593 -10.152341844087658 0 -10.152341844087658 38.965378424155517 0 0 0 0 -0.1712060153321211 -1.4971847128748976 0 -1.4971847128748976 4.6754403975584511 0 0 0 0 1.7567956875718664 -3.6905101879195854 0 -3.6905101879195854 3.7751707129855276 0 0 0 0 91.585089402578888 -15.854853075167386 0 -15.854853075167386 -34.222400203728057 0 0 0 0 0.3409543372894408 -1.1609428533400745 0 -1.1609428533400745 3.5027940852886834 0 0 0 0 -12.155893794900294 -18.785833173012414 0 -18.785833173012414 -3.8594665572494478 0 0 0 0 207.33139623326133 -21.864818474083904 0 -21.864818474083904 -5.8613413071245759 0 0 0 0 166.45221752912767 -76.545738265301253 0 -76.545738265301253 75.654821721353159 0 0 0 0 235.45379217430309 -82.676906960053415 0 -82.676906960053415 43.161804436222326 0 0 0 0 202.51893064410251 9.5177919578444872 0 9.5177919578444872 65.754861074634675 0 0 0 0 85.267072621922125 30.23453956498895 0 30.23453956498895 31.074190509699896 0 0 0 0 194.76574984633771 -17.98768283894541 0 -17.98768283894541 0.67579786305808653 0 0 0 0 93.183115716674365 -27.691620321569545 0 -27.691620321569545 18.60809068852754 0 0 0 0 208.90370409585012 -19.179740187439563 0 -19.179740187439563 1.2624299922602233 0 0 0 0 202.34876294351125 -32.655866883709649 0 -32.655866883709649 -3.4350506025310779 0 0 0 0 191.22746248482144 -51.26690639401005 0 -51.26690639401005 -1.9103588469063766 0 0 0 0 191.60731418362411 -45.71472974554888 0 -45.71472974554888 12.230474313296554 0 0 0 0 125.14073522241961 -10.168271961744779 0 -10.168271961744779 10.340651571243995 0 0 0 0 122.56906920067559 -18.953059687715495 0 -18.953059687715495 18.822610199434166 0 0 0 0 42.214548666233895 13.597638253980904 0 13.597638253980904 40.374401676854291 0 0 0 0 62.474729294597637 -16.209975070330529 0 -16.209975070330529 48.410043673031055 0 0 0 0 101.10216578849941 -1.5129829587446579 0 -1.5129829587446579 23.15552741322972 0 0 0 0 148.95379586215131 22.977678229616458 0 22.977678229616458 -24.002950211409257 0 0 0 0 83.749264469232003 -0.54063758233112935 0 -0.54063758233112935 29.656478003528377 0 0 0 0 79.134447267220821 16.948626314023898 0 16.948626314023898 -32.618963298711321 0 0 0 0 32.414694598010101 -7.9853057613455576 0 -7.9853057613455576 -17.014795238207398 0 0 0 0 42.09691932921487 19.005749659649325 0 19.005749659649325 45.688069217427142 0 0 0 0 -1.0762848193752461 -1.3149216902345238 0 -1.3149216902345238 1.7045993262364256 0 0 0 0 1.1994856275834724 -0.14380019496722696 0 -0.14380019496722696 0.6416592643462955 0 0 0 0 10.799619140729789 5.8401520151158692 0 5.8401520151158692 1.944637961656583 0 0 0 0 14.002566150098573 17.148908491987186 0 17.148908491987186 -14.389073670066864 0 0 0 0 42.334959090890152 15.102094720086285 0 15.102094720086285 58.831593870291954 0 0 0 0 -4.4532311712828232 35.914673681504155 0 35.914673681504155 50.227638493337963 0 0 0 0 -0.97019994007132482 -34.623555495379208 0 -34.623555495379208 -30.143510780896349 0 0 0 0 32.187241334686405 130.48086884321617 0 130.48086884321617 2.2879744109852709 0 0 0 0 15.913521421553469 4.0552963926684384 0 4.0552963926684384 0.39091919402428466 0 0 0 0 -49.318444517804892 89.184370096135126 0 89.184370096135126 -185.51402984915978 0 0 0 0 -73.716758443733852 15.999082609575225 0 15.999082609575225 48.233523618550862 0 0 0 0 75.946701555367326 -68.242987404079031 0 -68.242987404079031 36.78928822552507 0 0 0 0 -57.135233581005195 -15.923421236270684 0 -15.923421236270684 70.866559849391024 0 0 0 0 80.826811170263682 -59.873899544932783 0 -59.873899544932783 50.116166245859972 0 0 0 0 82.691855804005172 -53.280518031775273 0 -53.280518031775273 39.06743155950619 0 0 0 0 174.39711595467816 -84.420730679941187 0 -84.420730679941187 33.89142585490481 0 0 0 0 -22.40908714080615 -53.052065285654436 0 -53.052065285654436 70.138670383346835 0 0 0 0 77.123788846365642 -21.796332425353285 0 -21.796332425353285 49.596908057334872 0 0 0 0 386.58171774553193 -185.4758316175394 0 -185.4758316175394 28.4611908903006 0 0 0 0 1.9737419864869423 0.64810137344272079 0 0.64810137344272079 -0.16051522515649519 0 0 0 0 298.75266781905157 -72.230088539076462 0 -72.230088539076462 -59.068971753962956 0 0 0 0 422.86551488121768 18.664755497158126 0 18.664755497158126 -40.44818163712057 0 0 0 0 277.25920218764441 -121.02442620243301 0 -121.02442620243301 -9.5070535037441708 0 0 0 0 125.25031182876046 14.835698307407014 0 14.835698307407014 -68.022715746648203 0 0 0 0 297.92156326242548 -31.491107204360873 0 -31.491107204360873 -34.158159499099483 0 0 0 0 108.44937115870744 -85.318059472334113 0 -85.318059472334113 0.42695680944962078 0 0 0 0 200.27667864824161 -156.84725642748134 0 -156.84725642748134 72.649529130267723 0 0 0 0 430.12356943394843 -129.65063257096753 0 -129.65063257096753 -2.0208353815629136 0 0 0 0 232.80045474812505 -105.20753489156529 0 -105.20753489156529 -0.10309119803750377 0 0 0 0 32.280460076974123 -6.0716904826841187 0 -6.0716904826841187 -14.616573984116599 0 0 0 0 -66.378067230177294 -19.55975862363205 0 -19.55975862363205 39.79784632212619 0 0 0 0 0.26868144815540873 -0.39905813348734398 0 -0.39905813348734398 1.3210373895856176 0 0 0 0 42.837199316541955 -91.194687175786839 0 -91.194687175786839 86.273148524700687 0 0 0 0 40.358695829768749 -27.387432197895944 0 -27.387432197895944 -0.51821572045838593 0 0 0 0 145.46324902321794 -70.636301975170795 0 -70.636301975170795 0.28830024422721579 0 0 0 0 78.292588839047312 34.830452286114799 0 34.830452286114799 -4.4837765389372635 0 0 0 0 92.350447642565996 -18.007440777531144 0 -18.007440777531144 -2.8574788942513578 0 0 0 0 27.877231824764749 -1.2497358422205025 0 -1.2497358422205025 -4.3126899763410051 0 0 0 0 55.448937717963418 12.676693631980243 0 12.676693631980243 -7.8000113284444978 0 0 0 0 37.136956325812207 20.312669678932565 0 20.312669678932565 -5.9316946386032328 0 0 0 0 -1.0153717496339993 5.3733914031642769 0 5.3733914031642769 3.8146731913863832 0 0 0 0 5.118583977837261 -1.7451164418474718 0 -1.7451164418474718 1.4093394957089913 0 0 0 0 36.182287549934699 18.617619388842826 0 18.617619388842826 11.116655395244663 0 0 0 0 19.100121122144628 -8.380619319204925 0 -8.380619319204925 -6.5933649580485962 0 0 0 0 33.764589046753827 -4.6518333183980758 0 -4.6518333183980758 -11.995824004824499 0 0 0 0 83.37694166538131 -37.622379983588814 0 -37.622379983588814 90.102708276468491 0 0 0 0 35.922573759096849 54.879543786497329 0 54.879543786497329 -51.614673712133424 0 0 0 0 -1.4144551645836927 -0.4621888655980797 0 -0.4621888655980797 0.43468620856076279 0 0 0 0 142.95086500614707 -57.67949326797978 0 -57.67949326797978 38.407028214892378 0 0 0 0 25.649391519473284 45.887274574777507 0 45.887274574777507 31.203897036648186 0 0 0 0 2.5419758560324297 6.0497782468614929 0 6.0497782468614929 3.2956003292224634 0 0 0 0 40.02478982104185 -8.4253155206880876 0 -8.4253155206880876 -8.0664443673376809 0 0 0 0 1.5386980878080365 -0.058562755010612477 0 -0.058562755010612477 0.57698350219586625 0 0 0 0 20.493773944959685 7.0196820744097401 0 7.0196820744097401 -1.0045488339255257 0 0 0 0 84.582370623837051 -15.698098057903133 0 -15.698098057903133 45.63094480373087 0 0 0 0 3.6130873483925825 9.3044655413097459 0 9.3044655413097459 10.155710965045863 0 0 0 0 3.6718762578916824 5.838569030384491 0 5.838569030384491 2.3915946859549515 0 0 0 0 0.21340029917129755 -0.13135825276908975 0 -0.13135825276908975 0.63386007679386847 0 0 0 0 21.787887793667323 -57.762078132337962 0 -57.762078132337962 72.491831910533222 0 0 0 0 224.13978845282691 13.847691128716683 0 13.847691128716683 -27.153353498404527 0 0 0 0 137.24717150746801 73.076573069893016 0 73.076573069893016 -10.199291373107599 0 0 0 0 125.94616112395306 -7.6622240688964851 0 -7.6622240688964851 17.615489982241279 0 0 0 0 0.54796326251363325 -0.77206626077517626 0 -0.77206626077517626 1.2341731526842752 0 0 0 0 131.68447907271911 -24.329856186219786 0 -24.329856186219786 81.933581847470293 0 0 0 0 26.181228143108456 14.292062065343035 0 14.292062065343035 1.8435501450758736 0 0 0 0 0.15577798240423846 -0.41036781672764278 0 -0.41036781672764278 0.37771194817224407 0 0 0 0 11.633315371713252 -3.3154139131310725 0 -3.3154139131310725 -2.651753358386113 0 0 0 0 -26.699677573647932 13.91709300396758 0 13.91709300396758 -12.276734806223772 0 0 0 0 -21.30380348561448 -17.895692546019745 0 -17.895692546019745 47.817006837427812 0 0 0 0 21.437749966193223 -21.526383173453041 0 -21.526383173453041 8.2410470149546882 0 0 0 0 -1.0310639829876891 -23.987499358619161 0 -23.987499358619161 13.021502467598793 0 0 0 0 39.004960170503182 -27.470764395227832 0 -27.470764395227832 -0.22388536461471631 0 0 0 0 -36.594971992903083 -3.7702913039754549 0 -3.7702913039754549 17.637733017000301 0 0 0 0 -19.095667182293255 -19.302712948418275 0 -19.302712948418275 4.7817252949263889 0 0 0 0 2.6273347733953969 0.57382871731712726 0 0.57382871731712726 0.1561820006849195 0 0 0 0 -0.68542529084515991 -17.400500244083219 0 -17.400500244083219 7.9552294626378455 0 0 0 0 -3.6513766612770269 -9.1187153421987688 0 -9.1187153421987688 6.4941400109028109 0 0 0 0 -6.6341388439323055 8.0902837671287671 0 8.0902837671287671 8.0153495846391252 0 0 0 0 15.75593362255313 5.3595643313326491 0 5.3595643313326491 1.2241787993604021 0 0 0 0 25.991120280434188 12.154209194835744 0 12.154209194835744 4.0693870017883 0 0 0 0 11.537907842830464 1.5103566702897524 0 1.5103566702897524 -1.9680809804772252 0 0 0 0 19.804822692916787 2.8393230744699167 0 2.8393230744699167 -2.3254309967678637 0 0 0 0 9.9379441993187356 5.9627324463648961 0 5.9627324463648961 3.4846097616218685 0 0 0 0 26.040532708828323 2.9515201503090438 0 2.9515201503090438 -10.414459547587512 0 0 0 0 22.483490446236829 -5.6528377883282701 0 -5.6528377883282701 -3.1776649356411326 0 0 0 0 10.527027325246308 -11.434188524828869 0 -11.434188524828869 -4.1249010385599831 0 0 0 0 38.294864740546473 -3.9737872219422457 0 -3.9737872219422457 -15.944961239992381 0 0 0 0 30.145284532431106 -1.6210748825682231 0 -1.6210748825682231 -9.4199665190106998 0 0 0 0 26.535515905752263 12.306671866828697 0 12.306671866828697 2.6555688063028979 0 0 0 0 45.188277418830239 32.374107716522801 0 32.374107716522801 -54.423700702170663 0 0 0 0 83.43627719941378 28.757374181843197 0 28.757374181843197 -7.24769679401129 0 0 0 0 37.773634673289052 0.21006170426284143 0 0.21006170426284143 -24.324993190263456 0 0 0 0 93.838489087647758 -43.520903188790555 0 -43.520903188790555 -5.2695276872189538 0 0 0 0 40.801898960497056 -11.921922930064625 0 -11.921922930064625 -24.096008804880341 0 0 0 0 26.324092652090258 -35.718758744169222 0 -35.718758744169222 41.766499317443504 0 0 0 0 55.288910987197596 -26.862206080817884 0 -26.862206080817884 37.423502427012977 0 0 0 0 246.21402700166982 49.075770862512741 0 49.075770862512741 35.281952126892179 0 0 0 0 89.816379106370732 -4.7657437063847965 0 -4.7657437063847965 16.760436221823738 0 0 0 0 -58.84781890184604 -187.77242850442639 0 -187.77242850442639 -12.531521165302763 0 0 0 0 129.54543532229945 -116.90770330235205 0 -116.90770330235205 139.32299377485606 0 0 0 0 3.4924052406668125 60.194052644365406 0 60.194052644365406 40.283590601422134 0 0 0 0 -7.130040497846494 31.802057470225179 0 31.802057470225179 226.19004253980708 0 0 0 0 54.385779031522475 84.052531901397771 0 84.052531901397771 -29.696597163099923 0 0 0 0 57.354771220809198 -87.52898785738185 0 -87.52898785738185 -211.68036157849707 0 0 0 0 270.41012129240698 117.20919642955285 0 117.20919642955285 -91.412237288407056 0 0 0 0 7.0184965333446314 -2.4007518595354647 0 -2.4007518595354647 0.62804995485404047 0 0 0 0 50.481414721759393 29.689155124966838 0 29.689155124966838 27.548054067588328 0 0 0 0 52.267360939904393 26.465382702681978 0 26.465382702681978 10.644506740024207 0 0 0 0 61.702599638911124 17.238968885926518 0 17.238968885926518 -0.012236284320699748 0 0 0 0 28.682636002147774 9.5301350270586074 0 9.5301350270586074 0.015803161177735711 0 0 0 0 24.476516205393636 7.2394069993878389 0 7.2394069993878389 8.570924465239786 0 0 0 0 20.828105288353981 12.381740999976632 0 12.381740999976632 17.614707621972869 0 0 0 0 10.182062136051428 -2.4410142723396788 0 -2.4410142723396788 0.17673336125397715 0 0 0 0 13.491640467153047 22.578556779947832 0 22.578556779947832 -96.309065240537279 0 0 0 0 2.3212169705209007 -0.0059251209888486756 0 -0.0059251209888486756 -0.26940220832317902 0 0 0 0 15.921675381221576 6.3390493243960577 0 6.3390493243960577 9.736491865510061 0 0 0 0 17.702025288832374 11.304581722715314 0 11.304581722715314 9.741132162518868 0 0 0 0 3.3648176346505352 1.7220824375615646 0 1.7220824375615646 7.5164282329983791 0 0 0 0 17.597561765892351 8.9244330737665365 0 8.9244330737665365 -0.80670451153624612 0 0 0 0 1.3769512948347256 8.6460219554549163 0 8.6460219554549163 -1.0686558197675562 0 0 0 0 8.6074125075938355 5.5677649755641472 0 5.5677649755641472 0.0065194693810701762 0 0 0 0 8.7016685295275238 1.6476800773502625 0 1.6476800773502625 -3.7741154834641977 0 0 0 0 30.143506130727474 -26.151437409513452 0 -26.151437409513452 -12.072575975813882 0 0 0 0 1.955448091259143 0.3500983916796514 0 0.3500983916796514 0.096461710295494815 0 0 0 0 29.448522627670172 34.244426334413696 0 34.244426334413696 -3.4545904031322343 0 0 0 0 -27.009146860182227 -13.146036744681311 0 -13.146036744681311 8.8084036713380947 0 0 0 0 -8.3888892541726818 16.664100447298722 0 16.664100447298722 14.802466944829092 0 0 0 0 -30.499830242115422 3.8095759994086364 0 3.8095759994086364 19.506048258756806 0 0 0 0 40.257377183363133 -29.928815251061572 0 -29.928815251061572 -7.5252982395483912 0 0 0 0 -18.174710490362486 16.803261747768261 0 16.803261747768261 22.766263363778364 0 0 0 0 -0.24560073218708567 0.089640576696282892 0 0.089640576696282892 0.22417705253672512 0 0 0 0 4.7484988627893827 4.8365425353030531 0 4.8365425353030531 -0.23485668360145998 0 0 0 0 2.5241887630327255 -9.3770852433156264 0 -9.3770852433156264 -24.708738832041135 0 0 0 0 -8.244844558872046 47.876909391567629 0 47.876909391567629 -18.266775350030798 0 0 0 0 -14.702006376892314 43.862768569306539 0 43.862768569306539 -20.646775142774459 0 0 0 0 -9.6253017596463906 41.647454721605186 0 41.647454721605186 24.507571246891814 0 0 0 0 -50.456295610249072 1.1134838269497322 0 1.1134838269497322 27.879047520287827 0 0 0 0 -14.01168432594568 -17.661901344713556 0 -17.661901344713556 106.70085007456436 0 0 0 0 -22.810465246380772 14.346102120837429 0 14.346102120837429 24.440759965434296 0 0 0 0 3.4454523056274979 5.5446278144516583 0 5.5446278144516583 1.2519163564279592 0 0 0 0 2.4903205022416088 0.57383288870036608 0 0.57383288870036608 0.52987519937107541 0 0 0 0 41.148776156274835 17.796148732953252 0 17.796148732953252 -0.72267113436529939 0 0 0 0 -70.254175413676421 30.304081036937191 0 30.304081036937191 28.178127961132731 0 0 0 0 -2.1940309155779687 14.095032586750868 0 14.095032586750868 8.3458725093958392 0 0 0 0 28.489889065764146 -4.6681621956226849 0 -4.6681621956226849 -8.5514292278312425 0 0 0 0 9.4553473878331715 14.263249014716951 0 14.263249014716951 -11.560365882290625 0 0 0 0 8.4292850685133089 6.307262185389388 0 6.307262185389388 6.2206632983626449 0 0 0 0 152.23971763356531 16.101113623250541 0 16.101113623250541 -4.8369360087763766 0 0 0 0 106.89559324423681 -12.573300719488998 0 -12.573300719488998 8.9241131240149656 0 0 0 0 0.19068267025773267 -0.10432343993807081 0 -0.10432343993807081 0.098110028144087896 0 0 0 0 151.93728531040688 20.10178279848104 0 20.10178279848104 -7.9147233604549605 0 0 0 0 42.702218427128173 7.5944885019556114 0 7.5944885019556114 -8.9723438222403189 0 0 0 0 20.872682617256942 8.0498619284958934 0 8.0498619284958934 6.8327879607063409 0 0 0 0 8.0342516260207049 4.5436405097252219 0 4.5436405097252219 1.7269811894180123 0 0 0 0 13.603001606286853 -2.3902702709290793 0 -2.3902702709290793 -5.2861021267394506 0 0 0 0 0.90901207889328361 37.753202272021802 0 37.753202272021802 33.573234418185507 0 0 0 0 41.172891007052385 1.0057966227646915 0 1.0057966227646915 6.896674622663352 0 0 0 0 147.23627112217218 43.270433691268288 0 43.270433691268288 -5.5740062608461898 0 0 0 0 7.4584415218560025 48.923909413188809 0 48.923909413188809 34.177176393611646 0 0 0 0 -34.946135691323434 5.1255682856453113 0 5.1255682856453113 38.706292765361319 0 0 0 0 5.0302956754544539 -9.502596936683684 0 -9.502596936683684 0.49131920225169967 0 0 0 0 0.6227665534595701 -0.2422098159341175 0 -0.2422098159341175 0.065982353401003779 0 0 0 0 260.76051252224715 4.1668351504392849 0 4.1668351504392849 0.01201906044140841 0 0 0 0 173.6749060262664 55.885864338602111 0 55.885864338602111 22.219357473607996 0 0 0 0 266.80947212170577 -31.026493958293681 0 -31.026493958293681 32.654317719163046 0 0 0 0 281.45777627751158 -39.90750560307503 0 -39.90750560307503 -9.2144374135476994 0 0 0 0 281.48759761118708 -39.800198605081562 0 -39.800198605081562 -11.68337337421184 0 0 0 0 140.7669363246473 -29.791289729860157 0 -29.791289729860157 17.49454703819849 0 0 0 0 285.90683113579144 -34.122476615461309 0 -34.122476615461309 -18.862001385917829 0 0 0 0 287.70159998783879 -16.280079284868016 0 -16.280079284868016 8.4449740753083091 0 0 0 0 223.52535041365627 -44.345939249459789 0 -44.345939249459789 39.010818181562037 0 0 0 0 286.84203553827683 -30.812129987983937 0 -30.812129987983937 -10.853153929935715 0 0 0 0 267.53309624999292 -32.611889238200476 0 -32.611889238200476 0.015995690796663031 0 0 0 0 223.22019265989366 -28.758970741162404 0 -28.758970741162404 6.9369782365831796 0 0 0 0 209.7534058012352 -7.3153579285323467 0 -7.3153579285323467 -10.619415382628461 0 0 0 0 225.08940307709418 -35.533326050691869 0 -35.533326050691869 -2.5491727047876793 0 0 0 0 173.61196475113684 29.373830022180357 0 29.373830022180357 -14.436441962223398 0 0 0 0 139.52471464312111 -49.23448066010431 0 -49.23448066010431 63.324931401444587 0 0 0 0 365.03451902472261 -11.134976773524897 0 -11.134976773524897 -52.67657118356027 0 0 0 0 0.51205666547742723 -0.51916455866860645 0 -0.51916455866860645 0.63776741441588713 0 0 0 0 323.58045848141046 -44.762181337411334 0 -44.762181337411334 4.9401295475951486 0 0 0 0 343.85152831730375 -23.355612398427922 0 -23.355612398427922 -35.529857215462982 0 0 0 0 215.88029541076321 102.74523499205327 0 102.74523499205327 116.28820366539765 0 0 0 0 322.85308200554391 41.586741144260806 0 41.586741144260806 -68.290388790512168 0 0 0 0 88.504286703326216 200.15585316369896 0 200.15585316369896 -112.63720827429199 0 0 0 0 12.021452219341882 -7.7523136504655668 0 -7.7523136504655668 -10.279659751739587 0 0 0 0 18.236034501125687 -17.508560913600604 0 -17.508560913600604 -16.871493098693122 0 0 0 0 10.95998522660193 -8.2379607599016822 0 -8.2379607599016822 9.8041034018478967 0 0 0 0 142.3357171454345 -79.076077563796275 0 -79.076077563796275 -8.9277116053257259 0 0 0 0 8.7110944171229931 2.4889908156343381 0 2.4889908156343381 -0.77354760718822391 0 0 0 0 17.511113078482595 4.4994615894033814 0 4.4994615894033814 -28.026245764910641 0 0 0 0 14.518056059318951 1.4056404862859608 0 1.4056404862859608 -7.8196216717578864 0 0 0 0 10.616757597935361 -0.79622894884661832 0 -0.79622894884661832 -5.7335314297398243 0 0 0 0 16.823140990141837 7.0129700100043237 0 7.0129700100043237 -0.019044389561258868 0 0 0 0 3.2250069752327342 2.3146493896815556 0 2.3146493896815556 0.53488852337061488 0 0 0 0 -16.547160796631943 -25.4279295083291 0 -25.4279295083291 -15.135709363076785 0 0 0 0 10.016829254680488 -6.2763610735944297 0 -6.2763610735944297 -12.169849604891425 0 0 0 0 26.217067721390777 -0.74757048889796351 0 -0.74757048889796351 -15.280704669230659 0 0 0 0 14.2606252456535 -8.0600220834932088 0 -8.0600220834932088 -15.011860578033406 0 0 0 0 8.9700750615593279 -11.573381292188174 0 -11.573381292188174 -12.189369435247361 0 0 0 0 14.219043549012895 -0.92502304213013531 0 -0.92502304213013531 -2.4696232916321605 0 0 0 0 7.0082076871705681 -2.8392851423604739 0 -2.8392851423604739 -1.3280180478354076 0 0 0 0 3.1729400168726478 -1.6145686007964386 0 -1.6145686007964386 -2.7755022340218671 0 0 0 0 14.844811069452589 -1.626633785452583 0 -1.626633785452583 -0.69345218902844863 0 0 0 0 8.057687101263582 -2.3007873190360897 0 -2.3007873190360897 0.79756474944701949 0 0 0 0 3.8316358821842869 -3.1888267764771143 0 -3.1888267764771143 -0.23939252400883682 0 0 0 0 16.240286617474339 -1.8129871991052369 0 -1.8129871991052369 -0.19517277242994169 0 0 0 0 21.20771881822111 -4.6326116252432712 0 -4.6326116252432712 -0.044365603362166439 0 0 0 0 13.549787193980592 -0.79032653776880579 0 -0.79032653776880579 -4.4794468902393874 0 0 0 0 7.6099008245691948 -2.141073287949439 0 -2.141073287949439 -1.1773550128609713 0 0 0 0 9.7553601482068188 -0.56075382094149973 0 -0.56075382094149973 -0.66844892288725077 0 0 0 0 9.4041024197413208 0.91243450365709577 0 0.91243450365709577 11.346744177048095 0 0 0 0 16.379561568535792 -6.3210229988839046 0 -6.3210229988839046 -15.309716680628753 0 0 0 0 23.675622418897547 5.264309405691165 0 5.264309405691165 -7.1393564344066363 0 0 0 0 8.9144673672798831 -2.1745939025080006 0 -2.1745939025080006 0.42513407214741505 0 0 0 0 193.66689549144576 242.78320886116489 0 242.78320886116489 70.074282840419528 0 0 0 0 3.9155594997510832 -0.59333807229428714 0 -0.59333807229428714 0.15967518925586832 0 0 0 0 14.329829782788465 -43.914139102712312 0 -43.914139102712312 61.38963580242239 0 0 0 0 356.95842497123522 108.68016025680367 0 108.68016025680367 46.192585070651923 0 0 0 0 325.52628457704486 42.469790509810991 0 42.469790509810991 0.56007878364948738 0 0 0 0 261.52189037304925 -74.507643566084653 0 -74.507643566084653 -17.546758129208001 0 0 0 0 -90.97238535309225 58.76891813087218 0 58.76891813087218 9.7823675965287293 0 0 0 0 157.58239377690552 -125.37332349364209 0 -125.37332349364209 64.632438992338393 0 0 0 0 -79.889513300739054 22.426744713278595 0 22.426744713278595 248.96175409252942 0 0 0 0 -79.913799245350674 292.83669068506583 0 292.83669068506583 -53.15417198477288 0 0 0 0 -24.100411027748123 1.7049698049703466 0 1.7049698049703466 -46.966926485165459 0 0 0 0 19.785440462781025 87.743341306586757 0 87.743341306586757 -45.777523803043664 0 0 0 0 29.29607409331588 13.931458061076722 0 13.931458061076722 3.217747693669434 0 0 0 0 24.929797086537292 19.133086486339721 0 19.133086486339721 -20.094237543619727 0 0 0 0 -29.84320950998881 29.247284321413922 0 29.247284321413922 41.59629503425208 0 0 0 0 65.64277979657345 79.711480607873568 0 79.711480607873568 52.994225500630023 0 0 0 0 2.6384599903434207 0.67653683734665648 0 0.67653683734665648 0.1648423679444937 0 0 0 0 17.414598777044773 26.909676469790043 0 26.909676469790043 -59.678925397439798 0 0 0 0 -177.30389428279614 -48.846993669872916 0 -48.846993669872916 63.829893121271652 0 0 0 0 232.20758745762578 238.3718198798943 0 238.3718198798943 -259.66864832244357 0 0 0 0 28.654432798401629 13.173228608575087 0 13.173228608575087 1.7636419509767602 0 0 0 0 -28.660983732708928 54.786218597089913 0 54.786218597089913 9.3150697695371036 0 0 0 0 0.32265372521942481 67.436211052970236 0 67.436211052970236 -39.872695077593562 0 0 0 0 -9.9907915651892836 -188.47126455773787 0 -188.47126455773787 156.63997145743053 0 0 0 0 141.58484152418123 -67.550629993227943 0 -67.550629993227943 -179.37698119780885 0 0 0 0 9.6714110027776314 4.1612306353453041 0 4.1612306353453041 0.28828878140152353 0 0 0 0 150.69954161745409 31.514632198703485 0 31.514632198703485 -172.57965618628023 0 0 0 0 -1.4496322705817875 29.31188431584269 0 29.31188431584269 4.9792011847083586 0 0 0 0 7.774968669980808 5.7150824587606053 0 5.7150824587606053 -5.5175534183975969 0 0 0 0 27.224975242716027 0.20932698415060713 0 0.20932698415060713 -28.832390237767328 0 0 0 0 -11.193998032686068 1.7216802150988428 0 1.7216802150988428 56.536731183329493 0 0 0 0 -1.1338701201493677 2.6436352998643997 0 2.6436352998643997 38.588870457998837 0 0 0 0 3.5024371420731768 5.730562096835456 0 5.730562096835456 9.5090023797495125 0 0 0 0 46.601908645272488 10.045375102247817 0 10.045375102247817 38.433892172526612 0 0 0 0 2.6556643711842867 0.52919994802384451 0 0.52919994802384451 -0.27968021231712781 0 0 0 0 8.1015948461554217 1.3813848190188258 0 1.3813848190188258 0.53635093362920105 0 0 0 0 -36.659380309043627 -62.585708607977267 0 -62.585708607977267 50.796930766509718 0 0 0 0 0.71519461205664925 0.85022659323536942 0 0.85022659323536942 -0.20574836159219106 0 0 0 0 14.043435453851998 4.9868364677765324 0 4.9868364677765324 -2.6485520281924479 0 0 0 0 -36.586366456642281 -206.3331572824639 0 -206.3331572824639 -32.81077598525286 0 0 0 0 45.648154975453508 52.118225338870559 0 52.118225338870559 152.1921469481498 0 0 0 0 3.9989490285192346 0.05841626462512739 0 0.05841626462512739 0.10564419995559293 0 0 0 0 11.322454319350072 -3.3953385342242655 0 -3.3953385342242655 85.029469442945924 0 0 0 0 -9.5245132009440567 -259.94420164286163 0 -259.94420164286163 4.8576933194603953 0 0 0 0 133.9123623316118 246.15774040594607 0 246.15774040594607 -53.179783252394088 0 0 0 0 -11.31010238777526 14.431371231763762 0 14.431371231763762 50.678024841245815 0 0 0 0 9.1776931626663441 0.90420602621208701 0 0.90420602621208701 -0.12833478777948232 0 0 0 0 12.721158095351711 13.763255414319133 0 13.763255414319133 30.223504971959869 0 0 0 0 203.96918722255214 17.048021262282642 0 17.048021262282642 -14.552446305011998 0 0 0 0 30.726699179795105 -58.597434081339216 0 -58.597434081339216 17.377554165902229 0 0 0 0 -54.682234046893427 -202.01428551571016 0 -202.01428551571016 15.958233229893665 0 0 0 0 128.62852118190494 129.79138695930618 0 129.79138695930618 108.64591055601352 0 0 0 0 2.5136696216361827 -1.2069382560381889 0 -1.2069382560381889 0.58490718597510161 0 0 0 0 50.380560202477682 30.34300639904659 0 30.34300639904659 23.461351446009616 0 0 0 0 87.982588439317624 32.382531023482059 0 32.382531023482059 4.9455975711419971 0 0 0 0 25.556243676510348 53.146946173651685 0 53.146946173651685 4.8479515686923449 0 0 0 0 84.464887421061576 -3.9165519382604468 0 -3.9165519382604468 -36.256838974818599 0 0 0 0 3.9734026672194886 -0.19108290020824886 0 -0.19108290020824886 0.0027787505331497214 0 0 0 0 -0.026080466231405808 -0.089122726464339053 0 -0.089122726464339053 -0.050676273941196233 0 0 0 0 11.607123323328778 2.5445700965029787 0 2.5445700965029787 1.7109744686841981 0 0 0 0 11.913773287080403 2.3042498018586368 0 2.3042498018586368 -0.72790394055479157 0 0 0 0 8.0734156420949148 4.6923585825419885 0 4.6923585825419885 1.121055192041247 0 0 0 0 20.117128450739983 3.987876436671848 0 3.987876436671848 -0.91587038610734028 0 0 0 0 12.908299997436188 0.34703559063197459 0 0.34703559063197459 0.0044868775918984983 0 0 0 0 20.198379993096751 7.8191611152033325 0 7.8191611152033325 3.6936242231590195 0 0 0 0 33.032604765823635 1.4585756288587786 0 1.4585756288587786 -4.346452479989785 0 0 0 0 31.754715452618257 1.3263032257080916 0 1.3263032257080916 -0.0070343494396744085 0 0 0 0 54.360253745515365 0.97055677994952361 0 0.97055677994952361 -5.8803663237834467 0 0 0 0 20.110813222763682 1.5443518610620455 0 1.5443518610620455 0.29048141668465899 0 0 0 0 19.414158810886875 3.0029236890608759 0 3.0029236890608759 -2.3327531688944569 0 0 0 0 30.833925666882649 0.058294058629951628 0 0.058294058629951628 -1.4355396511902914 0 0 0 0 74.104148468148196 -19.980545736315026 0 -19.980545736315026 -29.809673363334134 0 0 0 0 28.24580357555169 15.106602017046782 0 15.106602017046782 2.2784299454509265 0 0 0 0 4.9552227193731255 -2.2865464929099915 0 -2.2865464929099915 -1.0774422165159276 0 0 0 0 28.683578463833328 -36.927515770856417 0 -36.927515770856417 -57.428755541916189 0 0 0 0 -198.36977347223728 50.991746780906055 0 50.991746780906055 195.29576440169069 0 0 0 0 146.93609303646372 55.320265161205327 0 55.320265161205327 -22.006855217311511 0 0 0 0 225.58493300777627 189.09701487041366 0 189.09701487041366 14.335446815295654 0 0 0 0 27.713159125632572 6.7701856253836681 0 6.7701856253836681 -2.0867966039600865 0 0 0 0 0.70682002946504952 -0.56170267905427806 0 -0.56170267905427806 1.1357468788907565 0 0 0 0 22.733093276809086 -12.567939875143793 0 -12.567939875143793 6.2567402343674416 0 0 0 0 8.9245163351736068 -2.7202629289294435 0 -2.7202629289294435 -3.5530886919720999 0 0 0 0 18.345644403449114 -11.906610386183672 0 -11.906610386183672 -17.617248264386944 0 0 0 0 13.677347848970385 -1.4210236987890994 0 -1.4210236987890994 3.1278289103634052 0 0 0 0 5.2666226191834795 -3.9877656186985746 0 -3.9877656186985746 -6.1013954488232915 0 0 0 0 15.251640921844228 -22.033223102619672 0 -22.033223102619672 20.050882730890407 0 0 0 0 32.993762892408995 -6.4719882818365022 0 -6.4719882818365022 -36.955583488510001 0 0 0 0 -13.227628696666216 -23.730015346761775 0 -23.730015346761775 -17.792788784499407 0 0 0 0 1.5635154044575756 11.231637234407728 0 11.231637234407728 22.067769924215487 0 0 0 0 22.362163088400848 13.647321469791976 0 13.647321469791976 -21.642798535368968 0 0 0 0 19.52624176221434 -0.21695820696609758 0 -0.21695820696609758 -1.3856284934617267 0 0 0 0 19.508637593136967 -0.97440285844638908 0 -0.97440285844638908 -1.5801516782243783 0 0 0 0 20.351819083189184 1.0862865290825976 0 1.0862865290825976 -1.0216373317860308 0 0 0 0 19.78786290660355 0.18143029326892179 0 0.18143029326892179 1.1782120176568278 0 0 0 0 38.75578137431512 -16.736524284348913 0 -16.736524284348913 12.959744002682738 0 0 0 0 18.608484958960616 -0.2334347619228625 0 -0.2334347619228625 2.9733618285756522 0 0 0 0 33.727022675084299 -0.401592205871171 0 -0.401592205871171 -0.00026875950051085274 0 0 0 0 23.098331466986565 -0.47348653461528928 0 -0.47348653461528928 0.31265431186764492 0 0 0 0 21.29889010675106 -3.1316902317757678 0 -3.1316902317757678 3.575321879251308 0 0 0 0 20.443783503833401 1.0385967628553625 0 1.0385967628553625 0.00087203027279336557 0 0 0 0 22.270343807016616 0.8883685350827184 0 0.8883685350827184 -0.78303775375944884 0 0 0 0 15.475399041279161 -1.21095617916434 0 -1.21095617916434 0.51536394022870824 0 0 0 0 15.458700470117947 -1.0437088108815957 0 -1.0437088108815957 -0.41890539384272518 0 0 0 0 13.969993372418685 -2.2517075380937799 0 -2.2517075380937799 2.373359611955367 0 0 0 0 14.658672941506666 -1.3797308349436417 0 -1.3797308349436417 0.79346251046296068 0 0 0 0 6.6990231202672277 0.60986881768658208 0 0.60986881768658208 1.9082320817932645 0 0 0 0 6.0127430389402434 -0.92691107708558818 0 -0.92691107708558818 1.8303278424714975 0 0 0 0 25.267412609871826 0.16120028026093935 0 0.16120028026093935 -2.3003263448334939 0 0 0 0 5.4408506109795098 -0.13215066584675128 0 -0.13215066584675128 -1.9964494126749193 0 0 0 0 22.232273428518965 2.1241217451300605 0 2.1241217451300605 0.22241957612096463 0 0 0 0 19.947577993503273 2.8241455877698676 0 2.8241455877698676 0.5609682653782917 0 0 0 0 23.102175997584709 -1.3609126435582142 0 -1.3609126435582142 -0.92977939911411234 0 0 0 0 2.2072028334114293 1.2846732357337749 0 1.2846732357337749 -0.00069539266367554678 0 0 0 0 4.5048522059041716 -0.5564784075737006 0 -0.5564784075737006 0.31520816199566837 0 0 0 0 8.3439064009580761 1.0004398630873255 0 1.0004398630873255 0.0010126064479106076 0 0 0 0 6.1895358549372759 1.8708574468886376 0 1.8708574468886376 0.018908089227499536 0 0 0 0 3.8765041081442746 1.3150525138812981 0 1.3150525138812981 0.09162251957673076 0 0 0 0 101.17658402758389 -35.530470234013535 0 -35.530470234013535 18.753562092916582 0 0 0 0 123.95097698026802 -64.659846381241948 0 -64.659846381241948 24.724149137673464 0 0 0 0 169.19268893008848 -28.229966080408531 0 -28.229966080408531 -21.89367620192013 0 0 0 0 132.84816948050866 -34.182660053735674 0 -34.182660053735674 8.7189978362341183 0 0 0 0 37.882952979423862 -15.000509620696903 0 -15.000509620696903 8.2924097303857707 0 0 0 0 47.774001632555155 11.332470726434451 0 11.332470726434451 7.3182439594844482 0 0 0 0 140.60369120686937 -18.435290810344966 0 -18.435290810344966 -26.767696374815728 0 0 0 0 18.365813851429266 4.9056707002056736 0 4.9056707002056736 -4.3723215802215236 0 0 0 0 15.20539218516933 -9.7960620587316498 0 -9.7960620587316498 13.611266000963496 0 0 0 0 33.368994320029742 -9.5003152477625008 0 -9.5003152477625008 5.1192818037869756 0 0 0 0 37.14931276407151 -20.867374999544609 0 -20.867374999544609 16.951170766914288 0 0 0 0 -0.77084598356354661 4.2949661805671422 0 4.2949661805671422 -0.5146196490011431 0 0 0 0 19.348901906356673 -0.34701664484428818 0 -0.34701664484428818 -3.9205263178939602 0 0 0 0 39.920151988335419 -16.641071902068063 0 -16.641071902068063 16.90638221913315 0 0 0 0 41.908425277562856 -0.024766135346084184 0 -0.024766135346084184 3.5700452019783597 0 0 0 0 10.970768716928433 -21.305386757351584 0 -21.305386757351584 -6.5992447934199845 0 0 0 0 6.6017298271655278 -6.8485500852283181 0 -6.8485500852283181 9.3425193325796663 0 0 0 0 28.74768231275084 -9.4098615236057412 0 -9.4098615236057412 -23.365558120124774 0 0 0 0 27.900148542270472 0.46073161779537486 0 0.46073161779537486 -16.49902966450486 0 0 0 0 25.628898228227627 -5.3161038093466004 0 -5.3161038093466004 -7.4626193758404042 0 0 0 0 32.490443088317988 -1.5366105506909662 0 -1.5366105506909662 -5.3898678440414187 0 0 0 0 29.099292367853195 -6.267440727356643 0 -6.267440727356643 -6.6373137469836365 0 0 0 0 26.872835858099279 -5.1429069641653768 0 -5.1429069641653768 -5.3279955985560719 0 0 0 0 33.824270755150792 3.6899781810920729 0 3.6899781810920729 -14.739289176386052 0 0 0 0 25.158148398093545 5.1697286305829664 0 5.1697286305829664 -8.3553734513729978 0 0 0 0 10.383389056192755 -1.0171199296028384 0 -1.0171199296028384 -5.2695233118114402 0 0 0 0 36.266338892899512 -1.9793609028595256 0 -1.9793609028595256 -21.047007438309464 0 0 0 0 2.9589187791186191 -4.5193351111320297 0 -4.5193351111320297 6.4302978254278074 0 0 0 0 146.70071118253691 7.0368211287711802 0 7.0368211287711802 7.5015819190745674 0 0 0 0 -5.4734750002626242 -57.646414362488045 0 -57.646414362488045 -27.147118086602489 0 0 0 0 144.92908293521941 2.5523683457203958 0 2.5523683457203958 0.5162659174543478 0 0 0 0 0.94599439206345437 -1.3393822958235404 0 -1.3393822958235404 2.6319461079775435 0 0 0 0 285.51706542848842 75.067629924854828 0 75.067629924854828 20.442421240129761 0 0 0 0 433.44883725114778 83.475325127116093 0 83.475325127116093 -36.287391320853203 0 0 0 0 5.8685135952255223 22.422442965871824 0 22.422442965871824 -12.749451326963964 0 0 0 0 12.532937867745204 -57.994971183566918 0 -57.994971183566918 25.158062685699406 0 0 0 0 47.123486445543676 0.054766600304617441 0 0.054766600304617441 -1.7189514790748035 0 0 0 0 80.551656773459399 -115.33448690908926 0 -115.33448690908926 36.921421012107203 0 0 0 0 -82.679123786128912 -96.812891318251388 0 -96.812891318251388 39.937172119458637 0 0 0 0 128.41556662913354 54.077664401243055 0 54.077664401243055 -113.28932918643591 0 0 0 0 60.022794818811519 24.767754490667386 0 24.767754490667386 -21.674672763216243 0 0 0 0 312.15202639826384 -13.848184756887122 0 -13.848184756887122 -145.69126961721895 0 0 0 0 196.429430034088 -130.03544817113288 0 -130.03544817113288 -10.828038489896244 0 0 0 0 101.18443807639414 -63.143831474022136 0 -63.143831474022136 -56.732008968115224 0 0 0 0 82.365155545689049 -36.835431234966109 0 -36.835431234966109 -6.1868762414806042 0 0 0 0 98.59597654058598 -59.191188005398999 0 -59.191188005398999 19.832442507093674 0 0 0 0 44.267330209353531 -35.519481810807974 0 -35.519481810807974 25.010662579131349 0 0 0 0 79.380190183597733 -19.075636140993993 0 -19.075636140993993 -0.72401613269994414 0 0 0 0 83.408862385898829 -10.979353643852392 0 -10.979353643852392 11.746984675104386 0 0 0 0 -2.4256187451449165 -0.83690831586121561 0 -0.83690831586121561 2.0099628287772946 0 0 0 0 86.84853565996309 -14.449916939613331 0 -14.449916939613331 -6.6569597020770743 0 0 0 0 0.20764669515636314 -4.9377450753584782 0 -4.9377450753584782 0.63276027719174621 0 0 0 0 12.633441989190032 -5.5821410417008792 0 -5.5821410417008792 -0.47955970174689355 0 0 0 0 13.669271396844124 -7.5580609211867795 0 -7.5580609211867795 2.7500361240820439 0 0 0 0 11.437921500179073 -8.7485624408759008 0 -8.7485624408759008 -2.0247911987530642 0 0 0 0 9.7594076575624058 -0.43598925042613246 0 -0.43598925042613246 -4.6560898518795284 0 0 0 0 7.9301367025016702 -4.1568654751680043 0 -4.1568654751680043 -0.060706482395646688 0 0 0 0 83.473434847974204 -14.591469115931943 0 -14.591469115931943 -7.7479754992873495 0 0 0 0 84.815231127075094 -17.33912366908271 0 -17.33912366908271 -4.5868324700350058 0 0 0 0 2.1056572566128438 1.0587158084970554 0 1.0587158084970554 -0.040931311282273342 0 0 0 0 76.051238641557575 -30.498612499482761 0 -30.498612499482761 19.782699262760786 0 0 0 0 110.65809597120824 4.5491353458978665 0 4.5491353458978665 5.6198095021143217 0 0 0 0 -1.427555654572835 1.3583430183582905 0 1.3583430183582905 7.7491391026720535 0 0 0 0 148.02749690891142 -25.256296675765952 0 -25.256296675765952 -3.1866665371048839 0 0 0 0 90.00719971738954 -17.496931248527432 0 -17.496931248527432 3.9869119180589223 0 0 0 0 53.923853990545467 -10.768561146881211 0 -10.768561146881211 15.482739495472288 0 0 0 0 114.30110873453486 -26.826435914596914 0 -26.826435914596914 23.327567871045858 0 0 0 0 109.57291984081348 2.3077349040504487 0 2.3077349040504487 -36.756173104550953 0 0 0 0 42.724291529835682 149.5964959103236 0 149.5964959103236 -14.970497529316162 0 0 0 0 6.2895438389095943 -42.468496621301483 0 -42.468496621301483 233.49254696516959 0 0 0 0 61.304876757924163 25.757598824150843 0 25.757598824150843 -19.74681353030217 0 0 0 0 394.4577325589089 -74.407713871489392 0 -74.407713871489392 -24.437599275428965 0 0 0 0 57.036680936726043 -13.681687855690484 0 -13.681687855690484 7.27441960188753 0 0 0 0 52.736037683895574 38.088556357120083 0 38.088556357120083 -32.848263844805615 0 0 0 0 61.233887571800238 25.317395683307272 0 25.317395683307272 -19.544344574709669 0 0 0 0 153.85205602345377 -54.125259644594621 0 -54.125259644594621 -31.186135583643285 0 0 0 0 149.96068316654419 -29.451023941515587 0 -29.451023941515587 40.99980645528899 0 0 0 0 174.13982137714993 -3.0088211028754586 0 -3.0088211028754586 -20.954777609380585 0 0 0 0 166.0226358763648 -38.276687739602494 0 -38.276687739602494 -23.149476025700579 0 0 0 0 89.872323081464856 -6.2229117657965958 0 -6.2229117657965958 -7.2601498670693445 0 0 0 0 57.897695257832311 35.587560811721573 0 35.587560811721573 -9.1106599594893396 0 0 0 0 64.690529015890206 47.483462757299662 0 47.483462757299662 -25.466508379632614 0 0 0 0 100.04350231511125 -7.2793123318565449 0 -7.2793123318565449 15.873251981704925 0 0 0 0 56.403964792705665 -1.5177589200409329 0 -1.5177589200409329 15.409483516280886 0 0 0 0 81.559865817620448 -26.164777851933195 0 -26.164777851933195 19.324086789177727 0 0 0 0 13.472415529148673 -1.8492723232785089 0 -1.8492723232785089 8.471037014712703 0 0 0 0 77.039652863270021 9.4663081689586761 0 9.4663081689586761 21.807770781117142 0 0 0 0 56.122997178383926 26.372094011108569 0 26.372094011108569 -20.321429134744399 0 0 0 0 145.24375946746113 -23.602985622296046 0 -23.602985622296046 11.346453896217099 0 0 0 0 101.34264666565286 -22.138623292452166 0 -22.138623292452166 -0.51140560372186883 0 0 0 0 47.487007793727699 7.4479908585341121 0 7.4479908585341121 -7.948006310263052 0 0 0 0 48.366862234222936 -10.627267510863931 0 -10.627267510863931 -3.1873839602067164 0 0 0 0 37.450684113942607 9.8935117449796763 0 9.8935117449796763 -3.0051645032682863 0 0 0 0 61.187689387803118 -1.0430574552414313 0 -1.0430574552414313 -6.9566412825333686 0 0 0 0 67.335580609615135 34.296059289835853 0 34.296059289835853 -4.7651217114776614 0 0 0 0 32.648810697963199 27.949875057487588 0 27.949875057487588 -5.9240291911871736 0 0 0 0 97.961184428131673 22.981001825910312 0 22.981001825910312 -10.705319247577791 0 0 0 0 67.898763472148858 37.927846180342783 0 37.927846180342783 14.961728281366277 0 0 0 0 104.08380850405956 84.133007296212725 0 84.133007296212725 -38.371229228189918 0 0 0 0 -0.8073754055956357 0.99738194396372393 0 0.99738194396372393 0.93241085734692519 0 0 0 0 81.236975981672003 55.758322821885514 0 55.758322821885514 17.867827079035251 0 0 0 0 63.509502508073638 7.5701333942198374 0 7.5701333942198374 -9.6871578902302531 0 0 0 0 33.078240276590805 -5.2174504953748908 0 -5.2174504953748908 -7.6196542766784887 0 0 0 0 13.782722202453087 10.800335790429052 0 10.800335790429052 -2.2942664161234121 0 0 0 0 15.129114496270404 4.6395071702191473 0 4.6395071702191473 -3.1594858978403582 0 0 0 0 110.59534759146482 6.6831876820883735 0 6.6831876820883735 -26.294012691328021 0 0 0 0 153.58057454678055 -3.4291900712355528 0 -3.4291900712355528 -24.107681081238496 0 0 0 0 108.53445120547985 37.288506123640644 0 37.288506123640644 -15.243393844990123 0 0 0 0 158.93658729898016 30.174808053276479 0 30.174808053276479 -14.646506127536558 0 0 0 0 178.7994160618 50.155400463258616 0 50.155400463258616 -25.950154941409096 0 0 0 0 169.21614704748936 -3.6567122425880143 0 -3.6567122425880143 -36.175875612287882 0 0 0 0 173.57421071195131 -32.380286212015051 0 -32.380286212015051 -23.75017503175178 0 0 0 0 232.5360880188091 -14.368196258291107 0 -14.368196258291107 -35.166862906511966 0 0 0 0 335.01678887733578 -67.151012366374275 0 -67.151012366374275 -17.434287382932474 0 0 0 0 182.14848329113011 -36.675564675904468 0 -36.675564675904468 -21.918387812315075 0 0 0 0 154.31644792674342 -101.40088182718219 0 -101.40088182718219 71.735855639825871 0 0 0 0 242.77815940378059 53.249744465454796 0 53.249744465454796 22.473857332322552 0 0 0 0 187.56475980007235 8.3996724155333027 0 8.3996724155333027 -12.892388133368001 0 0 0 0 214.20865293730913 32.375125648551503 0 32.375125648551503 34.099047602257514 0 0 0 0 391.03557344846195 100.21533479656799 0 100.21533479656799 1.1505481291903257 0 0 0 0 1.8708916154077428 0.11197987671479126 0 0.11197987671479126 -0.046333737359712454 0 0 0 0 450.44368265292724 -217.10152916048807 0 -217.10152916048807 91.172066872577759 0 0 0 0 8.9697960728408361 2.5201822224293609 0 2.5201822224293609 2.7784430037688348 0 0 0 0 60.876464686079999 70.629376657008521 0 70.629376657008521 -5.1654491965835172 0 0 0 0 10.88630221625499 0.9784678839016423 0 0.9784678839016423 -1.8721380417501794 0 0 0 0 2.1632924546018728 1.4845083235316494 0 1.4845083235316494 -0.4732355217119163 0 0 0 0 37.211946062248899 40.470877050837458 0 40.470877050837458 70.051261208045389 0 0 0 0 184.38372125992373 36.215189333646705 0 36.215189333646705 -42.520689409982651 0 0 0 0 196.43547811588269 106.98008610586545 0 106.98008610586545 88.45100430513267 0 0 0 0 0.041530811362235909 0.10672198619390372 0 0.10672198619390372 -0.069260844731571014 0 0 0 0 1.4056894818495493 -0.80795460050788814 0 -0.80795460050788814 0.0091622008261387951 0 0 0 0 11.933739961794345 6.9229444955058534 0 6.9229444955058534 -0.63724477436986349 0 0 0 0 10.464625588727358 8.5325653526902858 0 8.5325653526902858 7.2705476368833279 0 0 0 0 43.970684636486112 3.6440453134173705 0 3.6440453134173705 -0.001341953512008962 0 0 0 0 48.884013919563586 8.4767155725534149 0 8.4767155725534149 4.0421659820018085 0 0 0 0 57.864110302336485 3.9952198440862432 0 3.9952198440862432 1.0465696951690937 0 0 0 0 48.947012794524198 0.85606691485809883 0 0.85606691485809883 0.6010689626003014 0 0 0 0 3.2415459344755533 0.20213443217795657 0 0.20213443217795657 -0.15405526364644165 0 0 0 0 48.962948660766415 3.9933373120595235 0 3.9933373120595235 5.8811766860534611 0 0 0 0 -8.2788764139841078 22.57587628398494 0 22.57587628398494 59.644272856275165 0 0 0 0 -2.7856428702070843 -10.928364833833939 0 -10.928364833833939 79.721590877485141 0 0 0 0 28.167226006386045 3.9705788833125553 0 3.9705788833125553 48.811264986884453 0 0 0 0 32.678275165243505 15.33346363420835 0 15.33346363420835 -3.7116080500491591 0 0 0 0 43.772510531023727 6.4490067365509463 0 6.4490067365509463 5.1373690485464545 0 0 0 0 42.839972814981593 3.1057418004814776 0 3.1057418004814776 5.2227567145321441 0 0 0 0 2.6238033102854388 85.708469080931081 0 85.708469080931081 -102.73015014413932 0 0 0 0 31.220932595679059 14.739761196188816 0 14.739761196188816 -1.8781613041881347 0 0 0 0 43.618269971586415 6.8802677473887455 0 6.8802677473887455 -1.1703632195827591 0 0 0 0 46.730274575751537 4.1731284657993744 0 4.1731284657993744 1.0893372232180898 0 0 0 0 34.843775425310014 4.7659581389150247 0 4.7659581389150247 0.031523728048361122 0 0 0 0 34.591407872037962 4.0644520453898183 0 4.0644520453898183 -0.0029369147613630799 0 0 0 0 3.9926583735176706 -0.36933652315407528 0 -0.36933652315407528 -1.1661200742775057 0 0 0 0 107.43142718793388 -10.44451183102327 0 -10.44451183102327 -15.261572322632816 0 0 0 0 6.7680323931486726 -3.1775359027917602 0 -3.1775359027917602 0.18163641993548671 0 0 0 0 17.93143102209433 -0.14816709347524082 0 -0.14816709347524082 -0.67478921038499795 0 0 0 0 107.28000973304734 25.747623699730404 0 25.747623699730404 53.351993825595002 0 0 0 0 43.958898696007964 -10.022201247329029 0 -10.022201247329029 -2.0760138210838477 0 0 0 0 26.264408446660866 -3.8882314877187056 0 -3.8882314877187056 -0.074466104527217136 0 0 0 0 31.203889591008107 -5.1964202765378786 0 -5.1964202765378786 0.68363235726819194 0 0 0 0 20.579212272692374 3.5139451867232552 0 3.5139451867232552 -0.27776881460795033 0 0 0 0 40.230287110633071 7.4708682077094464 0 7.4708682077094464 1.078059074847272 0 0 0 0 16.166524784595822 0.088329543820449885 0 0.088329543820449885 -2.428817866608 0 0 0 0 1.4409009945806588 -2.0707989346644169 0 -2.0707989346644169 0.47725114146080438 0 0 0 0 14.234624007098319 -6.6473990963658798 0 -6.6473990963658798 0.0045728082810262242 0 0 0 0 11.81401057360199 -1.0043427740641142 0 -1.0043427740641142 2.429748516311026 0 0 0 0 38.605925731790194 -42.404421454381264 0 -42.404421454381264 34.041130899631661 0 0 0 0 4.9553847113885183 0.24546392843912201 0 0.24546392843912201 -1.1850393953230569 0 0 0 0 10.576855511739268 -0.18916193536235681 0 -0.18916193536235681 15.003767400829155 0 0 0 0 12.095473666702077 -9.476211216205165 0 -9.476211216205165 6.9062609818527978 0 0 0 0 15.864501301813831 -9.4702400466111669 0 -9.4702400466111669 -2.1331391573942611 0 0 0 0 3.1878117594751529 -17.882440342990726 0 -17.882440342990726 7.0667557442910667 0 0 0 0 40.206319231150701 6.0675505558404979 0 6.0675505558404979 10.31840194444726 0 0 0 0 40.557446475027973 5.075374898986297 0 5.075374898986297 8.1736658127600919 0 0 0 0 -0.3799819160176412 -67.095919910175922 0 -67.095919910175922 47.933465166725 0 0 0 0 27.310622707093785 0.97974364980488637 0 0.97974364980488637 -2.4476796722044369 0 0 0 0 99.896964592218865 48.82990367221737 0 48.82990367221737 -97.309399988374253 0 0 0 0 8.3571801275738835 33.21955561952592 0 33.21955561952592 83.963388599095651 0 0 0 0 67.618700603634352 -78.380560230458514 0 -78.380560230458514 98.705023359482539 0 0 0 0 184.68583111175343 38.113334225165467 0 38.113334225165467 10.66208890448479 0 0 0 0 185.98913090051792 -47.566450646466592 0 -47.566450646466592 20.841710111773864 0 0 0 0 0.48223187343572249 -0.62355392166906398 0 -0.62355392166906398 1.046298069141983 0 0 0 0 93.159737623122055 -12.502725027276028 0 -12.502725027276028 22.939071645687818 0 0 0 0 104.97545477850872 44.396980268629306 0 44.396980268629306 39.037320363787785 0 0 0 0 111.90603853915309 -21.999825575452292 0 -21.999825575452292 17.631062270487746 0 0 0 0 133.97314768892829 4.4878684315431201 0 4.4878684315431201 5.0604490738878667 0 0 0 0 97.189864859770751 7.8158321394507766 0 7.8158321394507766 19.535077859265584 0 0 0 0 91.665691662579775 -21.84869464917233 0 -21.84869464917233 12.868724001635883 0 0 0 0 74.875192756633624 -17.360157182288049 0 -17.360157182288049 21.442660677105323 0 0 0 0 -27.173416093282867 -18.381250528349824 0 -18.381250528349824 -12.22913528794993 0 0 0 0 50.158213394963241 6.5684958608841839 0 6.5684958608841839 7.8585655380653634 0 0 0 0 51.355429879590702 41.264672572666313 0 41.264672572666313 12.754290465906706 0 0 0 0 -26.209799338510493 -24.151288548631214 0 -24.151288548631214 -10.608109216211005 0 0 0 0 5.9973485011455665 -8.3592940552377044 0 -8.3592940552377044 3.4408719601172764 0 0 0 0 -35.445690977565391 -19.616153080565539 0 -19.616153080565539 -6.0305427556990026 0 0 0 0 -34.196953611601202 -21.360373617533824 0 -21.360373617533824 -11.790218611656769 0 0 0 0 34.823707799419935 7.1133738640259025 0 7.1133738640259025 17.40749595002552 0 0 0 0 1.4880548371540669 -2.0508825096105454 0 -2.0508825096105454 3.0348229482258575 0 0 0 0 56.033779039909859 15.857156810382548 0 15.857156810382548 24.983526810538024 0 0 0 0 56.899009009779547 22.808991485885144 0 22.808991485885144 12.502828823054188 0 0 0 0 27.043701112739654 51.919653963513213 0 51.919653963513213 11.682718917035345 0 0 0 0 41.875375743777113 14.201798364817535 0 14.201798364817535 8.1264953911841076 0 0 0 0 35.131555107538588 23.614397853290939 0 23.614397853290939 -0.42988494326982618 0 0 0 0 52.419176285126014 24.330312349203723 0 24.330312349203723 -7.8216633966321751 0 0 0 0 -43.62489980913233 51.136548160420716 0 51.136548160420716 22.405450984522759 0 0 0 0 1.1969811841270861 -0.82180631887448641 0 -0.82180631887448641 -0.56579964838141739 0 0 0 0 77.541616010879807 -6.207403415150111 0 -6.207403415150111 9.6319182928368718 0 0 0 0 76.520951611171768 -3.7156330201585206 0 -3.7156330201585206 5.1272462146844191 0 0 0 0 69.954054021207412 -19.253053108911445 0 -19.253053108911445 4.4203003011152759 0 0 0 0 76.13642280032218 -11.329773859262787 0 -11.329773859262787 11.547406730080638 0 0 0 0 58.585017613731907 21.922240576606328 0 21.922240576606328 36.443857487854132 0 0 0 0 81.840143554967653 18.200465464433591 0 18.200465464433591 16.52028773371876 0 0 0 0 59.526862545244512 4.5040627985290485 0 4.5040627985290485 8.2435486591725748 0 0 0 0 62.001418265441316 -6.0953353094696467 0 -6.0953353094696467 -1.1462307898373183 0 0 0 0 53.171042296744417 8.8034265728451828 0 8.8034265728451828 5.6724565947929477 0 0 0 0 45.218365890090354 3.4983821286168677 0 3.4983821286168677 2.6062972629010801 0 0 0 0 47.977471032296307 -3.8298095511104293 0 -3.8298095511104293 -0.47693742584306165 0 0 0 0 56.989200713993341 -10.016169959340232 0 -10.016169959340232 3.1437808756109007 0 0 0 0 62.795717903929472 -13.491852499640117 0 -13.491852499640117 -2.0817874106005547 0 0 0 0 58.494746321928687 -21.378075977173467 0 -21.378075977173467 -1.6308981122151636 0 0 0 0 65.392093125468818 -19.69512091673414 0 -19.69512091673414 -4.5969019840567853 0 0 0 0 67.191129694532719 -16.311133244274743 0 -16.311133244274743 1.3075896341133557 0 0 0 0 64.871201701898826 -21.293299031006427 0 -21.293299031006427 1.2881576505733392 0 0 0 0 62.825255647068843 -16.721675317769268 0 -16.721675317769268 7.2438484424278613 0 0 0 0 61.564280252074241 -19.675759950279939 0 -19.675759950279939 8.4892208698902323 0 0 0 0 52.021789546241052 -17.52516006026508 0 -17.52516006026508 15.321318684450489 0 0 0 0 70.554882325195649 -23.099214138403454 0 -23.099214138403454 9.225070266235889 0 0 0 0 45.164385772564856 -10.426725382051018 0 -10.426725382051018 12.641002278105589 0 0 0 0 45.87060395188746 -10.269064093042289 0 -10.269064093042289 9.5891037756798596 0 0 0 0 52.22668440524285 -17.009997198802921 0 -17.009997198802921 15.243714075442767 0 0 0 0 57.458872190691181 -14.273473905485389 0 -14.273473905485389 1.508123435545258 0 0 0 0 57.707240593110328 -12.915468444256021 0 -12.915468444256021 8.06578706066216 0 0 0 0 47.243307185330195 -1.482358722686854 0 -1.482358722686854 -1.5690874321339834 0 0 0 0 66.27718759853451 -17.631001326337127 0 -17.631001326337127 -4.1826013237105144 0 0 0 0 69.672383668148541 -17.800500061629009 0 -17.800500061629009 -7.5190756667316236 0 0 0 0 70.08402054484759 -3.5067500907407521 0 -3.5067500907407521 -9.7166359453603945 0 0 0 0 40.630168674855668 -5.989135729607824 0 -5.989135729607824 10.750393930516452 0 0 0 0 42.215742682281416 -7.4333476475194402 0 -7.4333476475194402 9.4491764308343136 0 0 0 0 40.806084423231368 -2.9297955534876507 0 -2.9297955534876507 -1.1462411117423699 0 0 0 0 42.157080559140013 -7.3906630136684726 0 -7.3906630136684726 9.7339972099871375 0 0 0 0 43.859995300197625 -7.4530916667213205 0 -7.4530916667213205 9.7316610655220188 0 0 0 0 39.623026458844834 -7.6898724457448679 0 -7.6898724457448679 15.123609117577871 0 0 0 0 43.727595757583913 -2.911560933293373 0 -2.911560933293373 -3.2572857143774172 0 0 0 0 21.580439617551917 2.7144431539198877 0 2.7144431539198877 -1.1818649072400329 0 0 0 0 40.502677151256648 -10.201493907473832 0 -10.201493907473832 21.607555284021146 0 0 0 0 27.96438607806725 -3.9579244161594502 0 -3.9579244161594502 -0.93735446638679254 0 0 0 0 11.655007743237121 5.0097858882331465 0 5.0097858882331465 -7.4580615272016795 0 0 0 0 11.363142775335291 42.106270167776984 0 42.106270167776984 -3.0056771118388497 0 0 0 0 20.309440981858643 -15.457194073705068 0 -15.457194073705068 -7.3009031319785436 0 0 0 0 44.412170789983065 4.4814901682245818 0 4.4814901682245818 8.2192675109970423 0 0 0 0 70.06014112556295 -33.843412711729343 0 -33.843412711729343 53.546972606677656 0 0 0 0 46.924606372369453 -19.444761817812946 0 -19.444761817812946 22.075805505240623 0 0 0 0 63.917008577067463 -24.61685054646864 0 -24.61685054646864 14.620068944301238 0 0 0 0 72.067010420010774 -13.520658750511529 0 -13.520658750511529 17.976562239846544 0 0 0 0 52.796107501810184 -14.93370975858079 0 -14.93370975858079 14.035011306407796 0 0 0 0 50.111977218552056 -19.316734937275328 0 -19.316734937275328 17.908263659209297 0 0 0 0 42.085565850953571 -11.161898479352203 0 -11.161898479352203 13.070910910028488 0 0 0 0 41.509955645349692 -9.832126853606951 0 -9.832126853606951 12.565094514175826 0 0 0 0 43.010896348205279 -10.068093186766873 0 -10.068093186766873 8.4865305783941949 0 0 0 0 39.214962357189506 -0.85459828219882183 0 -0.85459828219882183 3.1681127778192604 0 0 0 0 35.282685680882423 -6.8204798493529779 0 -6.8204798493529779 12.893118470746231 0 0 0 0 44.862152053864065 -7.6663154099435591 0 -7.6663154099435591 0.12069201544020913 0 0 0 0 41.756242682808079 -11.937718659957861 0 -11.937718659957861 2.391697759068101 0 0 0 0 40.180209403381014 -10.020858194317224 0 -10.020858194317224 0.084087997697391836 0 0 0 0 33.854795199826185 -12.41252066359918 0 -12.41252066359918 2.5286397738362698 0 0 0 0 36.386413634521887 -4.7246432863630883 0 -4.7246432863630883 1.225414889427995 0 0 0 0 28.347977812827594 -31.236039442452032 0 -31.236039442452032 31.259889578651872 0 0 0 0 -0.040031080895602145 0.23444276965654609 0 0.23444276965654609 0.076100306000786336 0 0 0 0 0.27757308524451219 -0.93541441058820274 0 -0.93541441058820274 0.0042411806777011857 0 0 0 0 1.6869854024989763 -3.352088435483084 0 -3.352088435483084 2.9166746094854945 0 0 0 0 6.9416527080975357 -9.8657478247097945 0 -9.8657478247097945 9.9617251812858569 0 0 0 0 8.0317957116385514 -23.163496407627928 0 -23.163496407627928 -4.0797232636152785 0 0 0 0 14.083379646904049 -11.510350351979909 0 -11.510350351979909 -1.9369919408405001 0 0 0 0 34.16126457611972 16.825189960518841 0 16.825189960518841 22.438186254479916 0 0 0 0 47.277911613615288 17.597628200677775 0 17.597628200677775 14.696750609289438 0 0 0 0 18.757743640633635 -9.1439424161539744 0 -9.1439424161539744 -5.0199851171402941 0 0 0 0 26.945849882496987 -14.368659092512615 0 -14.368659092512615 -7.6196079752033015 0 0 0 0 26.591097334824553 -7.0583374790022004 0 -7.0583374790022004 -1.0346137843450975 0 0 0 0 25.079674271953991 -17.189395604837316 0 -17.189395604837316 -7.7111654036759667 0 0 0 0 32.784020539604171 -6.6988303415257064 0 -6.6988303415257064 -3.2883021518134257 0 0 0 0 29.641991404692817 -14.767750705137736 0 -14.767750705137736 -5.5146922108151841 0 0 0 0 34.685949412749324 -13.347695167233752 0 -13.347695167233752 -5.1752647266735821 0 0 0 0 39.408377824751369 -10.72032029613522 0 -10.72032029613522 -2.3103947635044264 0 0 0 0 41.797340734999125 -3.9832903338824854 0 -3.9832903338824854 -0.50879459575468644 0 0 0 0 22.338067977048922 -11.249554332371332 0 -11.249554332371332 0.46604452627672899 0 0 0 0 32.488686049029639 -21.953746138582105 0 -21.953746138582105 6.1530437164567502 0 0 0 0 34.352064549093484 -14.385268254925677 0 -14.385268254925677 0.0067739060147982144 0 0 0 0 30.068306029002997 -10.76121022318636 0 -10.76121022318636 -2.7272690466380709 0 0 0 0 37.114456913566755 -7.1136351630214385 0 -7.1136351630214385 -1.8221468641536518 0 0 0 0 27.577667813049629 -8.9137071205133083 0 -8.9137071205133083 -5.8363096826238348 0 0 0 0 34.211702441651141 -13.327292777252609 0 -13.327292777252609 -4.4810076926621889 0 0 0 0 24.206924971222179 -5.4215662076875759 0 -5.4215662076875759 -4.0837436205681854 0 0 0 0 16.731347030312392 -12.11941014505507 0 -12.11941014505507 0.3726463616754413 0 0 0 0 42.013176107579966 -6.8260921537187897 0 -6.8260921537187897 -4.5796571009915681 0 0 0 0 42.202322825149167 -15.815498859615133 0 -15.815498859615133 10.921338908292228 0 0 0 0 61.278396070747476 -13.766112558736513 0 -13.766112558736513 1.7626061718572146 0 0 0 0 34.354315363568134 -13.721281447532782 0 -13.721281447532782 -5.5045406016376432 0 0 0 0 44.541298038406239 -19.85005954568004 0 -19.85005954568004 -2.170472124985821 0 0 0 0 33.767226482028491 12.476724202702457 0 12.476724202702457 11.725217336351307 0 0 0 0 58.960864585875242 11.40412558288233 0 11.40412558288233 -8.1746773540151025 0 0 0 0 61.983221431892161 12.610830714374281 0 12.610830714374281 1.7793818988210148 0 0 0 0 14.75877731949641 -12.172240580116288 0 -12.172240580116288 -1.0146384747018609 0 0 0 0 15.971319033938926 -15.281989543512651 0 -15.281989543512651 -3.6180513819471827 0 0 0 0 4.2791915438592696 -1.2272729161263953 0 -1.2272729161263953 3.3552825225420975 0 0 0 0 0.98234429775621379 -1.7493497675298997 0 -1.7493497675298997 2.8961884644282221 0 0 0 0 -30.781458766348806 -43.363245639697581 0 -43.363245639697581 5.9334538862674435 0 0 0 0 1.1103831814657212 -1.7691105578818451 0 -1.7691105578818451 2.3832332738219719 0 0 0 0 -39.751276686860365 -23.378209237753481 0 -23.378209237753481 -15.071998901944198 0 0 0 0 39.387088041370589 -3.2618557818735781 0 -3.2618557818735781 -0.19594630115580003 0 0 0 0 7.6767601914112689 -6.2112165830444255 0 -6.2112165830444255 -0.94076168484483524 0 0 0 0 3.1638207797223004 -2.9071641490419324 0 -2.9071641490419324 2.1291306650027764 0 0 0 0 -0.1602291957134625 -3.8102676080981652 0 -3.8102676080981652 3.8186836374464592 0 0 0 0 7.8995595646883885 -5.910352553365783 0 -5.910352553365783 4.0335726223336223 0 0 0 0 6.6732135377750481 -1.0995768667038277 0 -1.0995768667038277 3.1912941591345052 0 0 0 0 7.0927642530732555 -6.1627253218453006 0 -6.1627253218453006 8.1287134102853997 0 0 0 0 17.072284768392819 -7.9300280666657557 0 -7.9300280666657557 2.7342659199784975 0 0 0 0 5.0312288249969193 0.81834363699307033 0 0.81834363699307033 0.88636133746432844 0 0 0 0 33.199822931532253 -33.701578557773104 0 -33.701578557773104 -15.53734079222977 0 0 0 0 59.079733264643437 13.848804026334335 0 13.848804026334335 12.149035352917167 0 0 0 0 47.999734073157924 -5.386308597388819 0 -5.386308597388819 -10.018107368100573 0 0 0 0 16.896219697811063 -7.7238630347656141 0 -7.7238630347656141 1.1992262753115064 0 0 0 0 -5.5093668349545339 -5.2790922115270575 0 -5.2790922115270575 4.0453714109154237 0 0 0 0 11.747224424143042 -8.1509658143178783 0 -8.1509658143178783 0.93354078283645148 0 0 0 0 18.352820565916772 -12.731020917000023 0 -12.731020917000023 -2.0553572573072643 0 0 0 0 47.019598599908932 -24.824096621977276 0 -24.824096621977276 55.275879636421678 0 0 0 0 12.230974406324094 -11.21100525175234 0 -11.21100525175234 5.439794528288985 0 0 0 0 5.2151627365885744 -0.78819371500060953 0 -0.78819371500060953 -1.7696395394625704 0 0 0 0 74.172959163595806 4.9591335151646945 0 4.9591335151646945 -6.0668990838169066 0 0 0 0 84.921886579815691 -27.502700965714034 0 -27.502700965714034 9.5788555683643608 0 0 0 0 8.6822343306537562 0.50268492264916631 0 0.50268492264916631 -0.95246613293967974 0 0 0 0 43.320971066000766 21.764014331822395 0 21.764014331822395 -6.9830185369428364 0 0 0 0 30.891302064818461 -5.6126678232387075 0 -5.6126678232387075 -4.2692049473772631 0 0 0 0 36.499820222383278 -0.80337779661466868 0 -0.80337779661466868 12.526217819749263 0 0 0 0 33.609292567227385 13.800484378022929 0 13.800484378022929 32.767078117832625 0 0 0 0 33.609292567321972 13.800484378020144 0 13.800484378020144 32.767078117828987 0 0 0 0 33.609292567241937 13.800484377962903 0 13.800484377962903 32.767078117838082 0 0 0 0 65.91581952253182 54.853807656615572 0 54.853807656615572 40.186073921772731 0 0 0 0 0.35801554057667317 -5.5351068545853543 0 -5.5351068545853543 1.3018055597005083 0 0 0 0 37.187170661214623 44.457001261225287 0 44.457001261225287 87.176953820431635 0 0 0 0 71.112156530893117 59.249228949090281 0 59.249228949090281 -25.915092622317843 0 0 0 0 64.2225380660675 23.698377781724389 0 23.698377781724389 -27.131538203639366 0 0 0 0 82.524888571642805 4.9767756364551587 0 4.9767756364551587 -8.0227752122150378 0 0 0 0 91.062239685736131 -15.07259730235819 0 -15.07259730235819 -108.56698432689427 0 0 0 0 50.527339506661519 -4.536642007749947 0 -4.536642007749947 -6.1113949293935832 0 0 0 0 53.694758484016347 -10.70533787869681 0 -10.70533787869681 5.7711259521323655 0 0 0 0 20.794571634006459 -15.069197178901462 0 -15.069197178901462 0.21566859184437748 0 0 0 0 51.175735920623993 5.256069875134699 0 5.256069875134699 5.0684203970813542 0 0 0 0 48.428305163426558 10.279313234651795 0 10.279313234651795 -0.73979115747874857 0 0 0 0 60.653812931785069 27.641688502732535 0 27.641688502732535 21.111245617016948 0 0 0 0 10.653705838403702 -3.5654783176698075 0 -3.5654783176698075 3.3460186392700155 0 0 0 0 44.134533046286379 7.3569823476291276 0 7.3569823476291276 15.406777389565832 0 0 0 0 48.358408426095593 10.094588673018251 0 10.094588673018251 8.6065631823328204 0 0 0 0 43.887829170504119 7.0385495370157969 0 7.0385495370157969 7.862045780853407 0 0 0 0 52.880966949716822 -3.0289286560714572 0 -3.0289286560714572 6.4529588678237815 0 0 0 0 27.004110716545256 -7.6197538720549289 0 -7.6197538720549289 -14.821532475048997 0 0 0 0 22.979371449702739 -13.603648618693789 0 -13.603648618693789 -5.6211942562390789 0 0 0 0 30.530303051877127 -4.0039558380649964 0 -4.0039558380649964 1.0292854959391775 0 0 0 0 18.482957288471766 -2.0680630389732304 0 -2.0680630389732304 0.10494513005442614 0 0 0 0 16.304971269899397 -8.2305209782947344 0 -8.2305209782947344 3.0843166349123976 0 0 0 0 67.789158378633147 45.02123127399409 0 45.02123127399409 40.061640528514772 0 0 0 0 303.15238575203693 -141.35329727270232 0 -141.35329727270232 33.935590178586835 0 0 0 0 5.0903939376721326 -1.0476249388180179 0 -1.0476249388180179 0.40634874494833717 0 0 0 0 94.647147673851578 -68.071587784622352 0 -68.071587784622352 41.891402834061182 0 0 0 0 18.385102459683502 -15.198045128634512 0 -15.198045128634512 1.5928633066369287 0 0 0 0 30.919427271757741 -18.662482335795403 0 -18.662482335795403 28.133845071949452 0 0 0 0 40.39910177179263 -40.129878528620793 0 -40.129878528620793 27.554167818129827 0 0 0 0 24.709481823469105 -20.785215912476019 0 -20.785215912476019 12.761093045643065 0 0 0 0 24.129230752641888 -16.220608580960288 0 -16.220608580960288 13.181028912519423 0 0 0 0 70.78896708730008 -1.2317667971855144 0 -1.2317667971855144 -2.4087432708720371 0 0 0 0 9.9269511368183885 0.81769256148459135 0 0.81769256148459135 7.5323105600166969 0 0 0 0 249.77815939803259 155.47077677650941 0 155.47077677650941 -161.99474754165931 0 0 0 0 1140.1471649949381 202.87553684220529 0 202.87553684220529 -393.49177936801607 0 0 0 0 81.658595888577565 -16.854429753167864 0 -16.854429753167864 6.4597842440025488 0 0 0 0 27.848484394861231 -16.417447193194551 0 -16.417447193194551 6.984599306805559 0 0 0 0 22.709876990293196 66.800270718521489 0 66.800270718521489 -28.611946279865151 0 0 0 0 93.695192447063164 -0.30809787716202663 0 -0.30809787716202663 -13.959752888511275 0 0 0 0 68.673074432124849 -21.130713319530059 0 -21.130713319530059 -10.512692346630502 0 0 0 0 83.201980973426544 -16.711448215798328 0 -16.711448215798328 -20.880258332303583 0 0 0 0 91.190989460068522 -31.825660973486038 0 -31.825660973486038 -35.664164071129107 0 0 0 0 232.45562830168637 -124.55551765440305 0 -124.55551765440305 23.57764519169541 0 0 0 0 115.87728109463933 -52.052373155466512 0 -52.052373155466512 -19.092575515624503 0 0 0 0 100.58270914506102 -50.382181737070795 0 -50.382181737070795 -16.283672393600682 0 0 0 0 97.10840230152462 -66.069955290614473 0 -66.069955290614473 8.6949268477310397 0 0 0 0 42.511649971434963 -33.252714333238828 0 -33.252714333238828 1.5262461164811612 0 0 0 0 66.149688687757589 -57.956756080282503 0 -57.956756080282503 26.443111160856461 0 0 0 0 80.116454829447321 -52.076976456075045 0 -52.076976456075045 -1.8780056465029702 0 0 0 0 45.948214378149714 -47.558509067396699 0 -47.558509067396699 21.100489356907019 0 0 0 0 57.967463305598358 -39.590210304365883 0 -39.590210304365883 -6.4404102118398896 0 0 0 0 77.677108723059064 -38.824131193357516 0 -38.824131193357516 -9.9075028845363704 0 0 0 0 56.018498538567655 -40.275740797613366 0 -40.275740797613366 3.4676888404255806 0 0 0 0 35.590987787873019 -28.723880843037477 0 -28.723880843037477 2.9357501033587141 0 0 0 0 60.374936891472316 -29.16703925332331 0 -29.16703925332331 -5.6524877125311832 0 0 0 0 68.352657039431506 -21.136005672515694 0 -21.136005672515694 -6.2181701359697854 0 0 0 0 66.671443429608189 -22.842422657490715 0 -22.842422657490715 -6.0327176417476949 0 0 0 0 54.616904189824709 -26.347833669577085 0 -26.347833669577085 -6.5199759239949344 0 0 0 0 53.91249062139741 -16.905053393736637 0 -16.905053393736637 -3.1581986536157274 0 0 0 0 39.672389016792295 -17.572020272930331 0 -17.572020272930331 -0.053307731852783036 0 0 0 0 37.826643180611427 -4.098520484972596 0 -4.098520484972596 -3.3990322609893155 0 0 0 0 48.869840140017914 -16.88692955327906 0 -16.88692955327906 -1.5700038023064735 0 0 0 0 39.247311469371198 -8.8224891608163034 0 -8.8224891608163034 -0.31851991208895925 0 0 0 0 36.232190589406855 11.343879561199287 0 11.343879561199287 -2.6310133265224067 0 0 0 0 23.355500981211662 5.4013687997239686 0 5.4013687997239686 -1.2917226383651723 0 0 0 0 13.00792307203028 -5.2031620845513942 0 -5.2031620845513942 2.3506276196794715 0 0 0 0 16.252577795587968 15.375139872680194 0 15.375139872680194 -7.0109230836187635 0 0 0 0 -15.314294027513824 -2.8744449619373427 0 -2.8744449619373427 6.7348514743341639 0 0 0 0 30.728513457826921 -13.739175770130714 0 -13.739175770130714 3.4809874605288087 0 0 0 0 34.716868284077464 -14.008385001994768 0 -14.008385001994768 -2.3235291719829547 0 0 0 0 74.736966157777715 7.4109555755752012 0 7.4109555755752012 -5.0329159897796671 0 0 0 0 45.911371235823026 -8.5271524327577026 0 -8.5271524327577026 25.173366556703066 0 0 0 0 -55.126298099668929 -5.8804765445187286 0 -5.8804765445187286 -21.423515966301466 0 0 0 0 19.810850442314404 37.191437756961705 0 37.191437756961705 -9.5784601267042149 0 0 0 0 0.079477328108104928 -0.29838662709966002 0 -0.29838662709966002 -0.17002510945219562 0 0 0 0 1.8427773857329157 10.104191848080291 0 10.104191848080291 -5.2685530134585861 0 0 0 0 -16.435116199929325 30.061273974178448 0 30.061273974178448 3.2670625286184531 0 0 0 0 30.459320821028086 -2.7296490913770413 0 -2.7296490913770413 8.4780848688499191 0 0 0 0 6.7159743031436783 -0.85680016212802457 0 -0.85680016212802457 -0.93948315067496502 0 0 0 0 24.97907356041469 2.8995029755765245 0 2.8995029755765245 3.7186940244596371 0 0 0 0 22.277207243263547 -26.068504823131775 0 -26.068504823131775 2.1634815899915338 0 0 0 0 -26.78601552015607 30.094964118250346 0 30.094964118250346 -12.985910281034194 0 0 0 0 25.841960456411471 -1.7008971999521236 0 -1.7008971999521236 -24.355307308936403 0 0 0 0 6.6033912339698873 16.99774517429978 0 16.99774517429978 -12.560860013880301 0 0 0 0 21.068441144292592 4.8421919687607442 0 4.8421919687607442 -6.3439287455703379 0 0 0 0 14.48807624207754 -0.097793734272801913 0 -0.097793734272801913 0.87975624889661308 0 0 0 0 3.4763503013504433 -0.72652435972212714 0 -0.72652435972212714 -0.59396464379944724 0 0 0 0 21.512464457991882 1.2679055084879565 0 1.2679055084879565 0.64058785260363038 0 0 0 0 6.3165920762424932 0.82715425401834608 0 0.82715425401834608 3.9849930475757898 0 0 0 0 29.726366524354489 23.406280735533414 0 23.406280735533414 28.862613296347718 0 0 0 0 8.0907386908664307 5.151268452266784 0 5.151268452266784 2.3367929527803835 0 0 0 0 31.33164795441553 -0.62854794960878735 0 -0.62854794960878735 0.77050153443940417 0 0 0 0 32.212253643128861 -3.1681030385245776 0 -3.1681030385245776 7.2824251120739518 0 0 0 0 22.215455748518096 -4.5715908625649195 0 -4.5715908625649195 0.026300568340673625 0 0 0 0 36.446040594506485 -1.5708054289696065 0 -1.5708054289696065 -0.24954035418932108 0 0 0 0 50.058786328372662 5.5558405711719274 0 5.5558405711719274 -2.5911652906108884 0 0 0 0 29.562740357372604 7.0884830491663706 0 7.0884830491663706 3.6421512778238139 0 0 0 0 63.03696944985677 27.364304796243403 0 27.364304796243403 8.2425069566570528 0 0 0 0 8.0832546243968295 1.7118127636308031 0 1.7118127636308031 3.6929018924288339 0 0 0 0 18.651519248032088 -7.1047941560139023 0 -7.1047941560139023 -5.7550288108969481 0 0 0 0 12.583714150245367 10.650863538269206 0 10.650863538269206 9.1417818603646097 0 0 0 0 27.51916391308805 3.49551171597642 0 3.49551171597642 7.8844314139910239 0 0 0 0 18.756971276927288 -9.9136646272336293 0 -9.9136646272336293 6.0810388241930013 0 0 0 0 57.474538981685328 -10.752943968051568 0 -10.752943968051568 0.25712521123978149 0 0 0 0 55.204568191809813 -9.2640658358614019 0 -9.2640658358614019 8.1488665594518181 0 0 0 0 36.713105491537135 5.7163317587754818 0 5.7163317587754818 9.9154022530770689 0 0 0 0 38.780623372424088 -4.1568255366721587 0 -4.1568255366721587 13.780830946736671 0 0 0 0 26.188034661536221 10.496676915854948 0 10.496676915854948 6.6302991549705048 0 0 0 0 18.558124885920734 9.0763830550436779 0 9.0763830550436779 7.8157819280952765 0 0 0 0 26.909131451885514 -1.1315040926019435 0 -1.1315040926019435 9.277738108337644 0 0 0 0 39.037435077880218 17.622518517184787 0 17.622518517184787 3.0155201269435565 0 0 0 0 15.778330528741208 7.6012485589223502 0 7.6012485589223502 4.4104678787036846 0 0 0 0 9.4144546930247586 9.5690312727107667 0 9.5690312727107667 3.6150895902321727 0 0 0 0 15.902260146417298 -2.8594598867081871 0 -2.8594598867081871 -0.43977132822093679 0 0 0 0 54.525260838287068 23.647787026619142 0 23.647787026619142 -1.0560450390411233 0 0 0 0 31.122563735531003 -0.49280477744932227 0 -0.49280477744932227 5.1131379418848155 0 0 0 0 55.335085414357309 16.304982402356231 0 16.304982402356231 -1.3919830547937977 0 0 0 0 32.453174796974963 8.9161408042203902 0 8.9161408042203902 6.2701663684315463 0 0 0 0 46.07196784178268 -10.409850743466734 0 -10.409850743466734 7.0110649921152799 0 0 0 0 6.0422765306053741 -0.22211890229267084 0 -0.22211890229267084 2.5570710207338347 0 0 0 0 9.0599165511865039 -6.0476232160750314 0 -6.0476232160750314 -2.2736708759127655 0 0 0 0 94.793865969098988 45.992275020649913 0 45.992275020649913 29.383448958883491 0 0 0 0 0.24968060283381988 0.9854668426630262 0 0.9854668426630262 1.188454954355898 0 0 0 0 16.833085016449331 1.7928500712358186 0 1.7928500712358186 16.743575755446045 0 0 0 0 2.8692969557986689 8.5749887430893565 0 8.5749887430893565 4.0512995720051812 0 0 0 0 113.14243399463885 -1.1098369691289918 0 -1.1098369691289918 3.3554864699235623 0 0 0 0 35.076561299960304 5.2555147825889321 0 5.2555147825889321 0.93019660807465243 0 0 0 0 10.905793707409369 -1.700681636060235 0 -1.700681636060235 -0.52036558917869336 0 0 0 0 27.301236621751741 3.9989743163720277 0 3.9989743163720277 2.8594553667286391 0 0 0 0 117.14413043983586 36.5231228402032 0 36.5231228402032 12.383027054778267 0 0 0 0 17.639309090394818 9.1248879688851048 0 9.1248879688851048 7.3508927585626225 0 0 0 0 20.145801256720006 6.1390487358946757 0 6.1390487358946757 4.6475720365961024 0 0 0 0 3.8310360061994073 5.1557813512386481 0 5.1557813512386481 4.3718580364176569 0 0 0 0 4.6729377189452048 1.9462805000428993 0 1.9462805000428993 0.84542733959677596 0 0 0 0 33.945692282439268 7.7945788257329696 0 7.7945788257329696 3.0832179723598756 0 0 0 0 19.739701178295945 -6.0570369732497511 0 -6.0570369732497511 3.6427034030066352 0 0 0 0 18.651013346962486 1.4938844716283572 0 1.4938844716283572 5.9526047043688992 0 0 0 0 14.925171911855912 5.6649598772914072 0 5.6649598772914072 7.7679808490316713 0 0 0 0 33.891071957761596 14.27971663461085 0 14.27971663461085 6.2203307371747769 0 0 0 0 19.656093919244086 -7.303777466592237 0 -7.303777466592237 -0.076101754037154024 0 0 0 0 9.2682442728290653 0.75379535625396343 0 0.75379535625396343 2.0122964564205787 0 0 0 0 21.92319681088372 5.469051361570723 0 5.469051361570723 1.8334834883033619 0 0 0 0 41.598563012985323 4.7734026382156571 0 4.7734026382156571 -21.976012534742722 0 0 0 0 21.842963301078271 5.5897469501546766 0 5.5897469501546766 4.3666018660776444 0 0 0 0 15.475487477227297 6.8474696320263995 0 6.8474696320263995 1.5592323765320291 0 0 0 0 23.456761865378212 16.437646293404839 0 16.437646293404839 0.7191102544674095 0 0 0 0 10.851688541667722 8.6087466383522866 0 8.6087466383522866 3.0363055846917817 0 0 0 0 30.470465948229503 12.5223962457165 0 12.5223962457165 1.5753887458434974 0 0 0 0 16.743946123693604 11.279275595819172 0 11.279275595819172 4.341312865988499 0 0 0 0 11.927032571482414 8.8030902037426415 0 8.8030902037426415 11.872316363835068 0 0 0 0 25.484984856218944 11.446052518858238 0 11.446052518858238 4.12219166532158 0 0 0 0 25.005076795183413 13.146397438539282 0 13.146397438539282 4.1148009793650715 0 0 0 0 26.661320664973573 -17.412112535686077 0 -17.412112535686077 -22.781571614528275 0 0 0 0 29.942237098472106 -15.882707367819563 0 -15.882707367819563 -25.225403156421237 0 0 0 0 27.789177832408313 -17.192752215155565 0 -17.192752215155565 -28.934152917332767 0 0 0 0 29.536828260286711 -18.884607116514758 0 -18.884607116514758 -30.303922123178381 0 0 0 0 28.928566647104162 -17.694143917994325 0 -17.694143917994325 -28.429824797394531 0 0 0 0 31.535063367868133 -19.362249211487836 0 -19.362249211487836 -33.85441962487107 0 0 0 0 33.561985818887479 -12.976637516043127 0 -12.976637516043127 -26.460553510814776 0 0 0 0 61.178692014378612 9.0290930232766868 0 9.0290930232766868 -25.342951517596248 0 0 0 0 5.061762650591163 -0.099736482713041141 0 -0.099736482713041141 -2.0379715785446098 0 0 0 0 27.073364816209505 -15.254960120933106 0 -15.254960120933106 -16.302714368152351 0 0 0 0 13.541086882850912 -6.8807634968096707 0 -6.8807634968096707 8.7613786711426123 0 0 0 0 41.475859113874321 4.1444444628141355 0 4.1444444628141355 7.1640647759941203 0 0 0 0 31.019582594794826 3.2248457032929529 0 3.2248457032929529 0.55388521855980599 0 0 0 0 44.9057027466406 5.1703008933104684 0 5.1703008933104684 5.4665193160114995 0 0 0 0 29.222244019831123 -8.034847326819488 0 -8.034847326819488 -1.1691472541297117 0 0 0 0 21.556751331130229 -12.0184032641179 0 -12.0184032641179 -1.8030866967357224 0 0 0 0 45.207372494398442 5.8522987145453556 0 5.8522987145453556 6.5155827298347049 0 0 0 0 47.141770948048361 4.0333811749035249 0 4.0333811749035249 7.1395461194083509 0 0 0 0 30.723043942021832 -2.7622556064069101 0 -2.7622556064069101 6.0765033514206834 0 0 0 0 -7.432970561352704 -43.329428470386461 0 -43.329428470386461 22.669678321950812 0 0 0 0 44.571327071254927 18.913882340029986 0 18.913882340029986 -90.743281842494326 0 0 0 0 38.911047298493941 -29.01374426992713 0 -29.01374426992713 18.192389903824747 0 0 0 0 2.2943387232258772 -3.5137850275638822 0 -3.5137850275638822 -0.7362230127666809 0 0 0 0 23.463962966787221 -26.822537408727044 0 -26.822537408727044 -49.225307340546237 0 0 0 0 -20.135449454646732 10.291630459524365 0 10.291630459524365 -47.759439140046268 0 0 0 0 -41.287507103406824 -29.789483037687518 0 -29.789483037687518 -36.995931044637416 0 0 0 0 12.421034319693717 3.9728593677685367 0 3.9728593677685367 -53.841568080455957 0 0 0 0 43.27065207225678 -19.487559038965628 0 -19.487559038965628 -37.470246662277191 0 0 0 0 40.392229728800885 -2.0661607236195891 0 -2.0661607236195891 -43.439808816575351 0 0 0 0 77.64715383195653 -8.3243378552357541 0 -8.3243378552357541 -96.549610599943662 0 0 0 0 41.737139837601717 -12.042906317788464 0 -12.042906317788464 -11.950729426749376 0 0 0 0 77.916300805423816 -31.996565070899578 0 -31.996565070899578 -71.863098377382471 0 0 0 0 70.224142388316977 28.723502665009619 0 28.723502665009619 -58.30554005991732 0 0 0 0 65.289473126685721 12.915074388615992 0 12.915074388615992 -17.673628894393914 0 0 0 0 73.602762953276397 -36.270166615290982 0 -36.270166615290982 -44.348122620674815 0 0 0 0 62.251568868396134 -29.087575728919973 0 -29.087575728919973 37.969579275370165 0 0 0 0 72.935069730076066 -12.343844408967357 0 -12.343844408967357 11.135318885043148 0 0 0 0 98.606459718517726 -38.229203294433091 0 -38.229203294433091 8.1702583255008676 0 0 0 0 -0.47079833920665592 0.47616418039667252 0 0.47616418039667252 0.59393586966101086 0 0 0 0 94.934651358569681 -28.745569427570672 0 -28.745569427570672 6.1867166256556629 0 0 0 0 126.69440715704695 5.4426219989870219 0 5.4426219989870219 -27.10299877382954 0 0 0 0 24.843702590242174 8.5858478055108094 0 8.5858478055108094 -7.9425486003935362 0 0 0 0 -11.469692185537497 -22.780746475430746 0 -22.780746475430746 5.9132903722586434 0 0 0 0 32.591249413184414 1.790468621206216 0 1.790468621206216 4.8811034813454626 0 0 0 0 52.668073715067294 -25.44655303805277 0 -25.44655303805277 -13.197033521337261 0 0 0 0 64.657161413677386 34.318821596073121 0 34.318821596073121 15.098523937078113 0 0 0 0 12.738825396286138 -5.4004709200221974 0 -5.4004709200221974 -1.0540170719475546 0 0 0 0 58.03905078731259 32.92826084970352 0 32.92826084970352 17.850615183932405 0 0 0 0 27.887889981629996 1.0595987364609982 0 1.0595987364609982 1.1552492933142275 0 0 0 0 27.37191999828876 2.8358182166064045 0 2.8358182166064045 -0.21060436595792975 0 0 0 0 33.138349156190088 7.2260323039995455 0 7.2260323039995455 15.508253977068307 0 0 0 0 62.544856785722004 21.523125751145926 0 21.523125751145926 14.822664626836968 0 0 0 0 8.5819494379638481 -5.3970975573428355 0 -5.3970975573428355 8.2071147279672907 0 0 0 0 27.689560160021269 -12.532095677365824 0 -12.532095677365824 -10.319843745086551 0 0 0 0 77.430438019324356 -7.1171703851816801 0 -7.1171703851816801 1.6456821971535192 0 0 0 0 82.649804991542624 27.554593715984538 0 27.554593715984538 10.469329204819587 0 0 0 0 64.143898164133134 -27.438341182846784 0 -27.438341182846784 65.692143734676847 0 0 0 0 82.139039452209545 46.758847663137317 0 46.758847663137317 54.822620943315769 0 0 0 0 5.6318828977086071 -8.0804695054691766 0 -8.0804695054691766 -4.3403219798779267 0 0 0 0 61.852979923340172 52.6399960846461 0 52.6399960846461 89.629500597110564 0 0 0 0 151.71784409893007 0.45881095788899984 0 0.45881095788899984 -13.772241669219056 0 0 0 0 117.30335189340258 57.640406319900421 0 57.640406319900421 -1.8505761369597167 0 0 0 0 128.33025236404592 -12.165619135622521 0 -12.165619135622521 -22.259477813331159 0 0 0 0 59.895011747175886 -3.9583317295928282 0 -3.9583317295928282 -8.236841304958574 0 0 0 0 44.847078712849907 -26.95227155356298 0 -26.95227155356298 -5.0367872359827288 0 0 0 0 41.313682653108117 -10.637646169525226 0 -10.637646169525226 -17.111103420375912 0 0 0 0 19.862856193161861 -22.838124041889444 0 -22.838124041889444 -19.07345428524502 0 0 0 0 33.411114032784099 -17.443594979127056 0 -17.443594979127056 14.811815519090715 0 0 0 0 59.777448035034467 13.953727396654131 0 13.953727396654131 8.5850187712698585 0 0 0 0 65.174358733351255 19.159161423051842 0 19.159161423051842 9.8178799974907633 0 0 0 0 56.638170319703931 16.171098029014729 0 16.171098029014729 18.800791033956102 0 0 0 0 39.226825663219643 5.970423853498346 0 5.970423853498346 11.696307298085685 0 0 0 0 71.857315764507803 12.99184151705731 0 12.99184151705731 3.3577743774858391 0 0 0 0 49.65497859226889 1.2663468880620599 0 1.2663468880620599 -16.08761648239124 0 0 0 0 30.88601156940058 -4.4976239165822562 0 -4.4976239165822562 9.7493478219876124 0 0 0 0 10.113515749259022 -10.895503149034525 0 -10.895503149034525 -19.980917975266095 0 0 0 0 21.247165093198419 -23.580803518709843 0 -23.580803518709843 -10.125816921109774 0 0 0 0 80.199423304760785 21.134992994597951 0 21.134992994597951 -20.99057944064316 0 0 0 0 58.978724391884562 1.2074118869976811 0 1.2074118869976811 -0.34990426123290896 0 0 0 0 64.631204854784301 1.2369680246638382 0 1.2369680246638382 1.2458175380388639 0 0 0 0 50.019594113786297 11.291035537653897 0 11.291035537653897 22.025360978482922 0 0 0 0 64.324450734213315 1.1568309315741772 0 1.1568309315741772 29.174637602098301 0 0 0 0 113.0634044546623 16.931114547548077 0 16.931114547548077 15.121086584266209 0 0 0 0 32.197793431876804 -17.366925160408687 0 -17.366925160408687 -5.3401717708718781 0 0 0 0 80.098959043224568 19.134781773621512 0 19.134781773621512 9.0818676590220093 0 0 0 0 101.54720979695958 54.399948393824616 0 54.399948393824616 41.605358164775453 0 0 0 0 8.4821174509029245 1.4204997435736662 0 1.4204997435736662 -0.88472906170782295 0 0 0 0 0.7743866189012607 -9.3363543186232576 0 -9.3363543186232576 -0.22267237091558467 0 0 0 0 24.280089009484527 -42.831547018583763 0 -42.831547018583763 16.405984004334641 0 0 0 0 4.7795325766680907 -6.6737442170646482 0 -6.6737442170646482 6.7894073556833874 0 0 0 0 85.535677478624166 14.930243662508019 0 14.930243662508019 35.950034620281485 0 0 0 0 93.530654581169074 37.396415426740987 0 37.396415426740987 13.608828890077348 0 0 0 0 40.223765627913963 -11.324671451790437 0 -11.324671451790437 -10.320130522038198 0 0 0 0 72.678468820128728 14.506823688664099 0 14.506823688664099 -24.267278339845689 0 0 0 0 48.406912489626848 17.265416739855482 0 17.265416739855482 26.247800849052965 0 0 0 0 70.313533894708598 9.0212941374177262 0 9.0212941374177262 -18.500844100536824 0 0 0 0 0.98846263592530992 -0.94477936470806689 0 -0.94477936470806689 0.81798343396585338 0 0 0 0 39.231793639803072 -3.0245895857224241 0 -3.0245895857224241 30.058424484741408 0 0 0 0 61.252381712143688 25.357802600089542 0 25.357802600089542 8.1557844783807241 0 0 0 0 0.44840366854329616 -0.63676141775647288 0 -0.63676141775647288 0.084948170002801859 0 0 0 0 20.180546035379393 16.776286359219682 0 16.776286359219682 19.768982451431839 0 0 0 0 54.649507745026312 -19.563429667272032 0 -19.563429667272032 29.008920545429646 0 0 0 0 33.824167903358102 6.0427387606258378 0 6.0427387606258378 5.6851851249240966 0 0 0 0 70.097979791838952 -2.0097880998495441 0 -2.0097880998495441 6.5614310976350225 0 0 0 0 20.578394565736744 27.960045005761003 0 27.960045005761003 23.671413780779631 0 0 0 0 93.912584865699046 41.142457308152984 0 41.142457308152984 22.275656489720859 0 0 0 0 93.633053692142312 52.879837438647314 0 52.879837438647314 20.005407439897084 0 0 0 0 4.4772010220293232 -5.3773006097175156 0 -5.3773006097175156 5.8216436021736602 0 0 0 0 -13.869794051264307 -6.8931857706895983 0 -6.8931857706895983 19.156222638105248 0 0 0 0 76.901412199668812 19.575909115689569 0 19.575909115689569 23.190926840836255 0 0 0 0 0.062044169649290382 -0.48285103446999145 0 -0.48285103446999145 -0.30701325615473074 0 0 0 0 -33.81883067785202 9.1600485686885804 0 9.1600485686885804 11.83559894277596 0 0 0 0 -0.60230284238011578 -7.6420431188495286e-05 0 -7.6420431188495286e-05 0.87318804383724391 0 0 0 0 30.216731543390779 4.2759379997107771 0 4.2759379997107771 5.9204090999303389 0 0 0 0 39.35334227273961 -11.03051914569528 0 -11.03051914569528 12.468083589548598 0 0 0 0 34.31113935172948 12.57787961535179 0 12.57787961535179 5.7480041028911728 0 0 0 0 19.513424302200292 3.8861060719433453 0 3.8861060719433453 4.8649298469258611 0 0 0 0 14.013497430700227 22.234522885339175 0 22.234522885339175 -55.630506617373612 0 0 0 0 18.631181511731938 -5.991535764762375 0 -5.991535764762375 -2.3355830229670573 0 0 0 0 0.87360689569595706 14.242599852654621 0 14.242599852654621 -29.990506983255727 0 0 0 0 11.919944179388949 14.899838196598012 0 14.899838196598012 1.5470493020279719 0 0 0 0 39.772986852301983 -1.3544732057926012 0 -1.3544732057926012 -9.4720445260104498 0 0 0 0 13.438017116802616 1.7425068220438709 0 1.7425068220438709 0.14840307043860435 0 0 0 0 35.341954815459758 -4.9055235657069716 0 -4.9055235657069716 -11.347206725813294 0 0 0 0 -18.138880782190427 27.942478596807462 0 27.942478596807462 33.428240131287566 0 0 0 0 5.1004458798885182 0.068747871317080822 0 0.068747871317080822 1.5488445360584775 0 0 0 0 55.016176723947865 -17.875538596401839 0 -17.875538596401839 -3.1326010525158381 0 0 0 0 35.797441625043575 24.089882090691844 0 24.089882090691844 43.763329403901935 0 0 0 0 9.3002001953927902 0.92269803595138455 0 0.92269803595138455 11.368641199454032 0 0 0 0 21.484483792190076 3.7800444827998945 0 3.7800444827998945 -5.0744529372188936 0 0 0 0 1.6764472996947006 -2.8264997781775492 0 -2.8264997781775492 0.28919699011203193 0 0 0 0 1.7177753153332169 -0.70370254064665971 0 -0.70370254064665971 1.4028190699485563 0 0 0 0 22.287872050503211 9.1933274259299651 0 9.1933274259299651 11.822432739210626 0 0 0 0 34.933968501245545 8.0039865400663075 0 8.0039865400663075 4.2147308798009817 0 0 0 0 31.252569904145275 3.5935819876449386 0 3.5935819876449386 -3.8911665723519491 0 0 0 0 28.162900829761838 15.310130234975588 0 15.310130234975588 19.556260491066951 0 0 0 0 45.59923554818306 16.864733208316238 0 16.864733208316238 8.7207567684945388 0 0 0 0 66.117701045108333 24.339333193821517 0 24.339333193821517 6.5435665697864351 0 0 0 0 69.772758018652326 3.0737190983788025 0 3.0737190983788025 -0.12513647158334607 0 0 0 0 45.658725860026607 13.126359134729682 0 13.126359134729682 6.8832761402732103 0 0 0 0 45.051862507596965 -5.8921735299766915 0 -5.8921735299766915 -1.4407789451013286 0 0 0 0 41.726339839708999 11.645205988362591 0 11.645205988362591 12.779204300538595 0 0 0 0 14.505347750075998 -9.9753251939358165 0 -9.9753251939358165 7.7697851341683872 0 0 0 0 45.236422484682407 12.353748433201076 0 12.353748433201076 7.6925803980369665 0 0 0 0 45.625833980306197 -3.0341261876293402 0 -3.0341261876293402 8.7681757264940074 0 0 0 0 30.961710957444666 5.0125661697189798 0 5.0125661697189798 31.642715929182714 0 0 0 0 33.377291922701261 16.69328503121028 0 16.69328503121028 10.453697023176687 0 0 0 0 57.011035722825909 -13.199516190307804 0 -13.199516190307804 9.9782188355778203 0 0 0 0 44.612226739651305 -4.5350079890471306 0 -4.5350079890471306 6.5457783674214625 0 0 0 0 47.110444542966889 -2.2234663566985233 0 -2.2234663566985233 1.2163667063750836 0 0 0 0 32.796047396237554 5.1265796539244661 0 5.1265796539244661 5.2865610123823217 0 0 0 0 48.341838499607547 -0.23263788005465358 0 -0.23263788005465358 2.7326985005272633 0 0 0 0 13.231385184739338 50.533580288050686 0 50.533580288050686 47.933724475205196 0 0 0 0 7.5307994740637696 0.072150894282600575 0 0.072150894282600575 9.1184273504987914 0 0 0 0 2.1742542768587931 -0.36858221507622169 0 -0.36858221507622169 1.8007970480790279 0 0 0 0 -0.96218398128772353 -0.42433566107279219 0 -0.42433566107279219 0.78182399294195459 0 0 0 0 -24.681846514816243 -6.8027250362372342 0 -6.8027250362372342 -38.649106088786539 0 0 0 0 80.667835574789024 -2.3816284352819821 0 -2.3816284352819821 -4.9554219239071244 0 0 0 0 17.031661166189224 3.342412543848809 0 3.342412543848809 14.528763369676426 0 0 0 0 52.954571682048481 26.841747782023845 0 26.841747782023845 11.130475407743461 0 0 0 0 39.996083172318322 -25.089396231177176 0 -25.089396231177176 -17.575721383939651 0 0 0 0 19.639421415813715 -4.6666544064560114 0 -4.6666544064560114 -1.3848411240011929 0 0 0 0 15.421136236250277 -29.009996103300974 0 -29.009996103300974 -27.825073171232113 0 0 0 0 -22.298265557108607 -20.094383085448015 0 -20.094383085448015 52.910296281626302 0 0 0 0 15.276477568732503 -29.460359867744877 0 -29.460359867744877 7.5140207109648713 0 0 0 0 20.777724208158361 45.425749729251869 0 45.425749729251869 27.660928771477046 0 0 0 0 19.193211724153418 -0.94214639568653524 0 -0.94214639568653524 -2.1765557173364933 0 0 0 0 49.646197374426265 -8.0485055257370277 0 -8.0485055257370277 3.0295797614400612 0 0 0 0 76.411564932211149 55.628552719220806 0 55.628552719220806 10.594030841160247 0 0 0 0 42.193895005355444 71.933599053270996 0 71.933599053270996 21.722632891087585 0 0 0 0 9.0309979984547226 -7.8669752498629322 0 -7.8669752498629322 -7.2190149698872119 0 0 0 0 12.687015055951633 1.825679001713354 0 1.825679001713354 -2.3487028846234352 0 0 0 0 -116.08067423959073 66.103085399668544 0 66.103085399668544 39.370971618050135 0 0 0 0 15.844093682801827 3.6673630371975499 0 3.6673630371975499 -7.6430548625268999 0 0 0 0 5.6641310524191795 -0.9261078866279604 0 -0.9261078866279604 12.125064483083179 0 0 0 0 10.394765605209614 5.8556506494400082 0 5.8556506494400082 8.6799822623777345 0 0 0 0 17.266338470273695 3.9045440330636438 0 3.9045440330636438 4.6630300314687929 0 0 0 0 16.754233790371472 11.680108431497132 0 11.680108431497132 1.6295292349104784 0 0 0 0 13.25233520340953 7.7530670348945705 0 7.7530670348945705 -2.2511578724661376 0 0 0 0 9.9301862902204903 2.8812093774156153 0 2.8812093774156153 -2.1163427806411619 0 0 0 0 69.46712007538008 20.093608938544094 0 20.093608938544094 -64.394408437917264 0 0 0 0 -22.841841565283858 -7.4358672180156731 0 -7.4358672180156731 -3.5243207238609102 0 0 0 0 11.924165886388415 8.3548109452766415 0 8.3548109452766415 -2.9158476769883537 0 0 0 0 -25.559012872894527 28.695373662148995 0 28.695373662148995 -10.332266574496316 0 0 0 0 12.898125927464207 8.0741558789125065 0 8.0741558789125065 -0.54652347131991519 0 0 0 0 -25.022062307019951 32.91875019356894 0 32.91875019356894 4.9035559413750889 0 0 0 0 -0.9242912093590121 1.0800568769368972 0 1.0800568769368972 -0.27530081262101902 0 0 0 0 12.611511801873348 33.256876912675295 0 33.256876912675295 -71.406124954720326 0 0 0 0 -17.164103744275053 0.53296673716431542 0 0.53296673716431542 9.922711472153992 0 0 0 0 -1.6396645744971892 2.2710982327418492 0 2.2710982327418492 1.2659975688196692 0 0 0 0 102.03621839753396 74.990613226454798 0 74.990613226454798 5.778633254685019 0 0 0 0 27.735791127221091 -70.394158605791233 0 -70.394158605791233 73.901416588128086 0 0 0 0 -11.911230070221791 5.8045404141689687 0 5.8045404141689687 -13.398824337499718 0 0 0 0 24.140984969206329 -50.434245525829738 0 -50.434245525829738 36.665626679104207 0 0 0 0 23.391426175418019 -6.1355791427840813 0 -6.1355791427840813 -34.041714560504488 0 0 0 0 10.853205675246677 1.6981277275999354 0 1.6981277275999354 -0.0064261191251591132 0 0 0 0 17.640592489369737 15.352966532536811 0 15.352966532536811 -11.117200685412854 0 0 0 0 13.024292194990167 5.1233819158023728 0 5.1233819158023728 -0.0014296270971376757 0 0 0 0 6.6216778011294082 13.436151154155596 0 13.436151154155596 -30.527628257113975 0 0 0 0 13.116938237697468 10.623419970555915 0 10.623419970555915 -5.933196368053359 0 0 0 0 17.598153961339875 1.3545130625975119 0 1.3545130625975119 -3.3645793986581145 0 0 0 0 114.99969638387302 -28.189808900639605 0 -28.189808900639605 -11.188047838367311 0 0 0 0 33.81954168250013 -69.40215806148035 0 -69.40215806148035 -2.6479117250845547 0 0 0 0 57.007952496922371 -113.08772982519287 0 -113.08772982519287 66.415709171830031 0 0 0 0 171.53852077052215 -130.92174194831534 0 -130.92174194831534 24.690512174959395 0 0 0 0 190.65915238175512 -1.4613799250473676 0 -1.4613799250473676 -53.20363300781699 0 0 0 0 76.923498189280508 39.307523429669345 0 39.307523429669345 -55.697971203135054 0 0 0 0 102.67620895582695 39.709714779474552 0 39.709714779474552 -77.281643962804083 0 0 0 0 207.0154096474771 -61.936786316522671 0 -61.936786316522671 -67.00085870953626 0 0 0 0 0.92425221729369511 1.786383566543055 0 1.786383566543055 1.6055469749559004 0 0 0 0 92.878272357558672 69.352929226635069 0 69.352929226635069 -110.84193713119203 0 0 0 0 55.314877186521471 -124.2905641008993 0 -124.2905641008993 40.047133072652287 0 0 0 0 -86.656306592929468 -36.147929384490908 0 -36.147929384490908 -43.894685636090344 0 0 0 0 1.4713799822002329 -76.229269060305569 0 -76.229269060305569 -130.25727891474526 0 0 0 0 15.216360845824525 -6.95108841692248 0 -6.95108841692248 3.4890719120300346 0 0 0 0 20.620081660425058 163.51144266645565 0 163.51144266645565 212.33948306309114 0 0 0 0 -8.0801262257864437 14.32566224370305 0 14.32566224370305 -25.426527355175494 0 0 0 0 -19.331200214499404 -36.565621116017041 0 -36.565621116017041 51.029754628055116 0 0 0 0 30.470912687262171 -15.970787145579607 0 -15.970787145579607 -63.917146575762558 0 0 0 0 -33.202564169530888 38.632913329464373 0 38.632913329464373 220.97390649206864 0 0 0 0 -45.066482399570305 171.26476685283916 0 171.26476685283916 -100.7190537732713 0 0 0 0 -24.728040634005083 121.3279690850095 0 121.3279690850095 71.018697683856885 0 0 0 0 112.97541645780166 40.324308199740699 0 40.324308199740699 113.26346910106895 0 0 0 0 26.573599892435109 -9.6288408393896763 0 -9.6288408393896763 2.0541817938721585 0 0 0 0 329.35689991882828 -111.25667996768971 0 -111.25667996768971 42.315266056577457 0 0 0 0 91.884550375790241 78.560613225933992 0 78.560613225933992 48.465315243771556 0 0 0 0 -101.6926489124271 -67.589624531793106 0 -67.589624531793106 120.70699066770885 0 0 0 0 166.76992100509233 51.585586078653023 0 51.585586078653023 44.265198897878335 0 0 0 0 27.114032989074758 -78.279970298730376 0 -78.279970298730376 121.8086214937648 0 0 0 0 -8.9581077374823508 13.984391713885373 0 13.984391713885373 143.52303798726348 0 0 0 0 7.5580140507471185 -1.4675096305296513 0 -1.4675096305296513 0.63436744925985211 0 0 0 0 67.445187171457746 128.03006606082789 0 128.03006606082789 138.31622408721501 0 0 0 0 120.28017470355735 176.74954833806476 0 176.74954833806476 16.813372071183494 0 0 0 0 108.98127368533278 95.754618732899814 0 95.754618732899814 17.021436099233597 0 0 0 0 1.4903732900327391 0.44709214462173819 0 0.44709214462173819 -1.2845681537369815 0 0 0 0 -7.9340045262324566 7.4411861423124037 0 7.4411861423124037 13.592783629420865 0 0 0 0 -6.0888539755906095 3.7388014507722573 0 3.7388014507722573 12.807278894841602 0 0 0 0 25.517888453707201 28.705945236971559 0 28.705945236971559 12.593879831122194 0 0 0 0 181.65367042113394 47.893692604035095 0 47.893692604035095 4.9822701007913111 0 0 0 0 75.715611526254179 -11.667288362244392 0 -11.667288362244392 2.6388616355611703 0 0 0 0 183.31259883211533 -46.973977885416502 0 -46.973977885416502 -54.560280209165228 0 0 0 0 223.51988437897671 -35.714035486329067 0 -35.714035486329067 -63.810146316353382 0 0 0 0 450.69935221979722 -2.0077901172935526 0 -2.0077901172935526 -79.595654016095068 0 0 0 0 385.89210797523629 9.7447037582442135 0 9.7447037582442135 -76.446109424689212 0 0 0 0 453.8119483677192 23.163770404898969 0 23.163770404898969 -10.43993665509629 0 0 0 0 212.27210943071805 180.28272093014232 0 180.28272093014232 89.120666297748585 0 0 0 0 50.190289023628793 -16.868233309863854 0 -16.868233309863854 7.3369571266214137 0 0 0 0 2.4349037231311712 -0.83710629515428714 0 -0.83710629515428714 0.0041488008403147703 0 0 0 0 89.340063212519453 56.21910480524275 0 56.21910480524275 13.515284366962533 0 0 0 0 4.6241295207398707 -28.24912225997862 0 -28.24912225997862 69.183631757472995 0 0 0 0 151.62396503188393 180.80533035296276 0 180.80533035296276 38.710236858499968 0 0 0 0 28.974988026413484 23.402294605709358 0 23.402294605709358 49.268052066141422 0 0 0 0 266.55231414197169 -123.49428525977669 0 -123.49428525977669 -70.140882047450816 0 0 0 0 0.71035642068160598 -0.59362048246340482 0 -0.59362048246340482 -1.1138280753615861 0 0 0 0 255.2764077179545 -104.00226884634571 0 -104.00226884634571 -83.38232883425394 0 0 0 0 297.61700319636566 -109.28606620950649 0 -109.28606620950649 -71.252150737796114 0 0 0 0 264.76401128688485 -144.46521290516887 0 -144.46521290516887 -97.284001616201522 0 0 0 0 381.47257285686919 -113.99528570260941 0 -113.99528570260941 -161.15530368466807 0 0 0 0 346.47644381515329 -99.72959716767383 0 -99.72959716767383 -76.369566893358069 0 0 0 0 570.34259920798831 -83.085260966124906 0 -83.085260966124906 -102.08925925926769 0 0 0 0 302.44578057017497 -177.47529877374632 0 -177.47529877374632 96.730683835188074 0 0 0 0 255.20475844072462 -104.17838641381775 0 -104.17838641381775 -12.168282854242506 0 0 0 0 152.06917464545495 -148.80078461358084 0 -148.80078461358084 2.2019375792251594 0 0 0 0 -50.754454709065612 12.568388662160032 0 12.568388662160032 -58.66060779683778 0 0 0 0 -7.7068375588837625 -96.873981095951819 0 -96.873981095951819 -31.172712045121671 0 0 0 0 60.751654067564232 -25.728789412355923 0 -25.728789412355923 -163.40683622820575 0 0 0 0 -298.81243882643821 52.424946681426263 0 52.424946681426263 156.33873388997495 0 0 0 0 -0.1724393199883707 -122.88668692457921 0 -122.88668692457921 197.68372141579971 0 0 0 0 55.529224214809801 17.037568433815409 0 17.037568433815409 89.301569979176435 0 0 0 0 85.162875305610214 -84.030163487795676 0 -84.030163487795676 367.06714106593688 0 0 0 0 517.74064426746554 -188.4009700065792 0 -188.4009700065792 82.789350269390411 0 0 0 0 617.32795332997921 -336.8730230462611 0 -336.8730230462611 287.3746860511892 0 0 0 0 363.04350610921756 -72.086053308071996 0 -72.086053308071996 501.09336038144784 0 0 0 0 308.65843801490337 -189.06552053101197 0 -189.06552053101197 365.12666419828599 0 0 0 0 414.62841135265944 235.32607589563236 0 235.32607589563236 729.87795681527791 0 0 0 0 409.45184425184971 178.27310820786641 0 178.27310820786641 225.36447648449075 0 0 0 0 476.504834012625 120.64814287903846 0 120.64814287903846 -28.544724309178264 0 0 0 0 25.712571757787373 53.804836903181041 0 53.804836903181041 200.2535426569786 0 0 0 0 62.449046885301868 158.95075328560989 0 158.95075328560989 -121.74750325407457 0 0 0 0 -155.98035637724479 -69.281997398062089 0 -69.281997398062089 137.80435136232774 0 0 0 0 -90.938159585250105 -20.309136968171174 0 -20.309136968171174 157.09421534759667 0 0 0 0 -16.189570907616144 -147.89742682307781 0 -147.89742682307781 339.84965892838181 0 0 0 0 -12.394668101154821 19.200585708552694 0 19.200585708552694 -86.023635625355439 0 0 0 0 838.01048427349451 92.282104938876728 0 92.282104938876728 189.16506798975229 0 0 0 0 2.9106940926194511 14.339076415522783 0 14.339076415522783 252.7380329256074 0 0 0 0 1.6343529486339889 -0.36887423454939139 0 -0.36887423454939139 0.25407076274382412 0 0 0 0 4.6272437711528767 -2.8411880575771651 0 -2.8411880575771651 1.9808577815953097 0 0 0 0 139.97261326760781 -220.88855313837234 0 -220.88855313837234 336.80082647591598 0 0 0 0 596.82649766187751 240.84746830840209 0 240.84746830840209 87.197355649331897 0 0 0 0 833.67241507456311 -36.131809613221208 0 -36.131809613221208 -25.733350038341428 0 0 0 0 570.33125504232885 -292.6829655482718 0 -292.6829655482718 729.10104511845407 0 0 0 0 451.43190282629439 -216.93212037606156 0 -216.93212037606156 29.591103354318079 0 0 0 0 493.67601378913605 -413.46965718808337 0 -413.46965718808337 306.2644759476986 0 0 0 0 298.02957275330118 -216.82958950643297 0 -216.82958950643297 162.88118583378787 0 0 0 0 106.12087106498439 -187.28000810180913 0 -187.28000810180913 180.27354197353725 0 0 0 0 978.97976269672108 -85.2046472903574 0 -85.2046472903574 59.553744394414451 0 0 0 0 300.49338215492207 -95.046243443235198 0 -95.046243443235198 65.313733285452059 0 0 0 0 87.709358864043224 -240.05525169493839 0 -240.05525169493839 193.65707893349941 0 0 0 0 6.498760009486432 -142.25646185446067 0 -142.25646185446067 85.979692120590187 0 0 0 0 85.661773801697564 -205.41150444348727 0 -205.41150444348727 105.12815509153234 0 0 0 0 152.38915606245337 -197.90155241019249 0 -197.90155241019249 51.279119338805458 0 0 0 0 310.5916194018364 -27.024446781507322 0 -27.024446781507322 -167.59846977874622 0 0 0 0 78.487169192630972 -80.886532855007772 0 -80.886532855007772 -12.870506942878592 0 0 0 0 56.166237175853894 67.440648210320887 0 67.440648210320887 -168.62730869978984 0 0 0 0 152.0109016639135 -30.025608433390744 0 -30.025608433390744 -175.83187744740326 0 0 0 0 20.451267985248499 1.7565905080968021 0 1.7565905080968021 -5.0665153698402996 0 0 0 0 -42.637482699496104 -56.277752835447245 0 -56.277752835447245 -19.915118951579871 0 0 0 0 72.846932321815075 35.155280472928595 0 35.155280472928595 -31.779184658853637 0 0 0 0 -122.66418142629482 328.28843328149162 0 328.28843328149162 -40.507273661119939 0 0 0 0 41.257473878355675 24.62881227868791 0 24.62881227868791 -7.4845915954411328 0 0 0 0 388.00412459067047 191.4199203674878 0 191.4199203674878 37.382018115110668 0 0 0 0 463.65293002506223 337.34102156871927 0 337.34102156871927 239.73299059368583 0 0 0 0 -45.015130837674405 27.516693649528179 0 27.516693649528179 -43.344830508480982 0 0 0 0 8.2983777469653432 17.89350735999642 0 17.89350735999642 -4.648080422583007 0 0 0 0 46.179758973292763 11.639272340749116 0 11.639272340749116 -14.841954698924745 0 0 0 0 -0.030083141335783381 -0.013365808793544431 0 -0.013365808793544431 0.89240770367350297 0 0 0 0 36.22608223280622 2.9329241593900406 0 2.9329241593900406 -10.21771057580662 0 0 0 0 431.00258194081107 -3.9052376027063929 0 -3.9052376027063929 -183.63204770841548 0 0 0 0 35.098937073375055 -13.758378255290381 0 -13.758378255290381 132.01452778074145 0 0 0 0 221.44832829396182 -121.76279336876951 0 -121.76279336876951 55.577314820288393 0 0 0 0 0.83355775478728056 -0.22774871264113727 0 -0.22774871264113727 -0.66745365817703917 0 0 0 0 82.222037489707873 8.7888134728549403 0 8.7888134728549403 30.29741458872013 0 0 0 0 13.190728851763893 -2.3793510194687784 0 -2.3793510194687784 3.9650820403446216 0 0 0 0 43.691915635437908 -18.983193755195316 0 -18.983193755195316 14.819242229817064 0 0 0 0 37.03126413008431 5.7502768111489786 0 5.7502768111489786 14.879323668093207 0 0 0 0 3.8512549471051898 -34.859011289155205 0 -34.859011289155205 8.5092338986532923 0 0 0 0 52.240232365242264 27.163985138023236 0 27.163985138023236 89.991521139766064 0 0 0 0 -4.6146513938605267 -6.8304450341990126 0 -6.8304450341990126 3.3326700543267815 0 0 0 0 91.94927363671377 -13.377761108147752 0 -13.377761108147752 10.197223638859214 0 0 0 0 86.16770147261559 -12.341938247454891 0 -12.341938247454891 10.619261607535009 0 0 0 0 36.942939396292786 2.8125960437234596 0 2.8125960437234596 -11.531663227834088 0 0 0 0 44.615540115514506 -8.0097182021750157 0 -8.0097182021750157 -1.4028986563706356 0 0 0 0 89.961508182828766 -21.905953923382469 0 -21.905953923382469 -0.37049423011649196 0 0 0 0 87.879784143393408 -14.352790678336419 0 -14.352790678336419 -3.6076970797385002 0 0 0 0 73.571642276991042 -23.232923749416841 0 -23.232923749416841 -5.0089452373889571 0 0 0 0 81.904661296313861 -21.843259297525037 0 -21.843259297525037 3.4687412845969448 0 0 0 0 15.13354190789687 -6.0697258277841684 0 -6.0697258277841684 4.2657680976371921 0 0 0 0 14.715134562873573 -5.1799065977484133 0 -5.1799065977484133 2.4331112949321323 0 0 0 0 1.8611540965267892 -4.4557898952324848 0 -4.4557898952324848 2.8679467026177132 0 0 0 0 51.992649913958303 -6.8854995532958583 0 -6.8854995532958583 7.1363384081960248 0 0 0 0 84.960019214398017 1.9647757515751323 0 1.9647757515751323 -1.070320650938811 0 0 0 0 15.592839817958151 -13.906494156873762 0 -13.906494156873762 10.178534233769025 0 0 0 0 75.095616870231879 12.946329800475468 0 12.946329800475468 -4.7829622500980804 0 0 0 0 54.635455960722538 71.034920012954217 0 71.034920012954217 -10.848394479334047 0 0 0 0 63.136211775257124 19.303310265361937 0 19.303310265361937 -23.401088981055871 0 0 0 0 101.90973816819314 -18.026978919994463 0 -18.026978919994463 -0.29551506836924091 0 0 0 0 101.75832507866795 -30.732385354400837 0 -30.732385354400837 -0.095364715931282262 0 0 0 0 97.336708009825088 -27.169744447814537 0 -27.169744447814537 -1.2842526164326955 0 0 0 0 107.65411855759157 -26.295669441065456 0 -26.295669441065456 -22.262656992628763 0 0 0 0 148.71577668965074 -31.61984627442871 0 -31.61984627442871 -12.621050201833214 0 0 0 0 112.31403275103003 47.869017931019471 0 47.869017931019471 -49.406401365414467 0 0 0 0 159.99534078606666 -54.687658916547207 0 -54.687658916547207 -31.063872485128286 0 0 0 0 139.74959059645334 -43.698941031732375 0 -43.698941031732375 -26.862605841499771 0 0 0 0 37.047560374474415 -3.8179515405863071 0 -3.8179515405863071 19.603232958898047 0 0 0 0 0.45850103581997814 0.87044630681721458 0 0.87044630681721458 8.5893643863715567 0 0 0 0 141.23351876268862 -50.451930342637979 0 -50.451930342637979 -11.275952676114912 0 0 0 0 57.371550508254586 -16.458139347866194 0 -16.458139347866194 17.697107744623167 0 0 0 0 83.343360075645251 -11.190994261840103 0 -11.190994261840103 8.4205121829924678 0 0 0 0 63.677869545419526 -3.7399911292761487 0 -3.7399911292761487 8.3731894287027728 0 0 0 0 0.15810191332708179 1.3583509524345239 0 1.3583509524345239 9.5186332651040768 0 0 0 0 83.527354493687199 -33.246206661617286 0 -33.246206661617286 21.765366445403174 0 0 0 0 31.351811916740189 -21.838756582118108 0 -21.838756582118108 11.839752691694628 0 0 0 0 26.772281985849986 -2.7793147016704722 0 -2.7793147016704722 -4.6123395568245087 0 0 0 0 2.0959905993193928 -0.02900640133736232 0 -0.02900640133736232 -0.94949960705570202 0 0 0 0 8.3844353166532528 30.034568239935936 0 30.034568239935936 4.8971414005956149 0 0 0 0 53.466046281486342 19.327710057543754 0 19.327710057543754 20.381144034268857 0 0 0 0 115.96875412327699 -24.0824236516643 0 -24.0824236516643 4.4727041287105749 0 0 0 0 13.923821749343006 -19.448001474899264 0 -19.448001474899264 28.383010799860585 0 0 0 0 134.72341739066178 -75.903557697415124 0 -75.903557697415124 -5.1917272703490198 0 0 0 0 0.66136320785469849 2.1089394552495939 0 2.1089394552495939 6.8241669117170103 0 0 0 0 -105.48079861992528 85.136981159199053 0 85.136981159199053 107.8036701605422 0 0 0 0 405.60225953516419 326.33891235565034 0 326.33891235565034 142.64728149740085 0 0 0 0 280.20821859199714 -266.18216578044644 0 -266.18216578044644 38.606349799583541 0 0 0 0 79.412526560746301 -179.92524745848198 0 -179.92524745848198 1.7639811166911841 0 0 0 0 362.94572049634553 176.91782311274096 0 176.91782311274096 71.691209195186502 0 0 0 0 2.3108332932411173 -4.5368836129337478 0 -4.5368836129337478 3.5174642538186456 0 0 0 0 52.16187769575572 -232.58141951978854 0 -232.58141951978854 133.93012658459747 0 0 0 0 198.61659002976376 -355.44663068215004 0 -355.44663068215004 58.264338315707619 0 0 0 0 -130.57192670797849 -144.22631149836832 0 -144.22631149836832 101.19597058030467 0 0 0 0 434.79996259908057 -186.84270188151038 0 -186.84270188151038 -109.06090508062243 0 0 0 0 7.5632807546436283 3.3656458297154828 0 3.3656458297154828 0.34268567417821194 0 0 0 0 1498.5389143584835 -409.64145565897951 0 -409.64145565897951 -180.01825328199143 0 0 0 0 383.87868297057503 30.871435881322483 0 30.871435881322483 -246.14764905291366 0 0 0 0 385.10160873069617 255.37332817199754 0 255.37332817199754 -291.09994645561119 0 0 0 0 488.00608412999281 -236.67978221166334 0 -236.67978221166334 56.941774439039598 0 0 0 0 139.94211270962114 -100.20088895185695 0 -100.20088895185695 74.361661861707717 0 0 0 0 66.994507082170458 -70.925809108213201 0 -70.925809108213201 -5.4807420132085412 0 0 0 0 201.78291968693884 -93.653901726859075 0 -93.653901726859075 -76.128386413537839 0 0 0 0 191.76756969314738 -60.829923987321699 0 -60.829923987321699 -9.159839178856565 0 0 0 0 165.93907804354239 -149.77588847751798 0 -149.77588847751798 -59.044617915269683 0 0 0 0 153.24106326809851 -150.8883277916697 0 -150.8883277916697 68.555256238319203 0 0 0 0 7.936560094398672 0.60445033822983874 0 0.60445033822983874 -0.075693470072711655 0 0 0 0 -0.76750746848665585 -16.744180290963676 0 -16.744180290963676 16.223010839781551 0 0 0 0 8.5132450310193235 -38.251189750730951 0 -38.251189750730951 -82.144406327409499 0 0 0 0 6.1469801800958521 -102.04192658688807 0 -102.04192658688807 56.233295520571289 0 0 0 0 233.84090237081546 232.17034396999779 0 232.17034396999779 37.366381587834589 0 0 0 0 3.0238630795862349 0.34438641339503917 0 0.34438641339503917 0.20473357176327417 0 0 0 0 1014.2520211929586 54.128050327868294 0 54.128050327868294 -73.028735701399839 0 0 0 0 249.71457939014726 -330.02588915597363 0 -330.02588915597363 272.61968881823418 0 0 0 0 510.01216465487141 581.39233726982036 0 581.39233726982036 56.142961798364979 0 0 0 0 4.9342165034671837 1.6325007065627233 0 1.6325007065627233 0.17749119940952932 0 0 0 0 1495.6455379298241 234.58988471007217 0 234.58988471007217 38.690941517536338 0 0 0 0 973.79121202461829 -86.662005601726378 0 -86.662005601726378 -154.84770330162581 0 0 0 0 1501.3565751688075 -11.721367972961644 0 -11.721367972961644 -219.81661453837327 0 0 0 0 1127.3571781579813 -247.73729273327044 0 -247.73729273327044 -133.57714749621826 0 0 0 0 430.89124064783391 92.051117770775107 0 92.051117770775107 -18.420741345068606 0 0 0 0 495.77083231451979 -252.90789557614335 0 -252.90789557614335 -27.672544743077793 0 0 0 0 543.90242837853293 -219.38031316181701 0 -219.38031316181701 -38.100098146621406 0 0 0 0 513.89682962169354 -222.15005238721693 0 -222.15005238721693 -35.147170736860133 0 0 0 0 1496.7352484588946 -892.39078983837135 0 -892.39078983837135 322.65189635106367 0 0 0 0 317.9477186531949 451.14405069025901 0 451.14405069025901 195.75453617554956 0 0 0 0 5.9704032341700781 0.35775362442459624 0 0.35775362442459624 0.43855631630700087 0 0 0 0 394.25574678121484 84.773387189271077 0 84.773387189271077 0.34072892833401852 0 0 0 0 10.818651710433187 -51.038290685467956 0 -51.038290685467956 -200.46845113828587 0 0 0 0 525.33849437370736 -255.43858237595094 0 -255.43858237595094 -34.087001186214565 0 0 0 0 13.228292278953433 2.5966025139310069 0 2.5966025139310069 -0.37447484332221348 0 0 0 0 3.8198629029905788 -0.87393379894484013 0 -0.87393379894484013 -1.4471643812574957 0 0 0 0 103.00849055142317 -148.21729515171234 0 -148.21729515171234 -34.850342593232398 0 0 0 0 71.773952400093549 -71.548491082428626 0 -71.548491082428626 -193.64402860392028 0 0 0 0 -38.641385168564739 -99.557239744684978 0 -99.557239744684978 110.94189113955338 0 0 0 0 -60.762838600188843 -3.8973966728498306 0 -3.8973966728498306 130.31867955811225 0 0 0 0 -64.301053984585451 -24.537512871064461 0 -24.537512871064461 32.086846959452764 0 0 0 0 1494.1153899020296 370.39184835431126 0 370.39184835431126 -114.28292412259542 0 0 0 0 0.69240420100686606 -26.93093418316187 0 -26.93093418316187 -0.07869077349404216 0 0 0 0 20.077291117471759 -28.918661786820962 0 -28.918661786820962 -17.000430913393096 0 0 0 0 27.128461861073447 3.5919211003815832 0 3.5919211003815832 14.178251004755175 0 0 0 0 -29.92503733891499 -81.611027086576883 0 -81.611027086576883 -45.117008284323916 0 0 0 0 18.376283139587031 -3.3780250171019794 0 -3.3780250171019794 -35.366991698154607 0 0 0 0 6.5424367166311868 2.0376928154537524 0 2.0376928154537524 0.27488064352771824 0 0 0 0 15.763221952438471 22.085088139169329 0 22.085088139169329 -108.72182651401627 0 0 0 0 5.5796708670586668 -6.0450869511718208 0 -6.0450869511718208 -1.9452821384926722 0 0 0 0 6.5586456621967955 -9.09082157640497 0 -9.09082157640497 -23.216228351158435 0 0 0 0 7.0855026031013892 1.6292391877269345 0 1.6292391877269345 -0.033297197273426393 0 0 0 0 6.2377597420490929 2.4779519672294832 0 2.4779519672294832 2.1208963580746598 0 0 0 0 7.897552424314199 3.3087935825870005 0 3.3087935825870005 -0.48447925767518996 0 0 0 0 153.43019466110127 110.05250290188521 0 110.05250290188521 -3.9491636393732961 0 0 0 0 7.6837091043961436 2.8319080648823771 0 2.8319080648823771 -0.34618355137497603 0 0 0 0 7.7257635985733941 1.3807002800812711 0 1.3807002800812711 -1.6948861788481864 0 0 0 0 -47.076977919547062 25.979661911333579 0 25.979661911333579 137.28759326431009 0 0 0 0 265.58892541946079 -67.971542912432255 0 -67.971542912432255 14.324924229941104 0 0 0 0 -47.221936713060131 30.40935381934797 0 30.40935381934797 4.7873817578751883 0 0 0 0 7.4426214551349403 1.9103307038755943 0 1.9103307038755943 1.6823623818526698 0 0 0 0 5.0932813294715089 3.6349366210178644 0 3.6349366210178644 0.13238468813760917 0 0 0 0 7.4147244461607897 0.81545428114037466 0 0.81545428114037466 1.5680490433329908 0 0 0 0 105.51920244583016 -39.432052672867641 0 -39.432052672867641 -14.197049380129158 0 0 0 0 1.2178950180874626 3.0197427032563553 0 3.0197427032563553 0.91436709548486772 0 0 0 0 10.176716469886742 1.5973104667567597 0 1.5973104667567597 0.63105018373610733 0 0 0 0 217.83686005725758 -5.5722021005355771 0 -5.5722021005355771 -37.68172750732333 0 0 0 0 141.09730494052928 -68.785335769353111 0 -68.785335769353111 -83.9411801258168 0 0 0 0 130.95270446462382 -19.424614009030577 0 -19.424614009030577 -36.386354172924108 0 0 0 0 115.68813588196645 7.2960219716571508 0 7.2960219716571508 -17.757077653015941 0 0 0 0 145.66552814415991 -0.76313250645479158 0 -0.76313250645479158 -15.683800560724414 0 0 0 0 126.94413675449323 -30.731364203407992 0 -30.731364203407992 -3.8780123034043754 0 0 0 0 123.16444014490116 -8.9564778143622235 0 -8.9564778143622235 -0.90117836238864868 0 0 0 0 124.38959162624087 -10.60790314676143 0 -10.60790314676143 -5.3220694918501987 0 0 0 0 131.45104799482215 5.4649851971325241 0 5.4649851971325241 -9.3642361603703463 0 0 0 0 87.56086505168787 15.266353318898961 0 15.266353318898961 -4.8292061076517854 0 0 0 0 6.6077416378684575 -2.9740373303793639 0 -2.9740373303793639 -7.4756561821371221 0 0 0 0 126.43814600705628 -29.526578215484655 0 -29.526578215484655 7.8155717588084599 0 0 0 0 216.92831706808647 -22.108510179336747 0 -22.108510179336747 7.1614240104213991 0 0 0 0 168.07328937522834 17.572282779172397 0 17.572282779172397 -6.3402745057154561 0 0 0 0 124.16043156600426 -10.367700248183485 0 -10.367700248183485 24.446441211326402 0 0 0 0 -0.37266624667589099 0.56991341692189224 0 0.56991341692189224 0.40490121236450516 0 0 0 0 134.01850281585939 -4.6825330333244715 0 -4.6825330333244715 5.0827485237726648 0 0 0 0 1.2434774627835292 -0.33239279557579948 0 -0.33239279557579948 -0.18025071945120119 0 0 0 0 149.67446129380733 -6.4686783059644997 0 -6.4686783059644997 -12.293351263509038 0 0 0 0 110.10717635596666 -2.3759656230910911 0 -2.3759656230910911 -6.5988493603985008 0 0 0 0 108.73803224570293 13.682342022174698 0 13.682342022174698 -14.567248671276888 0 0 0 0 119.78455510747881 -10.289476194299649 0 -10.289476194299649 2.7692576726374867 0 0 0 0 101.94937743418268 2.9806439085480028 0 2.9806439085480028 -0.016820141522281593 0 0 0 0 0.01232684513071014 -0.21082703005258452 0 -0.21082703005258452 -0.080643894776659411 0 0 0 0 115.99164269823814 5.9275016793026634 0 5.9275016793026634 -6.9540919457779662 0 0 0 0 -16.21242400695337 -15.500290416938601 0 -15.500290416938601 -6.0288674734858354 0 0 0 0 13.669788764924306 26.547888719016797 0 26.547888719016797 3.8549235412456611 0 0 0 0 80.575352751078753 25.476677152447344 0 25.476677152447344 -12.78639464499709 0 0 0 0 50.460072167123144 11.726069257471622 0 11.726069257471622 -0.0045240543397509596 0 0 0 0 58.421120703977067 34.063585412771907 0 34.063585412771907 -24.990398238760189 0 0 0 0 93.573490612136084 6.3369516698333763 0 6.3369516698333763 -8.7391868974123419 0 0 0 0 16.472273017285715 3.3873028004314305 0 3.3873028004314305 -14.775131615693855 0 0 0 0 23.790142085880689 5.6920175164223394 0 5.6920175164223394 2.8607632280588007 0 0 0 0 1.2194933903069085 -0.58889720655272981 0 -0.58889720655272981 -0.4155435283114759 0 0 0 0 24.908021599232598 2.15301611155998 0 2.15301611155998 11.022676600332986 0 0 0 0 82.201781124036643 4.5484338365256676 0 4.5484338365256676 -24.626620684665106 0 0 0 0 32.832785933205741 -6.694825407273143 0 -6.694825407273143 5.3966527107208293 0 0 0 0 127.00257717715067 62.159234150110883 0 62.159234150110883 31.034133939108244 0 0 0 0 65.088121293490985 37.365470738174757 0 37.365470738174757 23.476775512191722 0 0 0 0 30.654638099666045 -2.268473310722058 0 -2.268473310722058 -3.149994919090787 0 0 0 0 6.9120988145966749 -2.0550492744876401 0 -2.0550492744876401 0.11024713763728822 0 0 0 0 18.633680691746122 4.1365629916176658 0 4.1365629916176658 -104.48984732193696 0 0 0 0 60.631131678850579 32.560919267342072 0 32.560919267342072 -89.338838729773869 0 0 0 0 23.721221245148627 22.970401045842465 0 22.970401045842465 -30.092263009907118 0 0 0 0 100.76204973544009 17.234817412222242 0 17.234817412222242 68.862621743836939 0 0 0 0 104.45949825092976 -18.176021898680659 0 -18.176021898680659 -44.819620427564018 0 0 0 0 219.22800853893568 -88.226896058552938 0 -88.226896058552938 -16.996313036144137 0 0 0 0 119.75784493843821 -146.42265976299069 0 -146.42265976299069 78.601119237592798 0 0 0 0 2.4637740787397036 -0.97548244924532312 0 -0.97548244924532312 0.43743682617931295 0 0 0 0 106.74181940357448 -154.38793859301262 0 -154.38793859301262 -49.949842431211735 0 0 0 0 0.46114717071759515 -51.088833692285753 0 -51.088833692285753 -21.502040679769209 0 0 0 0 222.81862416392687 138.63842930067645 0 138.63842930067645 39.583114522391881 0 0 0 0 306.61678697274328 12.975578168735964 0 12.975578168735964 -128.5257839885229 0 0 0 0 11.647072670053603 1.3550989509002207 0 1.3550989509002207 0.99755823528009557 0 0 0 0 4.7698455882197095 3.0852661084100887 0 3.0852661084100887 -0.6957622092205149 0 0 0 0 -0.78197817569161998 23.857082036827521 0 23.857082036827521 262.0922632723545 0 0 0 0 3.708334935221151 2.9646568521950343 0 2.9646568521950343 0.43957590549904441 0 0 0 0 8.802731676667463 3.9531403436835717 0 3.9531403436835717 -3.604295673253791 0 0 0 0 10.281853738933535 2.1487644672955746 0 2.1487644672955746 -0.8605077419244368 0 0 0 0 98.97554375450818 17.352024717300683 0 17.352024717300683 -49.660594515870173 0 0 0 0 -6.0290700136465603 -4.654940604803155 0 -4.654940604803155 -3.9628847092961621 0 0 0 0 15.31517575640186 1.2101997455391853 0 1.2101997455391853 -2.8182183065678927 0 0 0 0 1.6661558791947755 6.2607801486913104 0 6.2607801486913104 -2.5444293854889111 0 0 0 0 123.72884188326134 -59.631980039565974 0 -59.631980039565974 -17.816953622008015 0 0 0 0 145.94866388998344 -122.02482943683975 0 -122.02482943683975 -23.370236259049534 0 0 0 0 183.9730708809293 -79.426781952481221 0 -79.426781952481221 -81.324933649667571 0 0 0 0 41.006529913225677 46.186832503097662 0 46.186832503097662 -136.08734374309915 0 0 0 0 7.7610944335231835 5.0701747693781698 0 5.0701747693781698 -0.83958955004466418 0 0 0 0 9.406123373588045 8.7566407519439515 0 8.7566407519439515 -2.3662526756701872 0 0 0 0 -5.5019253976461187 26.260153162417737 0 26.260153162417737 34.49148649615222 0 0 0 0 14.251713999663536 6.7418404672202996 0 6.7418404672202996 -1.3975273501878951 0 0 0 0 38.324600048203138 -4.6283980628524404 0 -4.6283980628524404 -4.5882679696451802 0 0 0 0 33.288036300248677 14.300045505255653 0 14.300045505255653 -52.222662996118828 0 0 0 0 1.4434991252798852 2.0753519844921904 0 2.0753519844921904 -0.12078442991322824 0 0 0 0 4.8161373574365278 -0.30600318982562413 0 -0.30600318982562413 -0.89977460582616886 0 0 0 0 -27.860304241552512 55.160862566662558 0 55.160862566662558 -39.961961279175455 0 0 0 0 248.72689193025144 8.5151357278811872 0 8.5151357278811872 -88.241534610922557 0 0 0 0 4.8287424075606395 -8.6271284616518216 0 -8.6271284616518216 61.943320636576786 0 0 0 0 -64.138270380273752 57.889012647522165 0 57.889012647522165 57.711148920259035 0 0 0 0 -1.5730338710272918 58.447539292467667 0 58.447539292467667 -53.463301768117219 0 0 0 0 76.28617633554677 40.406296309882009 0 40.406296309882009 -22.432313798081822 0 0 0 0 -25.263268600992888 58.272400590828695 0 58.272400590828695 -4.9080610958831272 0 0 0 0 11.457114166019508 7.0798764071070082 0 7.0798764071070082 -1.6528562229330896 0 0 0 0 -19.422524033172522 40.47717049838694 0 40.47717049838694 -15.695715081690523 0 0 0 0 122.20530969202082 -127.64944672583499 0 -127.64944672583499 53.84042821786899 0 0 0 0 75.994437691239966 -82.741063626829643 0 -82.741063626829643 14.489158843503901 0 0 0 0 84.303147679667745 -57.030085455051022 0 -57.030085455051022 1.5572259438878291 0 0 0 0 220.17255527045199 -143.17047393019408 0 -143.17047393019408 23.198208821876392 0 0 0 0 124.21419668331146 -130.04948450897993 0 -130.04948450897993 123.55743287695793 0 0 0 0 211.06220567008131 -2.2375612929731687 0 -2.2375612929731687 -39.937511883354091 0 0 0 0 10.805365103682561 28.476732525369755 0 28.476732525369755 -133.37518270855173 0 0 0 0 -47.058774105833436 -1.9447175256088656 0 -1.9447175256088656 -70.241749225299145 0 0 0 0 -27.717485455970746 31.459008315492042 0 31.459008315492042 -13.069982418488507 0 0 0 0 121.26186840044465 -47.838785295654276 0 -47.838785295654276 -22.891454308263349 0 0 0 0 34.363507279660553 67.481065337187431 0 67.481065337187431 -68.934537717583453 0 0 0 0 150.37104481739152 -114.35856110840072 0 -114.35856110840072 10.781616759503436 0 0 0 0 132.04604274583835 -100.80398207960724 0 -100.80398207960724 16.515809193013183 0 0 0 0 269.04001466734917 58.851113788323005 0 58.851113788323005 -17.513285741499089 0 0 0 0 23.576651083360048 74.769650487190404 0 74.769650487190404 73.137882212675038 0 0 0 0 144.84067294206034 227.26033594862395 0 227.26033594862395 11.487435579283414 0 0 0 0 8.484066124377339 -17.494917129534933 0 -17.494917129534933 10.582180507092254 0 0 0 0 -60.978022039649659 -3.1015472872632586 0 -3.1015472872632586 192.14270248701666 0 0 0 0 410.34997686228598 232.62546352759412 0 232.62546352759412 93.984116670757885 0 0 0 0 615.95370233296126 -54.264552802172645 0 -54.264552802172645 -145.92883340487052 0 0 0 0 4.4543878247773705 -3.4893499002859372 0 -3.4893499002859372 2.0365649656724139 0 0 0 0 638.86215885722049 64.305640151932607 0 64.305640151932607 115.57876719877322 0 0 0 0 1.7249640365497783 1.6011088817166623 0 1.6011088817166623 0.5929493159367607 0 0 0 0 -224.48245852647233 245.23072060391462 0 245.23072060391462 33.529245225874632 0 0 0 0 461.52771296322317 -174.34386214870631 0 -174.34386214870631 -76.16524202267685 0 0 0 0 63.063392714157089 -29.78265271439933 0 -29.78265271439933 -13.372830867244677 0 0 0 0 231.45339675865034 61.061864931251598 0 61.061864931251598 3.5412679986445852 0 0 0 0 5.383792954046779 1.2888328483754208 0 1.2888328483754208 1.0147485202203061 0 0 0 0 241.79109028655512 43.197468052303606 0 43.197468052303606 12.005730418146396 0 0 0 0 282.23540256094202 41.836355525959227 0 41.836355525959227 -34.60496484097866 0 0 0 0 240.19257053218098 -5.2231596834808549 0 -5.2231596834808549 -27.402499877953339 0 0 0 0 -85.679581806136412 153.27402326409407 0 153.27402326409407 -104.89491097669782 0 0 0 0 3.0802580662485894 3.0991824608063752 0 3.0991824608063752 0.58105420311682254 0 0 0 0 61.17338793091767 52.868512730787018 0 52.868512730787018 -60.481024766797617 0 0 0 0 -40.000599444076215 41.248416056668049 0 41.248416056668049 -37.764379925221931 0 0 0 0 23.650071902942727 46.929719261609648 0 46.929719261609648 -71.314753134511562 0 0 0 0 -9.7324938885285519 46.136888905761509 0 46.136888905761509 -70.177033638564296 0 0 0 0 4.2741586778163025 1.9704065722569624 0 1.9704065722569624 -1.1410636304976369 0 0 0 0 38.006990611338551 10.226308410471574 0 10.226308410471574 1.9255086828030556 0 0 0 0 46.132827205014109 -8.0569070819699657 0 -8.0569070819699657 21.809206856645574 0 0 0 0 3.0700519558511701 -0.3780624302655049 0 -0.3780624302655049 -0.2663504013928828 0 0 0 0 14.732235148941982 3.2325966698870978 0 3.2325966698870978 -45.878689705146606 0 0 0 0 0.70977837325335713 35.018886691443853 0 35.018886691443853 -25.06147623205905 0 0 0 0 12.007421670350595 17.998370507669442 0 17.998370507669442 -3.7174523647353261 0 0 0 0 55.089650808722581 -29.799288338582198 0 -29.799288338582198 9.4123690488447878 0 0 0 0 27.034598577469296 15.928318035849282 0 15.928318035849282 0.034077831645059842 0 0 0 0 223.08996223435861 25.188983476679915 0 25.188983476679915 -0.031271897118791768 0 0 0 0 174.51118273013344 -31.449026097530705 0 -31.449026097530705 -27.003934829299475 0 0 0 0 118.27448117789027 11.018944976097465 0 11.018944976097465 -0.012017020254510322 0 0 0 0 291.54725481718197 -6.4111033615663473 0 -6.4111033615663473 -43.628603633680292 0 0 0 0 245.72395467228307 54.616825228273996 0 54.616825228273996 9.177311225688868 0 0 0 0 234.40337589847695 4.5554176660236827 0 4.5554176660236827 44.324895521981205 0 0 0 0 249.64453235346082 104.72195534872563 0 104.72195534872563 6.9994272198241809 0 0 0 0 1.1728277153249564 -0.35859572732503153 0 -0.35859572732503153 0.11523689624997499 0 0 0 0 89.6582793569778 -98.47319322267019 0 -98.47319322267019 -30.290426964842865 0 0 0 0 280.45568129607091 8.8950938220079756 0 8.8950938220079756 -9.0016871386380473 0 0 0 0 66.52229043575062 -4.6380639832134847 0 -4.6380639832134847 -7.4022465091558871 0 0 0 0 65.08168546899833 4.184747401055791 0 4.184747401055791 -2.2023070099794584 0 0 0 0 68.477223354153466 -0.71972458383293869 0 -0.71972458383293869 -9.4341492789250907 0 0 0 0 63.438001530266774 0.42934880784764573 0 0.42934880784764573 -9.6674380801503403 0 0 0 0 82.739565001014853 2.2191827142050311 0 2.2191827142050311 -4.2950297775443502 0 0 0 0 0.29005961128942914 0.41113753962652311 0 0.41113753962652311 0.51004583356223732 0 0 0 0 71.361413491984422 5.06316769999101 0 5.06316769999101 3.4299912850617664 0 0 0 0 78.011380811502022 -6.1308360676643128 0 -6.1308360676643128 0.020387242645238616 0 0 0 0 104.67287360107366 6.6021823563387434 0 6.6021823563387434 -3.7761255619597924 0 0 0 0 224.83196789736394 31.716832457242468 0 31.716832457242468 -12.994566856983496 0 0 0 0 0.27268354998391331 0.19809721842126748 0 0.19809721842126748 0.21849004954607334 0 0 0 0 56.751730368461722 -8.2568934235458453 0 -8.2568934235458453 -0.021784059870653589 0 0 0 0 64.280476831034321 2.3912577304900111 0 2.3912577304900111 3.9178286039401637 0 0 0 0 68.576770922315518 -6.2860684784470227 0 -6.2860684784470227 -0.50514143885419927 0 0 0 0 45.137971386618347 -3.2837250708806658 0 -3.2837250708806658 3.7287836113944799 0 0 0 0 51.714857140752429 -9.1000656193474683 0 -9.1000656193474683 -0.68680749165300981 0 0 0 0 56.019791247061221 -0.45316004996070447 0 -0.45316004996070447 -0.42872923634926963 0 0 0 0 60.290264140538056 -5.0669590042556791 0 -5.0669590042556791 -2.8619684986367737 0 0 0 0 44.851741669004696 0.33033399980372025 0 0.33033399980372025 -2.3500332784257409 0 0 0 0 43.1091510486076 -9.2057988335613175 0 -9.2057988335613175 -3.2574975729209719 0 0 0 0 13.803170877123193 -1.8214769913822977 0 -1.8214769913822977 -0.4192078783473363 0 0 0 0 39.176688925606868 -0.94136520631492004 0 -0.94136520631492004 -0.6962684620961852 0 0 0 0 14.565185632833163 12.902485868179866 0 12.902485868179866 4.041870380545749 0 0 0 0 67.058784253309568 27.759989398628726 0 27.759989398628726 1.6008191566611174 0 0 0 0 59.554290555555781 3.3497670319008037 0 3.3497670319008037 -5.2035678763288189 0 0 0 0 34.121068231044774 5.000854142782277 0 5.000854142782277 -5.1467014130478077 0 0 0 0 90.035991309327073 11.565800165925495 0 11.565800165925495 -30.902659699141843 0 0 0 0 68.804630354145047 -1.5620314579697165 0 -1.5620314579697165 -25.577921849067508 0 0 0 0 54.529932182962511 -21.311518218571933 0 -21.311518218571933 -29.663823856969998 0 0 0 0 -0.66673488680314108 1.1079583359767327 0 1.1079583359767327 0.94301451100080358 0 0 0 0 217.70227069169778 40.02326567733472 0 40.02326567733472 -55.870633901961845 0 0 0 0 -113.26228198885838 -69.931019596613822 0 -69.931019596613822 44.087188454712077 0 0 0 0 92.640862872292928 -4.1756131207865508 0 -4.1756131207865508 -45.366495055413978 0 0 0 0 86.021261696776492 4.6187593310770083 0 4.6187593310770083 -42.852178186247983 0 0 0 0 -162.4230481839586 -141.72767506900382 0 -141.72767506900382 250.3208266303846 0 0 0 0 3.5872955706590233 -0.79335510148818544 0 -0.79335510148818544 0.19396205473686357 0 0 0 0 88.996438108806615 88.61775925267213 0 88.61775925267213 68.16408865462796 0 0 0 0 336.88481639944803 259.54390540100502 0 259.54390540100502 -86.399122888835464 0 0 0 0 96.037110600394954 -176.45893437901572 0 -176.45893437901572 17.379208305989437 0 0 0 0 59.164881899836473 -11.334778209513331 0 -11.334778209513331 7.7027566723583618 0 0 0 0 42.573645014325052 1.5132434240570838 0 1.5132434240570838 -4.048905688014889 0 0 0 0 42.303838457722861 2.7690179705572433 0 2.7690179705572433 -5.5443597679287988 0 0 0 0 42.918101844516059 -37.066644592643641 0 -37.066644592643641 29.314983952772934 0 0 0 0 71.600044587634329 -13.264866673247667 0 -13.264866673247667 -67.821785189546318 0 0 0 0 24.005752426208346 -17.002710968296839 0 -17.002710968296839 11.62411766833344 0 0 0 0 28.519482141891785 -2.2628416129323341 0 -2.2628416129323341 6.5906019519593073 0 0 0 0 30.44773876265026 5.0713206881955131 0 5.0713206881955131 -15.615801390960399 0 0 0 0 11.025381603216289 -1.0848016192060717 0 -1.0848016192060717 0.045460857507932481 0 0 0 0 66.16949671292241 -10.013113547952685 0 -10.013113547952685 -2.8129428698975403 0 0 0 0 57.840100057601376 4.96717644451968 0 4.96717644451968 3.1296123126402904 0 0 0 0 8.5788906172326165 1.7997791309448417 0 1.7997791309448417 -0.61935865140260526 0 0 0 0 61.249734482986241 1.0917670414233811 0 1.0917670414233811 -1.5437688338720719 0 0 0 0 45.434658457619662 9.404346570448439 0 9.404346570448439 -5.6255309511917062 0 0 0 0 41.134955462793087 0.87541145199507753 0 0.87541145199507753 -4.3258958866197634 0 0 0 0 38.483061595659819 -17.613079972733431 0 -17.613079972733431 10.962084692345115 0 0 0 0 51.06840094769359 -9.8845917041939941 0 -9.8845917041939941 0.91000931051405587 0 0 0 0 50.003526570373651 -4.2257402121313703 0 -4.2257402121313703 -3.4642162780176022 0 0 0 0 51.98973215928163 -9.543321443041151 0 -9.543321443041151 7.9387728095134662 0 0 0 0 52.276261598399287 -11.670152994283637 0 -11.670152994283637 1.5352053764797517 0 0 0 0 53.438114621878412 -14.161332192213308 0 -14.161332192213308 0.50382410279416945 0 0 0 0 57.964149791485397 -10.567264951987831 0 -10.567264951987831 -0.26820219535771983 0 0 0 0 59.566202987869474 -14.494845999793654 0 -14.494845999793654 -3.174070886077061 0 0 0 0 52.669031368735887 -17.035717867309245 0 -17.035717867309245 -6.5056751280626486 0 0 0 0 55.731837954161165 -13.74641192087276 0 -13.74641192087276 -3.1694644386072923 0 0 0 0 63.529290382091858 -17.632548836739261 0 -17.632548836739261 -11.611571620952432 0 0 0 0 63.436265015228855 -19.945978478731206 0 -19.945978478731206 -24.111188803259665 0 0 0 0 116.87048598703041 4.7840753684047286 0 4.7840753684047286 -12.752528591618443 0 0 0 0 -28.31576814735854 -57.502885555730472 0 -57.502885555730472 -22.010112183587353 0 0 0 0 -1.5165570779522852 0.94568033427901099 0 0.94568033427901099 0.84597186401916691 0 0 0 0 51.733716312915931 -21.120876059854027 0 -21.120876059854027 -31.977234630638634 0 0 0 0 46.16699374131349 -19.847022997672639 0 -19.847022997672639 -3.606555333509732 0 0 0 0 54.486584983056673 -16.336102202591746 0 -16.336102202591746 20.016475240053751 0 0 0 0 65.285314284588821 -17.901326245454584 0 -17.901326245454584 -11.573862822819478 0 0 0 0 61.486094366362522 -7.397244393363053 0 -7.397244393363053 2.3174243272205786 0 0 0 0 68.006003229228554 -15.810488038994549 0 -15.810488038994549 -23.73318024321361 0 0 0 0 92.943449741783297 -0.54565608185157544 0 -0.54565608185157544 -39.564311217531184 0 0 0 0 70.571414225544956 3.3164585503978445 0 3.3164585503978445 -3.4091976861427722 0 0 0 0 58.698189687741433 9.8602890548836513 0 9.8602890548836513 0.26346554764495522 0 0 0 0 140.65988156311687 43.761539659256186 0 43.761539659256186 3.9069356830432298 0 0 0 0 84.441973154411926 8.3416386440849237 0 8.3416386440849237 -18.372726522468383 0 0 0 0 85.265074827113949 -0.6817487349936755 0 -0.6817487349936755 11.552058024959251 0 0 0 0 49.838329687122041 -28.611049187122376 0 -28.611049187122376 -46.740699530856546 0 0 0 0 47.788665319905249 -11.27162421514538 0 -11.27162421514538 -4.5504804630500075 0 0 0 0 31.515131804737393 -22.441981132743223 0 -22.441981132743223 -8.563198183555528 0 0 0 0 31.790085564877689 -13.981755130145753 0 -13.981755130145753 -8.1478350438226386 0 0 0 0 41.413321434854879 -3.7440273538254445 0 -3.7440273538254445 -7.4666513101801115 0 0 0 0 38.183456788614095 -8.0432386491213244 0 -8.0432386491213244 -9.926116327909817 0 0 0 0 25.552644448460342 -16.95607927651622 0 -16.95607927651622 -9.1626784659312648 0 0 0 0 37.204391011039419 -8.9971547530689406 0 -8.9971547530689406 0.1649444578899229 0 0 0 0 55.495399647346858 -22.504609966786688 0 -22.504609966786688 -6.4747894468696359 0 0 0 0 40.206683523567335 -10.57735441357579 0 -10.57735441357579 -7.5490273861632886 0 0 0 0 47.816020498525177 -6.1461428709802703 0 -6.1461428709802703 -21.150457252078922 0 0 0 0 46.282456249737152 -11.022149397761495 0 -11.022149397761495 -11.891670852500283 0 0 0 0 17.721689165412965 -14.383427386086552 0 -14.383427386086552 -15.39722839742986 0 0 0 0 41.015113415698579 -59.223998685304025 0 -59.223998685304025 -26.280009752934006 0 0 0 0 14.84951688502743 -5.0529592776577275 0 -5.0529592776577275 -3.0208965219290418 0 0 0 0 61.177489304216124 3.2557807431574304 0 3.2557807431574304 -7.7456782352485334 0 0 0 0 49.719515241475165 -12.656766261275379 0 -12.656766261275379 0.63772542975210911 0 0 0 0 77.112454027623244 0.44864250112141235 0 0.44864250112141235 -6.7456424410819977 0 0 0 0 44.473859719578499 -6.2722339450343547 0 -6.2722339450343547 -2.5853257916932177 0 0 0 0 51.873554596219037 -12.35962437624255 0 -12.35962437624255 1.9334968822916352 0 0 0 0 46.450497683964386 -3.8896873900081914 0 -3.8896873900081914 -10.369645119544089 0 0 0 0 73.985539612986031 -2.016438979229541 0 -2.016438979229541 -12.142424596787208 0 0 0 0 -0.17933629375006888 -5.4303550281297177 0 -5.4303550281297177 -1.1706097697750864 0 0 0 0 60.798670525691705 0.61788987458993816 0 0.61788987458993816 9.5165550207488074 0 0 0 0 40.737391064360054 0.085265343259228299 0 0.085265343259228299 6.6765366693314832 0 0 0 0 39.933373769865284 -23.609020182718261 0 -23.609020182718261 -9.3256310751731633 0 0 0 0 35.398027020089586 -15.1082391652717 0 -15.1082391652717 -7.049913431433704 0 0 0 0 65.569909194049501 -2.3964484478114394 0 -2.3964484478114394 2.37399878926783 0 0 0 0 63.5973815985908 8.0553833187183983 0 8.0553833187183983 30.110001328020545 0 0 0 0 63.751246697533546 -2.6394140177757106 0 -2.6394140177757106 3.4477151813846376 0 0 0 0 60.836644774797605 11.097900836520978 0 11.097900836520978 3.7740844931329747 0 0 0 0 66.210708944532598 11.795270256967342 0 11.795270256967342 -8.0496457710666505 0 0 0 0 66.238483058071935 2.9488405578691204 0 2.9488405578691204 -2.660090940289817 0 0 0 0 68.008149314866387 7.6856578770034787 0 7.6856578770034787 -19.445503161984647 0 0 0 0 145.89716911807409 -57.6729950464632 0 -57.6729950464632 -114.8421028885672 0 0 0 0 73.563350583337524 73.563241841363151 0 73.563241841363151 -76.29272269441276 0 0 0 0 58.337722576301402 6.3419288243016112 0 6.3419288243016112 0.78815288896066316 0 0 0 0 385.35317937477157 112.46008260472226 0 112.46008260472226 -32.858375596832047 0 0 0 0 89.880961383445538 39.619611534185651 0 39.619611534185651 -50.52418630678369 0 0 0 0 133.52160052381805 -52.582431756782576 0 -52.582431756782576 184.6150429783246 0 0 0 0 134.28827261573315 -15.13525498511985 0 -15.13525498511985 -34.226422165779532 0 0 0 0 47.883982964982351 -7.3958293881778161 0 -7.3958293881778161 -8.2216065990457992 0 0 0 0 3.0276446785948643 -16.417744809171296 0 -16.417744809171296 -5.0479827427737405 0 0 0 0 53.682741858923691 -14.034875030378046 0 -14.034875030378046 -2.3076807338247107 0 0 0 0 -50.537132805823603 -110.43255658058503 0 -110.43255658058503 43.469923670130697 0 0 0 0 125.41326659786864 91.39989360293518 0 91.39989360293518 33.206388567094379 0 0 0 0 4.1439968957642161 -17.03593899965113 0 -17.03593899965113 3.9406816670800762 0 0 0 0 58.928254792092048 -15.53788424751599 0 -15.53788424751599 3.6082359157371684 0 0 0 0 -49.768102738355083 -24.851989258885517 0 -24.851989258885517 30.180947323255396 0 0 0 0 242.0285402195841 161.389526781331 0 161.389526781331 3.1085378874768139 0 0 0 0 348.40496407373575 205.26012781871447 0 205.26012781871447 113.7949796902252 0 0 0 0 158.14240331737892 -30.041090421432727 0 -30.041090421432727 188.06353234571824 0 0 0 0 105.17278601105136 -147.68154230530172 0 -147.68154230530172 223.64937466904064 0 0 0 0 3.7605012242157159 0.94422518654903698 0 0.94422518654903698 -0.24816534423041081 0 0 0 0 350.82596166837175 -160.77142710749433 0 -160.77142710749433 31.273160584746051 0 0 0 0 430.60602301460449 54.849357062536995 0 54.849357062536995 7.0544842150691238 0 0 0 0 0.89443718985243947 1.8822656341750346 0 1.8822656341750346 2.2023604103939061 0 0 0 0 424.58374892788743 79.598234559790427 0 79.598234559790427 17.027659854649272 0 0 0 0 34.084325910659572 157.79040911589215 0 157.79040911589215 -2.7381723491699859 0 0 0 0 -1.7590087078739032 5.5057983672835284 0 5.5057983672835284 -1.8044017058006701 0 0 0 0 15.897743265311874 27.972374297197604 0 27.972374297197604 -203.87921132060166 0 0 0 0 -33.27278849578579 -94.663453408295339 0 -94.663453408295339 -216.83443531476831 0 0 0 0 -38.994376264847233 91.812333623903214 0 91.812333623903214 100.45114615872723 0 0 0 0 10.994505408929456 6.1988530106520088 0 6.1988530106520088 -3.0757756710785098 0 0 0 0 34.8989149941699 -24.481801885592176 0 -24.481801885592176 39.611722626052895 0 0 0 0 -28.128605270667322 8.4750679793067647 0 8.4750679793067647 10.073752849831322 0 0 0 0 -27.303751167406517 9.8811009836186692 0 9.8811009836186692 -1.5920109354989407 0 0 0 0 -6.6474491485023464 18.754727185516622 0 18.754727185516622 48.414510481048268 0 0 0 0 -30.359128576063085 50.159537329772419 0 50.159537329772419 29.776369037202301 0 0 0 0 -31.154423617170323 2.2213628297974441 0 2.2213628297974441 41.686386558181198 0 0 0 0 137.45225590281552 97.836110977173433 0 97.836110977173433 192.04488237451102 0 0 0 0 80.126707255803922 -11.17578234639679 0 -11.17578234639679 25.166147038376771 0 0 0 0 263.32976433401927 -81.592855125455955 0 -81.592855125455955 42.783573678066602 0 0 0 0 1.2079888585928842 0.77093526966205594 0 0.77093526966205594 -0.96158287651148988 0 0 0 0 233.18463353203697 87.646527584321859 0 87.646527584321859 -44.547988880074058 0 0 0 0 35.925000318471575 52.849833077824229 0 52.849833077824229 -35.616584567998359 0 0 0 0 149.28759067990177 -118.37080004171617 0 -118.37080004171617 -444.89258061519877 0 0 0 0 0.87464334264511479 1.7464378062307286 0 1.7464378062307286 -1.6177182663351166 0 0 0 0 -16.331037015937909 -80.877588726298882 0 -80.877588726298882 -8.9220758997130361 0 0 0 0 62.308045659125128 -114.602658373236 0 -114.602658373236 -97.44262545986065 0 0 0 0 2.8442238620859115 2.1148703711222705 0 2.1148703711222705 0.89270911985078727 0 0 0 0 350.26296412515148 167.29507188625104 0 167.29507188625104 -118.48896085349725 0 0 0 0 -156.16376362032315 23.838437108862706 0 23.838437108862706 -168.25962632876838 0 0 0 0 34.522492856351164 -86.002014862573262 0 -86.002014862573262 -618.33986348679457 0 0 0 0 -23.283498971530207 49.394026301893263 0 49.394026301893263 -105.56265248523687 0 0 0 0 -71.286789255300391 51.645448565304605 0 51.645448565304605 129.83341236757315 0 0 0 0 -35.625745033914427 151.74777882236981 0 151.74777882236981 203.79171010792288 0 0 0 0 213.6698371484963 173.13003577265727 0 173.13003577265727 113.04597087942329 0 0 0 0 6.4286824395530857 176.05955485439779 0 176.05955485439779 224.11922455658845 0 0 0 0 208.18268326424004 102.60240810912418 0 102.60240810912418 41.466437197178188 0 0 0 0 -0.041752548564144121 -1.5189904680032953 0 -1.5189904680032953 0.76021068222005317 0 0 0 0 210.19352055717218 14.298157992709015 0 14.298157992709015 267.98100904491173 0 0 0 0 72.308780978193681 282.37436131284716 0 282.37436131284716 276.1099086338985 0 0 0 0 26.502579194799182 160.39292888061308 0 160.39292888061308 -3.2822040678003077 0 0 0 0 0.19762238974362845 198.40919655613118 0 198.40919655613118 141.27198845227394 0 0 0 0 -52.998663383139501 161.54034204842347 0 161.54034204842347 159.29758100142681 0 0 0 0 94.968271127465414 112.08662735930648 0 112.08662735930648 -42.143073323585895 0 0 0 0 -164.39565278431655 83.809802368833317 0 83.809802368833317 127.18829591246413 0 0 0 0 89.608938335735729 53.701655936869884 0 53.701655936869884 -113.27075005114284 0 0 0 0 -22.020828845190408 66.23047299397399 0 66.23047299397399 -59.086179096027422 0 0 0 0 42.114610625358182 -0.60635410870645501 0 -0.60635410870645501 34.938314951936846 0 0 0 0 48.966707765861301 5.5680077136875337 0 5.5680077136875337 -0.13187336340551137 0 0 0 0 154.55063161084399 33.535413770864011 0 33.535413770864011 1.7337697625675901 0 0 0 0 17.176545128393805 -0.30097879795829385 0 -0.30097879795829385 -0.6227001386082307 0 0 0 0 52.31979388639229 41.858324000832624 0 41.858324000832624 -54.148461111908887 0 0 0 0 8.0095536901881133 52.222787877278911 0 52.222787877278911 3.2540735944095047 0 0 0 0 80.838252904371984 -0.38529065732489443 0 -0.38529065732489443 -15.351097754034042 0 0 0 0 11.469272452978224 0.63614951146839616 0 0.63614951146839616 -0.37897371233231514 0 0 0 0 10.378197747348167 10.024412401466321 0 10.024412401466321 -6.5534410931072387 0 0 0 0 -61.800526845609056 18.625061134598198 0 18.625061134598198 61.595675027805953 0 0 0 0 -1.2699837438657866 0.14791092134324657 0 0.14791092134324657 0.19878259656049221 0 0 0 0 117.30542810638508 3.2882228809097924 0 3.2882228809097924 1.2575734779091654 0 0 0 0 483.19502090070091 6.9128656893832954 0 6.9128656893832954 37.195534612064449 0 0 0 0 13.52540007380594 -40.854075993427571 0 -40.854075993427571 98.747640279598642 0 0 0 0 29.606628224558335 64.34116834982072 0 64.34116834982072 126.84310796388569 0 0 0 0 189.98862432963506 43.003537163832057 0 43.003537163832057 -10.281223464589402 0 0 0 0 132.95750321028481 -72.682584362145008 0 -72.682584362145008 19.324753776813054 0 0 0 0 40.446963381755268 -40.447469361284732 0 -40.447469361284732 8.8348456257976551 0 0 0 0 94.44481166731839 -42.539955901838525 0 -42.539955901838525 -21.800295630851565 0 0 0 0 58.984425849124818 35.212177637682373 0 35.212177637682373 -112.49689358810176 0 0 0 0 39.424415951472838 39.217166348819887 0 39.217166348819887 -9.4085872974354032 0 0 0 0 25.509256889330572 94.930991503452788 0 94.930991503452788 91.573122679107996 0 0 0 0 8.5562687820392966 100.36527862022325 0 100.36527862022325 257.20323594526349 0 0 0 0 37.624282011742324 4.7179654435151299 0 4.7179654435151299 0.49594140866021885 0 0 0 0 -0.98584096380363917 -44.055803403721768 0 -44.055803403721768 304.75888924086917 0 0 0 0 -82.129756644484587 -0.42507294430959064 0 -0.42507294430959064 468.76789969615351 0 0 0 0 25.824901109652203 2.573235781935038 0 2.573235781935038 0.63796329102239946 0 0 0 0 130.2081551315423 -39.938065419414443 0 -39.938065419414443 -75.60637854649076 0 0 0 0 -7.3866512180557038 -21.64300497552118 0 -21.64300497552118 74.932254767540513 0 0 0 0 88.853567605208809 -112.57329250155973 0 -112.57329250155973 73.072588461623525 0 0 0 0 60.129591482915203 -113.67118836093218 0 -113.67118836093218 151.17022451252504 0 0 0 0 -81.412001852961112 -41.13374966350591 0 -41.13374966350591 -35.395961159369449 0 0 0 0 117.41557591493984 -220.39577761746892 0 -220.39577761746892 92.399741421847267 0 0 0 0 84.989221736414038 -243.8451921887434 0 -243.8451921887434 16.892148620924843 0 0 0 0 1496.577901103421 203.62626854775834 0 203.62626854775834 -376.50619368779667 0 0 0 0 311.89281038567788 101.84932305569424 0 101.84932305569424 36.42875977694797 0 0 0 0 37.492755146427953 -187.77442812254901 0 -187.77442812254901 -70.043300454032121 0 0 0 0 785.02650036605519 -188.93038376508633 0 -188.93038376508633 -41.867024430251426 0 0 0 0 540.9568180693459 -212.37181296500182 0 -212.37181296500182 -28.048148078553645 0 0 0 0 1500.9351477342789 204.39788237092935 0 204.39788237092935 -376.37384508416267 0 0 0 0 1496.3384861792838 -502.5871897865116 0 -502.5871897865116 59.704259475482182 0 0 0 0 -66.27670189534183 -21.747514875882757 0 -21.747514875882757 250.34063183346541 0 0 0 0 407.60361546502463 -276.52305482096142 0 -276.52305482096142 179.31944796825823 0 0 0 0 10.067856506747688 0.63347833777796847 0 0.63347833777796847 1.5103724625234551 0 0 0 0 582.85503764438181 472.90113063611079 0 472.90113063611079 921.04019568618685 0 0 0 0 484.55513149840954 -569.42469585877291 0 -569.42469585877291 637.13408604115523 0 0 0 0 1006.9095584658753 157.91687338559149 0 157.91687338559149 -18.20203284296268 0 0 0 0 1497.9327741907582 516.8638140880671 0 516.8638140880671 198.63165237360255 0 0 0 0 339.73974300893678 290.83183987895302 0 290.83183987895302 -134.79343228493198 0 0 0 0 223.97551992593435 6.716393455065969 0 6.716393455065969 -46.201764266889768 0 0 0 0 -9.1677668079573778 52.494524025232714 0 52.494524025232714 651.91147035283643 0 0 0 0 -64.021565735631157 -3.155460189760845 0 -3.155460189760845 253.00050210060246 0 0 0 0 -8.8061012585535536 45.543440679170764 0 45.543440679170764 295.14271026040888 0 0 0 0 -63.7987610821001 111.09211355960173 0 111.09211355960173 166.95289802772498 0 0 0 0 43.081311577010638 60.340445439294228 0 60.340445439294228 158.70173503000456 0 0 0 0 -23.474304902512813 68.867844311416604 0 68.867844311416604 53.398369329417562 0 0 0 0 -85.323137517705618 149.39160268199171 0 149.39160268199171 133.98558250965368 0 0 0 0 14.262845048840973 233.5095773039825 0 233.5095773039825 -241.59985007514882 0 0 0 0 9.7177417448613141 4.2349477992603735 0 4.2349477992603735 0.81246677875870554 0 0 0 0 233.60647433099803 112.31808492012397 0 112.31808492012397 -477.97589439228 0 0 0 0 -152.41608806810837 223.5213318241116 0 223.5213318241116 54.626980934195807 0 0 0 0 176.41835144126162 43.157788656131814 0 43.157788656131814 -473.2432495479278 0 0 0 0 12.664346865047463 4.9183832270016463 0 4.9183832270016463 0.99147309696981889 0 0 0 0 -55.053660467676309 163.69662612241848 0 163.69662612241848 -244.82165647789219 0 0 0 0 -117.28643868673316 116.0933368792781 0 116.0933368792781 -77.56972524734195 0 0 0 0 236.51154193361435 132.05943604993317 0 132.05943604993317 -170.87661176166017 0 0 0 0 173.39426834515325 -56.969862140958071 0 -56.969862140958071 -445.31389827048338 0 0 0 0 336.24234882453311 0.029832672434423557 0 0.029832672434423557 -141.8028449496959 0 0 0 0 147.43303020573512 180.22079283054626 0 180.22079283054626 -92.965416160227022 0 0 0 0 2.8840701233541211 1.4535223251824405 0 1.4535223251824405 0.49046167279499753 0 0 0 0 -158.58006215917703 251.6761833950209 0 251.6761833950209 -108.85627961989672 0 0 0 0 -158.75701805680228 88.701464688472583 0 88.701464688472583 70.823778664695254 0 0 0 0 87.606702345590747 8.6950014820856723 0 8.6950014820856723 -90.903249366303612 0 0 0 0 1497.3798647987933 359.58997934698209 0 359.58997934698209 -312.94489689904873 0 0 0 0 6.1434774799918443 2.2331862307949759 0 2.2331862307949759 0.67092789789575691 0 0 0 0 1497.2706790276925 -336.1649916809202 0 -336.1649916809202 -383.38509153427884 0 0 0 0 231.98554125808732 509.89280829923121 0 509.89280829923121 339.87182776745215 0 0 0 0 940.51435180881526 -229.71395134563969 0 -229.71395134563969 -23.063070272996939 0 0 0 0 1499.8908343981311 -347.58396586456388 0 -347.58396586456388 -162.78389634482193 0 0 0 0 1309.4536077082494 -181.11955576701678 0 -181.11955576701678 -281.98719115344471 0 0 0 0 1111.1627917049991 -161.40563872135397 0 -161.40563872135397 -219.36786932388367 0 0 0 0 1309.588102421962 -172.10236344925372 0 -172.10236344925372 -301.64850718818946 0 0 0 0 704.62629248704889 -138.46943582876435 0 -138.46943582876435 -56.972148964869291 0 0 0 0 1104.3961250947159 -45.682300461504838 0 -45.682300461504838 -401.06370937496058 0 0 0 0 657.00607982017209 13.262032760708053 0 13.262032760708053 -451.53570454738923 0 0 0 0 265.62500542298585 -211.03410373674689 0 -211.03410373674689 -101.13020305683102 0 0 0 0 -2.1046629891283928 -1.8593300906299053 0 -1.8593300906299053 -2.1712443612827106 0 0 0 0 147.54607473722535 -193.55003523172672 0 -193.55003523172672 192.64871760004877 0 0 0 0 917.25170561391133 -149.42238316606591 0 -149.42238316606591 -121.30348907142802 0 0 0 0 525.39461505560757 -276.15017506544791 0 -276.15017506544791 348.85037888509277 0 0 0 0 536.25728932490892 -284.98221714379258 0 -284.98221714379258 204.39532399823722 0 0 0 0 410.87527442533428 -245.53169778758183 0 -245.53169778758183 488.18565421780784 0 0 0 0 424.53368866277378 -535.01378375258355 0 -535.01378375258355 509.24259584255213 0 0 0 0 474.78621956668803 -418.1758733842758 0 -418.1758733842758 611.71333661628023 0 0 0 0 546.58875808890116 -343.79393112002504 0 -343.79393112002504 394.72726873783859 0 0 0 0 726.67068873856169 -558.2538245099895 0 -558.2538245099895 429.31284000255255 0 0 0 0 1242.0995703174849 -379.14464661581121 0 -379.14464661581121 44.950816234444432 0 0 0 0 1209.6061019308795 -247.60314111957967 0 -247.60314111957967 -91.650862765156816 0 0 0 0 1499.8436042275516 -537.17232818926743 0 -537.17232818926743 196.46041979158014 0 0 0 0 1500.1394850110228 -540.46039875169765 0 -540.46039875169765 942.72562396043941 0 0 0 0 1495.2898931804193 -235.47861028161293 0 -235.47861028161293 318.55604724524579 0 0 0 0 1461.4777917856834 -986.10057220707847 0 -986.10057220707847 515.10738143555341 0 0 0 0 9.6374694886189189 -3.0461443153935006 0 -3.0461443153935006 1.7946999405392388 0 0 0 0 602.98442582860116 456.73245023617108 0 456.73245023617108 404.54804793503411 0 0 0 0 1167.0582376435377 -926.91399071717558 0 -926.91399071717558 767.26813394466058 0 0 0 0 1497.3921436659766 -728.28272363739745 0 -728.28272363739745 160.57733720649708 0 0 0 0 16.964182224764954 8.2901560007045987 0 8.2901560007045987 211.94846230667693 0 0 0 0 1576.1627705290466 -427.10704281641802 0 -427.10704281641802 216.73118552537812 0 0 0 0 585.11316972599161 559.19175342673111 0 559.19175342673111 -9.4560291309677229 0 0 0 0 7.5727184866387205 -0.94700115007834285 0 -0.94700115007834285 0.051508281827740518 0 0 0 0 888.74469093630523 -1017.3932874427327 0 -1017.3932874427327 164.63971265840237 0 0 0 0 211.10611234047974 386.59171112532078 0 386.59171112532078 84.653364086453905 0 0 0 0 53.406634887762266 253.65803757142621 0 253.65803757142621 -22.82373454621883 0 0 0 0 5.4046085062799705 -0.22077901243289588 0 -0.22077901243289588 -0.088401935954841276 0 0 0 0 367.25439008703961 166.19691479472067 0 166.19691479472067 -512.05750296589588 0 0 0 0 243.80481160504132 -184.20486311799317 0 -184.20486311799317 -425.32222877317412 0 0 0 0 13.00313629744771 -1.0637689483608117 0 -1.0637689483608117 -0.62534351381581232 0 0 0 0 101.165712724287 46.491887115256077 0 46.491887115256077 196.01140114036167 0 0 0 0 27.763118964090609 200.67168776989615 0 200.67168776989615 167.01009622497315 0 0 0 0 100.34734540373756 124.35304316786085 0 124.35304316786085 89.73611263186217 0 0 0 0 57.185305439954391 116.01870424232106 0 116.01870424232106 100.0392738980679 0 0 0 0 25.036089037616193 -7.4071228494247308 0 -7.4071228494247308 2.3918318378773846 0 0 0 0 -67.676979225039759 18.2004925273975 0 18.2004925273975 64.106967507349054 0 0 0 0 210.67175266683716 -174.11821866220282 0 -174.11821866220282 -182.66671147218585 0 0 0 0 -115.38462803645416 58.381811076806116 0 58.381811076806116 303.07725670196646 0 0 0 0 353.80280206824682 -731.96751177192721 0 -731.96751177192721 1170.7514828039511 0 0 0 0 450.91865862315626 -619.74216756809642 0 -619.74216756809642 669.3322334652903 0 0 0 0 771.95862671088435 -491.75180628566613 0 -491.75180628566613 395.60266441108223 0 0 0 0 110.7645428523474 -157.81263401821343 0 -157.81263401821343 277.14021091959808 0 0 0 0 13.968810758425207 28.237481936496692 0 28.237481936496692 143.36511830621384 0 0 0 0 236.03480915127875 -192.13139309201711 0 -192.13139309201711 156.949828281392 0 0 0 0 143.69426152324922 84.417822210999248 0 84.417822210999248 4.7485060023318511 0 0 0 0 7.2511837123456644 -0.77286434399343307 0 -0.77286434399343307 23.592529268116778 0 0 0 0 38.301650112170137 62.620338562366442 0 62.620338562366442 -54.36468013768399 0 0 0 0 37.296113588153219 2.9587223952047097 0 2.9587223952047097 -6.0728664495085489 0 0 0 0 30.543073716131403 66.685955498545809 0 66.685955498545809 -23.342691133136213 0 0 0 0 10.651885844381468 32.158677487470413 0 32.158677487470413 39.636269436263319 0 0 0 0 144.61601898768185 10.751037462524209 0 10.751037462524209 -212.28205270848912 0 0 0 0 27.232993913057726 23.19431820991008 0 23.19431820991008 -25.664655849057681 0 0 0 0 131.8403935836393 -38.352526972315559 0 -38.352526972315559 -6.4606676599987622 0 0 0 0 176.81547189906269 128.30288618421062 0 128.30288618421062 -278.04172929972225 0 0 0 0 2.278320955272406 -3.5479946310922728 0 -3.5479946310922728 -0.18222269691006532 0 0 0 0 36.103965784057067 -7.171714530579596 0 -7.171714530579596 -0.39215960062109922 0 0 0 0 35.562440958452498 -111.25991365769039 0 -111.25991365769039 -69.480408820796711 0 0 0 0 0.86989987508243871 3.3771142050432097 0 3.3771142050432097 -1.8563274841335318 0 0 0 0 65.315291575316223 -0.1570539739245902 0 -0.1570539739245902 91.151434673624919 0 0 0 0 6.100341153487534 -117.02894124629594 0 -117.02894124629594 94.717849046220181 0 0 0 0 71.010298353958206 -48.550904845116435 0 -48.550904845116435 469.61639163631452 0 0 0 0 547.89346322615529 -151.31488423302579 0 -151.31488423302579 -78.976616813760245 0 0 0 0 47.397777075171689 -5.1651518144380191 0 -5.1651518144380191 24.207840709064811 0 0 0 0 58.057859378848661 -5.2843368636685568 0 -5.2843368636685568 -10.762820525454941 0 0 0 0 14.066702996515232 -7.366221693156831 0 -7.366221693156831 30.424823329265315 0 0 0 0 6.4589615498080093 -18.086878917108962 0 -18.086878917108962 47.585403748196711 0 0 0 0 22.463089821994799 -59.528120556755255 0 -59.528120556755255 53.334741146989394 0 0 0 0 22.604348250242765 -53.164063136560117 0 -53.164063136560117 -27.399945133144897 0 0 0 0 141.5254915899859 -159.4849418056221 0 -159.4849418056221 -164.35261232566342 0 0 0 0 77.562327786446986 -8.248466908115887 0 -8.248466908115887 -104.0543262229979 0 0 0 0 137.44449340436768 110.86286804061058 0 110.86286804061058 -56.545061662061059 0 0 0 0 27.551207827345934 23.677315204707867 0 23.677315204707867 11.398652273222808 0 0 0 0 44.75487650494324 66.135934108325529 0 66.135934108325529 55.263657094345803 0 0 0 0 83.277605449256953 18.132534894079448 0 18.132534894079448 -0.89331915262755501 0 0 0 0 9.0811396007401086 -0.82672583056174898 0 -0.82672583056174898 0.50686720901283644 0 0 0 0 47.88188628885473 -4.8597422596317301 0 -4.8597422596317301 -113.96441056316651 0 0 0 0 8.5190912714660953 19.080693031580552 0 19.080693031580552 -7.0718466714242822 0 0 0 0 81.466105479143152 78.701572236360221 0 78.701572236360221 117.43676820167627 0 0 0 0 34.845460095297511 -2.1472925423500904 0 -2.1472925423500904 -6.5062407514381775 0 0 0 0 -120.12434261293674 -129.25854857393401 0 -129.25854857393401 313.05969234599479 0 0 0 0 -0.69030865980857925 -1.0780782560279931 0 -1.0780782560279931 83.445572914557943 0 0 0 0 163.50466019636951 540.04768237126882 0 540.04768237126882 303.0500295613632 0 0 0 0 -127.89403193545877 -743.32447577247535 0 -743.32447577247535 -90.146024015424018 0 0 0 0 11.254690177227531 11.179792998495031 0 11.179792998495031 -38.399670869888041 0 0 0 0 -0.74089502253991668 8.8147536261703863 0 8.8147536261703863 3.0735450075226254 0 0 0 0 3.5428841011462282 2.421242243247832 0 2.421242243247832 24.110810120837755 0 0 0 0 18.370866900575493 -0.56647796985612331 0 -0.56647796985612331 3.6925761627289262 0 0 0 0 42.172658743635111 -63.169334781498947 0 -63.169334781498947 -216.11534084829509 0 0 0 0 13.615286866581123 -3.4366547813382446 0 -3.4366547813382446 0.52489530389056238 0 0 0 0 13.492123342343803 13.241249484252478 0 13.241249484252478 -7.9118384522375891 0 0 0 0 72.195018431554672 21.919121641308948 0 21.919121641308948 -121.43204254851639 0 0 0 0 33.529324023025538 22.524344302629288 0 22.524344302629288 -86.919145627381113 0 0 0 0 86.854363164085953 -36.164660264917529 0 -36.164660264917529 -211.41534030174012 0 0 0 0 51.963764716706009 -36.34839003580089 0 -36.34839003580089 6.3832327760219414 0 0 0 0 118.50579488636822 10.449195987099074 0 10.449195987099074 -85.206992634709877 0 0 0 0 275.94661511247887 -16.084195955514019 0 -16.084195955514019 -1.3969649703174127 0 0 0 0 189.54422370195107 -235.21423176935502 0 -235.21423176935502 177.15005054009896 0 0 0 0 82.321159418396405 -87.10456600145811 0 -87.10456600145811 7.4149258967177047 0 0 0 0 -24.217243844378572 -131.81689512844378 0 -131.81689512844378 -11.186963056718469 0 0 0 0 7.7684711758217091 -5.5959982340392234 0 -5.5959982340392234 3.2060361630374392 0 0 0 0 91.488056451058583 -217.33426169494749 0 -217.33426169494749 -167.46013255993194 0 0 0 0 -85.573154177094693 -48.461554650083826 0 -48.461554650083826 61.009756879962083 0 0 0 0 411.74438146059219 -6.6174175369668546 0 -6.6174175369668546 -27.143486061502131 0 0 0 0 20.030323746846989 -367.75760043203138 0 -367.75760043203138 716.40363990894809 0 0 0 0 2.8664762765904896 -2.5763525153046039 0 -2.5763525153046039 1.9170811321092902 0 0 0 0 225.71495024894193 -431.43351174037161 0 -431.43351174037161 291.84678078326795 0 0 0 0 554.46392296429781 -577.33843771237275 0 -577.33843771237275 341.55521445315264 0 0 0 0 227.5932708413302 -454.0480184370773 0 -454.0480184370773 267.67574993069854 0 0 0 0 46.621742811738386 -307.2655428984603 0 -307.2655428984603 344.27609327491041 0 0 0 0 269.81261479563091 -463.87335893774673 0 -463.87335893774673 253.38564430280388 0 0 0 0 265.18742390900843 -409.31948027307698 0 -409.31948027307698 261.64146238586363 0 0 0 0 171.16072351799812 -464.14160067444885 0 -464.14160067444885 277.31177746337204 0 0 0 0 334.05041708587942 -381.43086379679033 0 -381.43086379679033 -50.594535287550571 0 0 0 0 44.030244680388932 33.560534090045394 0 33.560534090045394 -214.45690206065092 0 0 0 0 81.072005786152658 -252.35042267881249 0 -252.35042267881249 290.11151602082043 0 0 0 0 254.44192038695292 -447.90129843068195 0 -447.90129843068195 143.9774504638732 0 0 0 0 766.22543989501355 -476.2510550587001 0 -476.2510550587001 289.62072667737618 0 0 0 0 290.35318191013084 -450.18856057454292 0 -450.18856057454292 325.06213879531515 0 0 0 0 2.4972593003699037 1.1254212481878958 0 1.1254212481878958 1.0824042686448321 0 0 0 0 242.77905828055736 -236.06564157191121 0 -236.06564157191121 318.74277954265148 0 0 0 0 284.7048192713537 -88.160310007460311 0 -88.160310007460311 107.94386550532568 0 0 0 0 130.55739158929782 -2.6166521131139575 0 -2.6166521131139575 176.46967661457649 0 0 0 0 436.49352981035463 113.25160351718097 0 113.25160351718097 357.62283781637069 0 0 0 0 243.6051388306978 -254.13642775897057 0 -254.13642775897057 125.34578923571644 0 0 0 0 687.38710406562905 -400.25934907386517 0 -400.25934907386517 172.99452754259215 0 0 0 0 -0.15471348971491694 0.48985436165767027 0 0.48985436165767027 -1.7775714864913941 0 0 0 0 -112.48908316109896 8.1623020609760744 0 8.1623020609760744 34.561522407385723 0 0 0 0 -82.117225523297293 -10.835008907017937 0 -10.835008907017937 138.44269963653915 0 0 0 0 106.6008311631881 -82.429349674504195 0 -82.429349674504195 136.19069567054328 0 0 0 0 43.096592145247996 62.906190346570156 0 62.906190346570156 141.50006234410554 0 0 0 0 124.39864490615264 -23.761409505219419 0 -23.761409505219419 325.98367415870467 0 0 0 0 256.23280019966796 -210.03791600660983 0 -210.03791600660983 110.12727010302106 0 0 0 0 -28.495565427397196 25.893746904536322 0 25.893746904536322 109.28337034165398 0 0 0 0 8.206705939078347 -186.87758710951366 0 -186.87758710951366 159.72027715300118 0 0 0 0 50.781736244210833 23.597955419985439 0 23.597955419985439 -7.9526648862151319 0 0 0 0 2.028131286486996 -42.802994195205088 0 -42.802994195205088 30.194269323890552 0 0 0 0 103.99570273953532 81.698733660432538 0 81.698733660432538 85.472925051002221 0 0 0 0 124.62190291374009 84.578378527038922 0 84.578378527038922 77.312571225266055 0 0 0 0 135.07125279571869 109.22239631716215 0 109.22239631716215 61.315020123467775 0 0 0 0 201.99911108586957 27.54853939916876 0 27.54853939916876 30.313422833321624 0 0 0 0 0.0219096622032251 0.23406000824312656 0 0.23406000824312656 0.69703322686572322 0 0 0 0 85.86265268689408 109.94000268310307 0 109.94000268310307 41.493962133594891 0 0 0 0 -0.082638921440712276 -0.048421409475839283 0 -0.048421409475839283 1.3730859702667499 0 0 0 0 -107.28489783949681 15.580110358876937 0 15.580110358876937 100.50508316933417 0 0 0 0 -4.90172939897937 -20.505307786401701 0 -20.505307786401701 -42.16405568282903 0 0 0 0 161.41909278639423 -3.1241146519931249 0 -3.1241146519931249 3.1556792056247787 0 0 0 0 69.692862448601772 -29.168385931890555 0 -29.168385931890555 -39.879053284170851 0 0 0 0 92.980455202406802 84.864952921123546 0 84.864952921123546 93.884957263312344 0 0 0 0 61.158783567541377 -108.9519714914407 0 -108.9519714914407 25.377333239380494 0 0 0 0 52.122209317803936 86.916244221444146 0 86.916244221444146 2.9879339635257338 0 0 0 0 -124.60751502180597 -2.4096089664300244 0 -2.4096089664300244 44.554752395006219 0 0 0 0 39.060058557837237 60.245764489872499 0 60.245764489872499 -18.783108012041566 0 0 0 0 -0.9047487676532513 1.1759775183646042 0 1.1759775183646042 -6.6148600537657583 0 0 0 0 50.318788307107752 57.62328049635471 0 57.62328049635471 -23.645564800798638 0 0 0 0 52.472616942731293 65.048310146434687 0 65.048310146434687 -23.243227950019445 0 0 0 0 11.991266480394643 -19.770700743348357 0 -19.770700743348357 8.0105159333838856 0 0 0 0 151.27986945080784 33.924067067357782 0 33.924067067357782 8.214728601450588 0 0 0 0 64.79176379492128 29.088180771617544 0 29.088180771617544 31.487801034991662 0 0 0 0 62.672405623588929 78.847627298127009 0 78.847627298127009 -16.281143652046467 0 0 0 0 52.963955484030521 37.836033307910384 0 37.836033307910384 -71.005281213865601 0 0 0 0 23.333502190032164 25.943780803756681 0 25.943780803756681 -218.89403275886161 0 0 0 0 11.620419572735045 -56.97482330848834 0 -56.97482330848834 -18.429525972582724 0 0 0 0 42.329071387654949 -30.246839784827898 0 -30.246839784827898 -177.20504604976259 0 0 0 0 52.424033555280403 8.7027171154431926 0 8.7027171154431926 -110.73896362428195 0 0 0 0 15.77432802246949 35.348704239997971 0 35.348704239997971 -60.188746703878678 0 0 0 0 27.136288548657831 -51.426122825320817 0 -51.426122825320817 -74.158673395409778 0 0 0 0 7.9675663556930498 -7.3356243328896404 0 -7.3356243328896404 -0.017678399423730617 0 0 0 0 85.577640326463097 -16.165849068965827 0 -16.165849068965827 -46.600096783660774 0 0 0 0 52.219365512259174 -6.6856622932214123 0 -6.6856622932214123 -11.73310948497226 0 0 0 0 41.794223606696505 -22.765616147786204 0 -22.765616147786204 -32.340989863855611 0 0 0 0 77.567773885371025 -26.844592027510316 0 -26.844592027510316 -53.191359733020363 0 0 0 0 25.817896713026482 -15.850441253544291 0 -15.850441253544291 6.4949299185913638 0 0 0 0 27.84063885386503 -7.7002012860655871 0 -7.7002012860655871 -1.0100724975175372 0 0 0 0 66.717682870716089 -9.9232296713551023 0 -9.9232296713551023 -25.763383888968292 0 0 0 0 -2.6689367042436061 -36.264829498625375 0 -36.264829498625375 34.875210046433068 0 0 0 0 97.031315560976509 1.6554367054709473 0 1.6554367054709473 -21.022406125783107 0 0 0 0 23.7381279032561 -12.946232069835617 0 -12.946232069835617 0.88128531815038968 0 0 0 0 98.574980298644732 -64.712305446614891 0 -64.712305446614891 -42.452241824847079 0 0 0 0 36.003010302339945 -18.659850531112486 0 -18.659850531112486 7.0677297099144685 0 0 0 0 150.93605164615292 0.058770782875996019 0 0.058770782875996019 -28.693501767345438 0 0 0 0 8.2700674867819544 -17.912428047821564 0 -17.912428047821564 12.052264687330364 0 0 0 0 54.011127044275781 -8.5062209724827937 0 -8.5062209724827937 13.267899688746859 0 0 0 0 56.042847663402426 -33.133600755567642 0 -33.133600755567642 -10.184661087327839 0 0 0 0 105.18623711799955 10.906898820532625 0 10.906898820532625 5.4036138236554052 0 0 0 0 92.534570010288007 -21.196064342604757 0 -21.196064342604757 -8.2261601613793403 0 0 0 0 53.780156177228491 -22.663992858103214 0 -22.663992858103214 1.2483361996744264 0 0 0 0 71.919405138505681 -11.142822250860565 0 -11.142822250860565 8.3588403515345178 0 0 0 0 46.965327990177684 -11.314752609047829 0 -11.314752609047829 19.594091492718263 0 0 0 0 -8.943011388981688 -35.681942305935735 0 -35.681942305935735 -12.842500870181993 0 0 0 0 32.941756847251327 -55.896554240189175 0 -55.896554240189175 -52.80041526017385 0 0 0 0 8.2782491618584508 -5.601146252202426 0 -5.601146252202426 0.47223803583761914 0 0 0 0 70.20992705529352 -6.7690317750236915 0 -6.7690317750236915 -0.6239881616371008 0 0 0 0 29.014538472350257 -19.912449264268808 0 -19.912449264268808 -5.3551701235112494 0 0 0 0 44.639001283407197 -10.223170545350385 0 -10.223170545350385 -4.5216858593419786 0 0 0 0 6.0487846459418506 -89.148074250202853 0 -89.148074250202853 -2.5578256590029014 0 0 0 0 -8.5233582897119504 -69.444953706189636 0 -69.444953706189636 57.921974829744272 0 0 0 0 -93.388586446373665 -15.963893312286814 0 -15.963893312286814 35.7122276302199 0 0 0 0 29.788938547743793 -28.033033555148585 0 -28.033033555148585 -2.3553825370007448 0 0 0 0 -12.397422470473984 -3.4809653286008881 0 -3.4809653286008881 4.7700208077268949 0 0 0 0 -7.8803084074224898 -18.343522349357158 0 -18.343522349357158 -14.057680318680468 0 0 0 0 51.737793164706318 -50.016521036009294 0 -50.016521036009294 -9.6482072149478881 0 0 0 0 19.225554542648183 -102.41546513588639 0 -102.41546513588639 0.085451315842931308 0 0 0 0 42.389943616173696 -34.801736778859777 0 -34.801736778859777 -166.74048719230865 0 0 0 0 66.564220160240893 -58.673003213656784 0 -58.673003213656784 -164.22132909198658 0 0 0 0 -0.70209071487076535 -7.0998255613655621 0 -7.0998255613655621 0.14703742326110025 0 0 0 0 25.360676858046645 -73.880601195181868 0 -73.880601195181868 -96.450886478242353 0 0 0 0 -46.302405510622293 13.122466734195569 0 13.122466734195569 -149.07474817130878 0 0 0 0 46.238543323984814 -20.977009304494825 0 -20.977009304494825 -5.5797469621688824 0 0 0 0 -4.6361196262582736 -5.0093158666885245 0 -5.0093158666885245 1.1515770277114654 0 0 0 0 -78.563786935894768 -44.539895419492957 0 -44.539895419492957 50.133357556211877 0 0 0 0 -0.0090924722156087157 -0.43343989130377647 0 -0.43343989130377647 0.65868363238483596 0 0 0 0 5.3182159326309808 0.64210369025089342 0 0.64210369025089342 -13.21180412663306 0 0 0 0 -24.422862519507817 -29.194646323866579 0 -29.194646323866579 -52.752119045377952 0 0 0 0 -22.776304490633379 -76.123352326975962 0 -76.123352326975962 63.091020874347294 0 0 0 0 71.407076044479254 -80.120910764622948 0 -80.120910764622948 53.556460419337469 0 0 0 0 59.868348664337645 -55.122220226816097 0 -55.122220226816097 -0.27759260022228738 0 0 0 0 137.94648903203415 -26.666059008439845 0 -26.666059008439845 38.004225422955741 0 0 0 0 154.79377094069696 35.354558789429802 0 35.354558789429802 -2.0196147373788023 0 0 0 0 443.46924290592779 36.343352891885615 0 36.343352891885615 -9.4690653772283468 0 0 0 0 231.6990426567761 199.94713489640958 0 199.94713489640958 126.31114466488327 0 0 0 0 203.26834989792678 58.644205908882498 0 58.644205908882498 -20.82244740042006 0 0 0 0 214.57466907957996 -34.980361516531957 0 -34.980361516531957 -38.3134605690841 0 0 0 0 91.901688688126114 -1.8403845443716733 0 -1.8403845443716733 -35.059301959174718 0 0 0 0 73.829461496035037 -48.658049292100486 0 -48.658049292100486 -49.226335374107464 0 0 0 0 131.65134724935024 18.500051818719271 0 18.500051818719271 -31.332699616438049 0 0 0 0 108.90087088230348 27.175516258489893 0 27.175516258489893 -13.36225963012339 0 0 0 0 64.206956640003227 -17.777253940365881 0 -17.777253940365881 -30.855697460476058 0 0 0 0 104.35458552060254 15.920499806680596 0 15.920499806680596 -25.468569738252427 0 0 0 0 36.369879181974198 -11.250336584438365 0 -11.250336584438365 -8.3289843242409916 0 0 0 0 128.49119700458505 44.375924506557936 0 44.375924506557936 10.842322798871237 0 0 0 0 120.87588697770934 46.911722517350086 0 46.911722517350086 15.939868381936293 0 0 0 0 94.835303712359746 20.296256400655182 0 20.296256400655182 1.9796615776147064 0 0 0 0 140.17136808898431 52.11034204514857 0 52.11034204514857 -9.6966738356702535 0 0 0 0 122.91876996191741 60.905171170627995 0 60.905171170627995 39.180778740624078 0 0 0 0 2.4377891779968941 -3.0954148201125502 0 -3.0954148201125502 3.3149049133900466 0 0 0 0 130.220095267734 87.888338805256637 0 87.888338805256637 27.103553679028551 0 0 0 0 137.60692541429034 95.744380691371404 0 95.744380691371404 32.724876303255918 0 0 0 0 145.79602225814415 85.51068457077514 0 85.51068457077514 31.908489587900192 0 0 0 0 12.947069102325031 3.537517077526303 0 3.537517077526303 4.1099337902528532 0 0 0 0 12.767946742800291 2.9771772336668931 0 2.9771772336668931 4.7881983745628531 0 0 0 0 3.8503954322986829 30.307483042600325 0 30.307483042600325 -31.20144734455107 0 0 0 0 9.1906167833599284 1.1222243949499671 0 1.1222243949499671 -60.053603785056339 0 0 0 0 2.5878770812922962 1.6915244844800319 0 1.6915244844800319 -1.0425602998566079 0 0 0 0 21.942241612797261 -4.9344474017548237 0 -4.9344474017548237 -38.379736883869555 0 0 0 0 -1.5088424109724201 7.4074481761902007 0 7.4074481761902007 -17.924801364063569 0 0 0 0 8.8665070029036741 15.569431441237407 0 15.569431441237407 -15.387405429596129 0 0 0 0 23.413270103256764 4.5071376527167786 0 4.5071376527167786 -29.214933319252395 0 0 0 0 10.061180066944189 -21.400982624282562 0 -21.400982624282562 -34.129481354407744 0 0 0 0 10.280799251870848 2.4576438191508458 0 2.4576438191508458 0.97949700750953372 0 0 0 0 16.68008923492107 6.0081944182029474 0 6.0081944182029474 -20.19967038622849 0 0 0 0 22.961736644152552 0.79860159355359883 0 0.79860159355359883 -19.012470801058953 0 0 0 0 3.5004994776142917 -0.7540321436602615 0 -0.7540321436602615 2.3440046299732566 0 0 0 0 2.9651075346022324 -1.530422426005936 0 -1.530422426005936 2.2455331358967534 0 0 0 0 33.416127038508421 40.147129664808745 0 40.147129664808745 127.77798289044631 0 0 0 0 3.0293820900323905 0.93590070486251964 0 0.93590070486251964 1.3204827643732067 0 0 0 0 78.639596067856246 147.31806060324342 0 147.31806060324342 216.93423388941824 0 0 0 0 183.368853414976 117.35349419563317 0 117.35349419563317 208.81503727893704 0 0 0 0 199.07600903666707 -115.11634871069151 0 -115.11634871069151 153.93939065495044 0 0 0 0 436.08555038787256 86.132830358084078 0 86.132830358084078 11.212071149718327 0 0 0 0 446.782332474898 42.882750270359111 0 42.882750270359111 -51.185581694990674 0 0 0 0 208.47213099144301 -119.8234501633072 0 -119.8234501633072 75.62510684021953 0 0 0 0 0.58430971509144491 -0.52682242831345016 0 -0.52682242831345016 1.0482199731795294 0 0 0 0 -42.261662722497022 -64.663645528021448 0 -64.663645528021448 79.603049665329308 0 0 0 0 503.29846489969896 0.050526270328873579 0 0.050526270328873579 -47.366781027037099 0 0 0 0 105.37730112259487 -145.25863172107904 0 -145.25863172107904 106.5309462196177 0 0 0 0 191.90256070291116 40.668556378232324 0 40.668556378232324 119.92561316308748 0 0 0 0 239.73091189659317 69.122626857600551 0 69.122626857600551 21.561848213847156 0 0 0 0 398.18590430059749 -64.759226557391003 0 -64.759226557391003 78.794597597295592 0 0 0 0 132.48076725998953 62.566927436977352 0 62.566927436977352 67.013097426519323 0 0 0 0 218.93746697709798 69.665088675339547 0 69.665088675339547 56.258286585259498 0 0 0 0 358.69718577507228 -60.256122165979491 0 -60.256122165979491 25.195798337030169 0 0 0 0 143.46576387742653 -49.840255710345019 0 -49.840255710345019 40.266650338799394 0 0 0 0 158.19857591635491 -104.60294842513926 0 -104.60294842513926 24.617257541979257 0 0 0 0 119.93705398110751 -97.004725028119424 0 -97.004725028119424 66.571633552113326 0 0 0 0 163.39897330190797 -84.029845167976788 0 -84.029845167976788 8.6255536197824654 0 0 0 0 80.419281317598688 -52.610301090193218 0 -52.610301090193218 34.104485131171657 0 0 0 0 25.236063074278036 31.468823979780666 0 31.468823979780666 18.731689697028969 0 0 0 0 10.478987408198577 21.070502129420674 0 21.070502129420674 18.994517835100623 0 0 0 0 28.019506006354163 -0.9724703412618112 0 -0.9724703412618112 25.238808068184198 0 0 0 0 109.89080270494151 -2.331075023196945 0 -2.331075023196945 3.0718980125733424 0 0 0 0 25.179227138803412 12.600257954366498 0 12.600257954366498 19.239710974764421 0 0 0 0 30.593905695712238 18.33607770097683 0 18.33607770097683 -0.97823960932805676 0 0 0 0 33.833468947943061 4.5979564479463306 0 4.5979564479463306 6.5234502661787701 0 0 0 0 9.2051424146470708 13.577685649208433 0 13.577685649208433 -0.81692273749513333 0 0 0 0 19.790091894474926 20.085728656326239 0 20.085728656326239 -13.823195549791535 0 0 0 0 31.670855509924877 13.136306712385476 0 13.136306712385476 -17.152566648889774 0 0 0 0 21.468059565290105 -8.3515776508110662 0 -8.3515776508110662 -15.063644547053173 0 0 0 0 52.273292408552152 3.9001582775827615 0 3.9001582775827615 -10.840181824925025 0 0 0 0 21.225873597997179 7.3234097905543649 0 7.3234097905543649 -21.731776992950472 0 0 0 0 44.051957693953 -35.592485111910548 0 -35.592485111910548 36.941501221950375 0 0 0 0 37.087286654367745 -32.179291542231681 0 -32.179291542231681 43.562260301945571 0 0 0 0 2.2199718571788591 -0.98897262927292495 0 -0.98897262927292495 0.33731843111888299 0 0 0 0 114.72617049454038 -125.15943282233425 0 -125.15943282233425 -22.888744046316944 0 0 0 0 261.53089430602034 90.406103973532311 0 90.406103973532311 -85.117600006584325 0 0 0 0 345.89707030279772 -0.39213621462351966 0 -0.39213621462351966 -84.596338025661851 0 0 0 0 150.2290952521459 -139.84539529765578 0 -139.84539529765578 100.35463720620015 0 0 0 0 152.54367735715584 28.268442725473975 0 28.268442725473975 3.2606779864299256 0 0 0 0 371.75005133328489 -99.482722845301851 0 -99.482722845301851 -31.744148052720774 0 0 0 0 -33.022966986393726 -18.884406076953894 0 -18.884406076953894 141.53298323984535 0 0 0 0 189.43004828542507 15.81498469374543 0 15.81498469374543 5.8949530156169203 0 0 0 0 0.37523680825722439 -0.3741057181146088 0 -0.3741057181146088 0.34760959826225934 0 0 0 0 132.59707301953324 -64.511802587261144 0 -64.511802587261144 -2.9161911210795779 0 0 0 0 282.95532380459417 -68.1645213374523 0 -68.1645213374523 -3.5783808924986715 0 0 0 0 191.92726295491195 -170.96764723312253 0 -170.96764723312253 45.619180198255094 0 0 0 0 159.22730897571424 -114.2841169650256 0 -114.2841169650256 35.419755714554071 0 0 0 0 77.559993416779434 -123.58148394096597 0 -123.58148394096597 44.558746891771349 0 0 0 0 78.035062961051153 -42.491914226117558 0 -42.491914226117558 40.306581687098841 0 0 0 0 71.917766778202804 -39.236325032948223 0 -39.236325032948223 45.948150020783928 0 0 0 0 119.1651836047954 -51.91142289085245 0 -51.91142289085245 43.400905436769108 0 0 0 0 105.61207756481645 67.56374356185006 0 67.56374356185006 66.787373789226763 0 0 0 0 162.53461321858583 29.674092369524896 0 29.674092369524896 41.221518761178771 0 0 0 0 17.55318090126957 30.856229868550258 0 30.856229868550258 42.919537485436344 0 0 0 0 104.09978962600417 68.845246227614126 0 68.845246227614126 -6.7983101323572441 0 0 0 0 54.104522036768003 -42.261539772772458 0 -42.261539772772458 -139.25219744606358 0 0 0 0 -28.399605010706864 -10.599811361717524 0 -10.599811361717524 16.704575459686229 0 0 0 0 -66.106083254706391 35.339156122762731 0 35.339156122762731 1.6325430457655727 0 0 0 0 2.2637431007578925 -144.81189505418672 0 -144.81189505418672 57.399510940133332 0 0 0 0 0.88660550774062585 34.513187947434332 0 34.513187947434332 -86.207126600250746 0 0 0 0 4.5194800758932097 -2.0405666357478909 0 -2.0405666357478909 0.59954635057403094 0 0 0 0 121.67770683708591 -148.902392886749 0 -148.902392886749 -156.41998545416629 0 0 0 0 -93.825702683805446 -116.7023721101356 0 -116.7023721101356 202.17981682845948 0 0 0 0 -0.12621838134862173 -20.157924125539836 0 -20.157924125539836 -27.518931227477374 0 0 0 0 333.59159406806964 -34.083384374849643 0 -34.083384374849643 -72.119274327733535 0 0 0 0 39.725678053284469 -141.54822523401708 0 -141.54822523401708 213.36492771024695 0 0 0 0 181.52233001238534 105.35505635677082 0 105.35505635677082 -118.42033485500748 0 0 0 0 3.7932614706740297 -1.1319133187138677 0 -1.1319133187138677 0.2257597750954484 0 0 0 0 199.04930898187899 115.56081998492505 0 115.56081998492505 -79.656169581850108 0 0 0 0 218.41814937230964 15.243208116318645 0 15.243208116318645 -73.713516312507409 0 0 0 0 29.313258608472594 -78.20714469006586 0 -78.20714469006586 -34.425040453531253 0 0 0 0 55.498963804583013 64.555305870400232 0 64.555305870400232 -73.932500101324592 0 0 0 0 -13.11017777891584 -91.930373103326048 0 -91.930373103326048 140.57882015342744 0 0 0 0 74.835078578480307 -182.00799260366347 0 -182.00799260366347 222.24761221067735 0 0 0 0 251.45806786698736 -187.15483685835318 0 -187.15483685835318 106.6029763180574 0 0 0 0 139.02626309006871 -116.93033933750411 0 -116.93033933750411 76.984980021735794 0 0 0 0 92.775771051834226 -117.93832952210866 0 -117.93832952210866 85.354321849850635 0 0 0 0 -8.9261875246602358 -135.51267493540732 0 -135.51267493540732 126.71236766492663 0 0 0 0 82.403936906471898 -172.91385668113725 0 -172.91385668113725 120.7384917359001 0 0 0 0 7.804888145562245 -116.07953820432544 0 -116.07953820432544 105.15163122301257 0 0 0 0 53.094438798472993 -124.3847233988364 0 -124.3847233988364 103.44235883963347 0 0 0 0 53.033078626846425 -67.015826083378684 0 -67.015826083378684 94.354525200413718 0 0 0 0 237.42332894591291 -139.21329227324273 0 -139.21329227324273 51.077311316458008 0 0 0 0 -0.71211872933827181 -54.280434616530101 0 -54.280434616530101 92.690191384655151 0 0 0 0 230.19147031481668 -2.7910548026636661 0 -2.7910548026636661 -10.52559654373681 0 0 0 0 344.29845407581638 -170.80776031911694 0 -170.80776031911694 -337.70386202158249 0 0 0 0 -70.097206082245066 210.03566654873703 0 210.03566654873703 -97.099554112508486 0 0 0 0 -18.541673206748328 -107.29206282087239 0 -107.29206282087239 -43.87106382811794 0 0 0 0 -30.992813334384664 -9.4006938297943066 0 -9.4006938297943066 -107.75964036274468 0 0 0 0 6.3122720079925392 -2.9860118097722923 0 -2.9860118097722923 0.95727079187493569 0 0 0 0 -115.70196308423442 -98.333475463307082 0 -98.333475463307082 114.87079436684064 0 0 0 0 154.49959812685211 -280.24336028861654 0 -280.24336028861654 62.381610960374928 0 0 0 0 -124.97820453482746 125.50732936230258 0 125.50732936230258 -45.597846409857539 0 0 0 0 2.0680117527849045 1.3558547864597865 0 1.3558547864597865 0.66706862136957357 0 0 0 0 -76.382351486479138 275.85259004718614 0 275.85259004718614 102.5259355672469 0 0 0 0 -243.03144048156582 76.747364618984193 0 76.747364618984193 177.23504689938892 0 0 0 0 -290.80472031523232 -109.70040384082836 0 -109.70040384082836 -117.11105628381537 0 0 0 0 158.07772810773596 -91.07590466328304 0 -91.07590466328304 51.693844030137711 0 0 0 0 32.728519291803877 55.357720329395306 0 55.357720329395306 -114.12347707528124 0 0 0 0 416.56768965672541 -94.834391337629768 0 -94.834391337629768 -100.01376071469781 0 0 0 0 140.5714673089193 -17.716276751888408 0 -17.716276751888408 61.954979835054829 0 0 0 0 4.9490167339374391 3.2228840398744127 0 3.2228840398744127 1.4226749190382364 0 0 0 0 129.70210424451017 -74.679041624721833 0 -74.679041624721833 68.299642118007455 0 0 0 0 129.857899194352 26.085243471189031 0 26.085243471189031 234.44313266699842 0 0 0 0 297.22502330495325 -37.820767003308966 0 -37.820767003308966 68.420275098297907 0 0 0 0 37.50071229315941 -82.100643946546114 0 -82.100643946546114 134.49804429766843 0 0 0 0 43.909506995391723 -95.261890628387064 0 -95.261890628387064 114.59136538355764 0 0 0 0 41.349466637104342 -102.13144200587591 0 -102.13144200587591 96.846253670602508 0 0 0 0 552.7383666536623 163.88733001696767 0 163.88733001696767 176.94873285856602 0 0 0 0 5.5860083234833517 3.0433806036362268 0 3.0433806036362268 1.1753551159916209 0 0 0 0 242.01940767625021 2.5420058476638019 0 2.5420058476638019 81.295852601103661 0 0 0 0 395.15543869129442 -556.83830628417866 0 -556.83830628417866 332.67278821268815 0 0 0 0 307.3057971967653 -33.933707108034696 0 -33.933707108034696 58.593592412171802 0 0 0 0 302.99787550547717 21.731270355875949 0 21.731270355875949 81.878107102846798 0 0 0 0 319.45900559001052 23.504651880116626 0 23.504651880116626 63.86557745595735 0 0 0 0 331.4577316988948 43.470585129017536 0 43.470585129017536 77.840750007472877 0 0 0 0 286.82336572536769 3.1390930530552623 0 3.1390930530552623 71.771194623466727 0 0 0 0 333.71661152437412 21.364421712783837 0 21.364421712783837 53.399598289480537 0 0 0 0 344.78076969413667 26.220901849641905 0 26.220901849641905 31.341800727507234 0 0 0 0 99.133791731127076 -172.96274367332785 0 -172.96274367332785 15.554560763607185 0 0 0 0 306.51679099919238 -101.45628606881826 0 -101.45628606881826 -53.476091656475433 0 0 0 0 351.36785996079266 38.050676506492778 0 38.050676506492778 45.883384199846432 0 0 0 0 202.90821141016886 -100.99536027881584 0 -100.99536027881584 22.554423207863692 0 0 0 0 60.229176013351889 -172.94081993493319 0 -172.94081993493319 56.601001589405314 0 0 0 0 271.6775342299286 7.7465976860142405 0 7.7465976860142405 87.205418161895295 0 0 0 0 187.93498138212703 -73.393532745350853 0 -73.393532745350853 45.549650227231709 0 0 0 0 78.371856186320656 -75.458179852664443 0 -75.458179852664443 99.168426681957271 0 0 0 0 266.41468179676133 40.839414286666511 0 40.839414286666511 -31.25465016255967 0 0 0 0 -34.05358050757809 -278.72262054632745 0 -278.72262054632745 67.287560598636418 0 0 0 0 -144.17486982622154 -74.16281695930752 0 -74.16281695930752 78.378054453742152 0 0 0 0 115.25359970401598 -127.17679852781549 0 -127.17679852781549 81.321033295689858 0 0 0 0 472.81629902746505 47.245231656224576 0 47.245231656224576 -63.952147404622679 0 0 0 0 453.44508109498622 125.72317298386059 0 125.72317298386059 5.785023906894935 0 0 0 0 284.78601288816066 -14.642436700056294 0 -14.642436700056294 135.32024407494191 0 0 0 0 274.07636691087055 1.6074871297607842 0 1.6074871297607842 101.43160269660461 0 0 0 0 476.89975645521963 158.56558065425793 0 158.56558065425793 142.1874844163024 0 0 0 0 769.85257682574604 3.8899417434914767 0 3.8899417434914767 -13.336651816967333 0 0 0 0 4.1080232790906077 1.1502880735507754 0 1.1502880735507754 -0.38237685594427395 0 0 0 0 618.10087711243887 -298.38890627576563 0 -298.38890627576563 130.66448725011492 0 0 0 0 488.11664905754884 -34.644933106982705 0 -34.644933106982705 -48.633470363250581 0 0 0 0 331.60676469514522 13.05784312426519 0 13.05784312426519 30.898865287269018 0 0 0 0 436.46024949676882 -45.075105086711915 0 -45.075105086711915 4.5259568840475595 0 0 0 0 451.91264234752708 65.738644492139997 0 65.738644492139997 44.817098527844962 0 0 0 0 432.85895241098683 -67.19919753489134 0 -67.19919753489134 -16.714756170412215 0 0 0 0 357.25421965327297 -9.419204812610019 0 -9.419204812610019 37.796200128839672 0 0 0 0 281.05889044143078 -52.62291685066657 0 -52.62291685066657 56.858182683367005 0 0 0 0 416.02963109332904 -101.82298339429678 0 -101.82298339429678 -79.352660043970786 0 0 0 0 317.04368967805749 -96.318377802408236 0 -96.318377802408236 -39.192696978038043 0 0 0 0 426.5389241574 -99.570141513996106 0 -99.570141513996106 -85.148351656072066 0 0 0 0 567.34577380767769 -362.33308550408515 0 -362.33308550408515 187.43313379376809 0 0 0 0 522.4132519500705 -196.81327024545433 0 -196.81327024545433 -79.202441628420843 0 0 0 0 1059.9445053397999 397.84906804114917 0 397.84906804114917 638.00470551326384 0 0 0 0 510.4848277066302 -316.29973372772173 0 -316.29973372772173 42.228295825208818 0 0 0 0 4.5328712746480964 2.2356971417512765 0 2.2356971417512765 1.147380530010194 0 0 0 0 437.07433330498066 -225.22540897349549 0 -225.22540897349549 33.159582840690163 0 0 0 0 346.29009664480196 -209.23933386457861 0 -209.23933386457861 105.53497844555716 0 0 0 0 465.81019620132173 -177.14363433496459 0 -177.14363433496459 -12.121705696911704 0 0 0 0 393.3958424286073 -111.31257455153377 0 -111.31257455153377 -49.334453381501362 0 0 0 0 371.00518442898277 -129.01196097893052 0 -129.01196097893052 40.004681141810579 0 0 0 0 252.76153959985328 -143.48071001092057 0 -143.48071001092057 63.97040908685733 0 0 0 0 46.79659700709999 -948.9211520808143 0 -948.9211520808143 -84.553739457210668 0 0 0 0 363.49309277760858 72.913934819369913 0 72.913934819369913 297.98111918939338 0 0 0 0 3.2248853900662375 0.99525634178918443 0 0.99525634178918443 0.29565201055816481 0 0 0 0 199.80225919195391 -69.306243255620302 0 -69.306243255620302 93.292824773269103 0 0 0 0 2.9795115060020403 1.0955199077196871 0 1.0955199077196871 0.06931205372809579 0 0 0 0 67.608926712468588 -236.74042584404819 0 -236.74042584404819 195.28840318574362 0 0 0 0 16.930613454309423 -133.6146035121111 0 -133.6146035121111 160.1387617488995 0 0 0 0 8.8736524305327293 -156.391416419785 0 -156.391416419785 95.803433465634953 0 0 0 0 287.89634639377709 96.680462323119329 0 96.680462323119329 -15.653076360852268 0 0 0 0 -36.496971307721196 -171.36243187235436 0 -171.36243187235436 226.03597471419195 0 0 0 0 2.2198576788987765 -1.0698561663725439 0 -1.0698561663725439 0.58674360983525631 0 0 0 0 64.462193224917428 127.26395134955807 0 127.26395134955807 38.236259721079072 0 0 0 0 448.13230013630164 -22.951585649811989 0 -22.951585649811989 0.36425142603444272 0 0 0 0 421.63729370952205 -27.363553912913424 0 -27.363553912913424 17.15604917620999 0 0 0 0 410.84198842010119 -77.06078019281685 0 -77.06078019281685 208.58025330071365 0 0 0 0 381.01277387829327 -64.075903633420268 0 -64.075903633420268 -6.4895016516049253 0 0 0 0 273.60261291162033 79.126654054830155 0 79.126654054830155 -26.146440936622923 0 0 0 0 203.04793531035762 -25.413761798589441 0 -25.413761798589441 -14.79505508172268 0 0 0 0 223.7592786968039 38.77094031947221 0 38.77094031947221 2.3501269690323561 0 0 0 0 159.42829804425946 83.364675760213359 0 83.364675760213359 -1.9206772322354215 0 0 0 0 130.6058143388891 62.891564159580795 0 62.891564159580795 71.528978561108744 0 0 0 0 104.97514377619768 54.088003254644129 0 54.088003254644129 40.825193445452982 0 0 0 0 131.65348394769489 75.06119252192866 0 75.06119252192866 38.044614773359797 0 0 0 0 148.15989214123499 -19.353296767924792 0 -19.353296767924792 94.278678778293923 0 0 0 0 122.81729513958771 47.065413201453161 0 47.065413201453161 42.723091234188594 0 0 0 0 219.23031847874336 9.668354317383784 0 9.668354317383784 54.799262407414616 0 0 0 0 125.9951169161809 -116.79846839358537 0 -116.79846839358537 150.00357658027309 0 0 0 0 113.2560661706566 -181.73196910821721 0 -181.73196910821721 146.40102324538648 0 0 0 0 434.80982454625018 -422.05503884736697 0 -422.05503884736697 175.25349953203408 0 0 0 0 3.6333095629871122 2.2121734557642094 0 2.2121734557642094 2.4738821231880732 0 0 0 0 124.01690961514134 -190.53815026312193 0 -190.53815026312193 40.266533212419588 0 0 0 0 232.33799001212628 -72.911196033498527 0 -72.911196033498527 61.014452470176913 0 0 0 0 4.1869074071102883 -4.953563226178769 0 -4.953563226178769 -3.7701638652941361 0 0 0 0 197.72924489533443 107.44091219580281 0 107.44091219580281 27.781804121924218 0 0 0 0 665.50239567958397 -464.64826844452944 0 -464.64826844452944 105.7611173375646 0 0 0 0 481.24191494524166 -549.50431680192287 0 -549.50431680192287 81.149000451228972 0 0 0 0 997.56842044602763 -779.57597797905805 0 -779.57597797905805 169.93550848854852 0 0 0 0 870.83697185957817 113.9021581406729 0 113.9021581406729 574.89944880607891 0 0 0 0 7.0375443551429306 -5.3117328042830936 0 -5.3117328042830936 0.72985277501021573 0 0 0 0 130.88823019666779 -315.45057063822219 0 -315.45057063822219 636.61502677830526 0 0 0 0 797.65333242279394 25.220626082122401 0 25.220626082122401 18.630647664012258 0 0 0 0 45.682153629695676 -22.405340479875804 0 -22.405340479875804 50.308424606464541 0 0 0 0 1.1303631975599728 -47.895537820866323 0 -47.895537820866323 -12.641696219427956 0 0 0 0 -1.5997101023117821 -9.8160291158667263 0 -9.8160291158667263 -5.3341514094382791 0 0 0 0 24.24476374706013 -10.123731264952244 0 -10.123731264952244 -0.34945206155634745 0 0 0 0 21.268209302208561 9.0200614553572223 0 9.0200614553572223 -176.44162155989517 0 0 0 0 16.943551742205671 24.088043622505261 0 24.088043622505261 -216.95378221718653 0 0 0 0 11.461963224909596 106.53662692709386 0 106.53662692709386 -308.04857821168753 0 0 0 0 27.854109045432779 -51.044207282874254 0 -51.044207282874254 -283.31844515103796 0 0 0 0 43.088442953788672 -16.374045901256352 0 -16.374045901256352 -140.62745261823585 0 0 0 0 20.019289920918254 59.97056241846942 0 59.97056241846942 -163.53610371685329 0 0 0 0 47.468209773729086 38.330711014536348 0 38.330711014536348 -224.70479731921699 0 0 0 0 -27.157703134722993 226.00892521142663 0 226.00892521142663 -400.94554982879657 0 0 0 0 570.84240170480416 -423.42608738682486 0 -423.42608738682486 90.531062906359708 0 0 0 0 0.97745747609060896 -0.38348464461908849 0 -0.38348464461908849 -1.972837418019324 0 0 0 0 318.25862127238122 -75.294915578232803 0 -75.294915578232803 -282.67450862588129 0 0 0 0 23.104033166841418 -1.4239498892572442 0 -1.4239498892572442 -11.204546745706637 0 0 0 0 8.3733672491426443 1.9711031272018125 0 1.9711031272018125 -1.7021228245449433 0 0 0 0 191.51610257123491 175.11072421128739 0 175.11072421128739 -295.78930421396819 0 0 0 0 222.41667435835342 -182.72745023581746 0 -182.72745023581746 105.71656300191921 0 0 0 0 124.12118856423393 -28.279583931252375 0 -28.279583931252375 -6.7323369807726294 0 0 0 0 96.871231698337624 393.93491146358735 0 393.93491146358735 -188.91215890426906 0 0 0 0 -11.307501206300913 88.706283674360577 0 88.706283674360577 145.14109177273463 0 0 0 0 304.00117858758324 -147.50343747395073 0 -147.50343747395073 -150.76248958370525 0 0 0 0 397.478434988858 -98.135578088559669 0 -98.135578088559669 140.72461723719448 0 0 0 0 231.8696981621672 -425.24813540103059 0 -425.24813540103059 366.36542748581996 0 0 0 0 379.45769204629971 30.387417687565687 0 30.387417687565687 265.88880346571932 0 0 0 0 572.13709803193842 -386.9370430231628 0 -386.9370430231628 437.3219940332072 0 0 0 0 759.20970793834533 -243.40116200895582 0 -243.40116200895582 -110.08890012517838 0 0 0 0 648.8592604585931 -463.95705035465733 0 -463.95705035465733 -3.8017907538121563 0 0 0 0 493.24415655991049 -376.53097079242696 0 -376.53097079242696 -45.091573721786972 0 0 0 0 446.64870139332578 -368.00498993010399 0 -368.00498993010399 38.283009614478829 0 0 0 0 179.50163937316327 -224.93526668739111 0 -224.93526668739111 -5.5585831918097597 0 0 0 0 400.53582655254053 -159.17350107020681 0 -159.17350107020681 -111.0812608617349 0 0 0 0 331.53368390394189 -192.41318553483313 0 -192.41318553483313 -19.365859407646383 0 0 0 0 7.3520651093747729 0.63300308522062543 0 0.63300308522062543 -2.5358199650689639 0 0 0 0 298.7421490589345 -249.55889517678276 0 -249.55889517678276 3.386788307268489 0 0 0 0 407.90407909523901 -440.05050474856625 0 -440.05050474856625 329.83137803779073 0 0 0 0 563.54978776585403 -318.95352994989901 0 -318.95352994989901 99.512470289282362 0 0 0 0 615.94410826462524 -439.64690695067861 0 -439.64690695067861 -17.289148334583388 0 0 0 0 740.02766424518438 -54.233778021490316 0 -54.233778021490316 -140.06211965887815 0 0 0 0 501.06183831045018 -270.11169977793554 0 -270.11169977793554 -220.72938393274717 0 0 0 0 305.71473466254747 -167.62061909628369 0 -167.62061909628369 22.542171913513585 0 0 0 0 0.65235360821395139 0.038256599841532957 0 0.038256599841532957 -2.5902820872618566 0 0 0 0 471.56181575090267 -107.61095599030523 0 -107.61095599030523 -182.06534479548793 0 0 0 0 453.90381450451309 67.547238548093759 0 67.547238548093759 -74.260636539716145 0 0 0 0 233.28654736802605 -125.05798273122059 0 -125.05798273122059 -2.4674167620835306 0 0 0 0 45.598564989432134 -54.831935746445424 0 -54.831935746445424 163.8639521194641 0 0 0 0 0.30176196762573215 -0.22350008035168401 0 -0.22350008035168401 -8.4033764571527012 0 0 0 0 1500.2693226161912 317.72509435304892 0 317.72509435304892 -323.94989084478942 0 0 0 0 919.38150630477924 100.7871890879843 0 100.7871890879843 -342.65545246182728 0 0 0 0 912.99070907106193 77.328372465761447 0 77.328372465761447 -112.02254704682542 0 0 0 0 1184.9513841255409 121.12270208799472 0 121.12270208799472 -348.31087563249093 0 0 0 0 1499.6359692574151 -58.309433318717083 0 -58.309433318717083 -309.56635664763058 0 0 0 0 1071.9802860644479 -160.32190521537001 0 -160.32190521537001 -341.85125854005389 0 0 0 0 1286.5572801627277 -306.35997670113966 0 -306.35997670113966 -62.71861492572021 0 0 0 0 1345.8161707555482 77.95423446063775 0 77.95423446063775 -244.96137065237576 0 0 0 0 1500.0053046638047 -139.94673288561435 0 -139.94673288561435 14.503787745550811 0 0 0 0 1470.1365932078625 67.647574340197679 0 67.647574340197679 220.5680482209788 0 0 0 0 1415.0618669938922 -220.30664689284293 0 -220.30664689284293 382.74888902110376 0 0 0 0 1499.7678708700273 -192.39097749139205 0 -192.39097749139205 184.806098361366 0 0 0 0 2045.214366289001 -416.27147098380357 0 -416.27147098380357 68.255578169168615 0 0 0 0 1410.4137309756416 -282.67090845623903 0 -282.67090845623903 757.12764161115206 0 0 0 0 1931.1328066087485 -307.33591977601458 0 -307.33591977601458 -24.558809654891547 0 0 0 0 1433.870215696471 51.445917645221272 0 51.445917645221272 564.09843973312934 0 0 0 0 415.44185812659907 -557.43093468909353 0 -557.43093468909353 367.51909138689552 0 0 0 0 953.82523433774566 -554.8212388553336 0 -554.8212388553336 222.01950195916248 0 0 0 0 982.83070541009283 -273.33472743239525 0 -273.33472743239525 67.634285142734498 0 0 0 0 459.82316691970482 -434.31524055174384 0 -434.31524055174384 327.01854733809341 0 0 0 0 3.5275419039922831 -0.32688400340688695 0 -0.32688400340688695 -1.6890373995551708 0 0 0 0 39.462908418845473 -16.176015647359748 0 -16.176015647359748 -609.12312475445174 0 0 0 0 -22.402537178981675 65.624332851011673 0 65.624332851011673 -312.59827310036167 0 0 0 0 -55.821836285635982 259.24454197797263 0 259.24454197797263 -384.11994036061981 0 0 0 0 1585.0379241872524 590.75781701388451 0 590.75781701388451 108.78919437406618 0 0 0 0 9.274242962142079 -2.9960799791247412 0 -2.9960799791247412 0.96090129330360996 0 0 0 0 90.20477900042988 -745.98772615728012 0 -745.98772615728012 186.86745885101871 0 0 0 0 1002.8548300046336 -884.64924604541795 0 -884.64924604541795 191.27475160911229 0 0 0 0 277.78850255617908 242.90983628530188 0 242.90983628530188 101.37893634669138 0 0 0 0 1381.4026666410555 280.09570262234615 0 280.09570262234615 -86.091386312190622 0 0 0 0 326.40370755878394 131.32246874787103 0 131.32246874787103 29.05253215989228 0 0 0 0 126.34418156569882 -135.82485995493624 0 -135.82485995493624 -64.055813619489342 0 0 0 0 21.217510991909403 -6.7356041229223189 0 -6.7356041229223189 1.430289142003601 0 0 0 0 169.28721025117738 29.612435411118781 0 29.612435411118781 12.27023015784107 0 0 0 0 -4.5679584362205787 -34.288061549121039 0 -34.288061549121039 56.82073440324217 0 0 0 0 714.71681371413251 43.563479804719435 0 43.563479804719435 -89.404722041656612 0 0 0 0 500.00935176725125 -40.181994473114997 0 -40.181994473114997 -74.969021738302729 0 0 0 0 1311.8459088641775 -51.578631368084075 0 -51.578631368084075 -259.10436783881551 0 0 0 0 1500.1347746675483 -202.17867671820815 0 -202.17867671820815 -226.01706307750271 0 0 0 0 1453.5020133045982 -252.84085622037134 0 -252.84085622037134 -280.54922641733953 0 0 0 0 1486.0372178266043 -342.53147986529649 0 -342.53147986529649 44.424246442365629 0 0 0 0 1537.8605638982317 -197.63731356240459 0 -197.63731356240459 -251.61951205358972 0 0 0 0 1259.7687204443878 -75.891137400926553 0 -75.891137400926553 -56.105530329657995 0 0 0 0 13.907873306046255 12.548667128828356 0 12.548667128828356 -0.2467898538557165 0 0 0 0 16.178775460224642 17.616314205163008 0 17.616314205163008 3.916123396084231 0 0 0 0 10.867540334417185 18.905682007831729 0 18.905682007831729 17.02907326860759 0 0 0 0 7.715816604047177 9.045342519517817 0 9.045342519517817 21.594437280796228 0 0 0 0 11.339440530484808 13.15241412823616 0 13.15241412823616 13.720049588974376 0 0 0 0 12.442142995349059 3.9874839473091015 0 3.9874839473091015 12.832311965277654 0 0 0 0 14.883743001179482 3.87293514798057 0 3.87293514798057 7.845542044307706 0 0 0 0 14.613399288488836 10.561980683373349 0 10.561980683373349 6.7112495724065866 0 0 0 0 16.158241551837364 8.3302896004847753 0 8.3302896004847753 1.8067854024839107 0 0 0 0 15.795728129932172 17.349826434329259 0 17.349826434329259 -3.7811480950904297 0 0 0 0 16.535414827879549 13.044971490309308 0 13.044971490309308 -0.56298608858014632 0 0 0 0 16.228338563920261 13.156735626479303 0 13.156735626479303 2.6000493362830639 0 0 0 0 14.068451550006216 12.174137605734245 0 12.174137605734245 2.1551659227361597 0 0 0 0 10.549525475709288 17.877952541780814 0 17.877952541780814 5.3626455103238868 0 0 0 0 12.313817458096082 13.516638602878857 0 13.516638602878857 5.7975128210568982 0 0 0 0 15.930603091346541 17.154567044263729 0 17.154567044263729 -7.2826342690800629 0 0 0 0 16.392359937787205 13.799569283956828 0 13.799569283956828 -8.5288187895685041 0 0 0 0 17.627771284472828 14.628213239390448 0 14.628213239390448 -5.9868895440995402 0 0 0 0 16.196399747061832 13.846547298442147 0 13.846547298442147 -4.9183483416312015 0 0 0 0 13.599333408977145 9.8412836449551833 0 9.8412836449551833 -8.8435455296921646 0 0 0 0 19.918237066155143 9.0680844947462447 0 9.0680844947462447 -8.9565783365392235 0 0 0 0 20.597264428260132 7.886450372828449 0 7.886450372828449 -18.564151033083363 0 0 0 0 12.874466113775071 5.4682582123568011 0 5.4682582123568011 -10.785535698059448 0 0 0 0 19.61333555405713 18.317226064590159 0 18.317226064590159 -15.806934186660555 0 0 0 0 22.620070819498551 7.6876450443019166 0 7.6876450443019166 -24.373656049304827 0 0 0 0 23.528567723232982 0.96732997139474719 0 0.96732997139474719 -40.160531261063056 0 0 0 0 19.4527774352498 21.050007754132594 0 21.050007754132594 -37.100470781180491 0 0 0 0 6.4211893856108304 21.279613202833502 0 21.279613202833502 -4.6332993018495472 0 0 0 0 -4.5132667209277173 48.261011501672556 0 48.261011501672556 -65.566886991019146 0 0 0 0 1.4584305052567714 7.3812077036513983 0 7.3812077036513983 -50.586480386582252 0 0 0 0 -58.99022528310072 12.440581541628831 0 12.440581541628831 31.398700210771494 0 0 0 0 12.100682666891316 29.278008647310344 0 29.278008647310344 33.641367767909856 0 0 0 0 -6.1327399574505677 18.472202590263805 0 18.472202590263805 30.099335440264781 0 0 0 0 10.259924798285072 9.5376255285276557 0 9.5376255285276557 -2.2740845406615335 0 0 0 0 2.0800052432392704 5.9264973481385823 0 5.9264973481385823 19.379544957541157 0 0 0 0 11.728497216973551 -5.6388876360897484 0 -5.6388876360897484 65.923530321249018 0 0 0 0 6.8485685025547056 -13.552283381588097 0 -13.552283381588097 57.177671262760214 0 0 0 0 -1.63296179657587 -25.150515616547523 0 -25.150515616547523 77.176630064762094 0 0 0 0 5.3794700388706929 -0.61878959424487334 0 -0.61878959424487334 -11.577116366632367 0 0 0 0 2.0401890597802748 1.5162446311221394 0 1.5162446311221394 0.55901563390031406 0 0 0 0 1.8886487562261443 -0.58346100224353603 0 -0.58346100224353603 -1.3641984090515826 0 0 0 0 32.302125396880001 -9.4088331717443907 0 -9.4088331717443907 11.395908819495276 0 0 0 0 52.04436040676751 -42.442961756999466 0 -42.442961756999466 0.71082997576661455 0 0 0 0 19.552202920134022 -33.107036528640492 0 -33.107036528640492 35.348519356730435 0 0 0 0 -21.703616793263645 -4.1377956314451012 0 -4.1377956314451012 62.441470485636728 0 0 0 0 4.7623153253777586 2.3853387512796416 0 2.3853387512796416 0.97141449669948732 0 0 0 0 13.518970525699842 4.4045895477305521 0 4.4045895477305521 -23.772918407664008 0 0 0 0 -3.8527174486539657 20.232688804074542 0 20.232688804074542 31.885610250455215 0 0 0 0 -9.1324557814863283 10.28530548364094 0 10.28530548364094 3.4977649449009505 0 0 0 0 12.914341660745549 31.16848753102812 0 31.16848753102812 -72.74870380295647 0 0 0 0 1.7511288854701723 -0.24681246985482305 0 -0.24681246985482305 -1.0233406672967853 0 0 0 0 6.7358808412291182 -10.299679049767462 0 -10.299679049767462 -1.2432090728644454 0 0 0 0 -18.222865077377264 16.866961460228708 0 16.866961460228708 -28.863620351463851 0 0 0 0 33.685153090458243 -22.941073817211816 0 -22.941073817211816 -38.98086784306696 0 0 0 0 29.835512032356377 1.9060405404027847 0 1.9060405404027847 -77.861617225554596 0 0 0 0 20.26324613023553 -31.485954099783839 0 -31.485954099783839 -2.8094060373354068 0 0 0 0 70.601679859110391 -37.749115218924544 0 -37.749115218924544 -28.693397587328718 0 0 0 0 -14.376290902495839 -3.7997037631369039 0 -3.7997037631369039 -19.849270002474896 0 0 0 0 17.288359029266303 -2.7776494484425029 0 -2.7776494484425029 -50.862640774091119 0 0 0 0 46.975286813432831 -32.892053010713425 0 -32.892053010713425 -29.228013485434417 0 0 0 0 77.830904701234886 -37.990360320329501 0 -37.990360320329501 -40.860471100457175 0 0 0 0 45.55425345328274 -37.811253619734146 0 -37.811253619734146 -25.517904284047745 0 0 0 0 71.574758988931535 -37.823458647872712 0 -37.823458647872712 -42.438661523899071 0 0 0 0 74.945263163148354 -50.513379142467258 0 -50.513379142467258 -37.377092725824582 0 0 0 0 65.002656436163818 -21.995132666373252 0 -21.995132666373252 -57.016814647146248 0 0 0 0 7.6107120296771882 -8.6573604280385439 0 -8.6573604280385439 -49.735499614415289 0 0 0 0 70.231928978573706 4.4989711882880954 0 4.4989711882880954 -60.854408292673128 0 0 0 0 1.4582187767740322 -0.063338578160659909 0 -0.063338578160659909 -0.73630820474163849 0 0 0 0 -12.578863335687402 39.042878353736626 0 39.042878353736626 -53.864875322448924 0 0 0 0 16.281814216339853 55.662223311494003 0 55.662223311494003 -119.07558968295371 0 0 0 0 6.4252694110466564 -23.999258265492102 0 -23.999258265492102 11.566877563739652 0 0 0 0 -7.5701856451303229 15.31879747054731 0 15.31879747054731 -7.5472126268123247 0 0 0 0 18.728752798534742 -8.2466994118134949 0 -8.2466994118134949 -19.513067774157761 0 0 0 0 19.453369782751452 0.86798288103682353 0 0.86798288103682353 -2.4475703368449899 0 0 0 0 7.8391419994566602 3.0953982531763371 0 3.0953982531763371 0.22623501129061868 0 0 0 0 22.818351003474163 5.3206895244634325 0 5.3206895244634325 -54.47802312887012 0 0 0 0 -19.509287400022004 -30.507127036423071 0 -30.507127036423071 -32.886437681474547 0 0 0 0 -21.098723401452787 28.883173951783043 0 28.883173951783043 -17.682298524263388 0 0 0 0 18.337171165479049 -15.064572773110228 0 -15.064572773110228 -27.832687125762163 0 0 0 0 2.8121499568756008 -11.554004191395592 0 -11.554004191395592 40.750192327316029 0 0 0 0 0.60543816632571446 0.010644955966947922 0 0.010644955966947922 -0.27500791955865533 0 0 0 0 -61.460338507626147 27.549494358839809 0 27.549494358839809 -32.085742516642568 0 0 0 0 62.274955432602837 -52.444937556091162 0 -52.444937556091162 40.304422862924923 0 0 0 0 51.637748666401421 29.392509329547863 0 29.392509329547863 -16.497240435126059 0 0 0 0 45.929135742400831 -12.050789940963455 0 -12.050789940963455 4.9282139380597982 0 0 0 0 40.157052041784482 21.403252396239878 0 21.403252396239878 -6.6919012149270998 0 0 0 0 129.70078635599657 16.133639671592817 0 16.133639671592817 -25.448834713048711 0 0 0 0 10.115052453406861 11.171373587253044 0 11.171373587253044 -23.647645305582465 0 0 0 0 22.097826362786691 39.775871575110386 0 39.775871575110386 -18.689734988832285 0 0 0 0 -35.003712543696793 -11.304106758998671 0 -11.304106758998671 -4.5303673853057944 0 0 0 0 -9.8396657243670234 29.788317461583162 0 29.788317461583162 -14.306672124391525 0 0 0 0 46.000991249065464 23.920275666856952 0 23.920275666856952 -26.327973074610895 0 0 0 0 32.737744082989593 26.864574652537897 0 26.864574652537897 -26.28215550816185 0 0 0 0 36.375810340511634 33.762947363214721 0 33.762947363214721 -22.083076519958979 0 0 0 0 -2.9967370878503061 37.110252450924975 0 37.110252450924975 35.718024875117294 0 0 0 0 41.349342977317974 31.343472202098155 0 31.343472202098155 -31.28227932111588 0 0 0 0 48.002667057365215 25.528257581299215 0 25.528257581299215 -26.778964895182554 0 0 0 0 27.582186041919272 -18.150038053217912 0 -18.150038053217912 -12.031850314574854 0 0 0 0 52.170853572446049 0.039141125739263316 0 0.039141125739263316 -14.633878766618636 0 0 0 0 43.381525155881718 -14.520328001334292 0 -14.520328001334292 -0.85171242113801782 0 0 0 0 1.1036508886967296 -0.8665274462547341 0 -0.8665274462547341 -0.55482845669655068 0 0 0 0 40.748099033996368 38.37619325075309 0 38.37619325075309 -34.880052117736071 0 0 0 0 24.942010969107287 42.121138359302563 0 42.121138359302563 -34.512183977932466 0 0 0 0 19.148092641124094 -18.746393691711319 0 -18.746393691711319 10.063909286640353 0 0 0 0 -21.098723401456482 28.883173951777053 0 28.883173951777053 -17.682298524265207 0 0 0 0 20.360841904385495 39.431221705238158 0 39.431221705238158 -20.325288794972494 0 0 0 0 23.98797258887771 18.516020832290167 0 18.516020832290167 -15.433474378811866 0 0 0 0 -21.098723401449206 28.883173951778133 0 28.883173951778133 -17.682298524264752 0 0 0 0 -9.36231974063503 7.8142373785793495 0 7.8142373785793495 2.8761782068820594 0 0 0 0 42.049678987497828 37.153038916716866 0 37.153038916716866 -26.819346528580638 0 0 0 0 35.610667373905926 28.035309850125941 0 28.035309850125941 -13.95345411882488 0 0 0 0 218.32909959976001 -33.333803702166392 0 -33.333803702166392 20.865107378358061 0 0 0 0 218.67716018326962 -29.05952181549992 0 -29.05952181549992 -5.490719106965912 0 0 0 0 232.43995628693199 -32.77712012113625 0 -32.77712012113625 -4.5232518131035704 0 0 0 0 -9.260278743142635 16.59391565217198 0 16.59391565217198 23.463112796124165 0 0 0 0 184.56056310655558 -0.21832407060287551 0 -0.21832407060287551 8.4092100270839865 0 0 0 0 193.60571948590604 -23.335136937265759 0 -23.335136937265759 7.8711990330339177 0 0 0 0 0.49722512214227499 2.0554181800127429 0 2.0554181800127429 6.9853327120254498 0 0 0 0 221.35246382895701 -11.517378339461629 0 -11.517378339461629 -8.8505785840870885 0 0 0 0 207.34554237531145 -34.120735122885606 0 -34.120735122885606 10.288060041630388 0 0 0 0 1.2995058252955736 2.3777689483481019 0 2.3777689483481019 -3.4173424363686697 0 0 0 0 3.1871962674111489 3.5740714882953006 0 3.5740714882953006 0.6091822946256209 0 0 0 0 5.5454320364213281 0.64271807500688283 0 0.64271807500688283 1.2992189678791419 0 0 0 0 216.17348103669372 -0.41906175870235529 0 -0.41906175870235529 -12.418280125024467 0 0 0 0 3.1047020416102669 4.190708662736597 0 4.190708662736597 32.974402177912452 0 0 0 0 255.87060781612098 12.482369331646396 0 12.482369331646396 19.887731472419546 0 0 0 0 0.21787327224087844 -0.78016853518998242 0 -0.78016853518998242 0.75620911580689576 0 0 0 0 5.351287159292017 1.8787600035539935 0 1.8787600035539935 3.8999710225911266 0 0 0 0 2.5894540920079319 2.5715729084389052 0 2.5715729084389052 -0.60045925614410089 0 0 0 0 276.05650598833688 31.481870825823989 0 31.481870825823989 23.200292121669463 0 0 0 0 303.04434472300119 9.2264349940180637 0 9.2264349940180637 0.29777630248258902 0 0 0 0 253.37581244675397 -6.4654045138039464 0 -6.4654045138039464 1.7216536996411378 0 0 0 0 257.49963890134768 -6.4762774805008121 0 -6.4762774805008121 -3.2615502417957032 0 0 0 0 264.56706876788604 15.914297531667671 0 15.914297531667671 6.1281015580448184 0 0 0 0 220.98451576644422 9.0567891172756845 0 9.0567891172756845 5.0515448830819878 0 0 0 0 240.45773874123927 -16.496936458093387 0 -16.496936458093387 -8.1821629244768701 0 0 0 0 257.45479106598765 -37.045587333389328 0 -37.045587333389328 -14.438031625092208 0 0 0 0 233.72699024774408 -34.506453850209937 0 -34.506453850209937 -8.021484655367658 0 0 0 0 275.04007984974845 -20.491579377371409 0 -20.491579377371409 -4.882935624610127 0 0 0 0 284.8987405563858 -26.238303338993092 0 -26.238303338993092 -5.6032606705525723 0 0 0 0 247.10706478899408 -72.506851454021557 0 -72.506851454021557 -8.8603162898762093 0 0 0 0 238.25670455062175 -53.350463613925513 0 -53.350463613925513 -7.4587389465268643 0 0 0 0 174.09096665669122 -76.275326013892538 0 -76.275326013892538 90.645338173415894 0 0 0 0 332.38338479358504 -62.951025534146879 0 -62.951025534146879 -18.448660381455966 0 0 0 0 315.29009401323901 -7.8413558773268619 0 -7.8413558773268619 -4.5790300106550603 0 0 0 0 322.65836336850953 -11.280941841448794 0 -11.280941841448794 -6.6386334382867513 0 0 0 0 6.0672385655218477 -9.3114952726118076 0 -9.3114952726118076 0.81974895551138616 0 0 0 0 2.2835856950136457 -2.0643987751887867 0 -2.0643987751887867 3.3624271473234817 0 0 0 0 5.7782732333967033 3.9000531193034931 0 3.9000531193034931 -18.90225472043403 0 0 0 0 351.552725246889 27.327509418963018 0 27.327509418963018 -9.9398678672423557 0 0 0 0 0.50674674736698244 -0.47338467464641931 0 -0.47338467464641931 1.2636946343664812 0 0 0 0 -31.76523284729592 65.056309618450598 0 65.056309618450598 -48.32248628825846 0 0 0 0 -69.413780774911629 -91.056611328421013 0 -91.056611328421013 -50.327313329637036 0 0 0 0 132.61702841965416 116.25756342924478 0 116.25756342924478 -88.576539705038613 0 0 0 0 262.91872023956694 -242.40063788274711 0 -242.40063788274711 -22.953156041294278 0 0 0 0 432.85912060228293 -187.35411974454337 0 -187.35411974454337 40.881389231021785 0 0 0 0 658.64249735257738 62.951174536612257 0 62.951174536612257 -5.8190069866099829 0 0 0 0 46.719669104727416 -86.546252428374373 0 -86.546252428374373 181.12413281234262 0 0 0 0 16.722996184798831 12.635040478963674 0 12.635040478963674 -4.735290660251394 0 0 0 0 16.034754148186039 9.2323969015919829 0 9.2323969015919829 -3.8393422404201374 0 0 0 0 6.0674696731598488 -1.4115381918059438 0 -1.4115381918059438 -2.4569740546862029 0 0 0 0 14.767796928286884 5.3285631166589127 0 5.3285631166589127 0.90971200297781252 0 0 0 0 14.879477147684156 -2.0851024313145956 0 -2.0851024313145956 -6.1657548726216191 0 0 0 0 5.4567526766609262 -14.114724567825533 0 -14.114724567825533 8.7517392442040318 0 0 0 0 33.265927210336486 0.67447666141777063 0 0.67447666141777063 -13.043663031557116 0 0 0 0 31.404209047962468 6.4968379981440876 0 6.4968379981440876 -16.163097055458309 0 0 0 0 25.943924112909372 6.7887755807521444 0 6.7887755807521444 -13.709871830412226 0 0 0 0 5.5102307207363568 5.0051714231850415 0 5.0051714231850415 -0.42771373366575549 0 0 0 0 29.641806790685223 1.6052440795220946 0 1.6052440795220946 -12.832702471367099 0 0 0 0 25.835573883382494 -5.3019640379516204 0 -5.3019640379516204 -1.6308445645263419 0 0 0 0 21.199590402673039 -3.0337637320805584 0 -3.0337637320805584 1.6465699767538808 0 0 0 0 10.741336609611775 -2.3501679129730704 0 -2.3501679129730704 -2.7066571832906448 0 0 0 0 4.1605426201966456 0.50392423863672597 0 0.50392423863672597 3.2045902744258248 0 0 0 0 13.569866777295813 4.2612162004960874 0 4.2612162004960874 -1.4901884452403347 0 0 0 0 20.726107678064864 -1.3004188686589373 0 -1.3004188686589373 -0.04872160513241397 0 0 0 0 31.368248304313056 -4.641379856251433 0 -4.641379856251433 3.0059852079484699 0 0 0 0 9.7845527543119442 4.5573831040773314 0 4.5573831040773314 -0.97758288830662421 0 0 0 0 32.01860640934683 -4.5482735806758683 0 -4.5482735806758683 10.612322147665509 0 0 0 0 19.481085039553818 1.2223086273513672 0 1.2223086273513672 0.54816919323184266 0 0 0 0 13.733035410645531 -6.1513442930323761 0 -6.1513442930323761 3.8994355742908828 0 0 0 0 37.62810610887459 24.484162420147527 0 24.484162420147527 -0.72539461966077567 0 0 0 0 23.789455949350241 16.361265951347555 0 16.361265951347555 -5.915820072401857 0 0 0 0 25.533551818694832 -19.573388591437606 0 -19.573388591437606 -6.4349355696056136 0 0 0 0 19.679268237073757 13.185345768733441 0 13.185345768733441 -4.9869442990025163 0 0 0 0 18.52497177171108 16.073440369880245 0 16.073440369880245 -3.6509688745161384 0 0 0 0 11.273690787725627 12.222512397676383 0 12.222512397676383 -4.9328866415627317 0 0 0 0 43.31733176217773 -47.158234171424986 0 -47.158234171424986 9.600902477789532 0 0 0 0 2.5319442570321371 9.8861140197411714 0 9.8861140197411714 -3.2837596554641095 0 0 0 0 -0.25096042725330969 -0.32941980291294026 0 -0.32941980291294026 0.63628522540404475 0 0 0 0 8.0252861321368982 1.8284164539601306 0 1.8284164539601306 -4.608989625994127 0 0 0 0 45.886816460919363 -19.993818459016694 0 -19.993818459016694 8.7200829207076254 0 0 0 0 36.926106477723806 -8.1429415588462462 0 -8.1429415588462462 2.7063081750295623 0 0 0 0 37.036901175328239 -19.863348591141175 0 -19.863348591141175 -9.3937158038504549 0 0 0 0 7.7528803756250264 1.3487353265148929 0 1.3487353265148929 -1.4717148914731721 0 0 0 0 5.0603750579478604 2.4020151686717388 0 2.4020151686717388 -3.4122957518316186 0 0 0 0 -27.717130059939336 -7.496077574388039 0 -7.496077574388039 18.670775957838941 0 0 0 0 2.6779140137151893 -2.1650673035806403 0 -2.1650673035806403 0.64467522797888455 0 0 0 0 15.043043975319961 -37.967746347093737 0 -37.967746347093737 -35.955611105324124 0 0 0 0 33.849306670368605 -1.5842537330888717 0 -1.5842537330888717 -33.460083486735279 0 0 0 0 27.7624443086479 -13.934780952139704 0 -13.934780952139704 -57.632514331795164 0 0 0 0 29.118574009395161 -3.0120007858790814 0 -3.0120007858790814 -2.5903051968683144 0 0 0 0 24.780513570478433 15.466935446011689 0 15.466935446011689 -19.706512318106547 0 0 0 0 47.915196767078669 16.734447746607543 0 16.734447746607543 -44.642866999355761 0 0 0 0 48.837132400756673 24.311773484868809 0 24.311773484868809 -53.58418925322826 0 0 0 0 53.367898668600901 33.455301409382059 0 33.455301409382059 -1.1288314174673246 0 0 0 0 36.861941724587723 30.630405326911813 0 30.630405326911813 -1.6048895814546995 0 0 0 0 8.0254942742174187 1.9773261020907351 0 1.9773261020907351 -2.0327947113420288 0 0 0 0 23.760252198141643 -8.2031137399736025 0 -8.2031137399736025 2.4260816044642297 0 0 0 0 36.825921037059459 -16.641026943156419 0 -16.641026943156419 0.96231918563626095 0 0 0 0 22.814472609234144 14.512451274447812 0 14.512451274447812 5.4335884326804944 0 0 0 0 4.0788989126016375 2.3842036903291799 0 2.3842036903291799 -2.3838813274755575 0 0 0 0 23.384195050290145 -7.6874978971623875 0 -7.6874978971623875 4.2369059571349794 0 0 0 0 42.328061600449701 4.2352904696267615 0 4.2352904696267615 -7.7911454883428632 0 0 0 0 12.334132886336562 -2.4862644932475035 0 -2.4862644932475035 -0.93012293544660007 0 0 0 0 5.8820988852188876 -0.83987920075521538 0 -0.83987920075521538 0.35195520084904963 0 0 0 0 381.27447287771611 467.18758233364133 0 467.18758233364133 158.62451831506633 0 0 0 0 554.64966685184118 -331.73813674428948 0 -331.73813674428948 131.16986705347972 0 0 0 0 8.1568491639039475 3.54918086462364 0 3.54918086462364 1.6125249412274631 0 0 0 0 -196.02284346511624 -20.283572556453919 0 -20.283572556453919 -127.24841033002667 0 0 0 0 540.73587830766519 -245.5926461616491 0 -245.5926461616491 107.81552609458049 0 0 0 0 2.2710975840959691 -51.830180424447576 0 -51.830180424447576 -59.093149835468466 0 0 0 0 2.6682706903629878 -417.16416088683218 0 -417.16416088683218 1309.9726199719116 0 0 0 0 10.264164877554437 -8.904900737818453 0 -8.904900737818453 8.9297605487154694 0 0 0 0 651.99650335074875 -261.62438322378102 0 -261.62438322378102 26.833207984802357 0 0 0 0 554.84790635149352 -236.49029140390257 0 -236.49029140390257 -50.855707063531554 0 0 0 0 353.5302007840146 -190.84225946588504 0 -190.84225946588504 14.280581243407141 0 0 0 0 454.754121537213 -0.23584585652133683 0 -0.23584585652133683 -65.268968678084093 0 0 0 0 521.38795384579225 -51.082530706371926 0 -51.082530706371926 -30.679268843759019 0 0 0 0 45.25589515910815 -21.788754932409688 0 -21.788754932409688 -116.24110376214526 0 0 0 0 -24.680792170983693 -134.2124187722672 0 -134.2124187722672 183.70925569336998 0 0 0 0 46.758934525518271 25.194376305483729 0 25.194376305483729 -118.58748939887937 0 0 0 0 32.453231121664658 46.130303677732215 0 46.130303677732215 -94.778729425803704 0 0 0 0 35.799563339089218 5.3118102369161306 0 5.3118102369161306 -69.590387005277989 0 0 0 0 31.758282639519166 53.484213958505961 0 53.484213958505961 -47.139076690599154 0 0 0 0 27.387456176695196 19.892572965775344 0 19.892572965775344 6.7089680450364995 0 0 0 0 56.498116484313869 23.53515012701132 0 23.53515012701132 7.0193880805934441 0 0 0 0 14.220013939537239 -47.248762017840477 0 -47.248762017840477 142.840146472269 0 0 0 0 -35.328197429576903 38.130983287430467 0 38.130983287430467 15.869262415195863 0 0 0 0 433.73242086760672 1524.1612322500787 0 1524.1612322500787 -322.93386098408746 0 0 0 0 875.45454723399143 513.04397321872932 0 513.04397321872932 -345.26482328153702 0 0 0 0 1055.000389631592 -87.198502615376981 0 -87.198502615376981 -226.36705729055166 0 0 0 0 6.3447952203175788 -4.982820189925393 0 -4.982820189925393 3.617330466120761 0 0 0 0 371.13823317590891 100.29495902710903 0 100.29495902710903 -102.26221732847534 0 0 0 0 477.58160371940994 -373.30540720026761 0 -373.30540720026761 95.116054934887757 0 0 0 0 139.05122661224414 -302.74753530449192 0 -302.74753530449192 277.21122771979634 0 0 0 0 141.86134033248709 -112.11433142977194 0 -112.11433142977194 84.758884089035064 0 0 0 0 244.09084464099942 -184.49055428573047 0 -184.49055428573047 108.85562977584419 0 0 0 0 109.6573535358857 -88.168477022420461 0 -88.168477022420461 75.913495676493994 0 0 0 0 287.58465223813346 -219.12999526558855 0 -219.12999526558855 15.587007040467824 0 0 0 0 258.10041288418279 -114.45712677899269 0 -114.45712677899269 -4.5837857472276937 0 0 0 0 99.488547180047135 68.782204671858125 0 68.782204671858125 -112.65823656614657 0 0 0 0 689.44715886522818 -63.934799657896775 0 -63.934799657896775 -146.59783852118812 0 0 0 0 1.5701938980302863 -0.5054903681452636 0 -0.5054903681452636 -0.1828002768264283 0 0 0 0 -7.1951624269315744 27.609469237234464 0 27.609469237234464 -28.857757082440912 0 0 0 0 19.196939338053198 -6.263309919518008 0 -6.263309919518008 4.4228873558535042 0 0 0 0 2.3758680871801374 -0.42558455437492704 0 -0.42558455437492704 0.21543030113019013 0 0 0 0 -8.9156774107887031 -4.295866564339633 0 -4.295866564339633 -1.448561023003947 0 0 0 0 0.79130402008513556 -0.31083886987597964 0 -0.31083886987597964 -39.08600244965919 0 0 0 0 -6.8028659814381172 34.700977687293744 0 34.700977687293744 46.254414911463641 0 0 0 0 170.15857113294987 -38.469359519335171 0 -38.469359519335171 34.16157256451487 0 0 0 0 66.248809462679674 49.224831437882528 0 49.224831437882528 9.4396556532860814 0 0 0 0 42.269559093587304 13.783512703562565 0 13.783512703562565 46.907861743488411 0 0 0 0 0.52475675693070656 -0.43525819535840782 0 -0.43525819535840782 0.36788843930915638 0 0 0 0 213.96429544605962 -22.828618559555025 0 -22.828618559555025 2.5266994964804042 0 0 0 0 294.004971182487 -140.40151150267519 0 -140.40151150267519 -40.66056855071065 0 0 0 0 54.054218592627876 -125.39624364794958 0 -125.39624364794958 53.258015628106932 0 0 0 0 15.256804099082046 -1.9034038584133413 0 -1.9034038584133413 -5.990679935154958 0 0 0 0 59.027298238424919 10.929229506101819 0 10.929229506101819 -7.0423328939739349 0 0 0 0 127.70841860853125 -79.285632713355483 0 -79.285632713355483 27.694913878512807 0 0 0 0 35.712157501879119 3.563429825380922 0 3.563429825380922 -40.091151737726534 0 0 0 0 19.627355741973588 34.413419190914141 0 34.413419190914141 -31.447265113323965 0 0 0 0 27.350000764849938 -12.626560782508875 0 -12.626560782508875 -15.37861763430783 0 0 0 0 -6.3248603584688681 19.07076900323284 0 19.07076900323284 5.9378001525867603 0 0 0 0 6.6359039827675588 -8.2690574975587197 0 -8.2690574975587197 11.57379977780127 0 0 0 0 1.3362041288519322 15.199223381793217 0 15.199223381793217 -39.538886670074817 0 0 0 0 -0.037687200584239022 -0.18510394309084433 0 -0.18510394309084433 0.078537744775124096 0 0 0 0 8.9616673582731892 20.084961584253506 0 20.084961584253506 -37.569243931629956 0 0 0 0 4.5385712008064729 -11.440164250217421 0 -11.440164250217421 19.692673793238782 0 0 0 0 -2.0381157144986446 2.8426164431310212 0 2.8426164431310212 12.942781418124696 0 0 0 0 -0.065199983027728337 -0.59159932606520904 0 -0.59159932606520904 -3.5402675036355511 0 0 0 0 44.9075194434281 -10.085318935627242 0 -10.085318935627242 -34.696059133045082 0 0 0 0 14.778130122587754 -8.3248767565539197 0 -8.3248767565539197 5.6465637526189312 0 0 0 0 9.4949643886757258 -16.272631337510575 0 -16.272631337510575 -0.047430982286641665 0 0 0 0 14.441533335190798 -11.162983512984169 0 -11.162983512984169 -2.930576455463779 0 0 0 0 11.947307329733121 -15.0234171098557 0 -15.0234171098557 0.37538516552740475 0 0 0 0 10.833854344487918 -16.176263412207391 0 -16.176263412207391 -0.37165729772459599 0 0 0 0 9.2785672841637279 -15.111765316340097 0 -15.111765316340097 -0.24748508925813439 0 0 0 0 10.18587719799325 -17.934480637666638 0 -17.934480637666638 -3.3909230925414704 0 0 0 0 10.17110971512011 -17.285438154764961 0 -17.285438154764961 2.6345946748206188 0 0 0 0 12.931165585366671 -18.777562036715267 0 -18.777562036715267 13.424035401262245 0 0 0 0 28.946998539115157 -30.395983537192819 0 -30.395983537192819 0.44306477862664906 0 0 0 0 8.4241424209494653 -14.935032213278774 0 -14.935032213278774 -4.2535091635604658 0 0 0 0 4.0245422718601391 -3.3443936960906182 0 -3.3443936960906182 -6.4134259808680572 0 0 0 0 36.112746786549906 -23.277518723703281 0 -23.277518723703281 11.707764087014112 0 0 0 0 22.476232444361813 -10.069238754359958 0 -10.069238754359958 -4.2620804393714025 0 0 0 0 40.067196551637608 -21.728461776592098 0 -21.728461776592098 12.308214879021762 0 0 0 0 8.3948535415620427 -15.576849991863128 0 -15.576849991863128 0.34532964194659144 0 0 0 0 4.0853023015787997 -1.8422745673329768 0 -1.8422745673329768 0.28408358689827939 0 0 0 0 11.55368675075988 -10.289605635738553 0 -10.289605635738553 -13.822136669290103 0 0 0 0 38.411084839908654 -17.946965940520499 0 -17.946965940520499 5.3176421951459361 0 0 0 0 17.07266409245889 -3.6401402740893682 0 -3.6401402740893682 -4.2859301302819857 0 0 0 0 17.095210073242342 -8.8840729027823588 0 -8.8840729027823588 -1.396922715282201 0 0 0 0 23.457331004177377 -0.83258032960671358 0 -0.83258032960671358 -3.7625143373743413 0 0 0 0 11.924029162262741 -15.856721129182915 0 -15.856721129182915 -9.1967475020446727 0 0 0 0 12.465750207838937 -15.933992659564638 0 -15.933992659564638 -10.023652523709643 0 0 0 0 10.70703494249392 -15.983369741521074 0 -15.983369741521074 -8.6960151072280496 0 0 0 0 11.682076207165665 -16.949642013689299 0 -16.949642013689299 -10.460216181621036 0 0 0 0 11.969501983043301 -16.287326121680962 0 -16.287326121680962 -9.195135778590906 0 0 0 0 10.279796754850395 -16.595392950725795 0 -16.595392950725795 -5.3223136908500237 0 0 0 0 12.283808808861068 -18.684376717577834 0 -18.684376717577834 -8.5042816585059882 0 0 0 0 12.903197487595207 -17.856359750385764 0 -17.856359750385764 -10.304349557841306 0 0 0 0 14.977513408673985 -23.650955940149288 0 -23.650955940149288 -2.9750639611502265 0 0 0 0 17.69053504558542 -14.612085223875511 0 -14.612085223875511 -19.264534242167429 0 0 0 0 14.208613156744832 -18.614144523600316 0 -18.614144523600316 -11.111149589783054 0 0 0 0 22.056615284726831 -19.913302635519926 0 -19.913302635519926 -15.133054973294747 0 0 0 0 16.193939293116273 -13.436199734316688 0 -13.436199734316688 -18.457589190849376 0 0 0 0 18.320297444548487 2.0837270781503321 0 2.0837270781503321 -41.368713301493585 0 0 0 0 28.894016908361664 -12.796561697421112 0 -12.796561697421112 -39.15934445205221 0 0 0 0 15.13699404486033 -13.631238247761758 0 -13.631238247761758 -18.47153473265098 0 0 0 0 13.39834426582911 -15.493781659859678 0 -15.493781659859678 -15.882350100538133 0 0 0 0 15.697834462589526 -15.161134894022325 0 -15.161134894022325 -19.388610066974252 0 0 0 0 13.272280508917902 -5.3850367816985454 0 -5.3850367816985454 -25.588676536055573 0 0 0 0 11.904147997454857 -7.4477520164518864 0 -7.4477520164518864 -26.907211678761996 0 0 0 0 9.58359567073785 -7.8830381907773699 0 -7.8830381907773699 -18.973390293555894 0 0 0 0 13.603827229140734 -13.985542707097011 0 -13.985542707097011 -14.922199136875861 0 0 0 0 8.2031782822195964 -4.6503665080126666 0 -4.6503665080126666 -22.927556137925421 0 0 0 0 26.751993361140649 -6.8178016548390588 0 -6.8178016548390588 1.2401333049622281 0 0 0 0 5.2889920326524589 1.1463762616403983 0 1.1463762616403983 -27.91779110520838 0 0 0 0 12.288671185698149 -3.5238395917619982 0 -3.5238395917619982 -27.514404150579139 0 0 0 0 1.1219818688328114 -2.3829368754731775 0 -2.3829368754731775 -1.1765624908596772 0 0 0 0 10.571083983271819 7.2871016212229733 0 7.2871016212229733 -36.031901249265502 0 0 0 0 13.389487798896994 -11.115169910081931 0 -11.115169910081931 -54.120529893706646 0 0 0 0 2.9629650940802907 2.2211216701048331 0 2.2211216701048331 -0.30615288215385705 0 0 0 0 9.8670721525032832 6.1608482610724309 0 6.1608482610724309 -8.9606352959090145 0 0 0 0 19.276169627931836 -7.8048802367563894 0 -7.8048802367563894 -21.524688300698472 0 0 0 0 15.646121168218428 -3.6189775499576626 0 -3.6189775499576626 0.34913528690913154 0 0 0 0 18.856106493515199 2.7450064610550271 0 2.7450064610550271 -1.1183162358029222 0 0 0 0 21.496601250692493 2.6877914318488365 0 2.6877914318488365 -21.99907406082616 0 0 0 0 23.150664255122109 -1.0576201063755093 0 -1.0576201063755093 -15.239667327905408 0 0 0 0 17.881298918396851 -0.96563700310275635 0 -0.96563700310275635 -15.237457362935743 0 0 0 0 17.921503010443985 0.011974815457733712 0 0.011974815457733712 -6.3838450359621675 0 0 0 0 20.636340206491923 1.912214195641468 0 1.912214195641468 -14.007015397480245 0 0 0 0 19.521759941793334 1.5827654813108438 0 1.5827654813108438 -14.009831449405283 0 0 0 0 18.43546367941326 2.4971509638783118 0 2.4971509638783118 -9.8147699930702856 0 0 0 0 19.041936122164088 1.6101983954883963 0 1.6101983954883963 -8.7187873420325559 0 0 0 0 18.639977530767283 -0.061562741092075157 0 -0.061562741092075157 -4.7527077802583335 0 0 0 0 17.542661589613544 2.5275074187404698 0 2.5275074187404698 -7.8121409278251122 0 0 0 0 21.648084068300477 1.5479522078488799 0 1.5479522078488799 -3.8291260267724283 0 0 0 0 23.133113556754097 -3.4683563274099924 0 -3.4683563274099924 -3.8342452202768982 0 0 0 0 16.600540411900965 -2.3587796727492787 0 -2.3587796727492787 -2.5686890845809103 0 0 0 0 20.894539271428584 -3.9543933429331446 0 -3.9543933429331446 -3.2965240367130946 0 0 0 0 18.069920556331226 0.3378949163394509 0 0.3378949163394509 -4.0078170169026635 0 0 0 0 17.891098729153157 2.4210879870051372 0 2.4210879870051372 -3.5953661054927579 0 0 0 0 -16.363052146150654 37.042003149081893 0 37.042003149081893 -1.3272151814053359 0 0 0 0 -24.386513342100319 49.174510918760575 0 49.174510918760575 -34.359806952307508 0 0 0 0 -14.614746712354092 59.689849227280092 0 59.689849227280092 -23.660540237946861 0 0 0 0 37.075524128149482 2.2618863462892023 0 2.2618863462892023 -67.174354704415236 0 0 0 0 17.334396853604403 4.6193751010842217 0 4.6193751010842217 0.53102017256861389 0 0 0 0 19.778994193124163 -28.252462006546239 0 -28.252462006546239 -21.616484348856602 0 0 0 0 40.597721018340962 -20.911359009325224 0 -20.911359009325224 -60.187627066447476 0 0 0 0 27.061260303086783 -11.874429483265885 0 -11.874429483265885 -23.560230433129163 0 0 0 0 42.119334331928258 -14.536117790328717 0 -14.536117790328717 -24.856158621406905 0 0 0 0 15.594809472670619 33.650044514990199 0 33.650044514990199 39.970377119102977 0 0 0 0 63.87590442572764 58.773535448369103 0 58.773535448369103 48.307494304542161 0 0 0 0 46.345118710298493 59.886968841900398 0 59.886968841900398 80.265962463208893 0 0 0 0 22.79487554834941 -6.2568840911791312 0 -6.2568840911791312 14.462437362300761 0 0 0 0 112.40445674876537 18.868621033265129 0 18.868621033265129 6.7481828073273107 0 0 0 0 35.76433847448061 -30.838331200734274 0 -30.838331200734274 21.091479423556393 0 0 0 0 1.9642540889567766 -0.24643974829754978 0 -0.24643974829754978 -1.2091321391901824 0 0 0 0 117.51855440331747 102.76361472405995 0 102.76361472405995 11.134394768140126 0 0 0 0 125.39663009420258 23.614711933849865 0 23.614711933849865 27.856490698130017 0 0 0 0 131.13016865623831 87.400661646218623 0 87.400661646218623 21.82535884391352 0 0 0 0 49.194793332790141 12.443364015254744 0 12.443364015254744 73.477205108249038 0 0 0 0 69.715856472645555 20.795822923777976 0 20.795822923777976 24.563515853547983 0 0 0 0 2.2560742277386678 -1.2637630560670332 0 -1.2637630560670332 1.4679879646152407 0 0 0 0 -2.1810111705480768 -1.260767293682526 0 -1.260767293682526 1.2609556869740803 0 0 0 0 45.759595444523711 -11.977433251078455 0 -11.977433251078455 -0.80840274598617157 0 0 0 0 98.641807267382319 26.534884850539697 0 26.534884850539697 24.051819339277131 0 0 0 0 -9.7533307332250843 -1.3572944529297786 0 -1.3572944529297786 -16.004741005582964 0 0 0 0 8.7929311272444437 -10.741297154901188 0 -10.741297154901188 -1.4174182993313336 0 0 0 0 13.043334140530987 -4.4820769887364236 0 -4.4820769887364236 31.683156967896821 0 0 0 0 15.516444985547423 74.104969161640156 0 74.104969161640156 40.06883934874854 0 0 0 0 17.183862295971807 -1.769787225621144 0 -1.769787225621144 -34.440370921885346 0 0 0 0 14.716740697577734 65.127979439079809 0 65.127979439079809 -24.274519184989856 0 0 0 0 -4.3937457734846248 -49.807663577146073 0 -49.807663577146073 -5.6898455928024916 0 0 0 0 -2.8565110910781186 -3.2061610623807315 0 -3.2061610623807315 -14.57945339124738 0 0 0 0 1.5330542649734547 -1.7772492384158189 0 -1.7772492384158189 1.0748962752776752 0 0 0 0 18.089405173735731 -6.8311926307582365 0 -6.8311926307582365 -0.40052610623289242 0 0 0 0 5.8929467883481266 -11.52328809357806 0 -11.52328809357806 -1.6406623379310474 0 0 0 0 1.1856757464940522 0.073419098040647945 0 0.073419098040647945 -0.23432367355904715 0 0 0 0 62.555229292378499 12.731294128209846 0 12.731294128209846 -4.5829191844500308 0 0 0 0 -75.088932286986164 37.978914580747059 0 37.978914580747059 82.439239967998475 0 0 0 0 8.710535624847239 12.527433819694821 0 12.527433819694821 8.6612151297651963 0 0 0 0 83.253231416940253 -23.047810836821395 0 -23.047810836821395 6.4298296923941809 0 0 0 0 53.819064757523847 -27.546926116489882 0 -27.546926116489882 46.156990814666131 0 0 0 0 21.573470171819416 -7.8743646650965982 0 -7.8743646650965982 1.062641998585002 0 0 0 0 54.003245888234233 -74.98872814623661 0 -74.98872814623661 -42.572842210547378 0 0 0 0 20.708715931406914 4.8301531271943077 0 4.8301531271943077 49.253891802812703 0 0 0 0 161.87156565182158 -29.584045699091789 0 -29.584045699091789 -57.605001764407092 0 0 0 0 393.22146219200022 -319.85751135151793 0 -319.85751135151793 29.585339259524517 0 0 0 0 347.97615275124213 -29.04983907763193 0 -29.04983907763193 -109.50432314047634 0 0 0 0 -20.226938952978344 39.639301499130838 0 39.639301499130838 6.9956096153947556 0 0 0 0 -105.06536727335475 127.91065677389395 0 127.91065677389395 -11.721121083516664 0 0 0 0 154.43273786283953 164.15954244912677 0 164.15954244912677 -123.60978768300669 0 0 0 0 99.75628736326081 29.283064541685462 0 29.283064541685462 -14.713623264988428 0 0 0 0 4.2699727278632622 35.568193504294072 0 35.568193504294072 -10.585767373485311 0 0 0 0 180.47647227367784 -70.609972498745492 0 -70.609972498745492 -31.493506719181141 0 0 0 0 73.828333358663457 -44.580790227821353 0 -44.580790227821353 -23.39266806433676 0 0 0 0 97.780156298709528 6.632369412931439 0 6.632369412931439 -94.427467171947512 0 0 0 0 14.174824004054543 -38.455335420926986 0 -38.455335420926986 1.8231918182550544 0 0 0 0 117.77526764651807 -113.50258397774837 0 -113.50258397774837 -38.950835338544948 0 0 0 0 63.751745049944297 49.93805903602356 0 49.93805903602356 -135.99723430521055 0 0 0 0 47.934135405277317 85.141377228061742 0 85.141377228061742 -10.81693545960362 0 0 0 0 80.438776795707327 53.949667765114668 0 53.949667765114668 -36.524009375216792 0 0 0 0 11.690402932987055 3.8651589004118523 0 3.8651589004118523 1.0501532547596941 0 0 0 0 4.2699225487780064 1.4463151712362583 0 1.4463151712362583 0.53499839152859874 0 0 0 0 194.0723972690387 -128.92002346976579 0 -128.92002346976579 -37.058967968512889 0 0 0 0 -189.62025929931929 88.079430464002542 0 88.079430464002542 211.43707264120212 0 0 0 0 5.4356787835104114 2.5746843180171339 0 2.5746843180171339 9.5896624625619893 0 0 0 0 129.73345525700211 50.217378985271296 0 50.217378985271296 34.161037192508047 0 0 0 0 3.5309144773560597 -4.1641047790176007 0 -4.1641047790176007 4.4487161775257107 0 0 0 0 7.1670670101077576 6.4227479562349323 0 6.4227479562349323 10.413973124996062 0 0 0 0 14.227922074099297 7.5215502209863416 0 7.5215502209863416 8.1813921004156214 0 0 0 0 9.9184018957230364 3.980767636172402 0 3.980767636172402 7.3591249756189825 0 0 0 0 15.062179601079151 5.7681421300135582 0 5.7681421300135582 7.6574291720366148 0 0 0 0 16.511901106184723 8.9039166447238784 0 8.9039166447238784 2.4292667619902204 0 0 0 0 15.199395087536686 7.5189074518368955 0 7.5189074518368955 8.5262270413215688 0 0 0 0 18.177706793927427 8.0176705809368798 0 8.0176705809368798 9.236937779354875 0 0 0 0 18.836127509718153 1.5113934151826811 0 1.5113934151826811 13.741712997487696 0 0 0 0 53.507175171203926 -14.099274711553051 0 -14.099274711553051 12.375116549979339 0 0 0 0 39.814982140026586 -4.6733932815115224 0 -4.6733932815115224 9.4434264164710271 0 0 0 0 28.18731528164335 -6.566785540714065 0 -6.566785540714065 13.959795527174933 0 0 0 0 59.004605389478911 18.10227795338642 0 18.10227795338642 7.4551775906061835 0 0 0 0 0.12792134087653828 -0.28997683786746897 0 -0.28997683786746897 -0.2781714833242972 0 0 0 0 10.305630460828979 1.2652428532043132 0 1.2652428532043132 10.63776044002401 0 0 0 0 4.2128523967888318 0.27009233288755041 0 0.27009233288755041 -0.48821784870265317 0 0 0 0 18.348846138203683 -7.3165430917074499 0 -7.3165430917074499 0.99930805643611276 0 0 0 0 43.361244966346021 -9.0075070043168353 0 -9.0075070043168353 -23.12337295608171 0 0 0 0 -120.72165778364047 -39.597696813422118 0 -39.597696813422118 -1.0140273601030003 0 0 0 0 -13.414237639895646 -13.252220271610554 0 -13.252220271610554 2.2993839057096324 0 0 0 0 16.103872693344783 2.7522261505877879 0 2.7522261505877879 1.5592910807195608 0 0 0 0 14.477299606579663 2.4672384303966339 0 2.4672384303966339 6.0219682537890549 0 0 0 0 11.22729340702881 1.6409809271252698 0 1.6409809271252698 5.823717304928266 0 0 0 0 8.1566388899012168 -2.4881074071443354 0 -2.4881074071443354 -0.84701088405119451 0 0 0 0 12.377982696384606 4.0117648331814735 0 4.0117648331814735 6.0782973305248333 0 0 0 0 13.439995696979622 3.74103996423068 0 3.74103996423068 6.1461328920197502 0 0 0 0 12.455920261853862 2.8042763732089497 0 2.8042763732089497 6.8064603267745269 0 0 0 0 9.5553043470167722 15.08551368569897 0 15.08551368569897 -17.178369716497627 0 0 0 0 8.9200442904671036 -0.57240401811998254 0 -0.57240401811998254 -0.63674048027291974 0 0 0 0 7.0096186411032058 0.84593181228983783 0 0.84593181228983783 -0.39733035192337263 0 0 0 0 8.1274353912252835 -0.25915073930706245 0 -0.25915073930706245 -1.4738989553470176 0 0 0 0 12.534767839014421 -0.043684960597829559 0 -0.043684960597829559 -0.019283685053778754 0 0 0 0 9.4078142150096937 2.623609658051123 0 2.623609658051123 2.2153686913418937 0 0 0 0 4.209019759768692 -2.5899692576761133 0 -2.5899692576761133 -0.84692321073347099 0 0 0 0 1.7848237695978924 -2.8437847652446919 0 -2.8437847652446919 0.48672531960028209 0 0 0 0 1.0451640506149715 -3.1730974548938775 0 -3.1730974548938775 0.62731866951935444 0 0 0 0 1.5934593382863795 -3.1375037700610449 0 -3.1375037700610449 0.50093167354839352 0 0 0 0 7.2312075104748361 -3.1385002572699934 0 -3.1385002572699934 0.61693877597751134 0 0 0 0 -0.88652125997157327 -7.2322778407193482 0 -7.2322778407193482 0.65527427806932792 0 0 0 0 -0.63093160542803162 -4.7608010041420812 0 -4.7608010041420812 -0.66591447128303116 0 0 0 0 -0.72176236120739645 -4.8242871093521131 0 -4.8242871093521131 2.4045064593067309 0 0 0 0 -0.99478773482175598 -7.3814223846659672 0 -7.3814223846659672 2.726695566796252 0 0 0 0 0.40053778291352415 0.47357458259797625 0 0.47357458259797625 4.241602570319742 0 0 0 0 -6.2681628693403582 -1.9572934091638672 0 -1.9572934091638672 3.4528336475711967 0 0 0 0 1.2389353637917804 -0.62671216917853489 0 -0.62671216917853489 0.48855781928310171 0 0 0 0 5.8722261943342744 -0.13281005271949198 0 -0.13281005271949198 0.59134871781253651 0 0 0 0 0.28826118254739741 -0.21638427992890952 0 -0.21638427992890952 -0.042112206714442268 0 0 0 0 8.2117819797366849 11.290082502592526 0 11.290082502592526 14.787193069548721 0 0 0 0 0.5967944556317093 2.0015820278755427 0 2.0015820278755427 30.719375776937682 0 0 0 0 0.053440726320969967 -0.1200751057128514 0 -0.1200751057128514 0.17031340087007107 0 0 0 0 -2.4365531497792858 11.2076136234313 0 11.2076136234313 22.687606898692366 0 0 0 0 1.9157174001901307 -0.72884148382684355 0 -0.72884148382684355 -0.37461014833691952 0 0 0 0 1.3801636882094499 -2.934774420021796 0 -2.934774420021796 0.59443546557770333 0 0 0 0 1.6945482379582018 2.7912015332454416 0 2.7912015332454416 -1.4131632626192356 0 0 0 0 3.2116024381704165 6.2220851936720578 0 6.2220851936720578 -9.6698898524044807 0 0 0 0 1.4604177766314841 0.069607270786428921 0 0.069607270786428921 -0.38874693850805953 0 0 0 0 -6.137593409025385 0.6198985463439044 0 0.6198985463439044 5.4077163757073095 0 0 0 0 -8.5038228731716572 -6.5028195067268371 0 -6.5028195067268371 3.4898154330915503 0 0 0 0 -19.653331187374761 -0.036131908019910952 0 -0.036131908019910952 21.887702622390922 0 0 0 0 0.58997364143571973 -0.45853189855239712 0 -0.45853189855239712 0.3615803826713585 0 0 0 0 5.3319833028035646 19.522266925788017 0 19.522266925788017 5.2327514470188667 0 0 0 0 -4.292969592720965 6.9284372313051108 0 6.9284372313051108 5.5350086487246699 0 0 0 0 -5.530955927443074 2.3283640472153593 0 2.3283640472153593 -2.6882850493866499 0 0 0 0 1.3487805292838857 11.165403780404404 0 11.165403780404404 -11.03403095760973 0 0 0 0 -9.8048204066984681 6.524136719231592 0 6.524136719231592 -12.832921720958439 0 0 0 0 231.66951902959772 64.336095421294658 0 64.336095421294658 109.7321630349179 0 0 0 0 186.18305151472259 -2.571511930268116 0 -2.571511930268116 42.012533741266907 0 0 0 0 171.48824251348992 44.569082651175677 0 44.569082651175677 12.233661159219423 0 0 0 0 230.08430739151015 -21.057689617678648 0 -21.057689617678648 -13.022189080813405 0 0 0 0 89.768097162121649 -57.563108676965612 0 -57.563108676965612 10.165719939750886 0 0 0 0 192.11783889415324 -76.401763104771135 0 -76.401763104771135 13.632065365298104 0 0 0 0 169.72902314990483 -38.213979645641302 0 -38.213979645641302 21.947085039519607 0 0 0 0 18.26274594002561 -74.430143084051707 0 -74.430143084051707 91.44137884123711 0 0 0 0 200.72190027556053 -155.2855736674353 0 -155.2855736674353 120.82599315144626 0 0 0 0 0.4368594423803136 -0.038515137075702643 0 -0.038515137075702643 -0.35457356683027719 0 0 0 0 0.94042531954636321 0.12694637234290029 0 0.12694637234290029 -0.26433554879531007 0 0 0 0 190.74167629085696 103.38187414645108 0 103.38187414645108 53.990033347250801 0 0 0 0 360.55833692114663 -38.215061608992755 0 -38.215061608992755 20.143939273253238 0 0 0 0 274.00681927642074 6.638087404321027 0 6.638087404321027 35.280963651699494 0 0 0 0 102.35967459582491 77.566144410113793 0 77.566144410113793 187.43883256811296 0 0 0 0 22.442464400585152 -10.545336351874539 0 -10.545336351874539 65.074168532617023 0 0 0 0 22.909142263924934 -17.318939929756425 0 -17.318939929756425 101.41271569035098 0 0 0 0 75.887308101128212 10.711621677978201 0 10.711621677978201 -16.523938129718985 0 0 0 0 10.126762523350649 30.607976880562433 0 30.607976880562433 88.374303746213627 0 0 0 0 113.44542424969468 -1.2869712700311311 0 -1.2869712700311311 75.594862007006213 0 0 0 0 142.57669457710782 89.508979339462087 0 89.508979339462087 76.282817139403051 0 0 0 0 173.67658079550179 -0.8129428599836217 0 -0.8129428599836217 36.709696719074373 0 0 0 0 224.88037026517912 -2.8419328768388823 0 -2.8419328768388823 40.424611607524639 0 0 0 0 209.58727509669865 -32.094406291466157 0 -32.094406291466157 -0.79594520308160099 0 0 0 0 197.73818728131064 -65.530709832492107 0 -65.530709832492107 121.63431239642159 0 0 0 0 345.15423523231613 -45.823647057692824 0 -45.823647057692824 103.63860312361157 0 0 0 0 203.08622524704032 -73.724092688993096 0 -73.724092688993096 183.35722401671399 0 0 0 0 165.04332838294749 -115.83306120184795 0 -115.83306120184795 32.258408463602336 0 0 0 0 0.49593812943650017 -0.37511642151246516 0 -0.37511642151246516 0.33485975979116445 0 0 0 0 34.888156172108808 -51.597205344426357 0 -51.597205344426357 66.25568625941105 0 0 0 0 71.757442503098673 -31.738505260979082 0 -31.738505260979082 28.275466897869137 0 0 0 0 -5.8969049834281577 13.367044770276948 0 13.367044770276948 14.389703602380735 0 0 0 0 -1.9063671063543666 9.7450911737749379 0 9.7450911737749379 12.321709329601546 0 0 0 0 -32.240480003027415 2.7193716974437621 0 2.7193716974437621 11.247499024290164 0 0 0 0 3.4667623018107037 9.1074346974705804 0 9.1074346974705804 -10.960051650646392 0 0 0 0 1.5992117518566147 -3.3334196592633134 0 -3.3334196592633134 9.1615979221377302 0 0 0 0 1.0539646320195908 -0.7708122401684101 0 -0.7708122401684101 0.54593040012620975 0 0 0 0 113.2918515477225 72.688689573410443 0 72.688689573410443 29.892521540358757 0 0 0 0 -1.2399103339224666 47.431217115268964 0 47.431217115268964 40.266577021350145 0 0 0 0 38.471201382720437 31.067397739596345 0 31.067397739596345 9.2945249448646337 0 0 0 0 105.84983175681964 43.878291188009257 0 43.878291188009257 11.164034221271663 0 0 0 0 29.296992061108192 13.618534976713562 0 13.618534976713562 14.768174391675529 0 0 0 0 103.71943237398602 14.53373382955931 0 14.53373382955931 -7.2352270863401031 0 0 0 0 1.7078281787400726 14.080965165870936 0 14.080965165870936 22.482080628495396 0 0 0 0 14.344282597409801 19.763037126151062 0 19.763037126151062 17.115863826543261 0 0 0 0 11.152816525759519 -2.4753201546353409 0 -2.4753201546353409 10.80603098783439 0 0 0 0 15.651430377962214 9.0928485910192762 0 9.0928485910192762 24.258238423618138 0 0 0 0 15.862478096402413 10.157513665198906 0 10.157513665198906 13.87655673541235 0 0 0 0 46.806901869223736 2.1115325943653147 0 2.1115325943653147 -9.9278131989024132 0 0 0 0 46.383669105971819 2.9383621953497823 0 2.9383621953497823 0.76603556572035814 0 0 0 0 81.469991784848105 -22.389642035723881 0 -22.389642035723881 -18.478179803303419 0 0 0 0 80.330468997185335 -26.817081477981787 0 -26.817081477981787 -31.430620936726768 0 0 0 0 93.801095640795552 -3.9846109127900036 0 -3.9846109127900036 -20.788710904318577 0 0 0 0 120.98530981703016 -15.00640082818876 0 -15.00640082818876 -28.343634019328306 0 0 0 0 159.72886688708832 8.275287745475282 0 8.275287745475282 -18.798576898442889 0 0 0 0 136.01307838574689 -8.696936525372621 0 -8.696936525372621 -14.117405509877244 0 0 0 0 104.25713150964532 20.325050259158388 0 20.325050259158388 5.1732980070637495 0 0 0 0 82.618671960583697 -36.046042014878481 0 -36.046042014878481 -16.630779849010423 0 0 0 0 70.567200487270981 -39.729143670372302 0 -39.729143670372302 -12.755266265749015 0 0 0 0 161.82673009378101 -45.918811614631863 0 -45.918811614631863 -28.849029752208253 0 0 0 0 102.26129492502332 -39.310472359725964 0 -39.310472359725964 -27.937850135344036 0 0 0 0 109.15549650959042 -45.218342163412672 0 -45.218342163412672 -37.412737237263741 0 0 0 0 97.549677267589232 -53.584998390979194 0 -53.584998390979194 -31.075989326012746 0 0 0 0 90.036030256766708 -43.575868945995239 0 -43.575868945995239 -42.308490568949878 0 0 0 0 90.087127492009813 -44.698274057858043 0 -44.698274057858043 -33.875134955830447 0 0 0 0 93.094662663340841 -45.28514125771261 0 -45.28514125771261 -37.605621068471237 0 0 0 0 88.546766095028715 -53.351620013190427 0 -53.351620013190427 -44.137235168615895 0 0 0 0 69.513366461433804 -51.015967373409467 0 -51.015967373409467 -29.643846144973963 0 0 0 0 89.516769271787524 -49.831504690900005 0 -49.831504690900005 -32.324226592207424 0 0 0 0 86.355226390558528 -74.593823768183924 0 -74.593823768183924 -24.938852171340898 0 0 0 0 113.74732445274731 -59.484852547493276 0 -59.484852547493276 -27.465748661390791 0 0 0 0 -4.2632918795875412 -15.120727546690148 0 -15.120727546690148 -16.213994813057475 0 0 0 0 34.748194974469754 -23.306182002811369 0 -23.306182002811369 -18.323422339828426 0 0 0 0 58.093073804550841 -61.234883382991256 0 -61.234883382991256 -9.1232767180813283 0 0 0 0 42.478894957676971 -13.623090451792493 0 -13.623090451792493 -20.549268745763356 0 0 0 0 15.575784304827806 -10.353801272304906 0 -10.353801272304906 -4.9493410636201531 0 0 0 0 19.918004531650809 4.2742084864531549 0 4.2742084864531549 -2.9728936336916831 0 0 0 0 2.2007920650349035 -8.2193175732143118 0 -8.2193175732143118 -10.40253688486564 0 0 0 0 20.97289402041477 -7.1956943582152118 0 -7.1956943582152118 -46.50536508097403 0 0 0 0 3.5935348134833589 -21.893511613972308 0 -21.893511613972308 -18.200821978323113 0 0 0 0 89.526664463827501 -23.736614634167221 0 -23.736614634167221 -246.98928070541871 0 0 0 0 17.269530811511743 -21.862050163682184 0 -21.862050163682184 -90.762970991470297 0 0 0 0 1.3920021147596344 -2.962037512932028 0 -2.962037512932028 -45.363984632057019 0 0 0 0 16.02196701509645 -14.264780699790506 0 -14.264780699790506 -91.676823057453447 0 0 0 0 11.844963687751374 -1.7114334202912276 0 -1.7114334202912276 -0.12025063898110401 0 0 0 0 3.3648859357331276 65.704846671367861 0 65.704846671367861 -11.777251854609126 0 0 0 0 9.2917275303629161 -0.91783864157970385 0 -0.91783864157970385 -0.18412558807828264 0 0 0 0 99.115353976485039 49.762287776905119 0 49.762287776905119 -220.73908827354128 0 0 0 0 79.958284624674434 167.37614549741539 0 167.37614549741539 45.672267342167217 0 0 0 0 151.23875299501401 171.39980173997361 0 171.39980173997361 30.348995626670785 0 0 0 0 118.42819994119986 -104.87577693613029 0 -104.87577693613029 -0.92100727744276689 0 0 0 0 3.7002650593705697 -0.23102026814362142 0 -0.23102026814362142 0.010448924722693403 0 0 0 0 21.442452366982593 -79.451961052129391 0 -79.451961052129391 29.018744601231475 0 0 0 0 19.832728776656836 3.6119190294951409 0 3.6119190294951409 -59.933904690376551 0 0 0 0 -21.105397117170128 -19.491300763262615 0 -19.491300763262615 59.268802054915078 0 0 0 0 19.657769759273378 -12.040901039126283 0 -12.040901039126283 -17.524467628156515 0 0 0 0 -22.901923718209758 37.710722656765839 0 37.710722656765839 19.787495828350757 0 0 0 0 -0.57602699608361263 26.080908388051881 0 26.080908388051881 3.3896752437216833 0 0 0 0 1.3350739173007469 2.0148436671057226 0 2.0148436671057226 15.241336489317405 0 0 0 0 -10.228532729984352 -9.3646618539238311 0 -9.3646618539238311 -27.094096738273535 0 0 0 0 -18.063040649634786 -9.5537542284139931 0 -9.5537542284139931 -0.4210178879220221 0 0 0 0 -0.20528791170664817 10.026679840654808 0 10.026679840654808 3.2881232277254355 0 0 0 0 -5.9267895349012463 -4.1211603962263723 0 -4.1211603962263723 6.8264544347492233 0 0 0 0 6.2878008614422498 4.7762714975080769 0 4.7762714975080769 -17.171056149540277 0 0 0 0 5.8979282918614331 -14.555482317549899 0 -14.555482317549899 -44.53941078710421 0 0 0 0 -3.4809570659345468 -6.3234143335627611 0 -6.3234143335627611 -47.153975654045865 0 0 0 0 11.967933251374168 -2.2799237056888981 0 -2.2799237056888981 -0.014162089725727106 0 0 0 0 7.1239825954548905 -34.86320043685415 0 -34.86320043685415 -109.41086824440647 0 0 0 0 -12.658364861805296 -34.367570418369382 0 -34.367570418369382 -26.212371435200254 0 0 0 0 34.504008648653212 -34.598543988722987 0 -34.598543988722987 -163.16818613805415 0 0 0 0 9.5312567974399087 -2.27518045582719 0 -2.27518045582719 0.087943726247144194 0 0 0 0 -9.3258833507921395 -117.68419806126084 0 -117.68419806126084 87.404097819091874 0 0 0 0 22.163891123825579 -157.86603945796293 0 -157.86603945796293 42.684113337324945 0 0 0 0 26.939778017414028 -62.432037720658144 0 -62.432037720658144 -132.59286836844996 0 0 0 0 -15.040476145463572 -81.545270564720823 0 -81.545270564720823 54.375807221973481 0 0 0 0 70.792435150811343 -82.073667817779096 0 -82.073667817779096 54.361137728824872 0 0 0 0 78.138911124500282 -52.115519901396219 0 -52.115519901396219 -229.3975409304723 0 0 0 0 118.99983739536924 2.0550192805683167 0 2.0550192805683167 43.162191857948748 0 0 0 0 -16.253804903434684 -14.0913321542773 0 -14.0913321542773 45.890908353589296 0 0 0 0 121.92059821316457 30.050876456827055 0 30.050876456827055 108.8486167197297 0 0 0 0 105.16314915903558 30.743937761789812 0 30.743937761789812 202.14544911510902 0 0 0 0 121.80847393868044 24.09119606509978 0 24.09119606509978 47.417465371754986 0 0 0 0 137.1510413450369 77.508067417471921 0 77.508067417471921 99.066593637951883 0 0 0 0 160.53900346099817 41.314868362361779 0 41.314868362361779 84.350644046249499 0 0 0 0 201.46030705907469 -98.095579389521333 0 -98.095579389521333 241.30404789104685 0 0 0 0 281.53421360566074 -153.01093689021926 0 -153.01093689021926 -21.525158023808444 0 0 0 0 99.355826423772669 31.159509066872232 0 31.159509066872232 171.87949300904819 0 0 0 0 222.29297194579976 -208.82001560472131 0 -208.82001560472131 160.31638399601167 0 0 0 0 -9.952881623902158 -127.08188436114301 0 -127.08188436114301 375.53109243651841 0 0 0 0 70.701054768388531 3.5627334847562793 0 3.5627334847562793 -68.384792456680032 0 0 0 0 274.36757037521966 -111.87643768929541 0 -111.87643768929541 -63.985256867482121 0 0 0 0 2.0943526200691203 -1.3313364302492208 0 -1.3313364302492208 0.70580510422798115 0 0 0 0 -18.287104438049937 -38.568595966465239 0 -38.568595966465239 -41.418895460682279 0 0 0 0 -26.490771413978109 -54.330532767337559 0 -54.330532767337559 169.22332811365666 0 0 0 0 70.434690369575037 -211.52040423754968 0 -211.52040423754968 197.39324858937141 0 0 0 0 175.74201808587259 143.63574290018812 0 143.63574290018812 78.953555812010535 0 0 0 0 41.257035359178644 121.14172204347433 0 121.14172204347433 75.616978159461468 0 0 0 0 85.086531327018747 126.52285100665813 0 126.52285100665813 42.790767471790986 0 0 0 0 63.601979681699049 98.826114139197443 0 98.826114139197443 55.894470600394328 0 0 0 0 91.658908055727352 137.52936984897147 0 137.52936984897147 1.8019261476236963 0 0 0 0 13.414046053861966 69.638615088055346 0 69.638615088055346 -25.972014358470176 0 0 0 0 243.19846760324435 27.931097209078942 0 27.931097209078942 19.286331708824896 0 0 0 0 122.63707582260395 2.8565153077688734 0 2.8565153077688734 14.094967732848048 0 0 0 0 40.049005233119942 -20.593326194756898 0 -20.593326194756898 314.32285720789696 0 0 0 0 41.475036866590017 -15.895111302091038 0 -15.895111302091038 179.67852989684272 0 0 0 0 -7.3381835165941993 99.143888683127642 0 99.143888683127642 245.46387574874836 0 0 0 0 115.0153226032744 81.823307763461344 0 81.823307763461344 110.46086341160691 0 0 0 0 111.25907634094892 313.07473299309913 0 313.07473299309913 162.81301792721456 0 0 0 0 1.1218911130614195 -1.3216685542747593 0 -1.3216685542747593 1.9455765587990839 0 0 0 0 212.35821048021626 -83.538603723494475 0 -83.538603723494475 50.294781757969645 0 0 0 0 207.1785166396121 -43.819405916730545 0 -43.819405916730545 -44.101374940831192 0 0 0 0 76.606945170960898 109.30807662680533 0 109.30807662680533 178.67399938748395 0 0 0 0 171.73255799248363 -36.786000756402245 0 -36.786000756402245 174.34164897603631 0 0 0 0 80.462258327533391 102.42246490708204 0 102.42246490708204 55.053160083768148 0 0 0 0 48.172176556737213 100.14092557573463 0 100.14092557573463 86.605541970667332 0 0 0 0 -22.734883698266458 52.92389321821156 0 52.92389321821156 87.081511933708612 0 0 0 0 20.977078230599545 13.11824641749763 0 13.11824641749763 81.868967599355756 0 0 0 0 -16.393890407701065 75.241192450676749 0 75.241192450676749 48.559899581485524 0 0 0 0 93.388932879685854 73.939085454178411 0 73.939085454178411 34.371743837217196 0 0 0 0 -0.44037874342580707 -0.7051925158457879 0 -0.7051925158457879 0.92197793476669743 0 0 0 0 -26.229740028198648 51.815697105942263 0 51.815697105942263 -6.3196928232709979 0 0 0 0 4.5384984068859922 -0.27075389341848677 0 -0.27075389341848677 29.556522998773744 0 0 0 0 3.9177337308537972 17.077584655249666 0 17.077584655249666 48.881848602075536 0 0 0 0 -4.7069658341827108 -4.0205124768577036 0 -4.0205124768577036 22.171104443510785 0 0 0 0 0.28245095979800627 0.3499672312306803 0 0.3499672312306803 0.41892687552532348 0 0 0 0 -2.4115826293782447 5.0360165891536326 0 5.0360165891536326 11.011975441927888 0 0 0 0 11.272078691750721 -6.5302808702006132 0 -6.5302808702006132 3.3218213979312168 0 0 0 0 -2.6282000807914301 -23.316929656220736 0 -23.316929656220736 9.7699152247170105 0 0 0 0 2.0336643795675702 -1.2853726751239858 0 -1.2853726751239858 0.90340518253804758 0 0 0 0 2.0416867804526291 -1.6767606736895857 0 -1.6767606736895857 -0.74047461148074945 0 0 0 0 1.6249474962167936 -0.4214550599065614 0 -0.4214550599065614 0.45733516871032798 0 0 0 0 0.27533283881348325 -1.7801670262697371 0 -1.7801670262697371 -1.0715212735649402 0 0 0 0 2.6866371882395779 -0.52502225420950133 0 -0.52502225420950133 -0.78327011252945589 0 0 0 0 0.97090455939778408 0.13874850014126761 0 0.13874850014126761 0.84991804126082915 0 0 0 0 18.253511654769682 8.1108596184658381 0 8.1108596184658381 -4.7661973224514895 0 0 0 0 2.4047679475461337 -0.70160463252545924 0 -0.70160463252545924 3.2052250195961278 0 0 0 0 1.1812282533569767 -1.128083056157938 0 -1.128083056157938 2.2911824021102598 0 0 0 0 4.6870278701360348 9.5824788307793085 0 9.5824788307793085 15.036339430948829 0 0 0 0 10.774348929424832 7.7013267301774704 0 7.7013267301774704 10.341845254328291 0 0 0 0 14.485386867337695 21.273298590855575 0 21.273298590855575 22.332090758327013 0 0 0 0 12.982425012834938 22.352407673049527 0 22.352407673049527 13.373031443112723 0 0 0 0 14.688154075070187 15.06127864861806 0 15.06127864861806 -1.3846516558958228 0 0 0 0 29.924205547833481 28.805683329335466 0 28.805683329335466 17.253645264303714 0 0 0 0 16.958920455001589 17.637151246933939 0 17.637151246933939 13.289288649090622 0 0 0 0 30.355946394774492 45.190098048898193 0 45.190098048898193 36.782684570698052 0 0 0 0 25.045761927658987 38.156864558424445 0 38.156864558424445 27.487916813421492 0 0 0 0 14.413091126996733 66.359983331556464 0 66.359983331556464 53.420159640715582 0 0 0 0 24.4133055859038 34.309752996062002 0 34.309752996062002 41.534530792953944 0 0 0 0 17.832177087962009 19.910260413228684 0 19.910260413228684 29.854962165771326 0 0 0 0 10.615186375643134 22.412593395640954 0 22.412593395640954 34.824190915275949 0 0 0 0 18.444233726021594 9.7226273302148911 0 9.7226273302148911 3.5701030912314309 0 0 0 0 13.160347385498028 8.3062364737711789 0 8.3062364737711789 3.2135336488063331 0 0 0 0 19.033150173854665 9.1952515630018752 0 9.1952515630018752 0.82049819236408439 0 0 0 0 19.49296688358595 8.2652110615717902 0 8.2652110615717902 -1.2962584590341066 0 0 0 0 10.952014098722429 4.5602912760577965 0 4.5602912760577965 -0.27256668056259059 0 0 0 0 14.384464562958328 5.9606459670783352 0 5.9606459670783352 0.053729085291706724 0 0 0 0 8.7282729087908137 3.4358092586563771 0 3.4358092586563771 2.2427278614804891 0 0 0 0 1.8116478789070243 1.5111306156020419 0 1.5111306156020419 4.8433536722545796 0 0 0 0 7.7711545411621046 5.8827650232528867 0 5.8827650232528867 3.0266639914334519 0 0 0 0 13.118855783131352 7.1490112831166925 0 7.1490112831166925 3.17906835359463 0 0 0 0 3.7189904876340734 6.987670516344906 0 6.987670516344906 7.2772255951313127 0 0 0 0 1.6195371157850831 -0.47035472369853792 0 -0.47035472369853792 0.17412399737894502 0 0 0 0 13.08190832746368 -1.3503914414905012 0 -1.3503914414905012 -2.2112787988462514 0 0 0 0 4.2633215484761422 0.19567901505183727 0 0.19567901505183727 1.5615356956495958 0 0 0 0 10.764341833207254 2.7413346304256265 0 2.7413346304256265 0.28273509202176683 0 0 0 0 5.2061836507764383 1.7071830845734439 0 1.7071830845734439 1.3959426487172095 0 0 0 0 5.1569036867322211 1.7132989827309757 0 1.7132989827309757 1.4813705749578219 0 0 0 0 2.0135636260256433 0.32892959383934794 0 0.32892959383934794 1.1966401336353556 0 0 0 0 0.64124535496088608 0.12105949913045588 0 0.12105949913045588 -0.20694725836257266 0 0 0 0 2.2757065576315476 4.5839004477829786 0 4.5839004477829786 4.3652847138503148 0 0 0 0 0.13940729945815322 -0.73729413840824787 0 -0.73729413840824787 2.6291053575360204 0 0 0 0 1.2024391740437226 -0.15261243571969452 0 -0.15261243571969452 0.66816407085594065 0 0 0 0 -31.075328348335916 19.41205100231582 0 19.41205100231582 -2.5747409555174272 0 0 0 0 12.454366665947418 -2.76770614875295 0 -2.76770614875295 8.5515121562962122 0 0 0 0 -14.961798392670971 9.6461872057057008 0 9.6461872057057008 -0.57920599017825225 0 0 0 0 7.6545392330958748 -5.0181962003960621 0 -5.0181962003960621 0.98439487572181861 0 0 0 0 -6.590100112556911 4.3692621713479411 0 4.3692621713479411 5.1814882576995842 0 0 0 0 13.650006580691297 8.111753669045811 0 8.111753669045811 8.4471475883135128 0 0 0 0 1.2544013500126781 -0.20203250987004839 0 -0.20203250987004839 -0.18243238172503728 0 0 0 0 -5.3913369382489691 6.7250776912435413 0 6.7250776912435413 3.3174666636546135 0 0 0 0 -5.9560879278819812 -0.906297640597586 0 -0.906297640597586 19.482055544195646 0 0 0 0 -5.8865566379272423 10.155604417058612 0 10.155604417058612 11.309915221666415 0 0 0 0 10.161516828247386 10.114003259617448 0 10.114003259617448 8.3847707018221627 0 0 0 0 3.9202253481380467 -2.0747990202548863 0 -2.0747990202548863 5.0119085028852624 0 0 0 0 31.726367548306371 -29.398181586674184 0 -29.398181586674184 -9.9412681351445826 0 0 0 0 -119.39022979723177 -94.951723433360257 0 -94.951723433360257 52.77715652390151 0 0 0 0 1.1728937242506543 -0.33909796298821648 0 -0.33909796298821648 -0.10873821931997707 0 0 0 0 7.4082751811091612 20.959556703777196 0 20.959556703777196 25.773172228346084 0 0 0 0 9.2226125664815299 29.737120706139194 0 29.737120706139194 46.401234328752167 0 0 0 0 23.931302812160538 -34.093496223680177 0 -34.093496223680177 40.656511124144345 0 0 0 0 23.006796492205694 -6.8980348851042663 0 -6.8980348851042663 -17.642442898059244 0 0 0 0 -3.1999138505225346 14.433748844377533 0 14.433748844377533 -38.851125385441264 0 0 0 0 72.880432551771719 -56.512838078509731 0 -56.512838078509731 10.206111726789231 0 0 0 0 12.194096709360565 16.146998708175943 0 16.146998708175943 86.927908105779423 0 0 0 0 23.714399087736638 -36.459582196173415 0 -36.459582196173415 88.000117305811727 0 0 0 0 0.12339427172673822 8.2737483463318142 0 8.2737483463318142 20.125460975772171 0 0 0 0 7.5983571183778622 20.740675092706482 0 20.740675092706482 7.1927936617414616 0 0 0 0 49.601566118379878 27.125117355142436 0 27.125117355142436 -145.96887001197683 0 0 0 0 27.960031568550221 15.338214555358832 0 15.338214555358832 -12.801234703512932 0 0 0 0 31.007266502106177 8.2799197963510949 0 8.2799197963510949 3.5468789595112185 0 0 0 0 31.769082747863195 21.446988628240106 0 21.446988628240106 7.1466073991449548 0 0 0 0 1.2119324178693773 -1.3595695868702053 0 -1.3595695868702053 25.297553213144568 0 0 0 0 43.596962387104497 13.080067810392014 0 13.080067810392014 12.886389134092951 0 0 0 0 25.78471955178361 6.6020970651857382 0 6.6020970651857382 14.262730764740695 0 0 0 0 20.082531202526297 9.05983374403516 0 9.05983374403516 17.471786795331525 0 0 0 0 40.594133831918725 -1.8745731415658895 0 -1.8745731415658895 20.627962890255361 0 0 0 0 21.11927317251093 -2.2597449591603658 0 -2.2597449591603658 30.178872338415104 0 0 0 0 11.922770256102012 2.9648597135071668 0 2.9648597135071668 29.058390926253509 0 0 0 0 17.26853449545024 2.1578546836015846 0 2.1578546836015846 27.775093081888883 0 0 0 0 15.454059882995693 -4.5097039417239682 0 -4.5097039417239682 17.389136951548664 0 0 0 0 17.607765544761605 -3.0028932562134685 0 -3.0028932562134685 21.69123185512808 0 0 0 0 34.075278912090198 30.700144840144048 0 30.700144840144048 17.941346623827485 0 0 0 0 4.1366906880598435 -6.3227036776388816 0 -6.3227036776388816 23.051469082115091 0 0 0 0 -126.38259193732938 -72.163198103771094 0 -72.163198103771094 -19.831503543308827 0 0 0 0 30.181187783531868 41.964303436647583 0 41.964303436647583 35.501945990195281 0 0 0 0 0.29299516438348983 -0.55438616454783318 0 -0.55438616454783318 0.94832702636480093 0 0 0 0 0.093362807805374981 -0.79907411080995949 0 -0.79907411080995949 1.9987307699739141 0 0 0 0 11.941945979939192 3.7243135972865957 0 3.7243135972865957 9.5562433160752107 0 0 0 0 31.616538474588992 19.228186848627843 0 19.228186848627843 15.129852917930293 0 0 0 0 11.13084156478817 39.577058102263209 0 39.577058102263209 35.479366140741604 0 0 0 0 79.372548361297959 54.580612414542458 0 54.580612414542458 7.663569736046874 0 0 0 0 86.78497849984069 91.76714217833765 0 91.76714217833765 25.523636449703559 0 0 0 0 64.205336433723915 98.629729009147738 0 98.629729009147738 50.485146736156139 0 0 0 0 48.170365332296115 77.437684854592902 0 77.437684854592902 22.481576224384355 0 0 0 0 63.285830458828968 60.605426537657365 0 60.605426537657365 26.554652561915411 0 0 0 0 45.154870224195292 35.399467193068205 0 35.399467193068205 14.088203336920365 0 0 0 0 41.713978086757834 39.969743106699525 0 39.969743106699525 11.92809945284273 0 0 0 0 33.150134353185877 19.583198423603989 0 19.583198423603989 3.657006583316047 0 0 0 0 38.162474267331163 21.351010947658381 0 21.351010947658381 1.0698518185296848 0 0 0 0 35.425747753186442 16.212854638743806 0 16.212854638743806 -4.0694692947173507 0 0 0 0 34.725015206981425 23.899712359849786 0 23.899712359849786 7.4730837627635083 0 0 0 0 73.725993046545227 27.754658065528218 0 27.754658065528218 0.92092758581420497 0 0 0 0 65.67617307693547 44.428673859360472 0 44.428673859360472 0.21197210187773408 0 0 0 0 135.15311134428839 41.850092511587519 0 41.850092511587519 -5.8574373192396081 0 0 0 0 45.683644971946933 9.7606849495317434 0 9.7606849495317434 11.128863583224387 0 0 0 0 95.849791220266525 -1.6708345638041919 0 -1.6708345638041919 11.829668123794519 0 0 0 0 92.761883048175605 27.880538394994417 0 27.880538394994417 -6.8935856840286931 0 0 0 0 81.282350050888454 113.47925287430391 0 113.47925287430391 0.035753198783027074 0 0 0 0 123.39004084296698 95.410540262498358 0 95.410540262498358 -5.9620908164221582 0 0 0 0 121.16860256548307 103.51812163685919 0 103.51812163685919 -12.042682075448482 0 0 0 0 351.5423486986906 111.34851084137091 0 111.34851084137091 -5.9916449306396853 0 0 0 0 167.03999234429421 112.86441515722998 0 112.86441515722998 -5.9739295403199719 0 0 0 0 272.45513860722031 -53.238645050897787 0 -53.238645050897787 -25.416743035266464 0 0 0 0 71.555374837036879 43.736525880555419 0 43.736525880555419 92.595499729580567 0 0 0 0 305.6646267094045 104.13553773442739 0 104.13553773442739 33.773003650309789 0 0 0 0 82.144477614263678 100.87849489048064 0 100.87849489048064 231.32419084913849 0 0 0 0 69.656605858698526 11.498912727239574 0 11.498912727239574 15.918164553165354 0 0 0 0 256.47986584317653 -91.396069077135621 0 -91.396069077135621 86.882577657162642 0 0 0 0 73.376196887040351 -8.5821556950632782 0 -8.5821556950632782 51.137021535706083 0 0 0 0 236.90786500979095 -2.7312039144853912 0 -2.7312039144853912 -2.2860406074810271 0 0 0 0 24.727743140145776 -14.265980583374215 0 -14.265980583374215 2.8982250901117368 0 0 0 0 -17.060182293240132 1.4925869046487037 0 1.4925869046487037 28.548289398810944 0 0 0 0 36.889144912767279 -8.0571097073370197 0 -8.0571097073370197 31.918547945519933 0 0 0 0 28.814870842591972 5.9695382255751213 0 5.9695382255751213 26.573131383643172 0 0 0 0 19.516285341267348 -1.1630609251219965 0 -1.1630609251219965 27.193006572012166 0 0 0 0 -20.76845401860669 37.807082370935632 0 37.807082370935632 22.074952996559091 0 0 0 0 0.19499296523963139 -0.39946397495083685 0 -0.39946397495083685 0.46805626251928534 0 0 0 0 25.681086672297027 49.682118485884509 0 49.682118485884509 8.3556443287118327 0 0 0 0 -115.04689044762654 -52.253082465785042 0 -52.253082465785042 -73.681704254434237 0 0 0 0 25.437590656126986 16.666068855831256 0 16.666068855831256 21.939463806509821 0 0 0 0 8.9798072075534492 36.318224868724869 0 36.318224868724869 63.329635807030449 0 0 0 0 -1.7729039573131899 1.1489825929287554 0 1.1489825929287554 0.55228652953328194 0 0 0 0 4.3602353000291032 54.718706023955491 0 54.718706023955491 12.829832955309996 0 0 0 0 9.6465793832790041 34.660309509360232 0 34.660309509360232 66.81461297775347 0 0 0 0 -0.40760409520912511 0.39442637678015724 0 0.39442637678015724 -0.19346937649777191 0 0 0 0 40.188855346973469 32.011916479197531 0 32.011916479197531 88.307101861080838 0 0 0 0 37.990621384912629 54.467048635737655 0 54.467048635737655 113.23557319550758 0 0 0 0 11.940009627867312 46.495286106914705 0 46.495286106914705 110.83863661223066 0 0 0 0 92.908253626506848 71.837532389397381 0 71.837532389397381 55.355018069035438 0 0 0 0 33.837340879867384 35.318760694599433 0 35.318760694599433 5.5842837393799414 0 0 0 0 25.572112443622473 32.83526184027486 0 32.83526184027486 34.029387975634677 0 0 0 0 2.0988811839288246 39.51349969383304 0 39.51349969383304 69.112850412918675 0 0 0 0 16.960056502803127 58.672580771395332 0 58.672580771395332 40.450346879590455 0 0 0 0 10.120513555436332 51.387962775657648 0 51.387962775657648 40.315301565564113 0 0 0 0 12.431816434002712 97.60801653838142 0 97.60801653838142 -90.454099141250879 0 0 0 0 12.597417952791488 56.805960540902667 0 56.805960540902667 -21.24556763577425 0 0 0 0 -6.2725695793888008 43.436400356298755 0 43.436400356298755 39.339538883193313 0 0 0 0 12.977004040232714 31.788138873965764 0 31.788138873965764 -3.1827878088301134 0 0 0 0 -10.765102992263792 29.371621890943516 0 29.371621890943516 5.3151676754375217 0 0 0 0 45.265532054972027 9.2073595920746527 0 9.2073595920746527 -63.724197696080509 0 0 0 0 99.476118068094365 8.5121653632566989 0 8.5121653632566989 -26.948607389116596 0 0 0 0 34.176587830693734 5.8400675191020497 0 5.8400675191020497 -26.838539559638207 0 0 0 0 91.067795783256997 -29.759850488695974 0 -29.759850488695974 -43.841951237562455 0 0 0 0 89.022398311151619 -54.838296055647874 0 -54.838296055647874 -41.772864634067275 0 0 0 0 115.94517713105756 -51.694630565823658 0 -51.694630565823658 -41.656042392515587 0 0 0 0 118.11291592558064 -36.730391923100598 0 -36.730391923100598 -42.626101243359727 0 0 0 0 106.14860852447134 -39.015460540523492 0 -39.015460540523492 -33.130953769771722 0 0 0 0 207.60931300105585 -30.552976347672605 0 -30.552976347672605 -33.487322290889693 0 0 0 0 116.27439217362587 -67.235751951014208 0 -67.235751951014208 -10.619595008554569 0 0 0 0 117.09436901407355 15.384789301486789 0 15.384789301486789 -4.8555819606193609 0 0 0 0 127.54822332874846 28.765096616483831 0 28.765096616483831 11.898381384310813 0 0 0 0 101.17481706956687 17.890130441352881 0 17.890130441352881 -5.1642023818222071 0 0 0 0 313.08607646282809 27.559665313310234 0 27.559665313310234 13.904069168489968 0 0 0 0 229.97183967144923 45.014273705523294 0 45.014273705523294 54.872788554861472 0 0 0 0 -66.014492953531374 40.578702702337097 0 40.578702702337097 34.623565130571478 0 0 0 0 -66.217234532839484 38.571736522679544 0 38.571736522679544 14.757693190321788 0 0 0 0 -60.457523069348554 41.355300820161176 0 41.355300820161176 -2.0460355442141918 0 0 0 0 -69.754529411944986 47.00539222687803 0 47.00539222687803 30.398797608220093 0 0 0 0 30.210986046759899 68.511134519321786 0 68.511134519321786 78.528823008517065 0 0 0 0 -0.73252569254934752 0.86588142876750696 0 0.86588142876750696 -0.29795869088852611 0 0 0 0 -43.921235045946105 36.46561272668032 0 36.46561272668032 15.599492802276814 0 0 0 0 -71.870430272510021 71.106688279940499 0 71.106688279940499 102.05538814735883 0 0 0 0 -70.950502763877466 48.373874903074352 0 48.373874903074352 29.74699740768483 0 0 0 0 -23.228847398134121 93.789776160873714 0 93.789776160873714 92.484572409573047 0 0 0 0 244.02640844427378 102.4628131755652 0 102.4628131755652 116.7857297606015 0 0 0 0 111.64401910185097 89.934036569083219 0 89.934036569083219 27.360897528428609 0 0 0 0 339.44170214231565 72.741963445912234 0 72.741963445912234 16.041526820163199 0 0 0 0 197.03895823356697 405.53988257862352 0 405.53988257862352 58.866180487382735 0 0 0 0 193.57981770356082 16.539162868116819 0 16.539162868116819 142.66887713404299 0 0 0 0 192.71881677257443 37.254148029099497 0 37.254148029099497 42.521557326288985 0 0 0 0 77.804503935371031 -67.329539444501961 0 -67.329539444501961 47.587901147347793 0 0 0 0 167.84408460320674 6.1825810497803104 0 6.1825810497803104 36.380957404135003 0 0 0 0 177.51145119780358 -28.513975662523762 0 -28.513975662523762 59.501402842885341 0 0 0 0 152.68630263691898 37.255124279697611 0 37.255124279697611 116.63392537539812 0 0 0 0 209.10105782755068 47.282270014482265 0 47.282270014482265 66.399855013507931 0 0 0 0 168.948033254954 -17.425666684869555 0 -17.425666684869555 45.445361842177135 0 0 0 0 214.59171432231051 -5.7503978249387728 0 -5.7503978249387728 47.624319939410753 0 0 0 0 196.49129815639031 -30.809293595214058 0 -30.809293595214058 20.737240882778451 0 0 0 0 -72.362413528909201 30.34621294538745 0 30.34621294538745 18.9906092741968 0 0 0 0 0.2587831131317983 0.45877709766767882 0 0.45877709766767882 2.5233503857212574 0 0 0 0 235.76048545350736 -30.477210304505206 0 -30.477210304505206 8.2178101402976154 0 0 0 0 276.3147056756593 -12.082283478696809 0 -12.082283478696809 9.9423951673661577 0 0 0 0 -65.519383804697327 11.228581642090205 0 11.228581642090205 2.1694084633465991 0 0 0 0 -39.866769408331947 31.947566853016042 0 31.947566853016042 -1.5579473962191059 0 0 0 0 22.293836279580319 -3.2203474980426989 0 -3.2203474980426989 -37.620405820459837 0 0 0 0 47.969849298932331 61.779331399393293 0 61.779331399393293 -29.27555614605069 0 0 0 0 0.056514705190985115 0.19147309579677962 0 0.19147309579677962 -1.4817412861966879 0 0 0 0 -212.51888611817276 84.850730759784113 0 84.850730759784113 39.126184888276669 0 0 0 0 34.475295948112944 46.79244843888327 0 46.79244843888327 -33.537997758384847 0 0 0 0 -56.005001352536055 6.0827786042645471 0 6.0827786042645471 0.16807976170622396 0 0 0 0 157.06864469013647 -38.380493330516018 0 -38.380493330516018 5.4130845811268387 0 0 0 0 100.53681257577011 206.56465427640006 0 206.56465427640006 -97.864927725830739 0 0 0 0 -72.968221000441645 -131.91171488697978 0 -131.91171488697978 98.941010048144904 0 0 0 0 -57.070358058253987 57.945220394931425 0 57.945220394931425 -12.07449524584564 0 0 0 0 35.496072570247179 28.646321541526589 0 28.646321541526589 70.382111456787939 0 0 0 0 65.472447964780258 4.6199812711237769 0 4.6199812711237769 -22.39372501736662 0 0 0 0 31.256392491615316 63.932554811524284 0 63.932554811524284 -3.5571160640044468 0 0 0 0 70.088267025702407 15.616032650853128 0 15.616032650853128 -8.857128570648527 0 0 0 0 25.861900142542709 61.245867454308922 0 61.245867454308922 -2.1465144968554597 0 0 0 0 -0.15937573484100387 -0.9837151761681886 0 -0.9837151761681886 2.0292110958576464 0 0 0 0 48.699745296575202 59.749413968728916 0 59.749413968728916 41.531138808753738 0 0 0 0 29.636412181516562 33.284067470170946 0 33.284067470170946 56.964272174833212 0 0 0 0 25.03410302071461 -14.371241229340427 0 -14.371241229340427 4.4392097853651649 0 0 0 0 -127.1766615985448 49.318023471673882 0 49.318023471673882 25.20872777675811 0 0 0 0 -75.609475196078506 21.42002053906694 0 21.42002053906694 32.910753956064809 0 0 0 0 -64.967000579751129 47.592048721233368 0 47.592048721233368 12.655405100496182 0 0 0 0 0.9423539523980935 -9.9734505300741034 0 -9.9734505300741034 19.001119997275737 0 0 0 0 4.8828420516551887 3.6387577110265283 0 3.6387577110265283 22.546485682299931 0 0 0 0 36.322053265732393 63.079221799011293 0 63.079221799011293 77.564022237771951 0 0 0 0 24.668640669092781 41.75141613678025 0 41.75141613678025 52.545040735036764 0 0 0 0 -2.9262464437395512 1.4236782937798238 0 1.4236782937798238 1.0499029071149999 0 0 0 0 21.215072987771237 19.461583352373111 0 19.461583352373111 9.5109017896727437 0 0 0 0 18.059356457331432 19.605681129329241 0 19.605681129329241 16.055386396908261 0 0 0 0 24.997515226460564 17.360659164842446 0 17.360659164842446 12.347567415587946 0 0 0 0 27.255089551019864 30.731133847168167 0 30.731133847168167 22.466705497976704 0 0 0 0 -146.65576563030481 -54.850089478333757 0 -54.850089478333757 118.10448062075011 0 0 0 0 -9.8449348065446429 -125.78674843973272 0 -125.78674843973272 1.6517691581438143 0 0 0 0 3.1921499252782723 9.7771274705222027 0 9.7771274705222027 18.749762667013783 0 0 0 0 10.733279577174926 21.605850538684081 0 21.605850538684081 15.400622289605053 0 0 0 0 -0.40398426593249814 -1.1727267436668947 0 -1.1727267436668947 3.4259721629047313 0 0 0 0 9.1577942882267962 -1.2156549424407785 0 -1.2156549424407785 14.463801372207854 0 0 0 0 22.474479921062994 6.6446914959774404 0 6.6446914959774404 13.376517750412063 0 0 0 0 21.83347658268849 5.6742983518897745 0 5.6742983518897745 12.981122358542052 0 0 0 0 20.629162086691679 18.538740378123507 0 18.538740378123507 14.412391222163478 0 0 0 0 31.218800963219536 12.096192607724015 0 12.096192607724015 8.5087265897127509 0 0 0 0 31.311846572539878 5.7215047882978851 0 5.7215047882978851 9.6184949529224468 0 0 0 0 20.479953000683054 -3.1346094004175029 0 -3.1346094004175029 4.5782080839535411 0 0 0 0 25.002809103537857 6.3245882942212575 0 6.3245882942212575 14.225064650740478 0 0 0 0 18.066169399575301 0.0084587490763397 0 0.0084587490763397 11.063499931850856 0 0 0 0 26.670479883728149 7.0988393687846383 0 7.0988393687846383 7.9864301476809487 0 0 0 0 25.807848512840792 2.2548540461011726 0 2.2548540461011726 -1.0122842118976223 0 0 0 0 51.986708931327584 33.6999529012365 0 33.6999529012365 6.9356265643309598 0 0 0 0 52.272482115510506 40.770671849115445 0 40.770671849115445 1.4441506652419775 0 0 0 0 40.12843455076154 25.030633607852224 0 25.030633607852224 0.65710177955656945 0 0 0 0 43.109209477885543 15.632680329119239 0 15.632680329119239 9.2122961225747986 0 0 0 0 50.922879933350714 3.4860664379120863 0 3.4860664379120863 8.8791688935905313 0 0 0 0 56.988974641786172 21.0579465929668 0 21.0579465929668 1.5676696380865565 0 0 0 0 62.489909736877735 20.348012515127266 0 20.348012515127266 -7.7966108093842195 0 0 0 0 67.194145038472811 30.443227796127275 0 30.443227796127275 -13.783697872846233 0 0 0 0 52.688246964803739 29.474254799827008 0 29.474254799827008 -4.5744891157982011 0 0 0 0 51.477031063548111 30.831792139948448 0 30.831792139948448 -16.992408916168642 0 0 0 0 45.274251065154886 10.654001601636992 0 10.654001601636992 -32.586976784842363 0 0 0 0 59.150236155135417 28.577322844051764 0 28.577322844051764 -18.411317366443882 0 0 0 0 66.778466080136241 41.864057440663373 0 41.864057440663373 -10.089607271205807 0 0 0 0 60.107270476176836 47.078984372716263 0 47.078984372716263 12.776910282765812 0 0 0 0 62.317051015755624 50.189950391236152 0 50.189950391236152 6.9004785313831007 0 0 0 0 48.659385945511872 17.686907504959891 0 17.686907504959891 -2.4480624959030592 0 0 0 0 85.655031872167001 46.270996566854819 0 46.270996566854819 -12.305332656196867 0 0 0 0 84.576544525626559 47.359337174193115 0 47.359337174193115 18.242823850886452 0 0 0 0 120.47665328518428 26.603821240364027 0 26.603821240364027 -3.9884883360223284 0 0 0 0 131.16269200650549 9.8810475758193661 0 9.8810475758193661 38.451540108271445 0 0 0 0 163.93006682924602 65.202955507574757 0 65.202955507574757 22.191466295775172 0 0 0 0 93.671659946658735 72.30608635686238 0 72.30608635686238 25.216018918515147 0 0 0 0 111.15223777699352 100.03878496351378 0 100.03878496351378 65.034416276424054 0 0 0 0 42.522809058939856 61.844958297406492 0 61.844958297406492 47.553709282213504 0 0 0 0 53.834673904998681 17.996645477098127 0 17.996645477098127 -33.625356930562702 0 0 0 0 2.2404809867500717 21.832258576873926 0 21.832258576873926 9.5210578282608367 0 0 0 0 106.60657773643266 33.335841506539509 0 33.335841506539509 16.824394950593387 0 0 0 0 72.185815926488203 -44.640154347001157 0 -44.640154347001157 32.083985794638096 0 0 0 0 23.486836779957684 -14.850665429954347 0 -14.850665429954347 -44.797106511835693 0 0 0 0 -12.67394562976142 15.10062354810168 0 15.10062354810168 1.3467151404083779 0 0 0 0 -62.328418253192126 -26.601689868419953 0 -26.601689868419953 -4.2590249359527661 0 0 0 0 19.010415092055155 6.6940133128008483 0 6.6940133128008483 -14.008823168961953 0 0 0 0 64.158214010890333 22.793986700926098 0 22.793986700926098 -13.097892224491716 0 0 0 0 19.283881460858083 1.919827045235138 0 1.919827045235138 27.506761954894273 0 0 0 0 31.563711657773638 -7.3047772285167412 0 -7.3047772285167412 -12.20999102677979 0 0 0 0 29.39081053424934 -0.52103106751201267 0 -0.52103106751201267 17.114126080596634 0 0 0 0 44.926948712870853 22.725467562104996 0 22.725467562104996 21.329710682164205 0 0 0 0 65.646147108151126 -13.155253597983346 0 -13.155253597983346 11.20166042161037 0 0 0 0 0.23758122405004478 -1.0928874772899078 0 -1.0928874772899078 -5.2043027294924151 0 0 0 0 -14.770910431427637 -26.546323305828082 0 -26.546323305828082 4.3447096899290045 0 0 0 0 -50.771450156185892 -10.383951603585956 0 -10.383951603585956 11.279472785682401 0 0 0 0 1.3654468375268607 13.830439610895837 0 13.830439610895837 29.193038420306038 0 0 0 0 7.3843273941656662 17.891601030579977 0 17.891601030579977 30.484845351565127 0 0 0 0 4.575634475924744 21.290983934282394 0 21.290983934282394 27.970582471121929 0 0 0 0 17.290600255327263 24.745794298841474 0 24.745794298841474 28.801074443779385 0 0 0 0 26.011452418560566 11.310075109818854 0 11.310075109818854 3.9793361948476331 0 0 0 0 23.967061743338604 12.149274445351182 0 12.149274445351182 24.071851161602353 0 0 0 0 13.717587806209167 12.625243308121327 0 12.625243308121327 24.644255995957792 0 0 0 0 26.990613469225991 9.579686016441201 0 9.579686016441201 13.243069542215437 0 0 0 0 30.611873663364918 3.7551754183908201 0 3.7551754183908201 16.018065321668018 0 0 0 0 31.591240360485017 1.9309830808775814 0 1.9309830808775814 17.236136216306932 0 0 0 0 14.199861754438416 -6.4842650619158348 0 -6.4842650619158348 30.813507265624594 0 0 0 0 63.936364034039116 -25.938946336648428 0 -25.938946336648428 16.993749448396102 0 0 0 0 100.7351258354538 13.62727307097532 0 13.62727307097532 -6.633513701431923 0 0 0 0 66.456339881947315 -5.0669732036594723 0 -5.0669732036594723 41.135097712316337 0 0 0 0 72.947857057916281 41.853351158450948 0 41.853351158450948 25.134082490504625 0 0 0 0 101.1736442432786 15.537032293335074 0 15.537032293335074 7.0055911344813921 0 0 0 0 101.63822232314828 13.143378525510684 0 13.143378525510684 19.244797348300381 0 0 0 0 62.71478423450867 -5.9385340033682041 0 -5.9385340033682041 43.616778146677007 0 0 0 0 113.13296121924645 19.117815599139703 0 19.117815599139703 1.1122515108513653 0 0 0 0 8.9333623193706444 -19.105601582141958 0 -19.105601582141958 18.491947599198937 0 0 0 0 0.62190289543732558 0.057358666274463399 0 0.057358666274463399 -0.20886843709831737 0 0 0 0 69.439347910868946 54.509971848236773 0 54.509971848236773 36.859037953929601 0 0 0 0 0.58054277702124457 -0.13037695481026423 0 -0.13037695481026423 -0.025906530404917305 0 0 0 0 0.31881023046571499 9.2177260532782839 0 9.2177260532782839 8.1148805561431914 0 0 0 0 -20.962487568813685 -0.3460198324189605 0 -0.3460198324189605 30.382050363454368 0 0 0 0 -26.627168306279884 22.95177696654369 0 22.95177696654369 30.562611490322979 0 0 0 0 -0.79492909473401596 34.567987843797255 0 34.567987843797255 4.0828159822904126 0 0 0 0 22.334857141808243 13.97296105493615 0 13.97296105493615 6.9230377511730694 0 0 0 0 11.694391231869304 7.9614580622974245 0 7.9614580622974245 15.751749930166852 0 0 0 0 28.062519644348413 24.395362462092635 0 24.395362462092635 17.489987690671114 0 0 0 0 14.088654704019859 16.191371974587184 0 16.191371974587184 22.412381625573289 0 0 0 0 31.36691328684401 33.281122172867526 0 33.281122172867526 38.465929956166747 0 0 0 0 46.850724605571941 16.270302675122139 0 16.270302675122139 -0.83737893191164403 0 0 0 0 63.716365110204606 7.745489351111587 0 7.745489351111587 -9.8512699970015092 0 0 0 0 40.441147189874755 1.1550593145057064 0 1.1550593145057064 -9.227516488173535 0 0 0 0 43.661469754157224 17.259117052811234 0 17.259117052811234 5.4578968857108521 0 0 0 0 78.973261963759796 21.652326654846547 0 21.652326654846547 3.2318478536801649 0 0 0 0 56.187171847019272 9.918642028114391 0 9.918642028114391 5.9483140961920071 0 0 0 0 58.56551626255434 -16.902399026488595 0 -16.902399026488595 -10.031606851912329 0 0 0 0 58.910443253921585 11.126981652324048 0 11.126981652324048 0.96074719987200297 0 0 0 0 47.385408841776552 -0.88272308781995434 0 -0.88272308781995434 -13.972154646837225 0 0 0 0 35.9016776218009 -5.9919454298719756 0 -5.9919454298719756 -15.892382625542268 0 0 0 0 30.995419528665707 -5.8454848879816268 0 -5.8454848879816268 -14.255484127695127 0 0 0 0 35.186615505308509 -5.9467070780647191 0 -5.9467070780647191 -16.219846158687233 0 0 0 0 34.302359702847752 -1.4474151923066074 0 -1.4474151923066074 -14.182412543844293 0 0 0 0 31.848943985626647 -2.2402974766173429 0 -2.2402974766173429 -13.13153652848564 0 0 0 0 41.951550625945856 1.6629641826152692 0 1.6629641826152692 -13.268158007584532 0 0 0 0 42.799698304181419 0.62567714672172769 0 0.62567714672172769 -12.032768903916804 0 0 0 0 33.913489943784043 13.558082633282083 0 13.558082633282083 0.2869212893419899 0 0 0 0 43.36959445914701 11.035488831827053 0 11.035488831827053 -7.0367810322795776 0 0 0 0 33.198621117732728 4.6747100662989851 0 4.6747100662989851 -10.992204180147382 0 0 0 0 31.849155856789821 3.46823465831676 0 3.46823465831676 -9.4105549035180047 0 0 0 0 27.317937952595457 8.0992356397468939 0 8.0992356397468939 -4.625148333670495 0 0 0 0 28.750189490321191 10.002223854399062 0 10.002223854399062 -3.4218844828037618 0 0 0 0 18.580330655488865 11.827632143552506 0 11.827632143552506 6.1948264214929623 0 0 0 0 30.761035518421977 9.630405034665273 0 9.630405034665273 -3.5103923593323998 0 0 0 0 28.120520997262247 13.02799824085605 0 13.02799824085605 1.2870945725117053 0 0 0 0 3.6273893411416793 -22.009754348903243 0 -22.009754348903243 -19.348766250980542 0 0 0 0 -2.5785384409159633 -2.5308061505063506 0 -2.5308061505063506 -19.205626280506749 0 0 0 0 1.6460441032900235 -13.75907168479921 0 -13.75907168479921 3.1270789415364106 0 0 0 0 28.998352983048562 -7.8183828556807384 0 -7.8183828556807384 -6.8121001128547505 0 0 0 0 6.4957098078374997 -12.385641424188861 0 -12.385641424188861 -9.714272977321798 0 0 0 0 27.305172098718458 -20.743861476621305 0 -20.743861476621305 -12.953298629800656 0 0 0 0 9.3215544796585164 -19.71915744735179 0 -19.71915744735179 -11.386002412073196 0 0 0 0 36.194630083763286 -14.910787344380992 0 -14.910787344380992 -14.074584696239526 0 0 0 0 20.613223111707157 -10.719278966885327 0 -10.719278966885327 -14.985674552654018 0 0 0 0 21.840876133240727 -13.331507509663425 0 -13.331507509663425 -11.661403574614724 0 0 0 0 31.884540841261469 -10.457287023297965 0 -10.457287023297965 -17.012038111840411 0 0 0 0 16.094165984681695 -15.343595146266125 0 -15.343595146266125 -14.876448942978513 0 0 0 0 23.025196092981105 -10.633970754066695 0 -10.633970754066695 -17.322878743353613 0 0 0 0 23.386970966933404 -11.615505852931165 0 -11.615505852931165 -14.773671449065205 0 0 0 0 0.21325085936041432 -10.521103411699869 0 -10.521103411699869 -11.061855708062467 0 0 0 0 9.7984778304159477 -11.068963319967793 0 -11.068963319967793 -15.026747177666039 0 0 0 0 2.3980944351333164 -14.282644898465605 0 -14.282644898465605 -12.280472848101454 0 0 0 0 9.6964261264624838 -11.732786386942735 0 -11.732786386942735 -16.049624156743448 0 0 0 0 -4.5992706450701917 -11.197486234798362 0 -11.197486234798362 -11.642024877154654 0 0 0 0 -10.087412287871075 -24.043240572699915 0 -24.043240572699915 -10.367243374160807 0 0 0 0 77.552313714476895 -10.917748691452474 0 -10.917748691452474 -17.48660616407517 0 0 0 0 3.0215411328248161 -0.7554004386934503 0 -0.7554004386934503 -7.9257497996967921 0 0 0 0 -21.092249654079751 -14.557864856173182 0 -14.557864856173182 -5.1963620000733499 0 0 0 0 53.337091306952971 -6.7555824443858512 0 -6.7555824443858512 -11.625003703584184 0 0 0 0 16.404416550386941 17.948472085780054 0 17.948472085780054 -5.2559950329316507 0 0 0 0 58.614556250970509 -0.84303982449142723 0 -0.84303982449142723 -22.211653112654403 0 0 0 0 40.468751913871529 13.831816142575462 0 13.831816142575462 -27.024063168232715 0 0 0 0 40.468751913858796 13.831816142573643 0 13.831816142573643 -27.024063168230896 0 0 0 0 40.468751913867891 13.831816142575462 0 13.831816142575462 -27.024063168230441 0 0 0 0 40.468751913867891 13.831816142573643 0 13.831816142573643 -27.024063168230271 0 0 0 0 40.468751913867891 13.831816142570233 0 13.831816142570233 -27.024063168230896 0 0 0 0 9.9084387079690259 -4.7897685736487148 0 -4.7897685736487148 5.5767002588513606 0 0 0 0 6.2160046602552939 -10.517451415144023 0 -10.517451415144023 -20.674119521556349 0 0 0 0 -9.0804928502548137 -5.0204127218021313 0 -5.0204127218021313 -21.053434821456904 0 0 0 0 5.3123444943175855 -10.258706522274224 0 -10.258706522274224 -19.265657040253245 0 0 0 0 -5.6267428646665394 -2.0194241519620846 0 -2.0194241519620846 -17.625586369027587 0 0 0 0 3.0702847136058153 -9.0333459467774446 0 -9.0333459467774446 -18.849257262285391 0 0 0 0 2.7672095219440962 -9.2644030302526517 0 -9.2644030302526517 -17.620714480390234 0 0 0 0 1.8084590590087828 -5.7228043951654399 0 -5.7228043951654399 -23.421284729456602 0 0 0 0 -6.6384946907451194 -5.4907715655624543 0 -5.4907715655624543 -14.139316484805022 0 0 0 0 2.9381390630887836 -8.3320582009218924 0 -8.3320582009218924 -18.814124730155527 0 0 0 0 3.1926164568249078 -8.0834296453031129 0 -8.0834296453031129 -20.24468197522765 0 0 0 0 9.2216227125200021 -15.077124732971242 0 -15.077124732971242 -15.35764681605724 0 0 0 0 3.225459113362831 -8.2103017542576708 0 -8.2103017542576708 -17.942232199480713 0 0 0 0 14.918194501986648 -6.5942946259246513 0 -6.5942946259246513 -3.5678051248516516 0 0 0 0 4.5805558515216944 -11.313744117037913 0 -11.313744117037913 -16.668949205208264 0 0 0 0 10.123925427439644 -10.999818039528691 0 -10.999818039528691 -17.678982986142728 0 0 0 0 4.9366532994945374 -12.253814570663508 0 -12.253814570663508 -15.147090863980338 0 0 0 0 12.070917676758881 -14.176470194807052 0 -14.176470194807052 -15.107908911808408 0 0 0 0 12.971464963460221 -14.026932557377222 0 -14.026932557377222 -15.104285421747591 0 0 0 0 12.770774381469892 -13.046915344720674 0 -13.046915344720674 -17.936046023373819 0 0 0 0 10.445878374836866 -13.889844690967948 0 -13.889844690967948 -19.277605199082245 0 0 0 0 5.3995463762870202 -8.0621881990181237 0 -8.0621881990181237 -20.472054534380732 0 0 0 0 9.795439732271916 -12.898261838199687 0 -12.898261838199687 -17.426626023241624 0 0 0 0 7.4896831327582731 -10.229285798473029 0 -10.229285798473029 -19.045476733987016 0 0 0 0 9.3708117138821763 -13.625137872259984 0 -13.625137872259984 -15.838206998431815 0 0 0 0 17.401638965618531 -13.143136484506613 0 -13.143136484506613 -15.401850884871237 0 0 0 0 16.96797322068187 -12.039682760610049 0 -12.039682760610049 -17.100871433285647 0 0 0 0 22.545264966625382 -11.324962345408949 0 -11.324962345408949 -16.445579927034487 0 0 0 0 16.942054582336823 -12.846340878003502 0 -12.846340878003502 -15.105158393177135 0 0 0 0 21.295540778124632 -9.5615551915625474 0 -9.5615551915625474 -13.694077143596587 0 0 0 0 16.787375135889988 -12.526483783383355 0 -12.526483783383355 -15.639946666417018 0 0 0 0 12.969750068561552 -14.717907149327857 0 -14.717907149327857 -13.931680480942305 0 0 0 0 16.46097895612138 -12.845950154524871 0 -12.845950154524871 -13.131655795189545 0 0 0 0 11.674051076254727 -13.291103053876213 0 -13.291103053876213 -9.55754852737482 0 0 0 0 16.136732681896888 -11.696030310742856 0 -11.696030310742856 -12.256563331425241 0 0 0 0 10.155621091715147 -15.466172949295469 0 -15.466172949295469 -15.974467594638554 0 0 0 0 9.1264201550034159 -13.664395723280904 0 -13.664395723280904 -17.28299145965957 0 0 0 0 12.44949319789157 -14.047098671527692 0 -14.047098671527692 -14.396562634228758 0 0 0 0 10.432819415148515 -13.807893374074979 0 -13.807893374074979 -15.099923629944897 0 0 0 0 10.153261062484489 -15.696765847431379 0 -15.696765847431379 -15.360317730997394 0 0 0 0 11.945101244707075 -15.792364653294499 0 -15.792364653294499 -13.840792949232764 0 0 0 0 76.536456591795286 -40.338487727998654 0 -40.338487727998654 -33.946552811211404 0 0 0 0 9.784969781282598 -16.919598514101381 0 -16.919598514101381 -11.438604588566704 0 0 0 0 11.825012607847157 -11.122457339364018 0 -11.122457339364018 -6.651939467842567 0 0 0 0 8.653820676133364 -15.154298723844477 0 -15.154298723844477 -9.0654873751857394 0 0 0 0 0.057627988280728459 73.156815078112686 0 73.156815078112686 -11.258300539072764 0 0 0 0 104.33794478056097 -28.449026781741622 0 -28.449026781741622 -6.7508392458148592 0 0 0 0 1.7584941507470386 0.69920872296914549 0 0.69920872296914549 -1.3224724744295537 0 0 0 0 2.9338616444877301 8.3102591479498784 0 8.3102591479498784 -9.6945287738391546 0 0 0 0 -5.3689222274512076 -9.2567257186732377 0 -9.2567257186732377 5.9659454857677474 0 0 0 0 12.285385098448387 6.1905922496973744 0 6.1905922496973744 -9.2259233146123734 0 0 0 0 21.956446239457364 5.463175568823317 0 5.463175568823317 -5.2777730327416066 0 0 0 0 27.105381271275292 0.71838046498385211 0 0.71838046498385211 -10.898210348087559 0 0 0 0 22.015818219133507 -2.4262769186216246 0 -2.4262769186216246 -9.520955749690529 0 0 0 0 27.507749343807063 -1.0679468869959692 0 -1.0679468869959692 -9.5670690021613609 0 0 0 0 26.452924230939516 -5.999602300625611 0 -5.999602300625611 -12.608623826065923 0 0 0 0 25.55581421712418 -4.9069188538247772 0 -4.9069188538247772 -13.173437367642691 0 0 0 0 29.221517363434941 -2.6748822334393481 0 -2.6748822334393481 -11.883125438174375 0 0 0 0 29.924757000012448 -6.6605992811825558 0 -6.6605992811825558 -16.011401929035856 0 0 0 0 23.496018797786746 -10.521615541487336 0 -10.521615541487336 -15.825632770120592 0 0 0 0 24.428650393721909 -7.3565994400214549 0 -7.3565994400214549 -13.493679998990501 0 0 0 0 27.180035647444129 -6.8494141271248736 0 -6.8494141271248736 -14.425390523355418 0 0 0 0 28.630223849590038 -8.3292830995883378 0 -8.3292830995883378 -16.942641166730937 0 0 0 0 22.147559743343095 -9.9834705196822711 0 -9.9834705196822711 -14.703919312172729 0 0 0 0 20.577107710601922 -6.280899939450137 0 -6.280899939450137 -5.4088675177056302 0 0 0 0 15.727478034806669 -6.8980660491955188 0 -6.8980660491955188 -0.81525170213450693 0 0 0 0 17.798818170487266 -6.9726943581536034 0 -6.9726943581536034 -4.67004197704955 0 0 0 0 21.210163420259505 -8.8708488395150198 0 -8.8708488395150198 -10.657572630534787 0 0 0 0 21.188546238658091 -9.2056107785310815 0 -9.2056107785310815 -11.30423698253253 0 0 0 0 21.383151413915584 -7.4148391809339955 0 -7.4148391809339955 -6.8779769891360729 0 0 0 0 23.280510779138922 -5.8634123959664066 0 -5.8634123959664066 -6.7349058040417731 0 0 0 0 21.957438122948588 -7.974089791726783 0 -7.974089791726783 -10.066156045965727 0 0 0 0 22.723948705261819 -4.8619829697804562 0 -4.8619829697804562 -8.1440048865915742 0 0 0 0 20.189994855066743 -4.1315169412901014 0 -4.1315169412901014 -5.0062845203656252 0 0 0 0 16.298367863882049 -4.5614667557615576 0 -4.5614667557615576 0.45189877529992373 0 0 0 0 11.387768815740849 -3.8367599301798689 0 -3.8367599301798689 -0.96554776386907282 0 0 0 0 20.982779381168257 -7.0249676031419312 0 -7.0249676031419312 -3.4408539958521942 0 0 0 0 -1.6154516251707314 -2.3028380978896514 0 -2.3028380978896514 0.11285189424387188 0 0 0 0 36.239066745669334 -16.574978058173656 0 -16.574978058173656 -31.586615510722822 0 0 0 0 -4.5786512923493774 -11.529005272025927 0 -11.529005272025927 1.1070380007522544 0 0 0 0 -6.3749130014675757 -19.457988671788826 0 -19.457988671788826 23.890146724671467 0 0 0 0 29.88467283499449 -20.070599956804017 0 -20.070599956804017 -0.41690351849547369 0 0 0 0 -6.6771861212316708 -21.777402463615942 0 -21.777402463615942 -1.5884804607021579 0 0 0 0 -14.234670868672765 -1.3874335907967179 0 -1.3874335907967179 -2.8776669293354757 0 0 0 0 5.8235822309543437 -4.5906928393692397 0 -4.5906928393692397 -6.1213912958937726 0 0 0 0 8.1828753156761778 -2.5710736572293786 0 -2.5710736572293786 -2.3428161849419151 0 0 0 0 -1.1034446155420596 -2.6703477586185009 0 -2.6703477586185009 -2.2348962395171803 0 0 0 0 9.8443720440945928 -3.2070870170676069 0 -3.2070870170676069 -2.8775773707061916 0 0 0 0 25.325197122029749 1.1984961517277384 0 1.1984961517277384 -31.212462036355078 0 0 0 0 -18.019407322738743 54.206230630899768 0 54.206230630899768 4.2715412240033857 0 0 0 0 7.0211367549995769 -10.701215370050877 0 -10.701215370050877 -1.1517729441662201 0 0 0 0 64.309552277090006 5.0221228572269752 0 5.0221228572269752 -8.6032244085595266 0 0 0 0 21.760461313235222 11.875761703743784 0 11.875761703743784 -12.442962919805399 0 0 0 0 -17.327356048277579 -45.438618261125612 0 -45.438618261125612 9.6557181303242032 0 0 0 0 77.956413240539405 1.5962774626113969 0 1.5962774626113969 -12.440537237190028 0 0 0 0 45.245287540269601 -33.387162271405145 0 -33.387162271405145 -3.1428582022717819 0 0 0 0 30.282253935076369 -7.437646432405927 0 -7.437646432405927 14.154127957537639 0 0 0 0 20.625707238246832 -47.460295232587896 0 -47.460295232587896 -18.978362505452594 0 0 0 0 9.7377027403272223 -49.184693036384033 0 -49.184693036384033 6.9361090066795441 0 0 0 0 84.343322495978555 16.844122930347964 0 16.844122930347964 -2.0793228502407146 0 0 0 0 0.012038645437046469 0.28797891158766475 0 0.28797891158766475 -0.56868960235541621 0 0 0 0 5.1446789138508393 0.60503071048344736 0 0.60503071048344736 0.34122284532895719 0 0 0 0 -27.234820622298685 -27.530006858357979 0 -27.530006858357979 8.6229221517214683 0 0 0 0 55.275866547215628 -13.613344167237301 0 -13.613344167237301 -23.968177180155635 0 0 0 0 0.11035045938025689 0.19283924107879713 0 0.19283924107879713 -1.7391506703426076 0 0 0 0 19.796965988174634 -9.4660388483890756 0 -9.4660388483890756 -4.6145096054442547 0 0 0 0 33.290879541338654 -15.428301329994156 0 -15.428301329994156 -8.7052266383575443 0 0 0 0 54.785828167128329 -26.179200817536909 0 -26.179200817536909 -7.0779099792725901 0 0 0 0 16.874375384127234 -14.527139053031647 0 -14.527139053031647 -2.2103391984646805 0 0 0 0 5.0983057131051783 -7.4206649373735925 0 -7.4206649373735925 -7.4137514251207755 0 0 0 0 166.05681685273794 99.398763525931145 0 99.398763525931145 -134.49645890019679 0 0 0 0 -2.108497316048016 -1.7580156914205993 0 -1.7580156914205993 -0.097906166196294553 0 0 0 0 142.69144164660815 -20.039795303561959 0 -20.039795303561959 -14.443612572555139 0 0 0 0 2.6378666572274465 -8.9161270612635644 0 -8.9161270612635644 -4.9057281624239888 0 0 0 0 -13.359697417853567 -70.152169223157671 0 -70.152169223157671 44.083518035772613 0 0 0 0 -22.173497229233362 20.974995863035019 0 20.974995863035019 -1.9512405830787429 0 0 0 0 -12.838526916471892 74.254986764817204 0 74.254986764817204 -118.79239573684208 0 0 0 0 -0.97034691997893674 -0.64083979912034961 0 -0.64083979912034961 -0.54327361816699593 0 0 0 0 3.3929488387684614 7.1442824456394192 0 7.1442824456394192 -49.628142293536257 0 0 0 0 2.4969063654435217 -6.6486046851472338 0 -6.6486046851472338 -85.698251752877695 0 0 0 0 -20.211914967181656 28.664544822025164 0 28.664544822025164 -62.175040261685808 0 0 0 0 11.284107976161749 -12.588868434946676 0 -12.588868434946676 -12.004977005080036 0 0 0 0 2.1856120347031265 12.693852120363545 0 12.693852120363545 -11.577585047029061 0 0 0 0 11.227569344939639 23.427760964570552 0 23.427760964570552 -78.038773031959863 0 0 0 0 2.3608087037218866 6.3576484017153234 0 6.3576484017153234 2.576290750759199 0 0 0 0 -37.754887250629508 -26.231980166265203 0 -26.231980166265203 30.373719166504543 0 0 0 0 18.096143946359007 7.4548807307255629 0 7.4548807307255629 -123.63061025483753 0 0 0 0 3.9414884683410492 -20.261655500164125 0 -20.261655500164125 -22.793647697028518 0 0 0 0 -5.6414559107649893 -17.543407820384687 0 -17.543407820384687 31.226818932979768 0 0 0 0 21.300756054301246 60.506330457127206 0 60.506330457127206 67.386619070076449 0 0 0 0 16.403175057062981 -14.746824569214255 0 -14.746824569214255 -25.042378224071854 0 0 0 0 12.274841872146681 14.843112319568263 0 14.843112319568263 50.876770939697963 0 0 0 0 6.4795149816802677 -16.226816432051862 0 -16.226816432051862 34.3203626483064 0 0 0 0 10.789940292847405 -1.4416770972191841 0 -1.4416770972191841 -14.104603991644581 0 0 0 0 13.534372612101148 0.038064871652025545 0 0.038064871652025545 -3.9017501121105882 0 0 0 0 12.835671094118879 -15.341199937493116 0 -15.341199937493116 -5.0117468783490935 0 0 0 0 6.4938254921471525 -15.377931209356007 0 -15.377931209356007 -5.0097991919967626 0 0 0 0 3.2420725329851834 -0.78263401827333112 0 -0.78263401827333112 -1.8694624086715381 0 0 0 0 10.430377107109962 -12.778618673712117 0 -12.778618673712117 27.427984842031265 0 0 0 0 31.843461027998273 -16.593637272772412 0 -16.593637272772412 -3.5168818813567526 0 0 0 0 1.1009204544534441 -12.683543601111751 0 -12.683543601111751 -3.7116956428118186 0 0 0 0 15.8598728031684 14.390174142135947 0 14.390174142135947 -19.589044536864776 0 0 0 0 37.792061812633619 3.9426023970108872 0 3.9426023970108872 -7.9280587961882247 0 0 0 0 -0.47674684015354307 0.47729393109968754 0 0.47729393109968754 -3.0532401455361815 0 0 0 0 27.825949326821501 9.2900514471364417 0 9.2900514471364417 5.1211227509282935 0 0 0 0 56.235478768056055 12.18747187580675 0 12.18747187580675 -22.669767036636131 0 0 0 0 39.652072638345999 0.59603276617895062 0 0.59603276617895062 -11.871641726057305 0 0 0 0 32.509376889327541 14.689899012738579 0 14.689899012738579 -0.93968178300019645 0 0 0 0 19.595381136423384 -17.532064419781591 0 -17.532064419781591 0.53658687592860588 0 0 0 0 12.649684591623448 -2.3097203469382759 0 -2.3097203469382759 -5.1612092249898769 0 0 0 0 13.47804473051292 1.4671297796455747 0 1.4671297796455747 -24.146018607960286 0 0 0 0 -16.304355847092665 -19.929295961423122 0 -19.929295961423122 -9.9073212817374952 0 0 0 0 2.3680592917638945 1.1770911593137683 0 1.1770911593137683 0.15205549822365949 0 0 0 0 18.280503120707635 -8.4555706728961866 0 -8.4555706728961866 -13.902129405061714 0 0 0 0 25.17020458006391 -6.5356109542125296 0 -6.5356109542125296 -38.890104186195458 0 0 0 0 86.092188034544051 24.02108553100129 0 24.02108553100129 9.4848898489303792 0 0 0 0 90.625773951784595 6.9558596388637852 0 6.9558596388637852 -24.43707388633311 0 0 0 0 115.59181468094175 2.5091632399976334 0 2.5091632399976334 -68.247275418722893 0 0 0 0 124.8977068561635 30.122849681589969 0 30.122849681589969 -35.870878172725497 0 0 0 0 124.04549868370259 33.382304499365773 0 33.382304499365773 -26.367153041978781 0 0 0 0 76.141583934064329 46.975987898037147 0 46.975987898037147 -10.047768041475138 0 0 0 0 64.051510695337129 36.562889928407458 0 36.562889928407458 -9.6306057376468033 0 0 0 0 74.539941242432263 13.58985801845391 0 13.58985801845391 -8.2263892881646825 0 0 0 0 51.163247804106504 -0.90813960771561142 0 -0.90813960771561142 -19.50759743908111 0 0 0 0 29.416647187497801 24.906014482563933 0 24.906014482563933 -3.2088527858218185 0 0 0 0 4.528195763974761 -0.25317594410463995 0 -0.25317594410463995 -1.7235975037245792 0 0 0 0 12.089312913496649 -0.8134830819140717 0 -0.8134830819140717 -3.0059278215547924 0 0 0 0 9.6811013947663014 -6.3279542644925186 0 -6.3279542644925186 6.9964137999693321 0 0 0 0 9.3578191889018854 -14.141126344823306 0 -14.141126344823306 -6.6235494826657941 0 0 0 0 7.7299389163299566 -18.695489684042968 0 -18.695489684042968 56.12074319488238 0 0 0 0 3.6583038865665003 0.030287957895325235 0 0.030287957895325235 23.797574266149013 0 0 0 0 95.971884586174383 21.784481246149426 0 21.784481246149426 -5.6920278562605517 0 0 0 0 76.156621129634004 -30.169807747983441 0 -30.169807747983441 13.266475321328016 0 0 0 0 0.45553600185017729 0.44469028193220539 0 0.44469028193220539 0.46699609706592149 0 0 0 0 73.053461153396711 35.381616644530823 0 35.381616644530823 -5.4285208478468121 0 0 0 0 11.78238185714838 -12.918978863012811 0 -12.918978863012811 -40.313225564986169 0 0 0 0 14.146124256702933 33.295994321255421 0 33.295994321255421 -65.639134346173705 0 0 0 0 32.377227983047305 16.66351542334678 0 16.66351542334678 -64.938411270095003 0 0 0 0 34.28047893013445 -45.290896282089307 0 -45.290896282089307 -88.104926277670074 0 0 0 0 36.364053103354308 -12.277381142915601 0 -12.277381142915601 -56.762187682336162 0 0 0 0 43.212356402979822 -41.007273307769992 0 -41.007273307769992 27.852033334778184 0 0 0 0 85.417296233077934 -57.693504190181528 0 -57.693504190181528 -25.60016726925187 0 0 0 0 100.0131876281016 -56.519458696371203 0 -56.519458696371203 -63.628971150516918 0 0 0 0 87.940533308592421 -64.884315448421376 0 -64.884315448421376 -13.876420427426638 0 0 0 0 -14.400298190392277 -73.393971959567352 0 -73.393971959567352 -14.583961463907428 0 0 0 0 8.2276371335060503 -129.07120377426941 0 -129.07120377426941 119.1511688083956 0 0 0 0 2.2312393294079946 -0.86360365445883502 0 -0.86360365445883502 0.32748988650652233 0 0 0 0 2.0147732241725862 1.0775483509195283 0 1.0775483509195283 -0.90794274612835579 0 0 0 0 10.860875292395122 16.415952537242106 0 16.415952537242106 20.695674661474186 0 0 0 0 5.2066745947870459 -3.5279773449144614 0 -3.5279773449144614 -2.2334308754557242 0 0 0 0 5.951628411873731 -2.3677917789046568 0 -2.3677917789046568 0.87022916803300898 0 0 0 0 6.4302801588710281 -2.6366781378603719 0 -2.6366781378603719 1.2356017256815903 0 0 0 0 9.1607638321183913 0.45129420872945047 0 0.45129420872945047 -1.7519706105365458 0 0 0 0 10.525708574644796 19.047703693976018 0 19.047703693976018 -50.593182491216794 0 0 0 0 13.196273699236372 7.7498029270273037 0 7.7498029270273037 -3.2645137596355198 0 0 0 0 9.8515843375024073 -2.276919125623202 0 -2.276919125623202 -0.0084873773758680215 0 0 0 0 0.19643000215824458 -0.16929789500050596 0 -0.16929789500050596 -1.1520464005168769 0 0 0 0 8.8108462676145791 -4.1944070061035745 0 -4.1944070061035745 -1.6365376457058574 0 0 0 0 8.3624103251831912 -1.6656565361922731 0 -1.6656565361922731 -1.399986961264176 0 0 0 0 5.0890963487743237 -0.063880477664002511 0 -0.063880477664002511 -1.805764857191388 0 0 0 0 15.862466995697048 -3.133106002932152 0 -3.133106002932152 -2.2861328210192369 0 0 0 0 14.588158756399025 -2.890606907527399 0 -2.890606907527399 -2.2445914315730988 0 0 0 0 18.081480540654411 -1.4197734829930369 0 -1.4197734829930369 -6.0633186377585844 0 0 0 0 6.5559368317603912 -0.34323699559922716 0 -0.34323699559922716 -1.2147076387602738 0 0 0 0 6.5498356525652657 2.1110010513796715 0 2.1110010513796715 -0.42752308634680958 0 0 0 0 6.4280537437205965 1.5765411439555663 0 1.5765411439555663 -0.24379297148516343 0 0 0 0 3.9545933484350826 0.24468229050808077 0 0.24468229050808077 -0.41459227072628124 0 0 0 0 6.4415163939826527 1.7797723325212189 0 1.7797723325212189 0.24750934518988288 0 0 0 0 14.897918579512861 1.8257046727364923 0 1.8257046727364923 -4.2584411147222454 0 0 0 0 20.011351481381553 4.1582962816297595 0 4.1582962816297595 -3.299135774739625 0 0 0 0 13.841567690663396 0.91808674308936133 0 0.91808674308936133 -1.5228615489365893 0 0 0 0 22.853377577235392 -0.15258384743430042 0 -0.15258384743430042 -5.7324871588511996 0 0 0 0 11.841861611464992 -4.1703819516069416 0 -4.1703819516069416 -10.451550146645559 0 0 0 0 10.535956503117063 2.2016758363232043 0 2.2016758363232043 -4.6989072939713878 0 0 0 0 3.5555917200227505 0.36638548636570878 0 0.36638548636570878 -2.0056527053940076 0 0 0 0 11.815880375999768 -7.6769283422527224 0 -7.6769283422527224 1.4491764930361342 0 0 0 0 9.5713368250326312 -5.9686186126500616 0 -5.9686186126500616 4.4658815142483945 0 0 0 0 5.2789726108776449 0.71944855110859862 0 0.71944855110859862 -0.91253258350297983 0 0 0 0 2.7990370761803653 -1.2259603189219117 0 -1.2259603189219117 -2.0954819641499025 0 0 0 0 2.2215839046639303 2.9097033447260401 0 2.9097033447260401 -5.9668917076160142 0 0 0 0 1.2164305277474341 -1.5020902030137222 0 -1.5020902030137222 -1.3220523655490979 0 0 0 0 3.9448144141583725 0.29703516939116525 0 0.29703516939116525 -0.68566340403322101 0 0 0 0 2.049599519576077 -1.3922525464922728 0 -1.3922525464922728 -0.40337612378789345 0 0 0 0 2.6316228104769834 -1.5411142870116237 0 -1.5411142870116237 -0.36533387454164767 0 0 0 0 2.3659540126791399 -0.86289294568973673 0 -0.86289294568973673 -0.47671910938652218 0 0 0 0 5.1248926605897633 -3.5718958871342537 0 -3.5718958871342537 1.8604955630980538 0 0 0 0 2.2104086261508442 -0.27721399984265283 0 -0.27721399984265283 -1.0097898286950322 0 0 0 0 2.5852051476373497 -0.52528519467717061 0 -0.52528519467717061 0.028964795860675352 0 0 0 0 -50.438223488433778 -62.904457193729513 0 -62.904457193729513 29.472473495203758 0 0 0 0 -81.01772348209488 -11.986373096465286 0 -11.986373096465286 -19.371381102101623 0 0 0 0 6.5257220890332022 -5.4537253892607662 0 -5.4537253892607662 3.4769639338195066 0 0 0 0 -53.869419496651972 -45.899276075549096 0 -45.899276075549096 -18.236054314450485 0 0 0 0 6.4553705814196292 -13.119736780339736 0 -13.119736780339736 1.2416849060582535 0 0 0 0 -4.3948666499018145 1.7147342573625792 0 1.7147342573625792 -3.3072081805194102 0 0 0 0 1.5842803224278619 -4.0577707947688806 0 -4.0577707947688806 4.2887846544022619 0 0 0 0 -0.88315019977229525 -0.42593562016591502 0 -0.42593562016591502 0.91045365500372988 0 0 0 0 -39.474261401529475 -0.91676472764288519 0 -0.91676472764288519 -17.390886534959236 0 0 0 0 -46.017252530151836 -5.0205662787584515 0 -5.0205662787584515 100.88921044530298 0 0 0 0 12.123254258661063 19.228423477870535 0 19.228423477870535 121.63148693628682 0 0 0 0 -51.32718909582718 -54.733947884979521 0 -54.733947884979521 68.659274178070973 0 0 0 0 125.41416539516285 -113.84383131918821 0 -113.84383131918821 1.6030325417933682 0 0 0 0 5.431562181174197 -3.8342850924963416 0 -3.8342850924963416 2.3406303511092776 0 0 0 0 293.97303159865805 55.264227064395129 0 55.264227064395129 -71.632753422920814 0 0 0 0 387.84059552261942 -108.17808156775675 0 -108.17808156775675 15.569228033795525 0 0 0 0 242.76946854580274 91.217442647476901 0 91.217442647476901 64.92564494440353 0 0 0 0 188.19716414457889 -145.13293229508514 0 -145.13293229508514 -139.53913966883079 0 0 0 0 -70.595569539964799 1.3554875863946449 0 1.3554875863946449 106.10557315222059 0 0 0 0 -48.190313405286815 -33.778694294912214 0 -33.778694294912214 39.268984293742506 0 0 0 0 1.8359462582250101 -2.384142819471422 0 -2.384142819471422 2.9810023919631643 0 0 0 0 -58.868227212527927 24.769697540876905 0 24.769697540876905 125.94164491579068 0 0 0 0 -12.847003618795497 10.475060193204399 0 10.475060193204399 30.645389698960571 0 0 0 0 -24.521019994188464 49.973584657013362 0 49.973584657013362 109.6102711343882 0 0 0 0 27.47605503439263 53.710080450040323 0 53.710080450040323 45.854655532330526 0 0 0 0 2.8453026654763107 21.302926247255613 0 21.302926247255613 31.515675792144066 0 0 0 0 0.67351152939500025 31.730208659957043 0 31.730208659957043 39.573697859785284 0 0 0 0 13.690248388569671 26.602204387205688 0 26.602204387205688 29.855428364143336 0 0 0 0 48.276380234874068 5.1303241623683107 0 5.1303241623683107 128.48703104283379 0 0 0 0 314.07272668523206 1.8547187177272804 0 1.8547187177272804 -69.855242082230234 0 0 0 0 2.5384596162719895 -1.5664562138808709 0 -1.5664562138808709 0.904108831400805 0 0 0 0 354.79477311226128 -159.20715404222915 0 -159.20715404222915 112.2525738235945 0 0 0 0 -1.6676832140428814 72.654016457778198 0 72.654016457778198 -2.0144952201203523 0 0 0 0 -0.093460595249027278 -153.49382936548258 0 -153.49382936548258 0.60358342057588743 0 0 0 0 -47.276080714157615 -14.442234971573953 0 -14.442234971573953 49.962632321022738 0 0 0 0 4.4799654531192097 -4.0960327694589731 0 -4.0960327694589731 3.4626681674229918 0 0 0 0 9.9644023084920263 24.41023654524929 0 24.41023654524929 28.751221060654188 0 0 0 0 14.171275294355837 47.500946486046814 0 47.500946486046814 -0.42069954523137554 0 0 0 0 39.732335509568657 12.181319428595089 0 12.181319428595089 35.544121675005954 0 0 0 0 143.66908169551334 125.8010077171316 0 125.8010077171316 149.48112854642955 0 0 0 0 393.55910170808056 -68.537993375803126 0 -68.537993375803126 8.3205127081541832 0 0 0 0 60.929061207541963 -163.69927312728259 0 -163.69927312728259 143.21775691199537 0 0 0 0 4.3840459182720224 -31.165622379921615 0 -31.165622379921615 39.604218869078522 0 0 0 0 3.0861500465443896 -24.791266805371947 0 -24.791266805371947 -26.601177896377067 0 0 0 0 47.312809531492803 -7.5831229995098965 0 -7.5831229995098965 -26.816488749695964 0 0 0 0 370.86061612484366 113.3198631796264 0 113.3198631796264 -63.160714054377422 0 0 0 0 2.6417679619773971 -1.4050099430498122 0 -1.4050099430498122 0.47946779235752857 0 0 0 0 3.0865443814318247 -0.72244281627497831 0 -0.72244281627497831 -0.16499572874250715 0 0 0 0 463.8860273170103 221.69719544183172 0 221.69719544183172 -479.64064773604656 0 0 0 0 -459.74712475935758 -95.013513456750701 0 -95.013513456750701 150.47369075563253 0 0 0 0 -5.0031258817134585 22.543869750094771 0 22.543869750094771 -159.84492353263769 0 0 0 0 5.3031162098017806 -0.73423760573844365 0 -0.73423760573844365 -0.3385748083279933 0 0 0 0 -63.655814016694421 53.018179814602519 0 53.018179814602519 -72.38925348247966 0 0 0 0 3.6084517745318774 0.001727354952410054 0 0.001727354952410054 -0.22732678870924539 0 0 0 0 242.66513860056284 -118.85426319747515 0 -118.85426319747515 -76.727202178411176 0 0 0 0 -43.438521355894864 -35.242808714415439 0 -35.242808714415439 -36.587984589554935 0 0 0 0 823.25351581961877 320.47557936548253 0 320.47557936548253 -95.62418377405902 0 0 0 0 264.14156543141485 159.32122204525032 0 159.32122204525032 -120.24200212947164 0 0 0 0 265.42337951771333 141.05309240033395 0 141.05309240033395 -27.848874029682918 0 0 0 0 504.08688727422668 151.98540143690946 0 151.98540143690946 -176.93901171600106 0 0 0 0 170.71169492404442 -34.912276271981966 0 -34.912276271981966 -31.679615329215949 0 0 0 0 224.69930428465705 129.47823195050802 0 129.47823195050802 -23.974046131324997 0 0 0 0 236.12388348271088 102.82755647362029 0 102.82755647362029 -23.415987450386183 0 0 0 0 177.92149233876626 110.73067767736234 0 110.73067767736234 -14.89504075160994 0 0 0 0 160.40456666367049 60.647495089276532 0 60.647495089276532 -7.8797562828269747 0 0 0 0 197.21853823689344 68.055551178047494 0 68.055551178047494 -11.236550191773887 0 0 0 0 458.18777602094451 98.985499493906673 0 98.985499493906673 -25.524063100065632 0 0 0 0 236.8460561226907 83.800264081097083 0 83.800264081097083 -5.1763274585339332 0 0 0 0 314.4272293360782 -42.572815509822078 0 -42.572815509822078 110.24320409949905 0 0 0 0 449.62718195315938 -44.234099426636362 0 -44.234099426636362 -76.472336683507024 0 0 0 0 485.67327474952799 215.53714097872944 0 215.53714097872944 95.131269245753174 0 0 0 0 -19.952300021835072 21.955440302106695 0 21.955440302106695 166.19719729276272 0 0 0 0 -13.119693687995095 186.29465745120825 0 186.29465745120825 247.85747100735603 0 0 0 0 116.42450057141878 234.46383601856016 0 234.46383601856016 36.214685364841898 0 0 0 0 0.95167143338782179 -1.0098354132148719 0 -1.0098354132148719 1.0656936046972838 0 0 0 0 11.472863696651984 -25.153445803451064 0 -25.153445803451064 117.9732726326356 0 0 0 0 -45.089396923318418 51.954761376991428 0 51.954761376991428 87.650383565526454 0 0 0 0 133.11570440897594 168.15504869220717 0 168.15504869220717 287.39955402048554 0 0 0 0 259.96326640366715 28.668425783493944 0 28.668425783493944 64.398086650944606 0 0 0 0 2.2828365835479465 -2.257633130343522 0 -2.257633130343522 2.1108921709259771 0 0 0 0 108.25781463043495 1.5336372216630707 0 1.5336372216630707 -71.212790172975929 0 0 0 0 34.658673188401735 89.473786264253135 0 89.473786264253135 78.215607602302953 0 0 0 0 33.890964655987773 15.21284539631506 0 15.21284539631506 -9.2960888280272229 0 0 0 0 1.1648855914827081 -1.0276470785545149 0 -1.0276470785545149 0.86680696900948462 0 0 0 0 321.38413470323803 -62.100515533443513 0 -62.100515533443513 -102.73221166871735 0 0 0 0 270.89077659934992 66.95021274808812 0 66.95021274808812 -153.20724503362726 0 0 0 0 60.895202703031828 52.826092124161278 0 52.826092124161278 22.91217330798645 0 0 0 0 11.379358252936072 22.275940294795191 0 22.275940294795191 31.605576156100824 0 0 0 0 -57.179375773949687 50.18708622544932 0 50.18708622544932 93.950009024242263 0 0 0 0 -7.6762400739971781 57.311683247969654 0 57.311683247969654 71.182816270799776 0 0 0 0 -2.9457045213002857 75.297487386606917 0 75.297487386606917 126.84420970817064 0 0 0 0 15.41439986657133 71.202460378125352 0 71.202460378125352 75.783916572079761 0 0 0 0 -11.937729340046644 33.484061181760808 0 33.484061181760808 87.635312531647401 0 0 0 0 -17.635013605189897 47.290874115979875 0 47.290874115979875 157.81479804129867 0 0 0 0 96.146312101280273 16.694154369918579 0 16.694154369918579 -65.719425820573178 0 0 0 0 5.5205896233983367 61.937360489960383 0 61.937360489960383 -10.383141268684085 0 0 0 0 4.7552320648549369 -4.4780735460990879 0 -4.4780735460990879 3.8584355896277653 0 0 0 0 2.2715156234092202 -1.9792872605369123 0 -1.9792872605369123 1.9976731956195239 0 0 0 0 -116.80832737055425 1.1659812138191228 0 1.1659812138191228 152.20027714810851 0 0 0 0 96.265443114905565 113.15836070219548 0 113.15836070219548 76.547654289659476 0 0 0 0 -22.658309856287815 -112.81819265917375 0 -112.81819265917375 -17.267300678248262 0 0 0 0 118.30352409883108 -20.206359712828771 0 -20.206359712828771 -9.3901169506816586 0 0 0 0 85.957682099819976 115.38229964014874 0 115.38229964014874 76.005071708515914 0 0 0 0 50.495863658874441 74.288410677133299 0 74.288410677133299 222.04597231860953 0 0 0 0 96.444845284069743 20.418745295366989 0 20.418745295366989 -98.431379076022495 0 0 0 0 54.951936395124903 -21.062781834608813 0 -21.062781834608813 128.95931420601619 0 0 0 0 91.467380314583352 70.636518709615757 0 70.636518709615757 27.450075506325561 0 0 0 0 116.48932511828116 129.5775766459268 0 129.5775766459268 54.048191074425631 0 0 0 0 145.99341166426893 149.22371764357518 0 149.22371764357518 66.340068924217007 0 0 0 0 168.80586513890375 115.68412563945844 0 115.68412563945844 -10.836470699418328 0 0 0 0 195.95398435454808 153.08424327873257 0 153.08424327873257 26.244631850926908 0 0 0 0 239.31853051786402 275.98404986876994 0 275.98404986876994 62.699328523975055 0 0 0 0 182.96430361104467 185.75005176637501 0 185.75005176637501 -52.065557728142153 0 0 0 0 268.42279477954253 295.34103986249363 0 295.34103986249363 -143.34387852459247 0 0 0 0 206.05055688758102 273.34727136174507 0 273.34727136174507 1.1174320858904139 0 0 0 0 62.905761392048589 162.39045496073129 0 162.39045496073129 196.09098096303433 0 0 0 0 433.28198308570609 -121.39180649804996 0 -121.39180649804996 616.39805865367066 0 0 0 0 1240.82803356569 91.847952310991673 0 91.847952310991673 66.929108759645487 0 0 0 0 264.59298268242674 416.00445999345254 0 416.00445999345254 219.62408989093672 0 0 0 0 440.36229127112756 467.82045157966922 0 467.82045157966922 -186.55572575452481 0 0 0 0 341.70592142208352 100.2826335027728 0 100.2826335027728 151.60181295478947 0 0 0 0 217.80496054961986 90.378682633575863 0 90.378682633575863 101.1930544963725 0 0 0 0 466.98712230564161 120.77590412650625 0 120.77590412650625 69.093435890337787 0 0 0 0 623.59066862567852 126.18403933343443 0 126.18403933343443 149.39280389711917 0 0 0 0 549.86642826871139 -247.26661565568975 0 -247.26661565568975 291.12282593495979 0 0 0 0 2.0435063713755728 -1.1176145426829667 0 -1.1176145426829667 -0.048236750447550492 0 0 0 0 168.9316592170826 179.42945595484957 0 179.42945595484957 -75.139834006894489 0 0 0 0 426.28923967301205 -258.35299728163665 0 -258.35299728163665 152.04425088273365 0 0 0 0 -2.6428853012730542 -107.81272927834107 0 -107.81272927834107 234.60180015359037 0 0 0 0 -4.9711059454530186 7.4377548958109401 0 7.4377548958109401 163.40885145612697 0 0 0 0 2.928126991191812 -1.961403308048876 0 -1.961403308048876 1.1545026464039516 0 0 0 0 -13.152987712222966 -58.112339141258872 0 -58.112339141258872 34.119892684032493 0 0 0 0 -19.950120326428078 -26.63857509572199 0 -26.63857509572199 79.485378164716167 0 0 0 0 -6.8093549797904416 23.595279626117645 0 23.595279626117645 24.767753216091023 0 0 0 0 -2.2414841541640271 2.7730575529503767 0 2.7730575529503767 -20.868721427144919 0 0 0 0 -69.606285461640255 12.822981762106508 0 12.822981762106508 26.790001877135182 0 0 0 0 -52.707266918300775 -42.504109674880056 0 -42.504109674880056 -18.308289086627155 0 0 0 0 -19.373959617362061 14.759165012725504 0 14.759165012725504 0.97976568709873391 0 0 0 0 -20.857778270792551 -6.0907005921831114 0 -6.0907005921831114 19.889171594608342 0 0 0 0 1.4033823188092356 -32.330133720472531 0 -32.330133720472531 24.186426403977748 0 0 0 0 -21.803242276267383 -14.302629469852775 0 -14.302629469852775 10.910795995967419 0 0 0 0 -0.50998826870727498 -19.973487825572306 0 -19.973487825572306 -23.10455247128175 0 0 0 0 27.442617673232235 6.9009467681557908 0 6.9009467681557908 -0.32254516111288467 0 0 0 0 38.555194386182848 -18.398700637421825 0 -18.398700637421825 -38.164096312051242 0 0 0 0 31.659045942554485 -40.92694734960412 0 -40.92694734960412 -73.774078197885501 0 0 0 0 32.135180285271417 -37.876327479350039 0 -37.876327479350039 -54.243371877884783 0 0 0 0 47.703533068632169 -17.951886014798674 0 -17.951886014798674 -84.041779143983149 0 0 0 0 49.259169113261123 -30.517208098232004 0 -30.517208098232004 -87.311227508608681 0 0 0 0 51.153339080356091 -23.002614366357193 0 -23.002614366357193 -115.65357738194916 0 0 0 0 47.244458828314237 -14.064193302545846 0 -14.064193302545846 -133.67105028119659 0 0 0 0 43.744464556493767 -9.4636287146604445 0 -9.4636287146604445 -126.79240730811762 0 0 0 0 42.751048085567163 1.090344989274854 0 1.090344989274854 -109.59048650537238 0 0 0 0 61.185365250108589 -50.305420673587832 0 -50.305420673587832 -168.98010337519781 0 0 0 0 43.579374280790944 -56.023516961632595 0 -56.023516961632595 -91.169634759275596 0 0 0 0 45.900626462025684 7.2658413241942981 0 7.2658413241942981 -183.9072676082269 0 0 0 0 42.076482739625135 -11.471539359456983 0 -11.471539359456983 -141.05270578427917 0 0 0 0 58.167040763270052 -1.1881326606344373 0 -1.1881326606344373 -219.90957587242337 0 0 0 0 27.85035555059585 63.243852051709837 0 63.243852051709837 -268.23679559556513 0 0 0 0 42.883321891840751 28.062037194851655 0 28.062037194851655 -195.82888850945801 0 0 0 0 53.61249911464256 6.9728711101506633 0 6.9728711101506633 -233.71875226821066 0 0 0 0 88.844524597265263 -57.917416418276844 0 -57.917416418276844 -195.21794476612013 0 0 0 0 54.961229288230243 -43.17775373472432 0 -43.17775373472432 -160.85127683860992 0 0 0 0 55.021268622249409 -112.02078367702234 0 -112.02078367702234 -79.582127794534244 0 0 0 0 68.261972744065133 -121.24022155173952 0 -121.24022155173952 -83.610039763465011 0 0 0 0 6.3920374638828434 -69.060228040067614 0 -69.060228040067614 -39.500548834073015 0 0 0 0 8.2574841019277301 -82.690236373477887 0 -82.690236373477887 45.136364205145583 0 0 0 0 148.44957216055627 -283.99993535434987 0 -283.99993535434987 154.15867736147675 0 0 0 0 51.940316566418915 -111.95458901260099 0 -111.95458901260099 -21.393196676279331 0 0 0 0 476.17943414626097 -214.61189978776429 0 -214.61189978776429 -186.13479238379477 0 0 0 0 186.49186371383985 8.2248170567584395 0 8.2248170567584395 -312.68818417136754 0 0 0 0 174.72248501380636 -194.05982119197415 0 -194.05982119197415 -107.14221115811961 0 0 0 0 100.21410518760149 -82.549004352374141 0 -82.549004352374141 -235.95637075003469 0 0 0 0 77.429046960249252 -51.999508516152673 0 -51.999508516152673 -223.11528168232689 0 0 0 0 64.232530079804746 48.425891830681849 0 48.425891830681849 -359.05324851443584 0 0 0 0 83.283245831175009 -14.756752369199603 0 -14.756752369199603 -279.87427461102197 0 0 0 0 71.466774141863425 12.470018869803425 0 12.470018869803425 -240.50279050627978 0 0 0 0 52.249024121239927 53.507961084798808 0 53.507961084798808 -305.12796095484373 0 0 0 0 82.460014518579555 -3.9997908631576138 0 -3.9997908631576138 -266.11084680946442 0 0 0 0 45.941224453985342 56.153083026476452 0 56.153083026476452 -293.87834876609486 0 0 0 0 27.501550982517074 92.462799077055024 0 92.462799077055024 -297.42616941943879 0 0 0 0 -125.52258428096115 130.60434409222643 0 130.60434409222643 -466.63061827238562 0 0 0 0 -117.16873020755884 165.50296564054315 0 165.50296564054315 -321.41935932785782 0 0 0 0 25.174968087385942 8.1356589540210109 0 8.1356589540210109 2.9182108705783065 0 0 0 0 -55.093486902609584 88.504408379011693 0 88.504408379011693 -288.67047427879879 0 0 0 0 23.181265800512847 101.18225368436106 0 101.18225368436106 -347.48642267614923 0 0 0 0 54.70337156133246 53.898636499801796 0 53.898636499801796 -334.99004875547234 0 0 0 0 14.215980059821959 149.54863728144574 0 149.54863728144574 -432.24053972325783 0 0 0 0 56.972053679139208 -3.7044791372695727 0 -3.7044791372695727 -291.85305794840042 0 0 0 0 114.13771273785824 36.80947207314648 0 36.80947207314648 -427.20449577876207 0 0 0 0 125.44593588727002 -52.588588604541656 0 -52.588588604541656 -310.15093226166027 0 0 0 0 176.75805292756195 184.88926852959048 0 184.88926852959048 -674.48943870482981 0 0 0 0 19.080490233065788 7.692994043995153 0 7.692994043995153 1.8371849593675549 0 0 0 0 -120.10175193810791 434.88841006359269 0 434.88841006359269 -567.59327134057094 0 0 0 0 481.5624624111606 -195.07739853956764 0 -195.07739853956764 154.91830082856541 0 0 0 0 380.14770194407902 -289.49433686651173 0 -289.49433686651173 267.73074144010388 0 0 0 0 -159.73421027281984 45.262863559009475 0 45.262863559009475 -242.0848430132155 0 0 0 0 300.03994692883862 309.30564538537681 0 309.30564538537681 -90.968520949892991 0 0 0 0 144.7181238636731 -12.361447808230878 0 -12.361447808230878 -261.85421378537649 0 0 0 0 103.35335347723367 -1.1671062265288583 0 -1.1671062265288583 -33.388197521034272 0 0 0 0 129.95137347475338 5.7909873758853792 0 5.7909873758853792 -111.25286448375573 0 0 0 0 120.23352164846528 -56.79043535044957 0 -56.79043535044957 -197.33246190726049 0 0 0 0 87.873872761962048 -262.91721684430513 0 -262.91721684430513 -68.839473469077575 0 0 0 0 56.097507055282222 86.994718443917918 0 86.994718443917918 -17.273329834267315 0 0 0 0 131.59539498055528 -141.8104246629872 0 -141.8104246629872 118.2359627785363 0 0 0 0 84.924472945353955 -4.3105978137296006 0 -4.3105978137296006 -12.862857354592734 0 0 0 0 122.38960344911629 -20.082297912874765 0 -20.082297912874765 -0.20502976068837597 0 0 0 0 90.961473206787559 -99.245403901534701 0 -99.245403901534701 209.2819439167879 0 0 0 0 130.4015315671104 -16.755784149990632 0 -16.755784149990632 -34.216675593196669 0 0 0 0 102.00027087257786 83.396227772582279 0 83.396227772582279 23.778917834895424 0 0 0 0 178.88307234998956 7.3556904564416072 0 7.3556904564416072 -50.814974510202774 0 0 0 0 23.027546644489121 33.402930802249557 0 33.402930802249557 6.6935705034175044 0 0 0 0 25.405680277984629 28.308217000797072 0 28.308217000797072 -10.271140167476915 0 0 0 0 70.851315045996671 38.714174505410028 0 38.714174505410028 -15.90695940718615 0 0 0 0 29.436963362526512 5.9372751229116147 0 5.9372751229116147 -41.595616294847787 0 0 0 0 101.25018407271637 14.311553689341963 0 14.311553689341963 -51.14241092085183 0 0 0 0 112.70223389013154 13.944929090576807 0 13.944929090576807 -75.380955275449196 0 0 0 0 70.943080592112892 -13.610077811135397 0 -13.610077811135397 -75.793882262506202 0 0 0 0 93.578609507196006 -24.647273443614949 0 -24.647273443614949 -76.125591101386817 0 0 0 0 64.838292775999435 -30.591127129001507 0 -30.591127129001507 -77.19281021722918 0 0 0 0 40.056653080208434 -21.257564909885104 0 -21.257564909885104 -58.90233295519829 0 0 0 0 70.860984311227185 0.27906580157332428 0 0.27906580157332428 -43.875372463054191 0 0 0 0 53.12681137959953 -19.971711501979371 0 -19.971711501979371 -60.520979018232538 0 0 0 0 66.90302070535563 -27.676870315393444 0 -27.676870315393444 -74.377383539555922 0 0 0 0 55.502760767842119 -17.393015093982285 0 -17.393015093982285 -76.858026233511509 0 0 0 0 57.468753645614925 -18.583085091601788 0 -18.583085091601788 -92.260645816717442 0 0 0 0 56.629065284602802 -26.113307875364171 0 -26.113307875364171 -52.908493353615086 0 0 0 0 57.775991722140134 -32.433382022302794 0 -32.433382022302794 -69.644784451398209 0 0 0 0 55.571204563564606 -10.780910534991108 0 -10.780910534991108 -21.110938936816183 0 0 0 0 20.496627942075065 -49.538844476871418 0 -49.538844476871418 -55.992575198978102 0 0 0 0 -41.605047926595489 -140.43828559983785 0 -140.43828559983785 -123.47456938385176 0 0 0 0 76.120179787961206 -62.334197437580315 0 -62.334197437580315 -138.09108990004165 0 0 0 0 111.28021826910617 -16.932937255440493 0 -16.932937255440493 -75.053309744228955 0 0 0 0 100.65738397394716 -19.979360519163833 0 -19.979360519163833 -50.558769374134499 0 0 0 0 0.27519437516110834 0.25784839298781925 0 0.25784839298781925 -3.2302561740856213 0 0 0 0 151.12783482770556 -17.858143264110367 0 -17.858143264110367 -55.004951983544288 0 0 0 0 -68.70007231874115 -67.505477245564407 0 -67.505477245564407 67.706484801664374 0 0 0 0 186.87746696026625 -199.02628358907214 0 -199.02628358907214 86.507691028128647 0 0 0 0 123.00186993059197 184.07022313778316 0 184.07022313778316 29.063587534883936 0 0 0 0 89.940775832006238 38.370405421281703 0 38.370405421281703 -28.659714610401352 0 0 0 0 -1.7716753055215735 1.1171034585453565 0 1.1171034585453565 -9.7011150414128657 0 0 0 0 96.585783800333616 -1.184671480224381 0 -1.184671480224381 -48.800713374286715 0 0 0 0 63.288632346352642 -1.9127003904959565 0 -1.9127003904959565 -2.1246122799393561 0 0 0 0 54.329044016187254 8.6764563137730875 0 8.6764563137730875 -52.605549369621258 0 0 0 0 62.374558464021902 5.8172620724390072 0 5.8172620724390072 -54.086409105027087 0 0 0 0 45.583335621767219 14.8181765812501 0 14.8181765812501 -93.761753928904 0 0 0 0 47.494084303085401 -0.081198865680562449 0 -0.081198865680562449 -82.901043210593798 0 0 0 0 50.664315132706179 2.1752206546252637 0 2.1752206546252637 -63.795935768517666 0 0 0 0 42.23524616719908 15.704951869384161 0 15.704951869384161 4.5743944916643784 0 0 0 0 36.869476745381235 38.673435476720442 0 38.673435476720442 -51.918363167321331 0 0 0 0 31.665128212261152 30.11268555820152 0 30.11268555820152 -49.095380060714888 0 0 0 0 42.523242736713655 25.580528071188382 0 25.580528071188382 -67.353736554363195 0 0 0 0 50.19805771113306 9.0587157338190991 0 9.0587157338190991 -31.806362232079664 0 0 0 0 34.234421313448365 40.521834495306393 0 40.521834495306393 -24.578028311898379 0 0 0 0 68.993111228474845 17.674925172508438 0 17.674925172508438 -25.861567486198965 0 0 0 0 47.212101539540974 19.821153051294409 0 19.821153051294409 2.937993174247671 0 0 0 0 24.042520393020823 187.25824806873288 0 187.25824806873288 -78.923999464549638 0 0 0 0 76.423996103869285 4.9307348199267835 0 4.9307348199267835 -81.363385357065113 0 0 0 0 27.543330913675163 -7.2061595767719382 0 -7.2061595767719382 -29.382612299866196 0 0 0 0 68.153865734762803 9.8876227970818036 0 9.8876227970818036 -10.010628127595737 0 0 0 0 159.91421326845739 -11.447602116774533 0 -11.447602116774533 -52.036587221794179 0 0 0 0 72.869049691114924 19.984314620819987 0 19.984314620819987 -39.796937350896314 0 0 0 0 148.91692845100624 -24.754888306075145 0 -24.754888306075145 -44.318138567610731 0 0 0 0 9.2392863902655336 68.180963447348105 0 68.180963447348105 -29.230058885155813 0 0 0 0 -41.147918390259292 69.212332527045248 0 69.212332527045248 -20.550418364486234 0 0 0 0 13.354080143431929 2.5622304871953148 0 2.5622304871953148 -2.7047322690677342 0 0 0 0 48.628314174233118 12.293370205960404 0 12.293370205960404 -5.1955302903297467 0 0 0 0 84.738132333934118 17.827907051480651 0 17.827907051480651 -46.926224915334274 0 0 0 0 66.067586622587442 65.637569483615607 0 65.637569483615607 -77.924455440110705 0 0 0 0 87.89105920968268 49.153929681851537 0 49.153929681851537 -75.835781578884706 0 0 0 0 78.328673557328102 15.411129625369192 0 15.411129625369192 -39.985655619903355 0 0 0 0 -88.178628401876949 61.892033787353938 0 61.892033787353938 33.603673278531687 0 0 0 0 10.735114771388433 5.0477344471039096 0 5.0477344471039096 -17.565683514727215 0 0 0 0 338.13585971615794 -126.25624912003968 0 -126.25624912003968 -17.71836067630511 0 0 0 0 275.92194470809955 -138.93799696561405 0 -138.93799696561405 19.163774177635787 0 0 0 0 274.99730772880139 -138.64794442100788 0 -138.64794442100788 34.065290467786326 0 0 0 0 322.25689584167412 -138.12148245609114 0 -138.12148245609114 30.214081373548197 0 0 0 0 253.26942376005172 -161.06061132899504 0 -161.06061132899504 82.728522516685189 0 0 0 0 331.84588294099922 -157.02690277033707 0 -157.02690277033707 67.16763103323683 0 0 0 0 358.90474455908043 -128.33724108467754 0 -128.33724108467754 72.072833011216062 0 0 0 0 365.56616821841817 -154.25913807727011 0 -154.25913807727011 143.14964658354802 0 0 0 0 384.4577167278203 -200.53040298176984 0 -200.53040298176984 136.5064363720121 0 0 0 0 214.85096152809274 -189.97718877996886 0 -189.97718877996886 236.82729846978054 0 0 0 0 163.29292930689007 -155.71624727298604 0 -155.71624727298604 215.05202350926629 0 0 0 0 243.15321445684822 -178.67109369666287 0 -178.67109369666287 159.92819403697649 0 0 0 0 286.33172462902439 -227.56191441902774 0 -227.56191441902774 207.62058089506536 0 0 0 0 291.88815726034227 -156.71442355588715 0 -156.71442355588715 120.60280293451979 0 0 0 0 254.12395701141213 -206.07980069207588 0 -206.07980069207588 168.08656067472793 0 0 0 0 203.98011825307185 -153.42274728697976 0 -153.42274728697976 134.80736679000256 0 0 0 0 196.69339484718512 -167.24636099885174 0 -167.24636099885174 139.6231046922403 0 0 0 0 307.04232998208317 -188.27397700320216 0 -188.27397700320216 108.99100222213292 0 0 0 0 276.87943811043442 -151.6197248083995 0 -151.6197248083995 78.606073257047683 0 0 0 0 126.25739793310731 -89.995698894591214 0 -89.995698894591214 101.71004371164872 0 0 0 0 11.98338934151252 120.44401787727111 0 120.44401787727111 -267.76568126346319 0 0 0 0 155.15885860652634 -112.61352284804661 0 -112.61352284804661 96.903971314706723 0 0 0 0 9.4284519814680294 1.8624586073939113 0 1.8624586073939113 1.025110726409876 0 0 0 0 154.74740695952823 -119.77005227989844 0 -119.77005227989844 70.46560888422664 0 0 0 0 23.031712411991577 7.1278062948728778 0 7.1278062948728778 -0.5062323026419584 0 0 0 0 197.33675944324932 -146.41234801712926 0 -146.41234801712926 119.94188888400822 0 0 0 0 145.64780493278522 -122.92660468629583 0 -122.92660468629583 128.89930207441921 0 0 0 0 94.040367493187659 -125.39908685329283 0 -125.39908685329283 183.93945727825121 0 0 0 0 -1.5350805878042593 78.838973242331122 0 78.838973242331122 -290.73379176006711 0 0 0 0 186.22976112995821 -175.04192882206371 0 -175.04192882206371 164.26146951034025 0 0 0 0 166.95197297120831 -159.2203283535855 0 -159.2203283535855 147.4044618440239 0 0 0 0 105.47541261389415 -166.0694434091838 0 -166.0694434091838 201.6348970317049 0 0 0 0 19.938892815007421 90.389699029128678 0 90.389699029128678 -288.02768185650166 0 0 0 0 19.98593627550872 102.09449776450128 0 102.09449776450128 -272.19608934837743 0 0 0 0 40.336005535440563 70.02255382004023 0 70.02255382004023 -265.78625169167935 0 0 0 0 114.57942142930551 -127.20004763687075 0 -127.20004763687075 70.484113504033303 0 0 0 0 172.80416841120314 -115.94781599096859 0 -115.94781599096859 46.617423572067764 0 0 0 0 210.01402940208209 -141.5742768579521 0 -141.5742768579521 73.21157791459882 0 0 0 0 173.43393345026197 -120.81588238443976 0 -120.81588238443976 61.639009637856361 0 0 0 0 228.96344363392927 -128.79017055076156 0 -128.79017055076156 53.588491263693868 0 0 0 0 219.93073238648503 -137.27164590131179 0 -137.27164590131179 56.759668282363236 0 0 0 0 219.63626824884705 -133.77475040271111 0 -133.77475040271111 41.433382716391861 0 0 0 0 223.95918679728493 -130.53829245363931 0 -130.53829245363931 19.917579281018106 0 0 0 0 226.96405349563793 -117.39427953776931 0 -117.39427953776931 10.82578765730068 0 0 0 0 182.65207099088002 -113.12382090940582 0 -113.12382090940582 31.769283466770503 0 0 0 0 139.10744672630244 -97.920836054050142 0 -97.920836054050142 38.663254870481978 0 0 0 0 158.48865054939961 -127.778816227682 0 -127.778816227682 48.426971465636598 0 0 0 0 0.57022576728832064 58.235516872575545 0 58.235516872575545 57.188781387147174 0 0 0 0 112.50990368070052 -100.14715257843955 0 -100.14715257843955 44.068035082073038 0 0 0 0 121.99600835938327 -62.488173786922744 0 -62.488173786922744 39.812778683782199 0 0 0 0 52.013635176817843 -10.458748655692034 0 -10.458748655692034 44.261873749566803 0 0 0 0 60.204930429816159 -113.93712967217471 0 -113.93712967217471 75.956114958233229 0 0 0 0 22.229731057723257 -58.551823330206389 0 -58.551823330206389 68.91684523050526 0 0 0 0 85.832387552232831 -48.948809305486066 0 -48.948809305486066 -26.278895686005853 0 0 0 0 -48.523091297754945 110.63915565482876 0 110.63915565482876 -171.34116401869687 0 0 0 0 -27.769519515684806 133.13060669363404 0 133.13060669363404 -203.53563375827071 0 0 0 0 -2.0384505869296845 108.04519978240387 0 108.04519978240387 -229.78838148999239 0 0 0 0 -0.23109273363934335 71.190482546165526 0 71.190482546165526 -164.71927038381182 0 0 0 0 11.310977473602179 67.88038735832879 0 67.88038735832879 -224.91421091035591 0 0 0 0 27.370413769102015 78.155257918997449 0 78.155257918997449 -218.4416063449662 0 0 0 0 37.447901788151285 22.919503650007755 0 22.919503650007755 -162.3212539888209 0 0 0 0 2.6580713970215584 62.282107650180478 0 62.282107650180478 -182.54482590452153 0 0 0 0 32.255699840712623 31.801291596993906 0 31.801291596993906 -152.4520957131972 0 0 0 0 4.0898076964003849 47.114202956643567 0 47.114202956643567 -110.77993692260861 0 0 0 0 -31.85568571157819 83.491941573316581 0 83.491941573316581 -143.54405826402581 0 0 0 0 36.584261742178569 30.104141087829703 0 30.104141087829703 -137.80589119445813 0 0 0 0 31.451326404814381 28.005803251624684 0 28.005803251624684 -133.29257560643782 0 0 0 0 44.121490721132432 3.9366852624834792 0 3.9366852624834792 -147.89948821249527 0 0 0 0 35.448378933469257 25.334297969818863 0 25.334297969818863 -107.29447895225348 0 0 0 0 49.571040962087864 2.9221299715782152 0 2.9221299715782152 -117.08594073819586 0 0 0 0 45.743368093613753 14.100581481818153 0 14.100581481818153 -95.976487090197679 0 0 0 0 192.59569098315842 -159.49065209257424 0 -159.49065209257424 -121.6192650289704 0 0 0 0 2.8620060084680716 0.99449668981129946 0 0.99449668981129946 -0.32588672067838331 0 0 0 0 24.115986407792661 46.173796598086483 0 46.173796598086483 -110.7410891741481 0 0 0 0 94.640118242918106 11.714540375439356 0 11.714540375439356 16.853107011743305 0 0 0 0 21.526779280606206 50.09671370068645 0 50.09671370068645 -87.624496397288567 0 0 0 0 35.455911643997752 10.956757750354347 0 10.956757750354347 1.1450848666913309 0 0 0 0 -84.836356363517552 159.79970166760995 0 159.79970166760995 318.37951033770878 0 0 0 0 165.13771862896101 -52.981579629634325 0 -52.981579629634325 25.135665731089375 0 0 0 0 178.63102341801641 0.23519711527524123 0 0.23519711527524123 -9.0744129350478033 0 0 0 0 147.58630606379302 5.0439086071619386 0 5.0439086071619386 16.446459916449811 0 0 0 0 164.10514238801261 -24.528894766875965 0 -24.528894766875965 -20.913022135336405 0 0 0 0 164.28607468787845 -30.000599449407034 0 -30.000599449407034 0.25436298993554374 0 0 0 0 150.01561084502464 -19.403371580722421 0 -19.403371580722421 -18.253481596251731 0 0 0 0 160.18885533788853 -48.989794882292813 0 -48.989794882292813 -14.646165810763137 0 0 0 0 181.38323145363393 -33.780196299817362 0 -33.780196299817362 -38.645219905882414 0 0 0 0 175.90847106510773 -39.153468133553815 0 -39.153468133553815 -20.125148833589037 0 0 0 0 186.02991773238318 -51.918353574011007 0 -51.918353574011007 -13.384481603994118 0 0 0 0 200.9388553279714 -46.507757747713242 0 -46.507757747713242 -19.596713460688079 0 0 0 0 219.72793318512049 -69.529196743389321 0 -69.529196743389321 -16.01260430170845 0 0 0 0 192.30642956383781 -63.649906254061989 0 -63.649906254061989 -15.068352562674136 0 0 0 0 191.31517635034834 -61.003518519509271 0 -61.003518519509271 -0.3718835186364231 0 0 0 0 152.16845454673603 -51.505278658904444 0 -51.505278658904444 6.6584234552587986 0 0 0 0 157.71696820887155 -31.297062550114788 0 -31.297062550114788 5.4832479973001682 0 0 0 0 112.71145458852425 -56.457338786013054 0 -56.457338786013054 35.900234350212486 0 0 0 0 133.28970352432589 -20.614502257164759 0 -20.614502257164759 14.945721330309425 0 0 0 0 119.3480024555829 -20.189490165114421 0 -20.189490165114421 26.227398355960759 0 0 0 0 161.99866007715809 -86.986592948168209 0 -86.986592948168209 17.122086416598904 0 0 0 0 154.42425226443447 -59.088958039227236 0 -59.088958039227236 16.165939038678516 0 0 0 0 179.79748262693147 -101.26779509820614 0 -101.26779509820614 10.592198734588237 0 0 0 0 210.75554536822892 -109.37748788876797 0 -109.37748788876797 10.906470052113349 0 0 0 0 180.64232204578002 -96.591791176523657 0 -96.591791176523657 22.054114381498948 0 0 0 0 245.78182957865647 -99.569683469783058 0 -99.569683469783058 -15.279799837179326 0 0 0 0 190.42822899104067 -81.473019000527529 0 -81.473019000527529 -4.1277795285404864 0 0 0 0 217.21822996139963 -87.923707097233091 0 -87.923707097233091 -2.993533710720385 0 0 0 0 220.80966730871842 -84.18828690032251 0 -84.18828690032251 -24.438954237658436 0 0 0 0 226.14142870547585 -66.300970519492353 0 -66.300970519492353 -30.286684822084453 0 0 0 0 251.7346861216065 -84.327652844914383 0 -84.327652844914383 -27.359809808204773 0 0 0 0 285.22061066237802 -99.063726065827723 0 -99.063726065827723 -37.524267763992611 0 0 0 0 254.4601651734738 -81.209079586945393 0 -81.209079586945393 -47.533579327205643 0 0 0 0 283.66509042375048 -79.72905659504616 0 -79.72905659504616 -59.547745231309818 0 0 0 0 246.77433465997092 -101.3655984341633 0 -101.3655984341633 -26.380518615984329 0 0 0 0 287.22853456436496 -121.24084331923336 0 -121.24084331923336 -16.679025206571168 0 0 0 0 281.1220640623842 -105.2963544806139 0 -105.2963544806139 -25.422087998661482 0 0 0 0 274.81888392738074 -56.737436674005494 0 -56.737436674005494 -51.234538615191013 0 0 0 0 300.27773066775444 -37.304995840567244 0 -37.304995840567244 -36.428453245395588 0 0 0 0 277.53868287127625 -72.98079781758824 0 -72.98079781758824 -64.919779366728562 0 0 0 0 281.61886478484485 -55.951333138193263 0 -55.951333138193263 -58.017775134740305 0 0 0 0 275.75717463278488 -72.662200022054776 0 -72.662200022054776 -44.104013660052146 0 0 0 0 247.75254730464985 -61.222375642685677 0 -61.222375642685677 -29.094312051925044 0 0 0 0 249.4832022342016 -61.109536114792263 0 -61.109536114792263 -42.84895588451991 0 0 0 0 241.36293341361488 -28.241386552483945 0 -28.241386552483945 -17.591310475885024 0 0 0 0 278.5657071264709 -42.4582536731657 0 -42.4582536731657 -31.654378278363538 0 0 0 0 204.24994695587793 -18.79039868319952 0 -18.79039868319952 40.466731706465112 0 0 0 0 237.08780917757576 -33.35961481250996 0 -33.35961481250996 -6.1696991022079288 0 0 0 0 205.56674540054155 -57.972646329612758 0 -57.972646329612758 -15.949827752233659 0 0 0 0 219.42664518361562 -45.495343979873496 0 -45.495343979873496 -8.2403678250774988 0 0 0 0 182.3027656357699 -47.86013694403141 0 -47.86013694403141 8.1249959074544336 0 0 0 0 194.55365440326568 -35.015161378508168 0 -35.015161378508168 -9.5374248961277317 0 0 0 0 198.87809475758695 -31.579209667022056 0 -31.579209667022056 16.150822556051924 0 0 0 0 184.31240164112296 -37.099366265732002 0 -37.099366265732002 54.058236558472586 0 0 0 0 186.05759448977551 -5.2803868958919793 0 -5.2803868958919793 69.214677346749653 0 0 0 0 70.273317429380768 -28.984698536137557 0 -28.984698536137557 94.652357659497341 0 0 0 0 239.81140635158226 -39.19131679594858 0 -39.19131679594858 80.877015444115614 0 0 0 0 232.36120480523823 31.632054856325681 0 31.632054856325681 45.071648591934718 0 0 0 0 213.31450310348737 42.083634644812946 0 42.083634644812946 41.820692743078666 0 0 0 0 185.5882046319889 -1.1497153797379909 0 -1.1497153797379909 32.864657835232151 0 0 0 0 291.74524572861264 -1.1119428436548446 0 -1.1119428436548446 -3.452299925051193 0 0 0 0 245.33366112180556 11.200361246587647 0 11.200361246587647 -1.6047693250216071 0 0 0 0 340.78781941268971 49.481120035815934 0 49.481120035815934 6.1556720913911249 0 0 0 0 336.17269930378279 3.3390064829198991 0 3.3390064829198991 -26.939904480250561 0 0 0 0 359.85863671233164 -4.6754710988485328 0 -4.6754710988485328 -29.877303142993526 0 0 0 0 290.00081761544016 -33.070649938579017 0 -33.070649938579017 -37.121130643662127 0 0 0 0 1.5756953674048049 -0.2775897691510405 0 -0.2775897691510405 0.37890021180182742 0 0 0 0 -132.08269200086397 165.87056879375336 0 165.87056879375336 343.22467797136721 0 0 0 0 19.295159740002418 13.824377788790883 0 13.824377788790883 78.567600543932485 0 0 0 0 -33.590856655495372 12.900287771297656 0 12.900287771297656 83.474344310183824 0 0 0 0 81.061665272075061 121.25568495721724 0 121.25568495721724 99.253804639145073 0 0 0 0 5.3462471073833484 -2.1498460614935517 0 -2.1498460614935517 0.99716093871909584 0 0 0 0 22.871829152063583 9.8979010170830861 0 9.8979010170830861 -12.427820864975388 0 0 0 0 111.36741474517021 71.940631962263822 0 71.940631962263822 -112.50288280804193 0 0 0 0 53.168516233490664 -20.360069079392872 0 -20.360069079392872 -78.425836709239661 0 0 0 0 118.87048302127005 71.556309706943523 0 71.556309706943523 -106.54330297385917 0 0 0 0 146.51588943199022 -38.654380839079181 0 -38.654380839079181 -7.6698825005042863 0 0 0 0 163.73674492106056 -13.42402332828928 0 -13.42402332828928 20.420237087235591 0 0 0 0 197.37363170610115 -20.241263862301878 0 -20.241263862301878 21.723634609280111 0 0 0 0 139.48389243091151 0.38777193659566933 0 0.38777193659566933 71.741796849833179 0 0 0 0 145.15543096965121 38.290991035805249 0 38.290991035805249 174.05896982546693 0 0 0 0 188.22930390642796 -76.799923614585509 0 -76.799923614585509 -16.870870186920172 0 0 0 0 154.10151973186294 75.276598331469643 0 75.276598331469643 119.0653382170409 0 0 0 0 153.29293009560752 83.886842766379317 0 83.886842766379317 66.24469363437413 0 0 0 0 273.88011901432037 56.653227704954588 0 56.653227704954588 81.680813375075886 0 0 0 0 132.31450472063079 31.834651192468868 0 31.834651192468868 193.35822648374813 0 0 0 0 202.15677055321794 114.53252932679675 0 114.53252932679675 110.01856568635708 0 0 0 0 57.590691967718158 30.135290123405639 0 30.135290123405639 107.60852792593323 0 0 0 0 133.96926860564417 31.877285285016455 0 31.877285285016455 53.042840397127293 0 0 0 0 12.262257467613381 28.895409631366874 0 28.895409631366874 48.529231702970037 0 0 0 0 57.535089257151412 5.0504347088837562 0 5.0504347088837562 47.261582624032258 0 0 0 0 105.99806656848523 22.509980064493078 0 22.509980064493078 57.176860165821211 0 0 0 0 2.4330077372105734 24.844126283761398 0 24.844126283761398 93.437278982458054 0 0 0 0 4.8899514685763279 21.788706080260653 0 21.788706080260653 48.388043205766735 0 0 0 0 14.250373088777451 26.331647903264777 0 26.331647903264777 63.688415782217263 0 0 0 0 -60.590416598999582 0.71001214551188241 0 0.71001214551188241 74.849435806703497 0 0 0 0 -41.367863638231938 -13.097985539645833 0 -13.097985539645833 59.553485142156831 0 0 0 0 -37.255977262520901 -3.8322387691471249 0 -3.8322387691471249 14.821330200828925 0 0 0 0 -82.605673617637876 -72.474978808837363 0 -72.474978808837363 -32.64757010789117 0 0 0 0 31.509051816326973 -7.5980222477861901 0 -7.5980222477861901 -21.361437423297417 0 0 0 0 192.96096378718539 16.079181607857791 0 16.079181607857791 -18.056907324625399 0 0 0 0 -104.76473658441819 -80.543794583465655 0 -80.543794583465655 67.382125418319674 0 0 0 0 0.41634090189715778 -1.1435563855592719 0 -1.1435563855592719 2.2313993537390124 0 0 0 0 -91.729018294641719 -3.8477299432963008 0 -3.8477299432963008 51.24257678636593 0 0 0 0 -38.710258409939343 -0.16881065268214002 0 -0.16881065268214002 -1.8128199106079137 0 0 0 0 -10.625950608726271 -4.4834840812142147 0 -4.4834840812142147 49.792864086830406 0 0 0 0 -42.27304768236354 -42.581114624424629 0 -42.581114624424629 29.090953752878022 0 0 0 0 31.99211947969161 -50.485516068832453 0 -50.485516068832453 11.315401133161231 0 0 0 0 22.626174493554572 -105.55920446716314 0 -105.55920446716314 72.119746318673492 0 0 0 0 137.41722684298293 -124.09244637152881 0 -124.09244637152881 -10.151919940429934 0 0 0 0 48.802369780016306 -45.732824908862995 0 -45.732824908862995 -41.809225729771811 0 0 0 0 53.997329178194832 -13.22678298985295 0 -13.22678298985295 -13.502985977185062 0 0 0 0 59.068661676598822 -2.4442621677847569 0 -2.4442621677847569 -46.222175203961143 0 0 0 0 14.17313410112034 2.8982964491675869 0 2.8982964491675869 -2.4167100102780825 0 0 0 0 41.134282399991207 49.357568521919745 0 49.357568521919745 -21.299616695845657 0 0 0 0 42.902217967227891 5.1067852564104221 0 5.1067852564104221 -4.505881586318087 0 0 0 0 66.930155170724902 39.297313008400579 0 39.297313008400579 30.616018426178925 0 0 0 0 25.562504219175025 -40.68978468884427 0 -40.68978468884427 34.288675026844459 0 0 0 0 -1.0371464056720399 -3.2892588433350261 0 -3.2892588433350261 1.8971591568916069 0 0 0 0 -7.3182865605776897 8.183719088806356 0 8.183719088806356 -4.5693844533179799 0 0 0 0 45.309296129855284 -9.0086132693099898 0 -9.0086132693099898 -2.6040599626862786 0 0 0 0 22.623694017604322 -2.0385699045329266 0 -2.0385699045329266 -2.0310721696294514 0 0 0 0 36.677887775658746 -5.9775632121823037 0 -5.9775632121823037 -10.295872742767415 0 0 0 0 -39.517003142711474 21.571494319663088 0 21.571494319663088 -9.7603686987854417 0 0 0 0 15.207695168175633 14.378499306584899 0 14.378499306584899 -48.0139497780076 0 0 0 0 -28.246352314583419 61.720005374260253 0 61.720005374260253 175.95787092447313 0 0 0 0 9.5460583747158196 2.854920767793196 0 2.854920767793196 -2.2573576810518619 0 0 0 0 92.789667214568908 51.70907810867007 0 51.70907810867007 -152.52058300183012 0 0 0 0 33.756650577588218 -1.2598397798959766 0 -1.2598397798959766 -5.9785918993838294 0 0 0 0 6.3740306614458966 -1.3041708223476931 0 -1.3041708223476931 0.14498372470742638 0 0 0 0 175.56726877234541 -27.267251151252736 0 -27.267251151252736 -110.94610218401999 0 0 0 0 71.490370355586492 26.435467187624852 0 26.435467187624852 9.6502060507882561 0 0 0 0 55.007582029204059 57.72628673698091 0 57.72628673698091 -22.183756912029821 0 0 0 0 19.588479285073255 2.9422794929045075 0 2.9422794929045075 -4.2718360796842543 0 0 0 0 4.8271277065821501 -0.4744356487069048 0 -0.4744356487069048 0.11312767803261536 0 0 0 0 25.156095969453418 -1.5063619229406484 0 -1.5063619229406484 2.2165775507959324 0 0 0 0 5.2979327361717878 50.876881350121494 0 50.876881350121494 1.423676933838351 0 0 0 0 38.819604238844477 -9.7613961818307189 0 -9.7613961818307189 -3.172519684248698 0 0 0 0 14.872699617320905 4.3354308707220071 0 4.3354308707220071 -0.42924922319659231 0 0 0 0 174.18162359924827 -89.446912383087636 0 -89.446912383087636 -49.856304161386085 0 0 0 0 73.717234924142758 -12.949398938082808 0 -12.949398938082808 -21.016977291065572 0 0 0 0 123.65687054261798 -19.064755520544821 0 -19.064755520544821 -21.337198437249512 0 0 0 0 3.2007238749001985 4.6200515053391626 0 4.6200515053391626 -4.3146974615245286 0 0 0 0 41.938706725164593 -16.428367012269973 0 -16.428367012269973 2.3295111843906398 0 0 0 0 0.34450867860044099 0.35999408509554343 0 0.35999408509554343 -0.56421547637344016 0 0 0 0 28.013095248410536 -4.3848566530780317 0 -4.3848566530780317 1.4099884363443067 0 0 0 0 3.1984753842370992 11.163873662863864 0 11.163873662863864 -12.328170483842769 0 0 0 0 13.487847837313893 -3.8280043997206121 0 -3.8280043997206121 -2.8720976474737654 0 0 0 0 15.783692051241815 -0.52240896311957385 0 -0.52240896311957385 -9.3915075452591736 0 0 0 0 29.022978730965406 -3.9083297786616527 0 -3.9083297786616527 -7.6854380750423843 0 0 0 0 10.696398960411898 -1.2511548247672408 0 -1.2511548247672408 -4.6473388808466325 0 0 0 0 17.271161057549762 -2.2675371655870435 0 -2.2675371655870435 -8.04935690867228 0 0 0 0 11.591836721975611 -6.0291312620061888 0 -6.0291312620061888 -3.8324064019232127 0 0 0 0 17.025223005452425 -13.643622883248742 0 -13.643622883248742 -2.9605867864899995 0 0 0 0 23.99909455226468 -0.01121306747609907 0 -0.01121306747609907 -5.2752168082001258 0 0 0 0 17.680495169333881 -4.7254734000341614 0 -4.7254734000341614 -10.046287075191003 0 0 0 0 43.75756961744446 -14.361834131207729 0 -14.361834131207729 -32.891692472071441 0 0 0 0 31.547318806093244 6.8522929645980071 0 6.8522929645980071 -21.301841143678189 0 0 0 0 -17.898883598228906 -11.063420308996783 0 -11.063420308996783 59.879466104526728 0 0 0 0 -18.161645314892667 -0.46421891757654521 0 -0.46421891757654521 -1.9825466782035619 0 0 0 0 11.407081368433779 -2.514500647625308 0 -2.514500647625308 -2.8735911847276059 0 0 0 0 -12.549358395088348 -24.155136238777914 0 -24.155136238777914 10.855961167729674 0 0 0 0 16.14103639735913 -48.709963201607934 0 -48.709963201607934 21.098460592257197 0 0 0 0 -0.15658412682387279 -26.231065713217731 0 -26.231065713217731 -8.5107762186248692 0 0 0 0 11.954772510556722 -37.467488492595749 0 -37.467488492595749 -8.5471951725439794 0 0 0 0 13.35405895363175 -12.162245251410866 0 -12.162245251410866 -5.4282785161314786 0 0 0 0 19.948779916268904 -12.691483110217462 0 -12.691483110217462 17.1791881210263 0 0 0 0 39.900586509065761 -24.744923992344411 0 -24.744923992344411 -24.12893851511808 0 0 0 0 18.640078774989888 -23.484413423231899 0 -23.484413423231899 1.3490064346406143 0 0 0 0 24.576860957506142 -6.8685108449552672 0 -6.8685108449552672 3.5167304947294156 0 0 0 0 38.435478273702756 -17.456707968036994 0 -17.456707968036994 -3.8903441558959457 0 0 0 0 34.903581288748683 -15.999292645357741 0 -15.999292645357741 10.918513004097122 0 0 0 0 34.917225724242599 -18.124026679092935 0 -18.124026679092935 65.681405672590358 0 0 0 0 82.884566105774866 -14.786199202433295 0 -14.786199202433295 1.7086016624291887 0 0 0 0 62.44653851568728 20.136381219801848 0 20.136381219801848 12.172112864100795 0 0 0 0 69.403989034734195 -34.9054793762744 0 -34.9054793762744 -1.0824850674844129 0 0 0 0 52.443439832781223 4.5327822812194585 0 4.5327822812194585 -11.848982033713044 0 0 0 0 24.192567102607427 -1.5411411583722625 0 -1.5411411583722625 28.663560083836387 0 0 0 0 26.013743945411989 0.62549923932698448 0 0.62549923932698448 -12.397370876073808 0 0 0 0 46.088153551829237 -7.1385492730350961 0 -7.1385492730350961 -27.148004845761079 0 0 0 0 0.33947324802284129 36.798419353560973 0 36.798419353560973 -97.556029293380561 0 0 0 0 12.067499607604262 -10.786938987953341 0 -10.786938987953341 -8.7650605509317021 0 0 0 0 32.341739381186926 -16.258051265753977 0 -16.258051265753977 -22.223330958607676 0 0 0 0 24.186579794663885 -2.4896288477804944 0 -2.4896288477804944 -7.8851483469469485 0 0 0 0 22.496935086106532 -14.070371777716559 0 -14.070371777716559 17.204343593534617 0 0 0 0 26.130009583848732 12.969823599384068 0 12.969823599384068 -39.74766974837253 0 0 0 0 30.414052265488863 0.3846277126865445 0 0.3846277126865445 -6.9565227812695269 0 0 0 0 26.701248297560596 16.342580888502141 0 16.342580888502141 -18.017208843794378 0 0 0 0 16.898445166500096 13.88462214020754 0 13.88462214020754 -14.984994493714339 0 0 0 0 21.529262433668919 18.319423207663952 0 18.319423207663952 -15.20865375130218 0 0 0 0 11.216660114781916 19.602570224843475 0 19.602570224843475 -16.638501556822689 0 0 0 0 5.5257063522879264 0.66169448614556359 0 0.66169448614556359 -0.35396107379659569 0 0 0 0 20.171820964480503 -26.219277080012546 0 -26.219277080012546 51.115060994833357 0 0 0 0 28.656232304634159 4.368070837948153 0 4.368070837948153 -14.336925511344134 0 0 0 0 25.804225617792284 -5.2918039430028694 0 -5.2918039430028694 -3.2426214503378561 0 0 0 0 21.447529827768449 13.680971199006763 0 13.680971199006763 -17.156880666644042 0 0 0 0 24.030816169868288 -0.18636780378794215 0 -0.18636780378794215 -0.79973434397294385 0 0 0 0 65.959405562145548 18.016398193406758 0 18.016398193406758 -23.955025704304603 0 0 0 0 40.231317281182783 -36.175037547054217 0 -36.175037547054217 27.530658665767533 0 0 0 0 0.23279238162671589 0.22547283664695428 0 0.22547283664695428 0.16459894409287124 0 0 0 0 6.2830390096314659 30.814698033931109 0 30.814698033931109 -26.687671315255386 0 0 0 0 20.723915643584405 33.017501988762092 0 33.017501988762092 34.667462345303193 0 0 0 0 66.642544036736581 -15.361953663315376 0 -15.361953663315376 1.8815402736859141 0 0 0 0 48.363421014817959 3.7617979640604489 0 3.7617979640604489 -24.061687616642399 0 0 0 0 6.0950767047039331 0.33885659013080627 0 0.33885659013080627 -4.6923513641014765 0 0 0 0 6.9672637396615755 1.2296079002225042 0 1.2296079002225042 8.3040205820219199 0 0 0 0 34.345470150381743 8.1716531258870759 0 8.1716531258870759 -35.078062369574013 0 0 0 0 20.524754520166738 0.073137727256097684 0 0.073137727256097684 0.13644773887996581 0 0 0 0 4.0896775292088705 -13.527215408835126 0 -13.527215408835126 -14.906130627522316 0 0 0 0 17.341291838625693 8.4510048306460703 0 8.4510048306460703 -22.8952112063821 0 0 0 0 24.646101658906446 -1.687368324722911 0 -1.687368324722911 -15.178669859147703 0 0 0 0 9.6638284277742059 -10.337394378692352 0 -10.337394378692352 -3.4459589964416182 0 0 0 0 31.42532143135395 -16.08075699862178 0 -16.08075699862178 -19.971426453696875 0 0 0 0 17.320631805751539 -2.450195629747169 0 -2.450195629747169 -1.2001836312304006 0 0 0 0 11.905384875885701 -2.3086081391565774 0 -2.3086081391565774 -3.8110323670609727 0 0 0 0 16.930862294856524 -3.7805077221776173 0 -3.7805077221776173 -8.1408019183008946 0 0 0 0 13.642219654679138 -0.12902695764978489 0 -0.12902695764978489 -19.450007836094301 0 0 0 0 10.921826908390358 -7.302782018043672 0 -7.302782018043672 -12.25265064214409 0 0 0 0 8.8633668524855551 -7.8083469751397168 0 -7.8083469751397168 -6.6846665232372722 0 0 0 0 36.419417006247386 -7.2317457501580975 0 -7.2317457501580975 -7.5303994557662008 0 0 0 0 3.7534427219656079 0.6494540284741035 0 0.6494540284741035 -0.56056318498536584 0 0 0 0 42.188494203296614 5.1286984192977343 0 5.1286984192977343 9.7118118166908971 0 0 0 0 47.337234111013458 7.5982634929123378 0 7.5982634929123378 -23.722272205571699 0 0 0 0 63.717371113969421 33.059315384973161 0 33.059315384973161 14.901458198163709 0 0 0 0 22.969521338774939 -12.764248742488689 0 -12.764248742488689 -4.9954184628877556 0 0 0 0 2.9098022987509466 28.669569620550647 0 28.669569620550647 52.282032351175872 0 0 0 0 27.053944409741234 0.10633970869730547 0 0.10633970869730547 14.882697833488358 0 0 0 0 109.75275133379364 124.03149809991783 0 124.03149809991783 133.33387631767528 0 0 0 0 153.69391030010229 33.884890977904888 0 33.884890977904888 -44.177555929860773 0 0 0 0 138.8947975359024 94.376624021384941 0 94.376624021384941 31.684623115289469 0 0 0 0 309.8964918006277 104.34963161481119 0 104.34963161481119 -12.427747878880837 0 0 0 0 356.65889234713768 -48.247866155630504 0 -48.247866155630504 -33.629035583467612 0 0 0 0 3.0150796680209027 -0.18513720422629021 0 -0.18513720422629021 0.15625873407203827 0 0 0 0 132.01400688040303 -147.4763951260328 0 -147.4763951260328 155.2606434964041 0 0 0 0 17.705403392298649 -40.455946856177434 0 -40.455946856177434 58.112831739833837 0 0 0 0 29.811530013985248 -25.026941825758058 0 -25.026941825758058 6.3904340841099483 0 0 0 0 8.6289889331285927 -3.987524785745852 0 -3.987524785745852 -1.7006424329120269 0 0 0 0 33.041620607235018 -5.4392332499846816 0 -5.4392332499846816 -17.268743159799669 0 0 0 0 56.550876068029055 -35.245533556901883 0 -35.245533556901883 -6.9287021348187636 0 0 0 0 56.464912779732003 -28.406127743150449 0 -28.406127743150449 -29.180658325437207 0 0 0 0 132.57364853025865 22.099253329693738 0 22.099253329693738 -54.997747520821974 0 0 0 0 144.25498090246583 -87.588315105225007 0 -87.588315105225007 10.018186211592507 0 0 0 0 37.089420814210825 40.298769332386769 0 40.298769332386769 -49.732733374878535 0 0 0 0 78.714101914734783 -23.557697278240866 0 -23.557697278240866 -34.001825017650674 0 0 0 0 46.58740445098374 -20.271974777633517 0 -20.271974777633517 -19.097487982268717 0 0 0 0 39.742051705527047 -15.111617421267738 0 -15.111617421267738 -8.3825533685700861 0 0 0 0 -2.6808757325641004 -7.9566973828104111 0 -7.9566973828104111 -0.39811298183280908 0 0 0 0 4.2011910544342754 -17.113731164008733 0 -17.113731164008733 21.561172116075518 0 0 0 0 43.504337423579273 -16.982586438532252 0 -16.982586438532252 -8.4653246828594195 0 0 0 0 26.113749605073281 -17.84643798496689 0 -17.84643798496689 -8.377452333011508 0 0 0 0 15.766487930080984 -22.439601908055693 0 -22.439601908055693 17.854205455285438 0 0 0 0 -1.5284377203109285 -9.221816666413126 0 -9.221816666413126 -3.6430829075979219 0 0 0 0 339.35617047500273 -291.98795487052382 0 -291.98795487052382 187.28161292500249 0 0 0 0 1270.5621084693184 407.2855120414273 0 407.2855120414273 186.69023584584966 0 0 0 0 2423.5018973346314 8.1797191082957568 0 8.1797191082957568 -496.08165665483051 0 0 0 0 1499.5295714498798 110.25732756748531 0 110.25732756748531 -123.11503099697747 0 0 0 0 2.7805279703133845 -1.0495938271206473 0 -1.0495938271206473 -3.522077453825402 0 0 0 0 700.06389012584805 -344.58039790774808 0 -344.58039790774808 -202.43915262495051 0 0 0 0 1410.1387134862798 148.34920708646288 0 148.34920708646288 -29.043652400533635 0 0 0 0 4.3622308872696998 -3.9587023015727354 0 -3.9587023015727354 -5.8468309799502629 0 0 0 0 1542.8666935974743 130.31196588268989 0 130.31196588268989 -169.58475874843452 0 0 0 0 750.30908767015535 -124.08368105568979 0 -124.08368105568979 239.70577777510917 0 0 0 0 1408.9028057262367 -41.972359889290829 0 -41.972359889290829 -132.96488197010262 0 0 0 0 -5.9686583591828821 -99.48852131450974 0 -99.48852131450974 -82.982559878307939 0 0 0 0 -85.273487924110668 -66.510756383869762 0 -66.510756383869762 100.95826603835911 0 0 0 0 609.61133311554477 138.62291464299693 0 138.62291464299693 65.293500200011749 0 0 0 0 -105.84723710742037 -164.20170436171043 0 -164.20170436171043 123.3346867363864 0 0 0 0 -166.66825113282721 96.682660728415385 0 96.682660728415385 53.443718650645337 0 0 0 0 17.213451683322035 2.5771268369238181 0 2.5771268369238181 3.3770673452318078 0 0 0 0 10.49013650871288 8.4411507572429354 0 8.4411507572429354 3.5414009477916579 0 0 0 0 3.4562290594088445 1.9862131623096531 0 1.9862131623096531 6.4202400525667311 0 0 0 0 17.241807447751995 1.8437513101922303 0 1.8437513101922303 3.570997747827505 0 0 0 0 3.7912222608811135 -0.2341646476338326 0 -0.2341646476338326 11.652019476570786 0 0 0 0 22.238279618562046 -3.5940359544482305 0 -3.5940359544482305 15.44881107134448 0 0 0 0 34.239939742595197 4.3600026847595927 0 4.3600026847595927 2.9252412727500996 0 0 0 0 11.836250477221256 -9.1702470296240506 0 -9.1702470296240506 15.583187565373578 0 0 0 0 134.74686395530807 325.12166220488422 0 325.12166220488422 29.084286320725866 0 0 0 0 10.851964147591183 9.6429924811030219 0 9.6429924811030219 2.6127040867729421 0 0 0 0 21.487958594676684 2.2277189272063982 0 2.2277189272063982 4.1204892307971477 0 0 0 0 22.910288999139993 -0.1678609488257905 0 -0.1678609488257905 4.2808161982993349 0 0 0 0 8.4298434123902553 4.9621345482009502 0 4.9621345482009502 2.630769129473947 0 0 0 0 28.436555279102777 1.117661067020169 0 1.117661067020169 1.2845835642342465 0 0 0 0 0.60320960845461347 0.40961019045181501 0 0.40961019045181501 0.39061977121173241 0 0 0 0 0.68520842376101632 1.8728597538217926 0 1.8728597538217926 2.8732441051485966 0 0 0 0 2.9349459832226676 -0.66768752380477991 0 -0.66768752380477991 -0.15304562475095795 0 0 0 0 18.544282030989962 1.1758139747074381 0 1.1758139747074381 -0.44266762868234366 0 0 0 0 24.61019139171367 3.6021626265034499 0 3.6021626265034499 0.25037221837395407 0 0 0 0 21.702878774226974 2.814654317446454 0 2.814654317446454 -2.6597522924983963 0 0 0 0 14.001823534447079 6.3255907881815787 0 6.3255907881815787 -2.8553876529967845 0 0 0 0 539.13371375166025 -1146.7319100292777 0 -1146.7319100292777 1164.4411581823676 0 0 0 0 94.778235583435389 -474.95646749549201 0 -474.95646749549201 237.74768236089625 0 0 0 0 7.7887059263892162 -0.39025165467269574 0 -0.39025165467269574 2.7384912612309362 0 0 0 0 232.11682156306415 167.61900885138238 0 167.61900885138238 -14.947235194465406 0 0 0 0 1334.8744636335668 -888.65549210900303 0 -888.65549210900303 27.531609939903774 0 0 0 0 1215.4321931197992 -144.68137883883492 0 -144.68137883883492 -408.67848381370328 0 0 0 0 1953.4129433153248 -315.74568870090945 0 -315.74568870090945 -1251.2269242135203 0 0 0 0 1499.5706468235649 -597.34991542066064 0 -597.34991542066064 43.997332699958477 0 0 0 0 1187.0645213001735 -185.47876639798613 0 -185.47876639798613 38.86446945330745 0 0 0 0 1736.0161319397248 -204.10225085765066 0 -204.10225085765066 21.684182013401738 0 0 0 0 1546.0495912320062 -556.42797813640163 0 -556.42797813640163 79.8251268035078 0 0 0 0 1178.0910062974381 -539.35814945352513 0 -539.35814945352513 99.067752779921406 0 0 0 0 1499.6102714037668 -803.32256513917071 0 -803.32256513917071 268.77533311112131 0 0 0 0 34.752033151250288 0.87679366365870237 0 0.87679366365870237 -19.437131417052569 0 0 0 0 12.514246311013657 9.8214542044828033 0 9.8214542044828033 8.5825484527749438 0 0 0 0 51.453696461122149 -60.641942703583027 0 -60.641942703583027 20.790157464429967 0 0 0 0 16.538717122459119 -3.8009167511158743 0 -3.8009167511158743 -6.8121636492576112 0 0 0 0 27.417261501686482 37.222117632458094 0 37.222117632458094 -75.667461513175567 0 0 0 0 58.349798943704855 -28.640030173661899 0 -28.640030173661899 -81.630090536319585 0 0 0 0 -42.782697555272364 34.571965859637629 0 34.571965859637629 234.44266966811927 0 0 0 0 0.79229647857794161 -1.6399676484598813 0 -1.6399676484598813 -0.46234692936539301 0 0 0 0 -62.939525662299729 -106.94483202179495 0 -106.94483202179495 132.84411118068522 0 0 0 0 -1.0602618181199537 2.0730372867283 0 2.0730372867283 1.603149245134869 0 0 0 0 4.1768863887900958 2.7780826069818305 0 2.7780826069818305 4.4256153601200321 0 0 0 0 162.38248268906045 347.36765216079198 0 347.36765216079198 757.04941539082267 0 0 0 0 410.32404412098617 521.88298885436518 0 521.88298885436518 566.30850825978337 0 0 0 0 75.331896108391447 556.23468608992619 0 556.23468608992619 898.14691396875969 0 0 0 0 878.79307543360278 413.33694983587293 0 413.33694983587293 -129.82627958538168 0 0 0 0 1497.2242675118846 956.00647573105266 0 956.00647573105266 159.52722303032985 0 0 0 0 491.41664743197379 481.59803985768792 0 481.59803985768792 344.37858348204003 0 0 0 0 803.30021230909665 190.80566763314278 0 190.80566763314278 -108.02027071089259 0 0 0 0 845.54790487092225 369.05210538295722 0 369.05210538295722 -156.60361175713828 0 0 0 0 93.639606650674708 16.446274329634889 0 16.446274329634889 -44.376749954206389 0 0 0 0 326.82833350151679 139.87239314173627 0 139.87239314173627 10.233070036641948 0 0 0 0 386.45133529236182 265.24412300613574 0 265.24412300613574 92.194323122529596 0 0 0 0 223.33635486350386 1.1609815890123301 0 1.1609815890123301 -42.154868614082076 0 0 0 0 157.58257699340163 83.618830068918129 0 83.618830068918129 2.0932547788078182 0 0 0 0 126.59472314166783 110.75771815183737 0 110.75771815183737 49.864807417702082 0 0 0 0 3.6015520825257363 -2.9402434682160563 0 -2.9402434682160563 -15.537996292850346 0 0 0 0 -25.165948664453254 47.994572381820007 0 47.994572381820007 66.48944866075891 0 0 0 0 7.5027899425690388 -10.576663190645583 0 -10.576663190645583 7.7883582048248492 0 0 0 0 28.736381955027603 -35.439560264332044 0 -35.439560264332044 -65.891702605498722 0 0 0 0 -2.7923773431557493 -12.530649040677872 0 -12.530649040677872 -3.7827122963404918 0 0 0 0 -31.97554770221268 -27.734985037145407 0 -27.734985037145407 15.135453041350047 0 0 0 0 4.7299255939518394 -3.8266519936423933 0 -3.8266519936423933 -0.6933287098504326 0 0 0 0 4.1247935673397933 1.1355133680595273 0 1.1355133680595273 4.6243092207203063 0 0 0 0 11.620572847025414 -6.0564847318580028 0 -6.0564847318580028 -5.7065999506480907 0 0 0 0 120.18906449447184 92.835773110794435 0 92.835773110794435 -53.562903127808795 0 0 0 0 8.9762295227839779 -4.5299214702834014 0 -4.5299214702834014 -5.9018638165419155 0 0 0 0 5.0080441263849025 -82.160972516613924 0 -82.160972516613924 20.342692599677918 0 0 0 0 22.717234066420588 -0.3541873221240408 0 -0.3541873221240408 -2.5526548149792916 0 0 0 0 22.701702006695086 -0.41365925541620641 0 -0.41365925541620641 -2.7362366137697451 0 0 0 0 7.2481235186262438 -0.070674119225555998 0 -0.070674119225555998 -0.41353608136921594 0 0 0 0 13.628235454306063 -1.2067294920986407 0 -1.2067294920986407 -2.6783155214107435 0 0 0 0 2.851560198241275 1.5376378386244056 0 1.5376378386244056 -0.55858610804523723 0 0 0 0 4.9983122714428365 1.0444701213570933 0 1.0444701213570933 -0.31456972628914975 0 0 0 0 1.9132503088519179 0.38442439176419851 0 0.38442439176419851 0.19949787174757533 0 0 0 0 9.580479939842462 -0.35913998791517088 0 -0.35913998791517088 -0.99440696141596163 0 0 0 0 491.95621523761747 -166.52737028358874 0 -166.52737028358874 48.042742922898157 0 0 0 0 99.276160368055571 85.389718271258033 0 85.389718271258033 29.373235728378916 0 0 0 0 508.36893358931684 -89.416190863872345 0 -89.416190863872345 93.631375216492003 0 0 0 0 538.99804343025221 -43.160279890679561 0 -43.160279890679561 23.798222930272175 0 0 0 0 587.98516342402604 -109.2163448112065 0 -109.2163448112065 -22.313280200364574 0 0 0 0 586.54760421757464 -126.26949210315733 0 -126.26949210315733 19.071954488746997 0 0 0 0 174.59685243628292 -76.821828381065757 0 -76.821828381065757 63.632370598046577 0 0 0 0 584.90410236181287 8.5550172869237713 0 8.5550172869237713 -68.854738609086667 0 0 0 0 2.3824729052116669 -1.4997091601411272 0 -1.4997091601411272 -0.43988469653747875 0 0 0 0 751.65357610944443 -75.06288620845956 0 -75.06288620845956 -29.76436545039769 0 0 0 0 34.227942684050277 22.899483917562975 0 22.899483917562975 4.4026188102548076 0 0 0 0 0.96680229208426383 -1.0527083446857208 0 -1.0527083446857208 -0.19543910918037177 0 0 0 0 -57.323612349176983 33.489919621118588 0 33.489919621118588 49.448131513256612 0 0 0 0 668.39080738169696 -153.49131637766823 0 -153.49131637766823 11.639435518550499 0 0 0 0 668.21533069455791 -149.96623157548385 0 -149.96623157548385 18.071777841261792 0 0 0 0 671.71648123244813 -149.88004632746265 0 -149.88004632746265 8.3800451006686671 0 0 0 0 1116.7321771061074 -296.35811713979808 0 -296.35811713979808 49.180459878237116 0 0 0 0 671.83587928189354 -154.27556948901702 0 -154.27556948901702 4.3915551268153195 0 0 0 0 -62.224958209633222 -119.84994923550448 0 -119.84994923550448 338.31332295327377 0 0 0 0 918.89730734582167 131.87569799290355 0 131.87569799290355 25.219365153502167 0 0 0 0 3.1905925793798531 -3.1064923402083737 0 -3.1064923402083737 4.2304116291661567 0 0 0 0 282.33917231716532 35.544875495275107 0 35.544875495275107 55.005215019588377 0 0 0 0 363.13309123082126 -129.37227643934864 0 -129.37227643934864 203.11727773957318 0 0 0 0 484.75079225661489 -181.83953982128506 0 -181.83953982128506 85.677805433081915 0 0 0 0 628.19028345453171 -293.74534077416814 0 -293.74534077416814 156.79287967111947 0 0 0 0 501.76289734052102 -129.84366688539461 0 -129.84366688539461 69.073256717696722 0 0 0 0 512.14887721408604 -97.314962932863907 0 -97.314962932863907 28.616128578762499 0 0 0 0 508.72645610575387 -70.025192121199808 0 -70.025192121199808 179.70341792418418 0 0 0 0 556.1093750849509 -152.24086069498645 0 -152.24086069498645 96.177481224372343 0 0 0 0 584.54076458200018 -98.947760173775919 0 -98.947760173775919 -118.55516050361985 0 0 0 0 575.40034990082086 -99.223650403628625 0 -99.223650403628625 28.662189110247855 0 0 0 0 555.38188887824356 -180.77255016311702 0 -180.77255016311702 -20.524026325235241 0 0 0 0 554.75854175552513 -171.73092290843175 0 -171.73092290843175 -18.62612488569539 0 0 0 0 501.32252476836175 -159.16736564357822 0 -159.16736564357822 3.1091120956174336 0 0 0 0 536.55853686460023 -133.25633825465755 0 -133.25633825465755 4.773840952291323 0 0 0 0 511.86560203934732 -158.43596994159083 0 -158.43596994159083 5.0770207412894024 0 0 0 0 331.73919466175175 116.09942701801754 0 116.09942701801754 -45.855361067515673 0 0 0 0 -78.506211132172666 -53.444863146174789 0 -53.444863146174789 47.303110560654829 0 0 0 0 184.28645389841404 -31.198867664768898 0 -31.198867664768898 -27.600923670952284 0 0 0 0 243.87677290720507 -87.280904671855808 0 -87.280904671855808 -20.514972128831687 0 0 0 0 -10.643036632539406 20.007554052504872 0 20.007554052504872 48.089501114457335 0 0 0 0 500.13920708245689 -98.520934274503404 0 -98.520934274503404 -61.541967451182359 0 0 0 0 246.3452507692009 -71.734915600555951 0 -71.734915600555951 7.1789421399576554 0 0 0 0 132.99526112212379 -114.85264098947926 0 -114.85264098947926 82.222132704019941 0 0 0 0 437.97399738801323 -81.263022841565999 0 -81.263022841565999 -53.492606324693043 0 0 0 0 0.5750651709350425 2.2370424798188804 0 2.2370424798188804 5.7904666554570419 0 0 0 0 -34.340639291668595 44.646154431919001 0 44.646154431919001 26.317309453172612 0 0 0 0 18.63578343329209 64.22893928254507 0 64.22893928254507 55.847927207279554 0 0 0 0 -8.4621273988104804 9.4527643396345411 0 9.4527643396345411 -18.658881372853671 0 0 0 0 254.2586882049618 81.833318838750529 0 81.833318838750529 33.375909732422883 0 0 0 0 1.6881438134239133 -0.0051407762215402997 0 -0.0051407762215402997 1.04513726726592 0 0 0 0 394.81221833843097 -61.642364048605373 0 -61.642364048605373 -31.595228981766468 0 0 0 0 359.22379466837583 -95.512251735916948 0 -95.512251735916948 112.67973660396018 0 0 0 0 483.77269210905251 -94.898627727721632 0 -94.898627727721632 213.7818135696956 0 0 0 0 482.8017608041032 -107.07720316081492 0 -107.07720316081492 81.476128503377936 0 0 0 0 437.55213784001239 -92.918085970585892 0 -92.918085970585892 78.890922167274539 0 0 0 0 5.1064420099468304 -0.14656745375354807 0 -0.14656745375354807 0.064114207268471057 0 0 0 0 43.029719710041263 86.523809508446703 0 86.523809508446703 -127.47451366780673 0 0 0 0 285.94842235423221 -407.86019397006373 0 -407.86019397006373 443.93032151860916 0 0 0 0 715.34033921786067 -118.904870094145 0 -118.904870094145 45.418220792925581 0 0 0 0 682.46347093675422 -347.85718500837731 0 -347.85718500837731 80.869314894314584 0 0 0 0 85.060881560421876 -47.973885040096093 0 -47.973885040096093 95.535576683728152 0 0 0 0 212.01066787688433 -170.40334972314236 0 -170.40334972314236 126.82962218820654 0 0 0 0 13.428530552730081 -36.816943255671958 0 -36.816943255671958 66.513565559846029 0 0 0 0 134.47130703261519 -38.200574141303719 0 -38.200574141303719 22.357138886421012 0 0 0 0 -43.637168832268344 -4.788199170055691 0 -4.788199170055691 14.156734872173615 0 0 0 0 12.126837133664054 1.1630100471981089 0 1.1630100471981089 -0.49733969607360295 0 0 0 0 80.739642807234304 0.14917352607585599 0 0.14917352607585599 -164.45663912557461 0 0 0 0 65.719658257115043 -87.148916260049702 0 -87.148916260049702 -70.045387405293184 0 0 0 0 63.047384264570496 -86.655502210614515 0 -86.655502210614515 -0.30010012581840328 0 0 0 0 8.6980636519533618 -50.82668537873019 0 -50.82668537873019 49.547597157037956 0 0 0 0 -1.0747538311320124 -1.5844567965447189 0 -1.5844567965447189 -2.2657469868901408 0 0 0 0 -19.960585344262199 96.697055483404398 0 96.697055483404398 -198.83432844779861 0 0 0 0 -100.19661181467154 -88.021355210566625 0 -88.021355210566625 56.95492947192389 0 0 0 0 38.046512901644746 -191.18918143913311 0 -191.18918143913311 -247.8031994709271 0 0 0 0 129.74828367483838 -30.306244598732654 0 -30.306244598732654 -43.755095476533711 0 0 0 0 467.76011578854923 -191.79454609788169 0 -191.79454609788169 -121.55313939044008 0 0 0 0 521.91273716863452 -29.794334053706137 0 -29.794334053706137 -149.31116943063373 0 0 0 0 592.08818378742126 -289.32156192379512 0 -289.32156192379512 135.51723080541541 0 0 0 0 659.21214505908574 -246.01197007751705 0 -246.01197007751705 -56.237476885496449 0 0 0 0 584.68611710519826 -93.98939512163318 0 -93.98939512163318 -197.62308435513546 0 0 0 0 620.48249678141656 -169.92570579995225 0 -169.92570579995225 -65.26689459687114 0 0 0 0 560.74705908780516 6.917161270939431 0 6.917161270939431 15.383135942101859 0 0 0 0 145.38807370902305 -11.514504244806794 0 -11.514504244806794 -48.307357359829723 0 0 0 0 519.79861873089646 -201.18329968449285 0 -201.18329968449285 42.150018451836445 0 0 0 0 -61.370799405650814 -67.273872593728328 0 -67.273872593728328 198.10080829129657 0 0 0 0 530.31593161450905 -174.48423977163708 0 -174.48423977163708 131.22787775751186 0 0 0 0 3.0419339284108942 -1.6459125701111079 0 -1.6459125701111079 0.95635533177964793 0 0 0 0 534.23305910609042 94.171872817603571 0 94.171872817603571 -138.04122639620641 0 0 0 0 174.57722467292723 110.66412296287926 0 110.66412296287926 13.75559896204004 0 0 0 0 4.0263208871317504 -2.3119174406086995 0 -2.3119174406086995 0.86971042370886154 0 0 0 0 178.99216258332081 327.33983903925764 0 327.33983903925764 -110.97912242223769 0 0 0 0 83.839569291599446 -108.62912972012856 0 -108.62912972012856 -14.952109623233035 0 0 0 0 105.92545734128328 -84.795385552546293 0 -84.795385552546293 -256.9192931263774 0 0 0 0 6.4292297016982429 -4.2665091389056071 0 -4.2665091389056071 2.2749867319040593 0 0 0 0 -154.45731061305878 -176.02397755141158 0 -176.02397755141158 -41.073949089015045 0 0 0 0 175.67737902450654 -86.5798274130984 0 -86.5798274130984 106.90629673096015 0 0 0 0 -201.69603914420827 102.61228868641901 0 102.61228868641901 190.57245479794076 0 0 0 0 7.0806647104982403 -13.843685221392171 0 -13.843685221392171 101.63297365922469 0 0 0 0 100.64495034736501 57.622550560173394 0 57.622550560173394 117.90216979786459 0 0 0 0 -32.682866485874001 24.558764772148713 0 24.558764772148713 64.854494857700729 0 0 0 0 -183.97606220700868 -74.175683194085991 0 -74.175683194085991 96.710238644944951 0 0 0 0 91.160029557593589 105.55887954195251 0 105.55887954195251 -136.63863145748965 0 0 0 0 152.62157400144952 -95.555164335939679 0 -95.555164335939679 -220.93020301643344 0 0 0 0 77.111594930910087 -128.66102821681301 0 -128.66102821681301 23.02845109556452 0 0 0 0 110.8325022498866 -126.83859140992857 0 -126.83859140992857 20.238712055891554 0 0 0 0 103.2077094744152 -268.59713161939328 0 -268.59713161939328 185.58506201847715 0 0 0 0 -8.5046540413386538 -141.96698541620719 0 -141.96698541620719 112.93299236175312 0 0 0 0 18.029715292151195 -286.71473588206118 0 -286.71473588206118 371.37731128426145 0 0 0 0 406.98273840422917 -321.8871807700001 0 -321.8871807700001 122.64366001338176 0 0 0 0 652.79293504282168 -11.123538843009399 0 -11.123538843009399 -108.53826830531342 0 0 0 0 481.48670100043478 -327.63380175562042 0 -327.63380175562042 -52.568312704992778 0 0 0 0 2.5863816322003732 -1.7768247327040805 0 -1.7768247327040805 0.18572547590433652 0 0 0 0 338.23319221861857 -109.4187304133702 0 -109.4187304133702 -374.58281252258621 0 0 0 0 -63.744929889181094 41.333531804709821 0 41.333531804709821 -166.20505726134289 0 0 0 0 4.2877585447126449 -0.95135443703061218 0 -0.95135443703061218 -0.10204780093574917 0 0 0 0 160.37699497777589 -232.70872624066018 0 -232.70872624066018 30.501369155713306 0 0 0 0 722.90389583631895 -212.59365925729924 0 -212.59365925729924 -180.40108012932106 0 0 0 0 584.16179365495077 -52.811091485474172 0 -52.811091485474172 -273.70816009679385 0 0 0 0 13.781301601453833 -15.062757361516347 0 -15.062757361516347 -117.98296400620553 0 0 0 0 -28.328209602053903 -8.1804346886814301 0 -8.1804346886814301 -127.60064010954409 0 0 0 0 13.176358822281856 -25.101339047804309 0 -25.101339047804309 -179.80701463762932 0 0 0 0 13.80263070753972 -18.072735936283948 0 -18.072735936283948 -192.97424131060595 0 0 0 0 8.3325134562060441 -2.8849788827336909 0 -2.8849788827336909 0.4124426114536246 0 0 0 0 1.7009271433923594 -0.56608238859903171 0 -0.56608238859903171 -0.083655632145229336 0 0 0 0 -164.47345372644486 -75.883042384430553 0 -75.883042384430553 43.949833971245354 0 0 0 0 178.19130742019752 -49.370523484715932 0 -49.370523484715932 -236.13348435256052 0 0 0 0 1.0522427815367337 -62.228315512071731 0 -62.228315512071731 -128.17073609226733 0 0 0 0 5.5972223247856832 -2.9494113316657904 0 -2.9494113316657904 0.071573205665777739 0 0 0 0 182.48420026791018 -472.22750683050788 0 -472.22750683050788 227.76025689929614 0 0 0 0 -26.81222482861358 -206.94863213712028 0 -206.94863213712028 261.36575535032944 0 0 0 0 45.394569255237911 -184.05157532114919 0 -184.05157532114919 -251.49838004845705 0 0 0 0 -124.36947418610453 -76.932815899805405 0 -76.932815899805405 310.25738787760758 0 0 0 0 4.624554999732684 -4.5645173768955161 0 -4.5645173768955161 4.8879271857460678 0 0 0 0 577.90902949670271 153.37917503373046 0 153.37917503373046 12.565561419435653 0 0 0 0 559.43310420396278 55.582405781615591 0 55.582405781615591 -250.38351852804681 0 0 0 0 180.44244324089959 392.47790021204736 0 392.47790021204736 -107.06394496946359 0 0 0 0 -68.998902306044329 -98.751959927068583 0 -98.751959927068583 -9.9674900164600331 0 0 0 0 10.925637340970304 -13.221167757974642 0 -13.221167757974642 15.528921362761608 0 0 0 0 -12.4306389361318 -34.249489352898536 0 -34.249489352898536 -25.136642538567685 0 0 0 0 -59.789126304660385 -66.293181945134009 0 -66.293181945134009 4.3104762865472139 0 0 0 0 1.4993765757208166 -112.01024567527838 0 -112.01024567527838 -15.483929724956624 0 0 0 0 113.06133645041837 -97.772336445480221 0 -97.772336445480221 -76.316741333658115 0 0 0 0 49.445053533056125 -57.480325327933997 0 -57.480325327933997 -74.262598863908096 0 0 0 0 92.402521929815066 -21.733282799368851 0 -21.733282799368851 -75.032932008442913 0 0 0 0 -3.706519544844582 -4.1941056496243245 0 -4.1941056496243245 -6.5367920265234396 0 0 0 0 35.745135741145532 -0.39783508165623971 0 -0.39783508165623971 -71.900436037132749 0 0 0 0 33.361183794893122 -54.047983770004123 0 -54.047983770004123 -49.083476357066957 0 0 0 0 34.715285130826487 -33.34112089042992 0 -33.34112089042992 -37.503324756730308 0 0 0 0 37.829197269786278 -20.34924367305112 0 -20.34924367305112 -11.360573452733206 0 0 0 0 14.850358306399357 -49.184107973527261 0 -49.184107973527261 -50.137019031358932 0 0 0 0 15.884745678783474 -50.361671091915468 0 -50.361671091915468 -2.9332267734228026 0 0 0 0 7.6576459802033696 -34.581549655400352 0 -34.581549655400352 -26.937454291634822 0 0 0 0 12.658390278884752 -45.748959769594379 0 -45.748959769594379 -18.535065071511781 0 0 0 0 11.442199368228557 -46.236139855041472 0 -46.236139855041472 -12.84091097687724 0 0 0 0 0.82497737652779435 -12.087488025943705 0 -12.087488025943705 -5.1857820207334404 0 0 0 0 14.310414011193643 -49.333987699040449 0 -49.333987699040449 -12.48371981064156 0 0 0 0 17.896712464527809 -46.602704778764746 0 -46.602704778764746 -15.776973613855716 0 0 0 0 18.950447746909958 -40.387114720266197 0 -40.387114720266197 4.3104687548266156 0 0 0 0 15.10237419834084 -52.608730710103373 0 -52.608730710103373 -9.2473081767457188 0 0 0 0 12.888989395783938 -51.016962259538104 0 -51.016962259538104 -3.9642170600968711 0 0 0 0 79.045419194565056 -36.666461380381463 0 -36.666461380381463 -40.48161021223325 0 0 0 0 1.3829619449652455 -4.038103899599264 0 -4.038103899599264 2.6561504051151132 0 0 0 0 17.331648747949053 -2.0636470280847767 0 -2.0636470280847767 1.5370759372665477 0 0 0 0 2.879134152593906 5.8921212152629323 0 5.8921212152629323 21.363001578927424 0 0 0 0 9.3118442484268549 -3.4429156860742616 0 -3.4429156860742616 3.3808385181226051 0 0 0 0 56.791131951893476 38.84860977011158 0 38.84860977011158 102.84760160961764 0 0 0 0 1.7975186273718862 -4.6088438615270784 0 -4.6088438615270784 4.4140233577967471 0 0 0 0 434.39875865611612 -144.30846274109263 0 -144.30846274109263 -247.11165594545446 0 0 0 0 865.01307831437043 286.14444355292676 0 286.14444355292676 178.96392739223847 0 0 0 0 578.59672590604168 -444.28820361518319 0 -444.28820361518319 345.17599921531382 0 0 0 0 479.91346809354218 -189.53102007346115 0 -189.53102007346115 136.27399711475391 0 0 0 0 -112.30911629360702 757.17269264625565 0 757.17269264625565 -360.89494038041084 0 0 0 0 7.0602140583106134 3.2886033168135831 0 3.2886033168135831 1.1273351496074735 0 0 0 0 1574.3601846613274 -616.02878628260441 0 -616.02878628260441 275.26508663691789 0 0 0 0 678.0573501355284 466.22031929900413 0 466.22031929900413 -279.76222794642035 0 0 0 0 1087.8027181506623 52.401229459140495 0 52.401229459140495 -291.00958720212111 0 0 0 0 -220.41628861702702 -331.87923461729406 0 -331.87923461729406 356.70481348538306 0 0 0 0 12.491973668076195 -18.941450203125861 0 -18.941450203125861 22.34419932096403 0 0 0 0 33.480995106834598 347.25897531380633 0 347.25897531380633 567.0063692263102 0 0 0 0 -307.71178795442393 -49.765013732435364 0 -49.765013732435364 585.73746607961584 0 0 0 0 1109.1371296350553 524.92700523674171 0 524.92700523674171 194.81644505402437 0 0 0 0 581.24867295333388 -19.093494234157333 0 -19.093494234157333 25.218923600520611 0 0 0 0 365.0906022513791 107.31687959383089 0 107.31687959383089 12.468653864147427 0 0 0 0 385.69095540865237 -63.924536541965381 0 -63.924536541965381 -49.244517007940885 0 0 0 0 382.00616555324632 -94.798218040568599 0 -94.798218040568599 -0.42414527407481728 0 0 0 0 317.71210689506916 -107.70443419067851 0 -107.70443419067851 4.09322507487434 0 0 0 0 428.50739307766707 -113.03411044188215 0 -113.03411044188215 3.6944171053387436 0 0 0 0 371.80744467672594 -63.111189746879063 0 -63.111189746879063 61.954995692021839 0 0 0 0 632.37854516629886 -26.901530004877714 0 -26.901530004877714 53.939906079635875 0 0 0 0 438.01078888021948 -171.58222427911733 0 -171.58222427911733 91.441038599591593 0 0 0 0 437.24887241074526 -100.16406376897956 0 -100.16406376897956 60.11400480872544 0 0 0 0 687.61558269893067 -177.60869525269572 0 -177.60869525269572 83.470884945434591 0 0 0 0 752.1351002371498 -20.025127693872378 0 -20.025127693872378 -66.542166436085608 0 0 0 0 17.97501302891942 39.940584605388949 0 39.940584605388949 64.158195080785845 0 0 0 0 591.88643621844858 36.06992073178094 0 36.06992073178094 -42.200852615862459 0 0 0 0 1.6578644486597227 0.52340737171897977 0 0.52340737171897977 0.0051836419781459142 0 0 0 0 -7.8036338568799692 -12.37278524546241 0 -12.37278524546241 18.495476694566378 0 0 0 0 11.512396264368425 -10.47959184487209 0 -10.47959184487209 9.4223440481720822 0 0 0 0 18.949770674538968 -42.541805379004302 0 -42.541805379004302 -7.4740031620412992 0 0 0 0 51.965167889362419 -44.58442077816153 0 -44.58442077816153 -14.848352062921549 0 0 0 0 16.448378273338676 -6.74139933558763 0 -6.74139933558763 -12.121486152761463 0 0 0 0 73.039188708426082 -10.947805438819614 0 -10.947805438819614 -16.964511963736186 0 0 0 0 -7.5069787785388371 -14.393054512301191 0 -14.393054512301191 32.133756383955415 0 0 0 0 -3.230991261240888 -37.177241486902176 0 -37.177241486902176 19.397423633316066 0 0 0 0 7.6671682002690051 -9.409872347246873 0 -9.409872347246873 7.4323205909127221 0 0 0 0 67.563784287051021 38.732697889535302 0 38.732697889535302 25.705625253524886 0 0 0 0 109.61033104169474 -10.426891456489443 0 -10.426891456489443 2.2767952703939045 0 0 0 0 -3.7037335228642405 13.738612377533514 0 13.738612377533514 16.129783285788108 0 0 0 0 1.599789149136166 -2.7829462615377292 0 -2.7829462615377292 -1.4190596921264831 0 0 0 0 93.646552103033628 -20.092219341996042 0 -20.092219341996042 -10.695425459216494 0 0 0 0 76.399379735334151 -55.287094922296205 0 -55.287094922296205 -6.67132583195189 0 0 0 0 155.75444239743774 -12.213007619183145 0 -12.213007619183145 -19.317502425989574 0 0 0 0 233.01904213112357 25.11716865322569 0 25.11716865322569 -15.338281432118947 0 0 0 0 263.16354682000838 -73.056168018314025 0 -73.056168018314025 -54.467856751100499 0 0 0 0 289.21548859864197 -53.971670071181052 0 -53.971670071181052 -45.882595224033196 0 0 0 0 325.3520610148862 -100.6741864810233 0 -100.6741864810233 -50.092192698288727 0 0 0 0 275.36176034872005 -53.926048231127197 0 -53.926048231127197 -63.852127749030615 0 0 0 0 278.60259599117489 -79.198629351972272 0 -79.198629351972272 -57.003921972372154 0 0 0 0 211.42384797285195 -85.315872509170163 0 -85.315872509170163 -57.907012874656289 0 0 0 0 270.62126764151799 -68.32027732749026 0 -68.32027732749026 -69.843885371483964 0 0 0 0 187.69440673106061 -94.032721355226315 0 -94.032721355226315 -22.15423260971022 0 0 0 0 297.71310207465592 -73.346782847997176 0 -73.346782847997176 -53.198150032196168 0 0 0 0 268.54306636971705 -64.156946326445592 0 -64.156946326445592 -48.016699340762273 0 0 0 0 312.96916126491669 -58.820152435258308 0 -58.820152435258308 -40.048726744726196 0 0 0 0 249.25650484930884 -100.90103154301272 0 -100.90103154301272 -25.29427187733296 0 0 0 0 321.06076230578401 -128.56008439757073 0 -128.56008439757073 -24.851429934033376 0 0 0 0 399.47791847780354 -167.46078951747688 0 -167.46078951747688 -10.395039708861532 0 0 0 0 300.18127395064494 -206.00708963886586 0 -206.00708963886586 12.026042716906886 0 0 0 0 340.93298760101789 -125.34155478467122 0 -125.34155478467122 -25.697250294008199 0 0 0 0 354.06075478129287 -76.717123636904972 0 -76.717123636904972 -36.062084659509765 0 0 0 0 432.56616554857465 -59.958311889051856 0 -59.958311889051856 -45.542004685025404 0 0 0 0 262.37504547673961 -212.47982790204026 0 -212.47982790204026 8.8867900486177405 0 0 0 0 288.02506231168081 -195.98317923625223 0 -195.98317923625223 16.110221792474363 0 0 0 0 268.70077759521701 -196.67883688175812 0 -196.67883688175812 21.32840228747591 0 0 0 0 282.53693461028524 -207.43517503053704 0 -207.43517503053704 18.119051003601726 0 0 0 0 219.84874242584374 -175.27134551606315 0 -175.27134551606315 9.8477710241774048 0 0 0 0 278.1098134415879 -221.73206117736763 0 -221.73206117736763 14.267146896625832 0 0 0 0 238.15852948233805 -226.42770957611583 0 -226.42770957611583 26.449597998155468 0 0 0 0 384.03889325363343 -303.77726882141371 0 -303.77726882141371 67.215269030887399 0 0 0 0 185.34763794891336 -157.49487876452778 0 -157.49487876452778 -15.958892398279431 0 0 0 0 256.32610672325779 -166.20338379061462 0 -166.20338379061462 -17.728304052352939 0 0 0 0 -68.868174359684417 -38.339541977774445 0 -38.339541977774445 8.0636440529518723 0 0 0 0 117.12983548794182 -47.567708392781128 0 -47.567708392781128 -19.074649113812484 0 0 0 0 0.18089214979376322 0.067753971530120083 0 0.067753971530120083 -0.79146872906554488 0 0 0 0 354.9094099794238 -294.03631005419732 0 -294.03631005419732 82.742316271230493 0 0 0 0 434.60432720360677 -398.13812619308464 0 -398.13812619308464 158.68183863621061 0 0 0 0 768.24006517880298 -220.67078160483118 0 -220.67078160483118 8.7468975699142675 0 0 0 0 423.9590076681734 -60.23421852281939 0 -60.23421852281939 101.5658167796355 0 0 0 0 509.77360607042647 -7.2243109249133113 0 -7.2243109249133113 133.66853860312995 0 0 0 0 566.61178893635406 -174.47651650391668 0 -174.47651650391668 -99.709518567289706 0 0 0 0 393.48529125486311 -102.55873563243867 0 -102.55873563243867 -100.7426620188144 0 0 0 0 363.58126635752342 -187.55336408732808 0 -187.55336408732808 -11.453773628470458 0 0 0 0 413.61475084125595 -231.66112925792845 0 -231.66112925792845 20.324257444012545 0 0 0 0 299.17593560893511 -148.57862387818511 0 -148.57862387818511 -21.993769277929374 0 0 0 0 400.02098359357296 -175.90829577319957 0 -175.90829577319957 -25.392863538701874 0 0 0 0 308.92035287752515 -57.340345545553987 0 -57.340345545553987 -67.600115912014076 0 0 0 0 396.7508395803834 -78.636933530016194 0 -78.636933530016194 -62.996444559097711 0 0 0 0 322.61023402595765 25.255614101465227 0 25.255614101465227 -78.828516497567534 0 0 0 0 341.43064056070853 -26.221253162902656 0 -26.221253162902656 -38.224499882976261 0 0 0 0 313.95401951776694 -69.928989349552126 0 -69.928989349552126 -42.98285036324296 0 0 0 0 194.20441971903892 -42.777229490442096 0 -42.777229490442096 -20.1440054379309 0 0 0 0 271.76817015479537 -62.882028367565738 0 -62.882028367565738 -15.775866339948834 0 0 0 0 219.35238011474576 36.682445054324944 0 36.682445054324944 -18.425902755956031 0 0 0 0 281.73863611716661 33.540620291496225 0 33.540620291496225 -18.888197075646985 0 0 0 0 236.05651244999535 -12.078248696207311 0 -12.078248696207311 -39.294322774696184 0 0 0 0 172.27944030527942 -44.492395905335115 0 -44.492395905335115 0.68315683766195434 0 0 0 0 120.4382759186883 60.829274990097474 0 60.829274990097474 -21.403515320185534 0 0 0 0 202.93944021454627 -51.996857374115507 0 -51.996857374115507 -11.889926187967831 0 0 0 0 298.22572927600709 -150.32565599853262 0 -150.32565599853262 -16.964028050663956 0 0 0 0 196.44941097211631 -147.23273142263952 0 -147.23273142263952 5.71573246846242 0 0 0 0 297.21086324089151 -61.073787191311112 0 -61.073787191311112 1.9804993347290747 0 0 0 0 -1.1673300911363427 1.2186663503142139 0 1.2186663503142139 -1.4443718964566261 0 0 0 0 -66.235417424722414 -20.584576135771883 0 -20.584576135771883 51.107175231520159 0 0 0 0 50.610784804875948 72.905199893380541 0 72.905199893380541 62.052894929713375 0 0 0 0 306.40050292074557 73.057428576485108 0 73.057428576485108 13.229224857014742 0 0 0 0 406.90297637711046 5.9134011739117796 0 5.9134011739117796 37.132743793974441 0 0 0 0 532.15203305487012 108.69275729245737 0 108.69275729245737 33.194866191945039 0 0 0 0 289.99743741795101 177.57805678388695 0 177.57805678388695 404.19512680024491 0 0 0 0 827.19464055320714 -417.85847405819641 0 -417.85847405819641 432.94882631306416 0 0 0 0 362.63653869807604 76.003418228439841 0 76.003418228439841 36.556007578296885 0 0 0 0 217.54796962672481 121.34440678287183 0 121.34440678287183 -76.870752532323706 0 0 0 0 302.95116333701299 106.01143069527188 0 106.01143069527188 -74.870955669664909 0 0 0 0 254.26463445767877 118.33657705399901 0 118.33657705399901 -59.309340742655877 0 0 0 0 321.84847768248801 85.149501126716586 0 85.149501126716586 -36.851282798948205 0 0 0 0 390.67053278070671 73.410694230455192 0 73.410694230455192 -49.089834844347934 0 0 0 0 354.37975950328837 36.91329227394931 0 36.91329227394931 18.463020529328787 0 0 0 0 279.81048842243399 43.608129344465169 0 43.608129344465169 -50.772615194603077 0 0 0 0 371.70724890679594 60.999978950918376 0 60.999978950918376 -13.327889060257803 0 0 0 0 379.38979992546956 55.862983107032505 0 55.862983107032505 -50.192700019980293 0 0 0 0 362.36777928413903 33.968394676712137 0 33.968394676712137 -67.376105186437599 0 0 0 0 345.09299786316387 34.037215282394072 0 34.037215282394072 -105.26721375502876 0 0 0 0 249.82282195710104 -12.952983174753854 0 -12.952983174753854 -91.408487265791308 0 0 0 0 329.37199655050063 43.264609295315381 0 43.264609295315381 -69.988222665619958 0 0 0 0 325.47642398769312 29.392227747552525 0 29.392227747552525 -82.391966282965157 0 0 0 0 325.59223998523157 41.120253403621746 0 41.120253403621746 -51.5755144588843 0 0 0 0 330.87276761321118 37.031049030264057 0 37.031049030264057 -86.84321694764003 0 0 0 0 414.04177727215529 -0.12647546060737902 0 -0.12647546060737902 -113.0884031928468 0 0 0 0 331.29583077228017 32.176978789528533 0 32.176978789528533 -88.695185451602086 0 0 0 0 333.6323057856207 12.259146811392043 0 12.259146811392043 -117.35888098585224 0 0 0 0 112.12098880827307 -42.068276759901664 0 -42.068276759901664 14.204271456066749 0 0 0 0 -87.646482439531155 21.568854390958506 0 21.568854390958506 6.0244902789202115 0 0 0 0 221.13203523242919 -240.65627104646126 0 -240.65627104646126 -374.97296459707218 0 0 0 0 142.86771973191753 169.5827092994877 0 169.5827092994877 -307.17228770454437 0 0 0 0 407.06821694132486 -133.75482111696999 0 -133.75482111696999 -164.34866572978657 0 0 0 0 329.17300115804665 52.298414363999882 0 52.298414363999882 -119.1065056627707 0 0 0 0 289.80844369590704 -59.214274737709957 0 -59.214274737709957 0.63185443719521572 0 0 0 0 330.02167732850057 -129.19569568155771 0 -129.19569568155771 163.42188643880922 0 0 0 0 219.47533904088414 -249.80459717938402 0 -249.80459717938402 77.157164350781159 0 0 0 0 87.878713595747286 -30.680371255496198 0 -30.680371255496198 128.4798979458983 0 0 0 0 279.45014787497485 -196.81761241182187 0 -196.81761241182187 176.19248053605725 0 0 0 0 450.68204103119206 -250.18721889680296 0 -250.18721889680296 84.993353922082747 0 0 0 0 348.32900816095571 -146.51874766388528 0 -146.51874766388528 137.1079754712573 0 0 0 0 366.95009738049441 -283.10759760347196 0 -283.10759760347196 390.69339730783145 0 0 0 0 1.555311085194635 -2.5763963089011348 0 -2.5763963089011348 3.7351612705897264 0 0 0 0 31.738880644896199 -101.57851724386114 0 -101.57851724386114 339.31604723965484 0 0 0 0 918.11270019088261 -68.397920089297372 0 -68.397920089297372 9.1935004196673162 0 0 0 0 342.78612658884231 -15.326133555136039 0 -15.326133555136039 10.648490819811723 0 0 0 0 452.04504510948391 -257.11513470503485 0 -257.11513470503485 79.440730055669178 0 0 0 0 742.81578290632388 -393.52215228482942 0 -393.52215228482942 143.32604581287637 0 0 0 0 470.00979309933518 -201.94516638794892 0 -201.94516638794892 15.739603423645349 0 0 0 0 595.50386878364634 -237.61623422233436 0 -237.61623422233436 24.92331564477422 0 0 0 0 12.17559856324533 -16.879002826787939 0 -16.879002826787939 1.2042139401987697 0 0 0 0 4.1814227821487862 -1.0178035235602731 0 -1.0178035235602731 0.019609674309775116 0 0 0 0 35.860889029419013 -18.317141369897058 0 -18.317141369897058 -0.90735175797988177 0 0 0 0 22.219214195023596 -0.67776799073766369 0 -0.67776799073766369 2.2531933359778122 0 0 0 0 0.77387660723377927 0.29441652168994281 0 0.29441652168994281 -0.33302822478431349 0 0 0 0 173.58637722647291 -23.379177254109436 0 -23.379177254109436 4.0591912859317745 0 0 0 0 472.06131883271382 -185.30749729904369 0 -185.30749729904369 32.234919591553307 0 0 0 0 402.7036867922061 -165.67277900158558 0 -165.67277900158558 26.882457271722615 0 0 0 0 400.23090570233444 -269.70937098874691 0 -269.70937098874691 59.23853498659355 0 0 0 0 513.50105810521654 -260.07760835703687 0 -260.07760835703687 32.786082238454583 0 0 0 0 528.77422398385784 -180.07462468989269 0 -180.07462468989269 19.640484580959537 0 0 0 0 472.94569937396773 -168.76811998909216 0 -168.76811998909216 47.643023756735602 0 0 0 0 390.54643132570163 -156.42284027438529 0 -156.42284027438529 36.72994323196167 0 0 0 0 482.02943022599447 -255.01924589268833 0 -255.01924589268833 35.028306178564435 0 0 0 0 450.69945419633541 -230.17868187535254 0 -230.17868187535254 69.8483166593644 0 0 0 0 337.14704768925731 -95.262798003340151 0 -95.262798003340151 -17.626094993545621 0 0 0 0 420.85611223594788 -125.62662411108687 0 -125.62662411108687 38.314378408076209 0 0 0 0 350.50125240198486 -69.187458864308269 0 -69.187458864308269 17.919552162345781 0 0 0 0 498.09860068096259 -121.44789906181316 0 -121.44789906181316 -11.910526652745148 0 0 0 0 221.72366665784921 -67.078921446477807 0 -67.078921446477807 47.679165546033573 0 0 0 0 236.86079376479393 0.146862461508249 0 0.146862461508249 -17.472456508626237 0 0 0 0 107.61427115534207 71.93153729469168 0 71.93153729469168 50.930113668630838 0 0 0 0 108.46036483785406 -52.92232267436637 0 -52.92232267436637 3.4848113335142443 0 0 0 0 7.1048064945116813 9.2746883561347317 0 9.2746883561347317 10.411842220742955 0 0 0 0 -36.26701997040891 41.384618893144989 0 41.384618893144989 88.045698302668825 0 0 0 0 -46.350264530203276 33.324099414945749 0 33.324099414945749 36.42588345368813 0 0 0 0 0.44854842390803107 -1.0769265492832663 0 -1.0769265492832663 0.6748586583261007 0 0 0 0 -6.8987920320550984 2.8958091890664264 0 2.8958091890664264 -1.1935082132104071 0 0 0 0 5.7446140988276966 -13.928072787192832 0 -13.928072787192832 59.518268632857598 0 0 0 0 -8.709245692280092 -82.477268050654857 0 -82.477268050654857 -21.922220961896983 0 0 0 0 98.785638273735003 0.14993743023509865 0 0.14993743023509865 39.456755820548096 0 0 0 0 -67.480803319496772 14.623423685253556 0 14.623423685253556 183.09708811636574 0 0 0 0 84.767403948274477 50.408623824111714 0 50.408623824111714 -45.877374047575287 0 0 0 0 -10.094466657101293 97.548669298412108 0 97.548669298412108 -96.525619516103006 0 0 0 0 6.6711618960124319 7.5541243044004993 0 7.5541243044004993 7.2078212817232519 0 0 0 0 77.308939904331055 38.913780479657021 0 38.913780479657021 22.170632957845555 0 0 0 0 266.96985767920796 6.968676055716287 0 6.968676055716287 -9.0740940902114744 0 0 0 0 132.83313651618755 -76.491478102546978 0 -76.491478102546978 39.847263810668892 0 0 0 0 4.7638481209274133 5.1584994006892995 0 5.1584994006892995 4.4122627934128582 0 0 0 0 229.38175376524032 -37.103518194480841 0 -37.103518194480841 -13.013379120649802 0 0 0 0 -111.66843436116324 143.03030971751565 0 143.03030971751565 -110.35507427391607 0 0 0 0 -52.773656723407839 80.353672653606736 0 80.353672653606736 -102.48111639450052 0 0 0 0 -108.53440282726206 145.498109927077 0 145.498109927077 -115.78698062008846 0 0 0 0 -108.72318155493122 134.0701243299518 0 134.0701243299518 -112.29330507117663 0 0 0 0 -95.256876988663862 138.1840442424525 0 138.1840442424525 -123.65195828845418 0 0 0 0 -109.95661108690365 128.58029718607645 0 128.58029718607645 -131.73112749349934 0 0 0 0 -110.80957110394638 151.89308684648381 0 151.89308684648381 -133.75086820985632 0 0 0 0 527.85584682503395 -127.71952210912383 0 -127.71952210912383 17.507697264008613 0 0 0 0 229.67916199814164 -41.842672252422076 0 -41.842672252422076 40.377111692406515 0 0 0 0 334.02455309138168 -99.01934069770391 0 -99.01934069770391 13.499111214795448 0 0 0 0 342.75894291011718 -39.242390452454174 0 -39.242390452454174 42.154107795018568 0 0 0 0 477.32006497081056 15.096415981428322 0 15.096415981428322 36.878485568081942 0 0 0 0 262.90578731559526 -12.634434007088998 0 -12.634434007088998 45.303143872542023 0 0 0 0 -265.03931037266557 140.6186902437546 0 140.6186902437546 41.762687872041141 0 0 0 0 263.11107256079231 110.17213022938714 0 110.17213022938714 39.21129609148727 0 0 0 0 -199.22826705221541 255.48915943467614 0 255.48915943467614 -130.64597720187908 0 0 0 0 1.726377316123191 1.8192521452839276 0 1.8192521452839276 1.6550543325044016 0 0 0 0 140.22359665761087 324.67890406608694 0 324.67890406608694 -155.60738791411745 0 0 0 0 280.73214450254909 -102.56257961112601 0 -102.56257961112601 -314.78673737309191 0 0 0 0 -34.186824510877443 -93.826700508239767 0 -93.826700508239767 -184.3873620767697 0 0 0 0 4.0028409680617365 1.9828096957194052 0 1.9828096957194052 -5.3105091843099252 0 0 0 0 -10.961535333710344 63.38186997138353 0 63.38186997138353 -32.369369116811669 0 0 0 0 31.035789956142356 16.086560487519176 0 16.086560487519176 2.7163041357270825 0 0 0 0 9.9037317001548217 38.387702309103858 0 38.387702309103858 -57.439286298092384 0 0 0 0 -20.122909792349674 59.850518945757656 0 59.850518945757656 16.035257968628883 0 0 0 0 -15.73727129650797 27.633567868790664 0 27.633567868790664 12.378654979309903 0 0 0 0 2.693056766911468 37.150139765379151 0 37.150139765379151 -4.2640506155651252 0 0 0 0 1.4772162775504709 20.922130663864415 0 20.922130663864415 -5.2028478969509555 0 0 0 0 356.37387893327104 13.834920446975005 0 13.834920446975005 33.876128992794094 0 0 0 0 249.95437062637575 -105.48264454251381 0 -105.48264454251381 186.99620003649639 0 0 0 0 308.58887247923849 -26.978822313358648 0 -26.978822313358648 34.000151372046503 0 0 0 0 42.616085787740303 1.375936361655171 0 1.375936361655171 79.718931842462666 0 0 0 0 -13.240630127838813 41.009620868391039 0 41.009620868391039 63.513765389842973 0 0 0 0 80.371243674657308 43.933827707981067 0 43.933827707981067 20.789386368107749 0 0 0 0 8.0754767444414028 65.580258805961989 0 65.580258805961989 41.039521566741399 0 0 0 0 36.001458886537876 124.90354982996382 0 124.90354982996382 -103.89450969450957 0 0 0 0 -16.65387022728828 58.788254786432276 0 58.788254786432276 -27.119776052675746 0 0 0 0 51.532573741300439 -8.8414163157062831 0 -8.8414163157062831 52.351295970308286 0 0 0 0 129.24731051713752 43.511564666542739 0 43.511564666542739 -43.428416895222313 0 0 0 0 54.930403901013051 18.059689562517576 0 18.059689562517576 -133.88725533150733 0 0 0 0 28.454578989236403 12.75697005366627 0 12.75697005366627 3.8473956935868858 0 0 0 0 -18.383288953571537 -40.747809195714225 0 -40.747809195714225 -0.099705766182751177 0 0 0 0 69.855194064606621 69.260749594335167 0 69.260749594335167 -143.89382693406606 0 0 0 0 7.175684916323533 -0.44096427487376033 0 -0.44096427487376033 -3.0753480607580168 0 0 0 0 15.489565512478293 172.75052022521106 0 172.75052022521106 -266.34597293345064 0 0 0 0 32.744655017601112 12.401590803087334 0 12.401590803087334 4.2079672613186281 0 0 0 0 -170.42640765427359 143.46807458702696 0 143.46807458702696 -107.36538583602032 0 0 0 0 -71.0130784677458 162.34408626691271 0 162.34408626691271 -106.25839318825024 0 0 0 0 -82.18629456873532 137.0347504765931 0 137.0347504765931 -119.93916091824849 0 0 0 0 -89.285248155827958 130.22748795066465 0 130.22748795066465 -113.12598620193398 0 0 0 0 220.1091074720207 23.210608323436134 0 23.210608323436134 -73.8167568986307 0 0 0 0 -70.081655614089868 107.92231723558746 0 107.92231723558746 -113.94907322746167 0 0 0 0 13.608716732090659 8.2196130801696015 0 8.2196130801696015 2.6287965129854962 0 0 0 0 4.5836881678515056 11.308711284465311 0 11.308711284465311 2.8610604458603532 0 0 0 0 6.0809806888956359 4.5846180698413797 0 4.5846180698413797 2.2018400107739482 0 0 0 0 0.48572484987016651 22.565524330720052 0 22.565524330720052 79.659692169073679 0 0 0 0 1036.550081517089 -481.40661979487578 0 -481.40661979487578 157.80816224454381 0 0 0 0 3.894588226119609 0.52609293931193868 0 0.52609293931193868 -0.058165018442768113 0 0 0 0 300.70118067847216 -279.0332940165016 0 -279.0332940165016 128.44051645521756 0 0 0 0 516.62060154046958 -49.883826377032847 0 -49.883826377032847 -79.322234555986768 0 0 0 0 636.93865256730896 -207.85636960580575 0 -207.85636960580575 -55.386725283782823 0 0 0 0 953.43278038281278 -145.21289901788859 0 -145.21289901788859 -88.187459982744201 0 0 0 0 33.755663024894602 132.33941785968733 0 132.33941785968733 -134.22170321231999 0 0 0 0 146.72907509529614 -111.34533590814664 0 -111.34533590814664 51.238796427792522 0 0 0 0 280.49947554006224 -98.647970223960414 0 -98.647970223960414 11.992869030730105 0 0 0 0 279.27105996073806 -12.192497533525454 0 -12.192497533525454 -19.337957147519546 0 0 0 0 587.7565830503263 -82.50421249575902 0 -82.50421249575902 -3.8267728315768039 0 0 0 0 603.40499691165974 157.74353824497541 0 157.74353824497541 18.43788371456543 0 0 0 0 277.41348657599701 -24.441363145740539 0 -24.441363145740539 79.710663173238771 0 0 0 0 280.28680306049864 -33.114181424804684 0 -33.114181424804684 78.800686354490267 0 0 0 0 1039.6621719916766 213.40546224103468 0 213.40546224103468 -264.72037990083453 0 0 0 0 1500.1527820811134 344.31305981951465 0 344.31305981951465 -255.19733276354771 0 0 0 0 881.61862050743366 26.137776577768847 0 26.137776577768847 -126.97874883299446 0 0 0 0 983.75915369612267 -2.0531430605170442 0 -2.0531430605170442 -143.83465838740688 0 0 0 0 1500.300011777972 34.828356288561402 0 34.828356288561402 -278.562973638659 0 0 0 0 1157.1477453104035 -22.040138855834233 0 -22.040138855834233 -191.44790017307116 0 0 0 0 1164.229373197837 -68.217333758183273 0 -68.217333758183273 -165.85045296571343 0 0 0 0 923.12605606331181 -121.44937534999841 0 -121.44937534999841 -18.7028217925251 0 0 0 0 1054.6918077074188 -89.784053412567943 0 -89.784053412567943 237.06442025044427 0 0 0 0 1197.9714688559179 -13.257957002341275 0 -13.257957002341275 -8.2275685730909061 0 0 0 0 1054.886881957671 -265.82253064386623 0 -265.82253064386623 31.645156515995303 0 0 0 0 1497.2907188694498 -175.3659742720001 0 -175.3659742720001 -124.85308945743299 0 0 0 0 957.94260688576105 -337.29084709252174 0 -337.29084709252174 33.549311616473481 0 0 0 0 2.3681348702491567 -1.5400726731532011 0 -1.5400726731532011 0.018277524361283888 0 0 0 0 1499.981666888727 220.40068640173848 0 220.40068640173848 32.014196523291176 0 0 0 0 625.91411355263335 -229.19735455748383 0 -229.19735455748383 59.708150636674794 0 0 0 0 270.43181677010944 73.766459846077709 0 73.766459846077709 61.622077679643098 0 0 0 0 1122.8107686217336 -68.455999688154151 0 -68.455999688154151 -113.59542669712025 0 0 0 0 1044.8231675341558 -128.66375970090601 0 -128.66375970090601 -18.328951750654568 0 0 0 0 890.48621639717385 -226.4772913154215 0 -226.4772913154215 -15.505367321549834 0 0 0 0 1277.0114292486596 -461.56262783320892 0 -461.56262783320892 112.99667218669745 0 0 0 0 1156.7533881176278 -62.372168355351469 0 -62.372168355351469 -248.01108782662703 0 0 0 0 1094.7534175721594 -221.87885760042582 0 -221.87885760042582 -8.0894091273274853 0 0 0 0 942.44850846147529 -201.01954865358752 0 -201.01954865358752 -8.9672574736398261 0 0 0 0 901.63865971877294 -278.21782434966792 0 -278.21782434966792 129.99151894258901 0 0 0 0 7.815136985449989 6.9647478466603765 0 6.9647478466603765 1.7868588396267382 0 0 0 0 1088.4801632864519 2.9591993811641739 0 2.9591993811641739 -56.610357370475306 0 0 0 0 622.86880072140775 41.191444075530868 0 41.191444075530868 11.471321007994952 0 0 0 0 -123.16694007437036 129.35781302740003 0 129.35781302740003 -107.7045258264933 0 0 0 0 -103.52858072489471 119.5575561539784 0 119.5575561539784 -102.81793748271372 0 0 0 0 -168.61812075821399 196.93486654899553 0 196.93486654899553 -156.31834553142647 0 0 0 0 -148.82070061258855 134.3944222083166 0 134.3944222083166 -155.83980222449691 0 0 0 0 -330.06321814523471 373.58986934547579 0 373.58986934547579 -285.448013192914 0 0 0 0 -268.92280937198984 171.80666247536783 0 171.80666247536783 -133.02829163998308 0 0 0 0 -105.89521072333446 156.00078116365717 0 156.00078116365717 -212.18549048129876 0 0 0 0 -91.029868758294469 169.17364690981537 0 169.17364690981537 -159.93552207394555 0 0 0 0 -79.023607027495473 79.00996419946182 0 79.00996419946182 -102.99416874908934 0 0 0 0 -64.41910628003825 38.814261202870739 0 38.814261202870739 13.379128211607849 0 0 0 0 -59.035743476222706 93.67991190927205 0 93.67991190927205 -92.355343535983138 0 0 0 0 27.727438749801877 -42.049683859483366 0 -42.049683859483366 -48.224026989781123 0 0 0 0 9.5628953010589157 80.361466576020433 0 80.361466576020433 -46.707467244265672 0 0 0 0 -107.73708478014214 78.689479437374757 0 78.689479437374757 -44.843585457840845 0 0 0 0 9.7828687905312108 13.798771035268373 0 13.798771035268373 -85.535999378430915 0 0 0 0 -38.455127276240091 -21.546937746888489 0 -21.546937746888489 1.8580784235150531 0 0 0 0 3.0207365878048265 3.8381054404609785 0 3.8381054404609785 0.43185420209609759 0 0 0 0 -121.27648821218463 138.7440300525937 0 138.7440300525937 -299.75582537063337 0 0 0 0 -140.88770088077945 33.031631146251584 0 33.031631146251584 -95.727389276418194 0 0 0 0 1.97263066976857 0.70775951075712928 0 0.70775951075712928 -1.3264073821457141 0 0 0 0 1165.1183863707956 221.74420645752593 0 221.74420645752593 -58.103506884290368 0 0 0 0 706.51525893127291 268.33251701788379 0 268.33251701788379 -17.562004854464703 0 0 0 0 331.37746709450403 -89.493559094433465 0 -89.493559094433465 -419.57877797003994 0 0 0 0 1525.3689849583607 -228.88160895420469 0 -228.88160895420469 -427.79303357891666 0 0 0 0 1500.0515527494663 226.1428572288211 0 226.1428572288211 35.432029081470425 0 0 0 0 1200.1744226413412 69.645983485832133 0 69.645983485832133 -24.528244370830635 0 0 0 0 1251.7765286375143 132.18504630944585 0 132.18504630944585 35.422358085215592 0 0 0 0 1082.6163179702744 46.90556732128556 0 46.90556732128556 80.008916373738202 0 0 0 0 1502.9881253412132 222.42743841457371 0 222.42743841457371 32.972102991397769 0 0 0 0 947.38628635559144 -165.61225047423201 0 -165.61225047423201 43.376388677983584 0 0 0 0 961.32224267875245 -101.62508902803486 0 -101.62508902803486 108.4093721039614 0 0 0 0 3.6825919946539551 -3.9414812146278528 0 -3.9414812146278528 -2.1508355366630174 0 0 0 0 1278.5592883773788 -176.77604447259364 0 -176.77604447259364 -60.613204092627257 0 0 0 0 1707.6887825337271 -603.88304776153939 0 -603.88304776153939 -80.387355122277427 0 0 0 0 1773.9916378084163 -229.82382466928473 0 -229.82382466928473 -208.89120917106425 0 0 0 0 3.7868415594009939 2.3709898919990806 0 2.3709898919990806 0.47473842612738276 0 0 0 0 1307.0376768076167 -143.15852637598769 0 -143.15852637598769 -40.11052544071481 0 0 0 0 1448.8785426585164 -411.73090337034802 0 -411.73090337034802 -61.025220232314823 0 0 0 0 40.940571004797675 115.84424549532821 0 115.84424549532821 -443.34886275841632 0 0 0 0 1517.1364962496082 11.942010057097434 0 11.942010057097434 -88.231557517063948 0 0 0 0 1262.4541405071723 21.879098045031014 0 21.879098045031014 -65.649874552786969 0 0 0 0 1338.5866421221945 -211.28197812235339 0 -211.28197812235339 -39.42318393957229 0 0 0 0 656.43193717205577 -318.88232570703968 0 -318.88232570703968 20.708332702360387 0 0 0 0 1499.5222405732711 -187.81159448605143 0 -187.81159448605143 -129.17575189711528 0 0 0 0 1383.4984922484655 -72.182460328089689 0 -72.182460328089689 -207.44442383847539 0 0 0 0 913.85795333571514 9.9483582873724714 0 9.9483582873724714 -182.13505745319299 0 0 0 0 390.74428424968937 -125.28340585848295 0 -125.28340585848295 84.34518522421989 0 0 0 0 881.17929803896186 76.052956580391594 0 76.052956580391594 -59.758028664619843 0 0 0 0 158.42521023279551 -25.589041365977934 0 -25.589041365977934 53.926982934509425 0 0 0 0 164.34895337483204 22.693345537761168 0 22.693345537761168 109.6386249834095 0 0 0 0 110.35769088397137 -101.93457317075172 0 -101.93457317075172 148.90108501649718 0 0 0 0 390.16562075023467 -48.561400575904614 0 -48.561400575904614 70.900678128816764 0 0 0 0 16.874237643347442 131.70335284567932 0 131.70335284567932 16.437690896249819 0 0 0 0 249.64131852210721 -473.1185703335513 0 -473.1185703335513 116.75641899483384 0 0 0 0 67.797763692851731 -52.977437961705448 0 -52.977437961705448 -232.5906619782233 0 0 0 0 -153.29585893917829 290.20284395336705 0 290.20284395336705 433.75511724198788 0 0 0 0 19.465674535239771 -3.4628008365572889 0 -3.4628008365572889 0.14843167163629833 0 0 0 0 236.33872348194927 48.656234874107156 0 48.656234874107156 209.73760116716758 0 0 0 0 737.57276498555439 409.19867176350698 0 409.19867176350698 461.12655641377467 0 0 0 0 7.3320178118655548 -1.550811522936506 0 -1.550811522936506 0.59716399803867692 0 0 0 0 1362.9566487991651 -319.37889189987675 0 -319.37889189987675 -40.494558355200894 0 0 0 0 1500.4966086027453 -265.55818024214278 0 -265.55818024214278 381.54290159798705 0 0 0 0 1352.9025197299088 38.125992573966499 0 38.125992573966499 -13.626613581937363 0 0 0 0 1363.8781839748517 -513.17615691254457 0 -513.17615691254457 31.560938278850017 0 0 0 0 1497.0444154080178 -353.37375948824541 0 -353.37375948824541 -91.805669128388232 0 0 0 0 497.89403068648369 324.39069192604472 0 324.39069192604472 -558.8837669093823 0 0 0 0 415.93568865365262 -731.08908797615607 0 -731.08908797615607 75.013313667787429 0 0 0 0 320.01195505893338 794.31291621846174 0 794.31291621846174 708.85334256583883 0 0 0 0 9.4981449682171188 1.7911236620564086 0 1.7911236620564086 0.86943759260450326 0 0 0 0 1496.8738203655448 757.99773135623889 0 757.99773135623889 -28.120428127816361 0 0 0 0 166.56918143738039 20.188308600942385 0 20.188308600942385 -65.143080408709181 0 0 0 0 772.5112313226515 266.82235595447355 0 266.82235595447355 18.886738763097156 0 0 0 0 785.69535161855561 513.66150645798689 0 513.66150645798689 -108.26262259114512 0 0 0 0 161.28409629637281 -18.901795799107987 0 -18.901795799107987 245.21507049963134 0 0 0 0 221.17085539457184 71.977603929567351 0 71.977603929567351 158.25915707349196 0 0 0 0 443.63822848128621 31.323304606803944 0 31.323304606803944 103.88794198791911 0 0 0 0 443.97240449777382 145.59112670338152 0 145.59112670338152 24.921251070205106 0 0 0 0 139.94827298518294 -16.623465607518099 0 -16.623465607518099 105.07366244221731 0 0 0 0 246.4638127931612 323.86685522091068 0 323.86685522091068 148.0543451510222 0 0 0 0 98.933902151278744 115.33618065595783 0 115.33618065595783 -39.803341176124832 0 0 0 0 136.92701213659802 -127.92328663760952 0 -127.92328663760952 -83.137381615564607 0 0 0 0 18.043403350989095 3.9865126300133737 0 3.9865126300133737 -0.14857453022762512 0 0 0 0 -66.888567118687206 -71.5501297257494 0 -71.5501297257494 -136.57676536259913 0 0 0 0 155.93829457782704 28.346544966399257 0 28.346544966399257 -524.14212007689946 0 0 0 0 20.323497965577047 3.9566737944858295 0 3.9566737944858295 -0.1758909348238698 0 0 0 0 165.79585233265971 225.50846274884486 0 225.50846274884486 -354.7228777358701 0 0 0 0 -88.369321772719559 -23.367733338031314 0 -23.367733338031314 207.44344164799239 0 0 0 0 169.43463728264396 -98.848398318583577 0 -98.848398318583577 196.82060361515732 0 0 0 0 62.062481885192938 320.95916759754232 0 320.95916759754232 -314.86901220399574 0 0 0 0 -32.364452341746073 308.70819877395718 0 308.70819877395718 211.20831472171284 0 0 0 0 30.100504600502987 -5.6221508319532312 0 -5.6221508319532312 0.11121450805377819 0 0 0 0 47.345153480939189 -21.941039727736381 0 -21.941039727736381 -128.77079011028934 0 0 0 0 7.182443719448699 1.9373706929028192 0 1.9373706929028192 0.30180275729365735 0 0 0 0 -321.13362555597632 400.98176773725862 0 400.98176773725862 334.43043469283566 0 0 0 0 20.78692215317551 -27.751344303174079 0 -27.751344303174079 -74.333889897254949 0 0 0 0 18.856650728244858 -14.166147858018746 0 -14.166147858018746 -37.78620411709062 0 0 0 0 312.72274110277795 -224.60634900228951 0 -224.60634900228951 -183.59981985674301 0 0 0 0 574.07505275610856 -182.76747399243851 0 -182.76747399243851 -285.35367694034397 0 0 0 0 232.03801539290725 -148.61806909474831 0 -148.61806909474831 -155.99408393790929 0 0 0 0 346.29697615223995 -111.50476956435213 0 -111.50476956435213 -261.42659266037788 0 0 0 0 429.19073120084795 -7.7207354585446701 0 -7.7207354585446701 -160.81419737495696 0 0 0 0 275.39299769574063 -38.886744805302321 0 -38.886744805302321 -160.04565478251118 0 0 0 0 -25.20660558426971 94.883203815599558 0 94.883203815599558 -173.92655654086627 0 0 0 0 41.328837481330993 -211.87975129552018 0 -211.87975129552018 -117.34060480408415 0 0 0 0 236.64483541881782 -108.53247298713225 0 -108.53247298713225 -98.384663391407287 0 0 0 0 147.7095903412519 -41.501952599497372 0 -41.501952599497372 74.731673870058728 0 0 0 0 209.11743950774326 -233.5515119025543 0 -233.5515119025543 36.939571562382298 0 0 0 0 218.7888349348068 -141.77092958110393 0 -141.77092958110393 -106.76906027828231 0 0 0 0 218.80792733901762 -143.74380206555659 0 -143.74380206555659 51.657240548083678 0 0 0 0 281.96913277457497 -68.238876310269632 0 -68.238876310269632 -80.725403616842044 0 0 0 0 5.0665110895557746 2.1678267295200371 0 2.1678267295200371 0.26670381793691944 0 0 0 0 196.8122728717899 -66.773578221923685 0 -66.773578221923685 25.792019565331827 0 0 0 0 141.86415797336667 -154.82625464446807 0 -154.82625464446807 158.72434881565741 0 0 0 0 139.99952966260025 -129.95159928137673 0 -129.95159928137673 70.871139903804732 0 0 0 0 19.710174305189867 50.0399929588297 0 50.0399929588297 68.662314546182103 0 0 0 0 -0.77204188678342689 -10.37307981318337 0 -10.37307981318337 19.193006003420521 0 0 0 0 399.89207491499474 -78.286475204918077 0 -78.286475204918077 72.811997789706751 0 0 0 0 291.98490155534091 -298.87007513065765 0 -298.87007513065765 221.43962153208543 0 0 0 0 1.5827119480108394 0.67257235343997124 0 0.67257235343997124 0.61732357942724936 0 0 0 0 -14.651961284384015 30.240320394220362 0 30.240320394220362 -0.22080658454441959 0 0 0 0 0.19978549790645594 22.046069796857786 0 22.046069796857786 -14.80247415590406 0 0 0 0 -35.145887916539778 34.282130866742222 0 34.282130866742222 -21.078129166611689 0 0 0 0 -15.591731067897854 19.919070159793762 0 19.919070159793762 -4.6743868783084963 0 0 0 0 -13.441927774565556 14.839478238938881 0 14.839478238938881 3.5441449347114258 0 0 0 0 -1.7399637968628667 12.450021338375223 0 12.450021338375223 -10.520151509207835 0 0 0 0 -1.8885379544444731 14.012959164470828 0 14.012959164470828 -5.9805563907843293 0 0 0 0 90.022601458418649 -81.106103512241418 0 -81.106103512241418 87.258909838903435 0 0 0 0 0.41653037517815505 1.1922311541646504 0 1.1922311541646504 -0.26434771442101446 0 0 0 0 -4.9476185938074195 18.749759349221108 0 18.749759349221108 -19.688728652950658 0 0 0 0 1.2898671565972535 8.7638895766902678 0 8.7638895766902678 -4.3974340331740152 0 0 0 0 15.671011542963242 8.0814353397190644 0 8.0814353397190644 -12.686926810851876 0 0 0 0 20.760809752449859 17.863417009905334 0 17.863417009905334 -21.856784008396062 0 0 0 0 16.115953454082419 6.1986962352490877 0 6.1986962352490877 -14.005182194576363 0 0 0 0 37.100239673680335 14.432812108650069 0 14.432812108650069 -23.836755323407488 0 0 0 0 35.37357840302866 -1.0521474622528331 0 -1.0521474622528331 -5.8557791903012912 0 0 0 0 27.885770056876936 1.7548397004386658 0 1.7548397004386658 1.019930440152109 0 0 0 0 8.4445476177206729 -11.865805684054067 0 -11.865805684054067 -14.983540215375342 0 0 0 0 16.190735062029503 -5.9855549382509565 0 -5.9855549382509565 -5.7648937988964262 0 0 0 0 23.089922510994029 -14.337742604779685 0 -14.337742604779685 -2.8554143192200709 0 0 0 0 16.088336415805315 1.7110887727499744 0 1.7110887727499744 -27.338429230578186 0 0 0 0 29.228632890793961 1.9809497929891222 0 1.9809497929891222 -35.673953604479721 0 0 0 0 40.618670274166078 -1.9980763424436319 0 -1.9980763424436319 -12.746115886357874 0 0 0 0 61.508481243926745 0.59195241400607301 0 0.59195241400607301 -12.51827548958668 0 0 0 0 18.938957803377889 7.1191616748508864 0 7.1191616748508864 -10.872408194840318 0 0 0 0 35.910423302560375 -1.5791127242367011 0 -1.5791127242367011 -9.0589677702585707 0 0 0 0 21.621942506892481 10.778595844642771 0 10.778595844642771 -8.9002559515038904 0 0 0 0 21.987936810094745 5.8260240158205683 0 5.8260240158205683 -8.5630847251449627 0 0 0 0 -177.18671275657834 276.86042212521727 0 276.86042212521727 -42.809611636852594 0 0 0 0 -0.24757409399899188 -26.794112773883938 0 -26.794112773883938 -3.312096219357187 0 0 0 0 8.2378718001615141 1.409942748096622 0 1.409942748096622 -4.7772117187066367 0 0 0 0 -99.446419226493163 22.188273332013239 0 22.188273332013239 -6.7382146495199322 0 0 0 0 35.776433613846166 7.6656494515498181 0 7.6656494515498181 -23.142523673349473 0 0 0 0 -1.4755674425994272 -7.0773950423387468 0 -7.0773950423387468 -0.12880745611147049 0 0 0 0 -17.870220511671505 -19.746231276595552 0 -19.746231276595552 -2.6748743278930078 0 0 0 0 736.85331065746868 170.43861807131202 0 170.43861807131202 -431.76446675428082 0 0 0 0 96.786545997325447 247.08938843184822 0 247.08938843184822 -299.20587602134606 0 0 0 0 52.07579418473324 -5.480833038770129 0 -5.480833038770129 -28.299946318322327 0 0 0 0 584.08377228377685 -350.29514608505878 0 -350.29514608505878 166.3994217922239 0 0 0 0 31.200921079303953 -2.3234431157063682 0 -2.3234431157063682 -26.890594168955886 0 0 0 0 38.790346884996893 -8.1681573998993962 0 -8.1681573998993962 0.11122804221129656 0 0 0 0 10.697284886882677 -8.2129658700965962 0 -8.2129658700965962 -8.954064988567719 0 0 0 0 68.017973079586227 -1.5515056526772923 0 -1.5515056526772923 -29.945242483994662 0 0 0 0 79.264857626989397 -6.9800680379915434 0 -6.9800680379915434 -28.085947063337244 0 0 0 0 71.003956442462368 -5.2878664898525756 0 -5.2878664898525756 -28.856194609032855 0 0 0 0 61.988811711664312 -19.700130900459158 0 -19.700130900459158 -18.806694536548093 0 0 0 0 45.723637310642516 -21.71581384833712 0 -21.71581384833712 13.820775140939531 0 0 0 0 64.963144407258369 -27.076406057227132 0 -27.076406057227132 -8.5692363562184255 0 0 0 0 34.166765765730815 -5.5249465756796212 0 -5.5249465756796212 8.8376878140882624 0 0 0 0 55.949342251826238 12.465455792157684 0 12.465455792157684 -11.415888276598707 0 0 0 0 61.064645029502572 -13.996221959136562 0 -13.996221959136562 -12.257892217677295 0 0 0 0 13.617196578888979 -2.5089816651079673 0 -2.5089816651079673 9.5156010835030429 0 0 0 0 0.26037891588976514 -8.5927433680711118 0 -8.5927433680711118 -7.3233756333448898 0 0 0 0 -2.231073530757385 -49.393349764060105 0 -49.393349764060105 -29.131008909610046 0 0 0 0 27.702577886495419 18.400765247241409 0 18.400765247241409 -7.9694275861606343 0 0 0 0 12.780965536912845 27.449189674990293 0 27.449189674990293 -4.1855976928525056 0 0 0 0 26.583880626785685 26.805656808339734 0 26.805656808339734 -4.1762865852113578 0 0 0 0 33.984063620169763 23.790488971432637 0 23.790488971432637 -21.256035842673782 0 0 0 0 31.299560145118448 23.280147505041384 0 23.280147505041384 -17.648660971145659 0 0 0 0 32.004342079701019 12.526931960648653 0 12.526931960648653 -0.24822443201151145 0 0 0 0 50.040631230483996 -3.1961039437804288 0 -3.1961039437804288 -20.164988295438206 0 0 0 0 49.503285454818979 1.3773468184162994 0 1.3773468184162994 -37.360846699315459 0 0 0 0 37.629478254726564 2.160086352915414 0 2.160086352915414 -24.524519937448986 0 0 0 0 37.459979049708636 8.7631611066791493 0 8.7631611066791493 -59.33786178161381 0 0 0 0 31.227193780046946 19.668339895566419 0 19.668339895566419 -34.393342955754179 0 0 0 0 35.558588595318724 16.692505392053022 0 16.692505392053022 -81.946453388881523 0 0 0 0 34.361728066294745 33.837222653007046 0 33.837222653007046 -39.237284950332537 0 0 0 0 31.594949324124173 18.477279073805562 0 18.477279073805562 -33.061114526128222 0 0 0 0 31.511219317252653 49.546762329190962 0 49.546762329190962 -39.731546291567383 0 0 0 0 43.441334420967905 29.802558737448237 0 29.802558737448237 -114.62330368119245 0 0 0 0 33.070330374925106 19.447306104492228 0 19.447306104492228 -9.1320817019589953 0 0 0 0 34.810036649210815 46.948126594379417 0 46.948126594379417 -11.457104359676848 0 0 0 0 29.955754982234794 34.362418209440193 0 34.362418209440193 -21.490380189357126 0 0 0 0 26.730546765582403 26.15488197807116 0 26.15488197807116 -29.95466075374452 0 0 0 0 8.7732250331755495 15.46784379265269 0 15.46784379265269 23.430023630473585 0 0 0 0 11.424255182249908 32.619448926924406 0 32.619448926924406 80.987664745392806 0 0 0 0 15.480566749651189 37.696149251203636 0 37.696149251203636 27.214373333972787 0 0 0 0 26.636655100664939 1.3289095158542068 0 1.3289095158542068 126.14343393203187 0 0 0 0 53.186610377099896 62.277936350614915 0 62.277936350614915 43.906638470194537 0 0 0 0 66.46446854709211 -50.161982623387388 0 -50.161982623387388 111.33853896135534 0 0 0 0 57.079818863956461 -17.486732569080583 0 -17.486732569080583 51.101998476119988 0 0 0 0 6.791672779203509 -17.923288086629 0 -17.923288086629 69.079781661338956 0 0 0 0 -7.5114682686107699 -22.069357269644428 0 -22.069357269644428 38.578060125809486 0 0 0 0 9.4505370782317186 -15.074393416162749 0 -15.074393416162749 13.738628000844699 0 0 0 0 -7.8829767430033826 -11.968906520706874 0 -11.968906520706874 -7.0146841469410788 0 0 0 0 -22.033588426394999 -8.2427736086477381 0 -8.2427736086477381 21.970132217874706 0 0 0 0 3.2831887987849768 15.81379767782731 0 15.81379767782731 34.560821312937378 0 0 0 0 -15.027731073249015 -16.480870578994541 0 -16.480870578994541 -11.042864805869556 0 0 0 0 1.5470852144537268 -8.7455085458646522 0 -8.7455085458646522 -5.0751558602657827 0 0 0 0 -32.748793889472608 -8.6156503572711109 0 -8.6156503572711109 1.1907195965864048 0 0 0 0 -74.681673139981285 -3.8681248866033684 0 -3.8681248866033684 13.956054042957135 0 0 0 0 -5.6471403062641912 -5.478966927200446 0 -5.478966927200446 -1.8618558153983997 0 0 0 0 23.313684555305372 17.202903269409937 0 17.202903269409937 -0.27268510046937422 0 0 0 0 25.347286684693245 -9.2597000757208434 0 -9.2597000757208434 -1.3534782765914315 0 0 0 0 28.688851695565972 -14.74772282645381 0 -14.74772282645381 7.1415213250481884 0 0 0 0 -0.2437778055961175 0.14623343708108649 0 0.14623343708108649 3.571784476077585 0 0 0 0 25.953904156845965 -7.0167579479841606 0 -7.0167579479841606 6.6177471187598265 0 0 0 0 15.19828463021986 -4.7211483446036482 0 -4.7211483446036482 6.5314654105020793 0 0 0 0 8.7480359245164436 -7.3597315412438888 0 -7.3597315412438888 9.8268432508448313 0 0 0 0 -0.092104781058043095 -0.54113378133924073 0 -0.54113378133924073 -0.70949489812558664 0 0 0 0 19.265254681980878 -14.40982951728904 0 -14.40982951728904 14.296444758732605 0 0 0 0 224.68124481539417 141.08395899323949 0 141.08395899323949 -16.210558306050395 0 0 0 0 393.92890038229234 -71.67677166994477 0 -71.67677166994477 149.725515320451 0 0 0 0 403.0408062185561 -90.465069540509916 0 -90.465069540509916 7.7307887939903139 0 0 0 0 266.64329378762341 89.274771937599439 0 89.274771937599439 178.10287333913698 0 0 0 0 591.26385300654874 -342.80048904682917 0 -342.80048904682917 538.33272267731741 0 0 0 0 834.05063441966922 -256.42073118428584 0 -256.42073118428584 -132.07169619118099 0 0 0 0 -52.99606250051329 -59.06426176244247 0 -59.06426176244247 103.28175109088079 0 0 0 0 26.607813557304326 -147.56388568192546 0 -147.56388568192546 159.14966992238033 0 0 0 0 29.729785033170629 -97.815546058152677 0 -97.815546058152677 88.681810409517766 0 0 0 0 54.976543816941557 -137.41853406715063 0 -137.41853406715063 -40.356347325210891 0 0 0 0 2.7086378309116697 -0.99962998231954003 0 -0.99962998231954003 -1.2891542966740124 0 0 0 0 2170.9894094834162 -633.54530972630619 0 -633.54530972630619 676.63185107744096 0 0 0 0 66.141064647987037 225.51257355280509 0 225.51257355280509 -369.79041891807037 0 0 0 0 395.54553735365334 -811.35263830178064 0 -811.35263830178064 659.18230329669404 0 0 0 0 132.76157706358936 -348.90610225727141 0 -348.90610225727141 18.404638429972465 0 0 0 0 1275.6434007352073 -323.65051058992549 0 -323.65051058992549 -407.45426346126442 0 0 0 0 273.41503045379068 -45.900168561622195 0 -45.900168561622195 -445.95717859356978 0 0 0 0 124.0492423686519 -97.291685032015266 0 -97.291685032015266 -213.13498485862169 0 0 0 0 -1.0608522643888136 -234.60655728011807 0 -234.60655728011807 158.89701225622593 0 0 0 0 1.6965152304464652 -2.3236966896249243 0 -2.3236966896249243 -4.8512971002020198 0 0 0 0 138.86666406576114 -3.8424186817806003 0 -3.8424186817806003 -226.66015973417529 0 0 0 0 20.756600607356631 -250.56132657379777 0 -250.56132657379777 17.083637159845239 0 0 0 0 28.538747902115574 -325.19938154694592 0 -325.19938154694592 15.848620684626439 0 0 0 0 166.06115526474605 -120.25245516748339 0 -120.25245516748339 -97.034268733782937 0 0 0 0 -36.160652658334584 96.883630777162352 0 96.883630777162352 -152.72230701736021 0 0 0 0 -60.085310670707258 -51.466636994188548 0 -51.466636994188548 67.46823757828929 0 0 0 0 -50.489646625363093 -118.38938725537514 0 -118.38938725537514 27.134213596957125 0 0 0 0 115.07791171882491 -33.545694830011598 0 -33.545694830011598 -37.351263160715462 0 0 0 0 -43.64898071006246 -15.523611549998691 0 -15.523611549998691 14.133134546980727 0 0 0 0 -0.13801970673779351 -0.26124590918558255 0 -0.26124590918558255 1.1546621061086286 0 0 0 0 60.839518790566217 -34.905940938659228 0 -34.905940938659228 -14.29850790938417 0 0 0 0 0.014434086115791445 -0.34199627823556966 0 -0.34199627823556966 -0.18516734456565676 0 0 0 0 -23.146392419876065 -59.178048059750608 0 -59.178048059750608 1.3094346322127421 0 0 0 0 -28.26091556674146 -68.573612739167118 0 -68.573612739167118 -5.8592500948343513 0 0 0 0 -6.5243657340397476 -30.147524087933448 0 -30.147524087933448 -1.8841310025554776 0 0 0 0 5.5547651797533035 -52.536065573086717 0 -52.536065573086717 -15.573836049476313 0 0 0 0 -7.3938269400168792 -70.261513337045699 0 -70.261513337045699 -34.180189088181123 0 0 0 0 50.574129067579634 -41.23009577134826 0 -41.23009577134826 -38.024055535803853 0 0 0 0 47.550653984349992 -15.020873219810198 0 -15.020873219810198 -21.715072564849834 0 0 0 0 54.438647996546933 7.891561814882607 0 7.891561814882607 -54.679230977369116 0 0 0 0 34.982923546165694 -21.326212410694097 0 -21.326212410694097 -22.346793994399377 0 0 0 0 8.3417493193709333 -11.523636342319143 0 -11.523636342319143 -9.5235890029105654 0 0 0 0 52.138028184184805 -9.1723020025274309 0 -9.1723020025274309 -30.005773458706244 0 0 0 0 33.01008353936777 -2.5032829593146744 0 -2.5032829593146744 -9.5457656819221484 0 0 0 0 33.101139158592559 -7.7058409077972101 0 -7.7058409077972101 -1.6435904017084795 0 0 0 0 91.082547088995852 -157.79120948185908 0 -157.79120948185908 -98.539616776906769 0 0 0 0 -51.136192899451999 24.943787519733633 0 24.943787519733633 232.72889021263654 0 0 0 0 105.90467506133427 -9.4877757859040912 0 -9.4877757859040912 -66.942893020037445 0 0 0 0 59.491981796898472 173.78234421582329 0 173.78234421582329 -212.45810404107033 0 0 0 0 -35.427624320836912 159.56942708936458 0 159.56942708936458 41.132612259443704 0 0 0 0 -6.8448356971020985 27.690593953083408 0 27.690593953083408 268.00882885191095 0 0 0 0 -63.839495867319783 157.73532654546443 0 157.73532654546443 -21.836401518366984 0 0 0 0 44.763749021087278 -47.09870728096098 0 -47.09870728096098 -126.73427929899663 0 0 0 0 104.39801971102133 6.590684920417516 0 6.590684920417516 27.170757681356008 0 0 0 0 51.52235659179496 107.49437218957519 0 107.49437218957519 -52.906092884302268 0 0 0 0 81.113217679534898 11.416202684142885 0 11.416202684142885 -1.6447518754072237 0 0 0 0 58.963996263559238 68.729511348290771 0 68.729511348290771 6.7472826062107742 0 0 0 0 91.646758820455943 122.03469711940761 0 122.03469711940761 -194.10483875660384 0 0 0 0 9.6432806135743689 10.44305139505836 0 10.44305139505836 -8.6935176626662223 0 0 0 0 46.105292671985808 95.952842145989052 0 95.952842145989052 -23.392588935360436 0 0 0 0 58.17508838689065 -5.2352066577459873 0 -5.2352066577459873 -10.405358346538067 0 0 0 0 62.717917379683058 -4.5672179922403302 0 -4.5672179922403302 -48.422720031952849 0 0 0 0 39.082591462702112 13.800907312988102 0 13.800907312988102 -60.789664673822699 0 0 0 0 108.79828933812314 37.536792185811919 0 37.536792185811919 -107.63616433862458 0 0 0 0 25.335654428454291 37.390445432548631 0 37.390445432548631 43.268152513965106 0 0 0 0 23.477974249394439 3.2408504358680492 0 3.2408504358680492 -4.3307278621014378 0 0 0 0 144.10819454802933 -177.35081305141017 0 -177.35081305141017 -26.145451962619518 0 0 0 0 132.85310474154852 68.801220264972272 0 68.801220264972272 -72.160906225146391 0 0 0 0 372.44860554057368 -222.69230271418814 0 -222.69230271418814 -27.417839550068493 0 0 0 0 577.92750943928024 -192.88000648347901 0 -192.88000648347901 -71.880833545270889 0 0 0 0 4.042160992204483 1.6263286503149246 0 1.6263286503149246 -0.59026877139485023 0 0 0 0 287.99172599749409 60.518508555174662 0 60.518508555174662 -44.255307244397954 0 0 0 0 481.90168466125397 51.605409449648505 0 51.605409449648505 -7.1983388500120782 0 0 0 0 280.78048459373167 20.806591764855057 0 20.806591764855057 0.62706350871849281 0 0 0 0 79.132716326133959 65.099147897288276 0 65.099147897288276 23.786302000640262 0 0 0 0 234.22722613329734 130.95483958982038 0 130.95483958982038 12.038538822965165 0 0 0 0 77.521800624232128 81.836536041553245 0 81.836536041553245 -25.952171389954628 0 0 0 0 217.81385013453746 11.254926561138973 0 11.254926561138973 -55.668328235902663 0 0 0 0 213.62005243805106 -141.19190508625115 0 -141.19190508625115 -8.7751981892013191 0 0 0 0 137.49832074456754 -103.50833073576587 0 -103.50833073576587 -11.984804532809903 0 0 0 0 119.94339215485707 -116.8537853666644 0 -116.8537853666644 32.512227089935095 0 0 0 0 162.2901369199717 -124.72658139404098 0 -124.72658139404098 22.753095465845036 0 0 0 0 98.823378028017032 117.74328394411259 0 117.74328394411259 -39.576873673671344 0 0 0 0 182.48281198168297 -50.8507376448174 0 -50.8507376448174 4.6142162024525533 0 0 0 0 -27.13331436570661 -26.20455884699868 0 -26.20455884699868 7.3652809416450395 0 0 0 0 52.860579035343108 312.53053610986171 0 312.53053610986171 480.91019252205319 0 0 0 0 -119.93749835738345 -302.07463980243801 0 -302.07463980243801 237.64850220005064 0 0 0 0 7.7912259462407647 -1.234111680395368 0 -1.234111680395368 1.0431615615001348 0 0 0 0 4.8519366698552844 3.5631083640656449 0 3.5631083640656449 1.1118229088306606 0 0 0 0 79.126541277371871 -46.598180417652657 0 -46.598180417652657 8.6739929424920774 0 0 0 0 72.314499040327519 -98.47256411324156 0 -98.47256411324156 68.908526482793604 0 0 0 0 1197.3958492218371 37.838654196767493 0 37.838654196767493 -314.29841585237864 0 0 0 0 730.7956762292888 511.0658602275289 0 511.0658602275289 577.67151702277079 0 0 0 0 -68.906250056868885 -140.07222008689678 0 -140.07222008689678 -110.64474876030727 0 0 0 0 -62.048292991654307 -118.19293770615718 0 -118.19293770615718 -62.746231736745358 0 0 0 0 154.5708576391844 -187.45486197375703 0 -187.45486197375703 -282.44614957510942 0 0 0 0 -31.613723195643615 -180.94416897044903 0 -180.94416897044903 -163.49228754774958 0 0 0 0 -28.961620676414896 -66.974065199668075 0 -66.974065199668075 -79.553254286933679 0 0 0 0 85.813846269615169 -135.6310613405858 0 -135.6310613405858 -149.94665408260789 0 0 0 0 -25.274582746977103 -48.896618862900141 0 -48.896618862900141 -192.86005417550041 0 0 0 0 329.16141758408412 35.168857260534423 0 35.168857260534423 -421.78463283171095 0 0 0 0 448.96474736421078 296.13984620215615 0 296.13984620215615 14.660401905779054 0 0 0 0 581.73965784983102 -3.2179367373131527 0 -3.2179367373131527 -273.74923006107019 0 0 0 0 243.32033200000296 -81.512661377797485 0 -81.512661377797485 -279.32718400385454 0 0 0 0 114.99099369644046 -27.18300965673086 0 -27.18300965673086 -277.93033113140518 0 0 0 0 41.120090249394707 37.09678167957918 0 37.09678167957918 -282.98065689666225 0 0 0 0 450.78123118573785 9.084119963554258 0 9.084119963554258 -416.27668729519155 0 0 0 0 78.384942831855739 6.635853914879748 0 6.635853914879748 0.010893715732243958 0 0 0 0 421.38007186217146 97.62768061513998 0 97.62768061513998 -384.57054072395385 0 0 0 0 1636.7629684609128 -283.98166552260227 0 -283.98166552260227 -270.93498766993616 0 0 0 0 208.50998433805944 -49.491353631852689 0 -49.491353631852689 -306.36948464207353 0 0 0 0 185.22472261542498 -5.0211158691729452 0 -5.0211158691729452 -386.63057081367515 0 0 0 0 295.81603895436274 -162.96768492370029 0 -162.96768492370029 -370.0942854942441 0 0 0 0 150.00090443643421 -129.68193833947316 0 -129.68193833947316 -84.276686526714911 0 0 0 0 104.48396167443025 -250.62005979135199 0 -250.62005979135199 -0.21781595812899468 0 0 0 0 88.922529585535813 -6.9242391672660233 0 -6.9242391672660233 34.155753317074414 0 0 0 0 91.558608318984625 -30.246677073459978 0 -30.246677073459978 -245.85964041655006 0 0 0 0 1.9166772459548156 2.9671400704224311 0 2.9671400704224311 0.59175927076517354 0 0 0 0 438.50309013359947 19.606627923194537 0 19.606627923194537 -836.28932001424619 0 0 0 0 207.4921426699002 10.722766569566375 0 10.722766569566375 -15.426483243956682 0 0 0 0 -66.371087560504748 -91.195934507269612 0 -91.195934507269612 -35.650782948850974 0 0 0 0 -1304.0114454214636 172.56420504444759 0 172.56420504444759 346.31771761548589 0 0 0 0 64.509685821295292 10.5892221879967 0 10.5892221879967 1.5757856947316995 0 0 0 0 196.96988001014688 58.592003723350672 0 58.592003723350672 -503.99076021529254 0 0 0 0 531.34350809574244 -351.10944318311431 0 -351.10944318311431 -320.6299496662723 0 0 0 0 519.1338274373702 -73.213478080060696 0 -73.213478080060696 -634.99421794386581 0 0 0 0 264.22017503649477 -68.331730601231811 0 -68.331730601231811 -544.21549658334698 0 0 0 0 313.58581396109366 -198.41502417302399 0 -198.41502417302399 -710.45181976343338 0 0 0 0 108.94555763012431 -165.34674100104689 0 -165.34674100104689 -526.06191830441458 0 0 0 0 -38.25584560308198 17.983099154509546 0 17.983099154509546 9.8744570333519732 0 0 0 0 10.200490272866773 494.4695494394781 0 494.4695494394781 -384.95484189294075 0 0 0 0 2.8290779017883523 11.017055784531431 0 11.017055784531431 2.235162075595917 0 0 0 0 1.8524466431117617 375.03224963836783 0 375.03224963836783 -626.41911249074292 0 0 0 0 -144.55164062953554 191.91713614463697 0 191.91713614463697 -378.87965817929944 0 0 0 0 46.039607175781185 7.2877345190556966 0 7.2877345190556966 0.92242896830730103 0 0 0 0 -7.7493791566594155 4.7545677521814014 0 4.7545677521814014 17.316548752072777 0 0 0 0 13.271617355036064 0.7055002977824838 0 0.7055002977824838 0.094732714466657875 0 0 0 0 37.678276155860658 16.729331831869786 0 16.729331831869786 85.75139971804947 0 0 0 0 106.37719104938151 77.321848634714115 0 77.321848634714115 -37.399139385669059 0 0 0 0 30.372255902528721 9.3147974082386984 0 9.3147974082386984 2.2410956007684124 0 0 0 0 111.18872094991457 -46.013550598091115 0 -46.013550598091115 73.953677429242816 0 0 0 0 -216.89740732714563 241.64995636808271 0 241.64995636808271 -117.86768939076137 0 0 0 0 8.2756335452339158 -1.1806841424913301 0 -1.1806841424913301 -4.0946245069561158 0 0 0 0 9.3744737408014771 2.9759490436681517 0 2.9759490436681517 242.77733318007859 0 0 0 0 100.73317209310881 -135.43239124438492 0 -135.43239124438492 190.29889061741324 0 0 0 0 185.01848751297439 -243.3240973198026 0 -243.3240973198026 297.57313480541416 0 0 0 0 79.929938424196735 -61.65553886704356 0 -61.65553886704356 68.1872142216871 0 0 0 0 31.581784328187496 -23.577049646670275 0 -23.577049646670275 107.21984924460048 0 0 0 0 9.9394303055036453 -1.1508920297873075 0 -1.1508920297873075 -1.0660630912887434 0 0 0 0 27.801552512184571 -87.66082986705851 0 -87.66082986705851 171.08294509224015 0 0 0 0 128.19133667731512 -134.7744807693166 0 -134.7744807693166 133.96911478275024 0 0 0 0 120.94638509726065 -133.68833296309526 0 -133.68833296309526 84.63584784655086 0 0 0 0 154.09175557394701 -137.85031090197685 0 -137.85031090197685 55.762916490371026 0 0 0 0 146.81544407245565 -188.40681969330444 0 -188.40681969330444 129.15873510502934 0 0 0 0 221.91140511856429 -245.64585272820659 0 -245.64585272820659 171.76150004851922 0 0 0 0 280.18026563495914 -217.94037616093169 0 -217.94037616093169 90.311359484721834 0 0 0 0 396.61031494988129 -228.47612927277783 0 -228.47612927277783 21.536171432083734 0 0 0 0 257.17803002141818 -229.24141362903316 0 -229.24141362903316 99.2408055054334 0 0 0 0 260.51213852867841 -223.99151658674839 0 -223.99151658674839 58.334836593522596 0 0 0 0 212.58280447434299 -177.83058531077677 0 -177.83058531077677 35.353212374219993 0 0 0 0 210.52075196757141 -196.3067510237629 0 -196.3067510237629 46.395995939184331 0 0 0 0 157.10399671020468 -160.23897144266917 0 -160.23897144266917 79.008353162632375 0 0 0 0 557.8445158482682 -238.23036938718315 0 -238.23036938718315 19.961962168910759 0 0 0 0 564.65738945496344 -42.107879308158488 0 -42.107879308158488 -32.654210675649665 0 0 0 0 462.97032543176283 -79.478769863609841 0 -79.478769863609841 -35.254230216386986 0 0 0 0 379.17192301747855 -162.08042130771742 0 -162.08042130771742 -1.4739131592082231 0 0 0 0 492.99830301653128 -217.7603311222997 0 -217.7603311222997 43.859241422389459 0 0 0 0 414.33261514021069 -354.17978547205075 0 -354.17978547205075 185.96423535555914 0 0 0 0 601.68664490746596 -85.830269163456933 0 -85.830269163456933 12.4346856404768 0 0 0 0 772.36278084238143 -380.95179676206351 0 -380.95179676206351 129.49751445686343 0 0 0 0 782.91193501588918 -27.37995853126408 0 -27.37995853126408 19.500069276855356 0 0 0 0 1023.5565597071654 -640.53360541001939 0 -640.53360541001939 396.10943500033909 0 0 0 0 488.07392171858555 -476.67348526502008 0 -476.67348526502008 399.58838202631796 0 0 0 0 190.97771865696268 -250.9157991437778 0 -250.9157991437778 237.86176676746436 0 0 0 0 564.45409688885411 -325.37236950647639 0 -325.37236950647639 192.15896045636146 0 0 0 0 10.129098177319975 -203.17523648750739 0 -203.17523648750739 574.13686599640732 0 0 0 0 5.0520513141914591 -2.6579671554629005 0 -2.6579671554629005 0.39540824492434568 0 0 0 0 -177.60442283710836 -32.516127498757896 0 -32.516127498757896 169.73827082523758 0 0 0 0 361.27854798108092 -559.96122059489107 0 -559.96122059489107 920.53716032056263 0 0 0 0 1269.7579543490501 -561.46542147291984 0 -561.46542147291984 327.47611284951836 0 0 0 0 1146.2519511395922 -30.323006684995107 0 -30.323006684995107 317.83906199123885 0 0 0 0 11.40310062111098 2.7852436709278727 0 2.7852436709278727 1.5387077095994903 0 0 0 0 260.04822423208316 298.00230013009013 0 298.00230013009013 853.89579783760928 0 0 0 0 971.91411891015014 561.22171231179163 0 561.22171231179163 544.18954088491637 0 0 0 0 336.59689671795422 206.46164628778024 0 206.46164628778024 357.32263115778187 0 0 0 0 1691.2801302735024 235.28136842210961 0 235.28136842210961 146.26940086560057 0 0 0 0 605.00332978622657 134.25507323814151 0 134.25507323814151 168.34864121453757 0 0 0 0 1089.8247286246915 -38.424893188621354 0 -38.424893188621354 -147.20853129600982 0 0 0 0 613.40226229366817 487.31879718864047 0 487.31879718864047 138.30421768222322 0 0 0 0 423.36604533323407 260.55504430908286 0 260.55504430908286 -130.15129993192704 0 0 0 0 361.06487525787907 -17.959546336387575 0 -17.959546336387575 -271.67473605515261 0 0 0 0 118.75264774902098 476.46802978789441 0 476.46802978789441 -459.92875768023544 0 0 0 0 -197.69674931172631 299.23133579595356 0 299.23133579595356 -107.39701133053336 0 0 0 0 31.329988871708338 372.26001791239958 0 372.26001791239958 -130.14115712192333 0 0 0 0 -18.668520189305127 318.34684205265512 0 318.34684205265512 243.13265833841797 0 0 0 0 -2.6269712956463991 367.52961195641683 0 367.52961195641683 -88.963856663968727 0 0 0 0 -210.06303295163525 162.59875421287052 0 162.59875421287052 233.18039132080821 0 0 0 0 302.42271424185856 356.39329501985299 0 356.39329501985299 228.90045657746305 0 0 0 0 -41.572419020583766 -4.3494670612999471 0 -4.3494670612999471 550.83251099405516 0 0 0 0 -41.609457713866362 40.692163110623426 0 40.692163110623426 94.91692927412987 0 0 0 0 -134.46399368450511 109.64958963951449 0 109.64958963951449 55.070554904506935 0 0 0 0 -132.29433851595968 73.671455526387945 0 73.671455526387945 84.075516656576667 0 0 0 0 -131.60459757859644 107.14471203564244 0 107.14471203564244 49.799828385815999 0 0 0 0 59.375181831783266 113.98638322982242 0 113.98638322982242 -21.493156558941337 0 0 0 0 -286.74689174556988 235.23602900837159 0 235.23602900837159 -27.67397074674841 0 0 0 0 -114.99734137435735 343.83276212232158 0 343.83276212232158 -188.32822493732965 0 0 0 0 -225.17456081389537 274.91710678529489 0 274.91710678529489 -40.513444035748762 0 0 0 0 -84.390990641266399 714.65391085748388 0 714.65391085748388 -324.04846541179995 0 0 0 0 -139.41310729650286 382.79597104636559 0 382.79597104636559 -292.9359539681077 0 0 0 0 707.6383692458312 552.85362131874876 0 552.85362131874876 -357.79847076575061 0 0 0 0 -182.78846250100833 371.2619469329436 0 371.2619469329436 -77.902125231481477 0 0 0 0 -135.25078905453483 398.45726257954789 0 398.45726257954789 -254.03178451074928 0 0 0 0 -202.65807255245454 366.80619495747487 0 366.80619495747487 -74.315177949467397 0 0 0 0 -322.10537089195714 349.07339563748428 0 349.07339563748428 -73.053961429836363 0 0 0 0 1856.8867012420305 -1110.3590314484265 0 -1110.3590314484265 -14.917323289219439 0 0 0 0 -532.30577732985694 776.5268152239189 0 776.5268152239189 -274.08085294273468 0 0 0 0 5.9506896973915389 3.916099890683256 0 3.916099890683256 2.7263364609381213 0 0 0 0 -648.31970171142621 339.52162322952785 0 339.52162322952785 -202.75055657133908 0 0 0 0 -310.45599069674427 248.18114406917914 0 248.18114406917914 -572.40942490160796 0 0 0 0 -199.04232262529695 446.89506561231485 0 446.89506561231485 -309.09851173749303 0 0 0 0 -345.713703812311 203.50599659952286 0 203.50599659952286 -82.695422262934699 0 0 0 0 -324.08477314272022 439.63589349529684 0 439.63589349529684 -191.24770000564695 0 0 0 0 413.86779695394398 200.90176614343818 0 200.90176614343818 66.818199025882222 0 0 0 0 18.041841160966669 9.7257184837192838 0 9.7257184837192838 0.34935119002602777 0 0 0 0 4.7892380904012555 6.3149909643741546 0 6.3149909643741546 -0.87257941409868855 0 0 0 0 -264.79214584959482 631.64894265356725 0 631.64894265356725 -614.07762329794582 0 0 0 0 1232.68319041422 -795.00149463787147 0 -795.00149463787147 374.07039531548844 0 0 0 0 954.02213007045793 -566.87875537027696 0 -566.87875537027696 228.70870536597701 0 0 0 0 869.94799258741114 82.780350910406682 0 82.780350910406682 195.89535677683378 0 0 0 0 349.80299772016588 -296.60708912930477 0 -296.60708912930477 293.67412704161501 0 0 0 0 746.88700037421768 -615.04427659984299 0 -615.04427659984299 489.03026692582029 0 0 0 0 267.39908132302298 -191.23889267250701 0 -191.23889267250701 168.74869504893729 0 0 0 0 -21.841973034024704 65.720994184631536 0 65.720994184631536 21.420624237628886 0 0 0 0 33.351601984158435 11.189407109054926 0 11.189407109054926 -7.8801956445979018 0 0 0 0 6.21598531578897 10.764378638842432 0 10.764378638842432 0.51602889957295006 0 0 0 0 276.75878554957308 -151.45875944886009 0 -151.45875944886009 93.125346426735163 0 0 0 0 60.228285288103507 46.641506567597389 0 46.641506567597389 -76.293685611595265 0 0 0 0 -94.75735035057096 416.67937204838267 0 416.67937204838267 -544.59553809606246 0 0 0 0 -6.4157667486579157 -13.37890630409288 0 -13.37890630409288 -677.90839029431982 0 0 0 0 435.24924943606129 305.602261372741 0 305.602261372741 -571.08116644984625 0 0 0 0 -307.12275087483613 341.63590649161358 0 341.63590649161358 -494.45732003758008 0 0 0 0 94.200603171644616 428.89268631349307 0 428.89268631349307 -970.85106703325278 0 0 0 0 417.63896287066018 -207.60383863730954 0 -207.60383863730954 -40.530704432255106 0 0 0 0 435.89262162915838 -157.17176494174339 0 -157.17176494174339 -38.654030167882183 0 0 0 0 205.06599872120569 -111.45770839109912 0 -111.45770839109912 -7.5792853826725377 0 0 0 0 35.040233634209756 15.350919290695018 0 15.350919290695018 -4.5512843689377034 0 0 0 0 -243.80826158604032 66.546652715727987 0 66.546652715727987 -63.235726124032681 0 0 0 0 223.98060642333849 -37.842402538666526 0 -37.842402538666526 -38.702294963059444 0 0 0 0 211.93759237843915 -114.65760826570673 0 -114.65760826570673 23.469828508781269 0 0 0 0 324.80628465073096 -213.25594450468759 0 -213.25594450468759 97.917478423844187 0 0 0 0 427.82771555210638 -304.31324441597252 0 -304.31324441597252 134.7818898791169 0 0 0 0 479.07366213128262 -260.37865757604635 0 -260.37865757604635 -15.404375744052061 0 0 0 0 456.35278468335673 -247.05733654504741 0 -247.05733654504741 -4.0287102728917716 0 0 0 0 332.32510125143381 -200.06573889469519 0 -200.06573889469519 20.988999602117815 0 0 0 0 744.35661059890299 -86.98838662484107 0 -86.98838662484107 -40.307487873039008 0 0 0 0 636.57570668373228 -388.45999136805096 0 -388.45999136805096 106.91450782608963 0 0 0 0 395.38369500149929 -118.01170907231315 0 -118.01170907231315 -16.829564910277696 0 0 0 0 534.45606686468818 -169.81858078717141 0 -169.81858078717141 -74.538195974922473 0 0 0 0 331.74706683269324 -149.66872886749184 0 -149.66872886749184 -50.682852913590636 0 0 0 0 446.7015586884263 -240.12274140698742 0 -240.12274140698742 -33.652811533552949 0 0 0 0 357.30864947588998 -117.09358233630465 0 -117.09358233630465 -58.607014053680473 0 0 0 0 455.86307562836009 -236.601042646824 0 -236.601042646824 -19.147457408964669 0 0 0 0 460.68168362294819 -229.64303515888543 0 -229.64303515888543 -60.506768612575797 0 0 0 0 473.22688847997051 -223.12950060420962 0 -223.12950060420962 -57.816134339037205 0 0 0 0 551.25600655992275 -202.86046603778425 0 -202.86046603778425 -59.186872724729483 0 0 0 0 483.6158726925496 -325.90850901596184 0 -325.90850901596184 60.364704732256314 0 0 0 0 461.50570093616261 -201.99608515685509 0 -201.99608515685509 -58.749687766281795 0 0 0 0 174.81609485958325 -79.213089639288228 0 -79.213089639288228 -18.866458663923936 0 0 0 0 284.3960486884971 -203.39568830998098 0 -203.39568830998098 -9.0711677882736694 0 0 0 0 299.21916256376062 -159.44962253002689 0 -159.44962253002689 9.7439114809401417 0 0 0 0 144.98816724311109 -51.053955812113827 0 -51.053955812113827 11.394728721286128 0 0 0 0 121.85258475107548 -88.479110752489191 0 -88.479110752489191 97.552333638264599 0 0 0 0 402.08351204366045 -493.38694479085689 0 -493.38694479085689 493.98677791736554 0 0 0 0 95.684151680903597 -168.29329945189124 0 -168.29329945189124 195.45952301219654 0 0 0 0 958.74567248173116 -114.96720775860877 0 -114.96720775860877 -0.59744816292186442 0 0 0 0 471.71752792460757 -166.64610461898974 0 -166.64610461898974 -5.0508954426179287 0 0 0 0 277.67543373870649 -63.487576032581444 0 -63.487576032581444 -33.199704911574372 0 0 0 0 548.79039495113284 -72.109395105922317 0 -72.109395105922317 -45.79624444362662 0 0 0 0 223.35687191157922 7.915812905887492 0 7.915812905887492 167.74402627383893 0 0 0 0 459.35464520978712 -171.4350653599264 0 -171.4350653599264 76.714068933871289 0 0 0 0 852.13779922793765 -379.23143933069912 0 -379.23143933069912 51.355038340616375 0 0 0 0 451.76893976863175 -116.3285807444999 0 -116.3285807444999 521.62202631542596 0 0 0 0 473.59576212168031 -185.5454885998318 0 -185.5454885998318 -4.7029832716074935 0 0 0 0 511.68143913154199 -230.38406253395465 0 -230.38406253395465 47.928760164663402 0 0 0 0 432.87075660394089 -121.74622132950512 0 -121.74622132950512 78.881052885553288 0 0 0 0 439.20479262946583 -68.60623452401498 0 -68.60623452401498 -51.852981240073063 0 0 0 0 397.81110605909635 -97.438953638152469 0 -97.438953638152469 -0.072135916465767919 0 0 0 0 471.81559291089798 -55.512979613464424 0 -55.512979613464424 -0.12497475036064998 0 0 0 0 14.875291691339953 -65.360172508274005 0 -65.360172508274005 0.073816663474877656 0 0 0 0 221.32145750632276 -3.7641485488376443 0 -3.7641485488376443 -63.591788970456378 0 0 0 0 220.31535766378511 -28.21339921302706 0 -28.21339921302706 2.5161034789045402 0 0 0 0 240.98604724705365 -28.69627588205833 0 -28.69627588205833 -10.628557342506156 0 0 0 0 245.32409321948944 -18.261781781274181 0 -18.261781781274181 -25.199686797427489 0 0 0 0 26.961825163845788 -83.870768076769664 0 -83.870768076769664 -16.98714807590801 0 0 0 0 48.661467939657086 -78.675937334669229 0 -78.675937334669229 -9.2216653022153423 0 0 0 0 28.465690074874146 15.097467450640295 0 15.097467450640295 20.207176211541309 0 0 0 0 108.45096136675056 68.151265009230997 0 68.151265009230997 35.101170667070619 0 0 0 0 608.17973923060708 -50.092720655370442 0 -50.092720655370442 -47.050643517496383 0 0 0 0 644.06354462351646 161.80217387059233 0 161.80217387059233 -70.061307156947578 0 0 0 0 5.6019838081505213 -1.4071228839962178 0 -1.4071228839962178 0.54694195667697398 0 0 0 0 -12.007097258152498 -36.153542931575885 0 -36.153542931575885 -29.44411902577977 0 0 0 0 14.307937300449169 -3.6626925505870682 0 -3.6626925505870682 0.12376353010531038 0 0 0 0 74.337382301702746 -73.332492980056486 0 -73.332492980056486 31.305177930076752 0 0 0 0 19.507276267730049 -4.1815152325232248 0 -4.1815152325232248 7.6693056208459325 0 0 0 0 18.859418267782871 -2.5068881260409928 0 -2.5068881260409928 -0.95620637608259273 0 0 0 0 54.238733852966106 -10.997332096193487 0 -10.997332096193487 0.046078246046127487 0 0 0 0 27.883972548988822 -9.1897746056259848 0 -9.1897746056259848 -3.0514795065907947 0 0 0 0 19.247226849322033 9.0144065663102992 0 9.0144065663102992 -0.98047461598935115 0 0 0 0 7.4532235774313449 -0.88423694009441078 0 -0.88423694009441078 1.2264090236216134 0 0 0 0 22.527332620622474 -6.0311150900570283 0 -6.0311150900570283 -0.28304647147797368 0 0 0 0 5.9491821686967725 2.0963571624658357 0 2.0963571624658357 -1.6926510976865483 0 0 0 0 6.1705416488508149 -2.7641704153839548 0 -2.7641704153839548 0.75368723693252337 0 0 0 0 24.228434790871688 -18.006696799563002 0 -18.006696799563002 -13.012326268140953 0 0 0 0 8.6806851083747461 -3.1405191314418772 0 -3.1405191314418772 -0.32185506943983455 0 0 0 0 0.95588385267549825 -3.7006047019291373 0 -3.7006047019291373 0.013914230367484404 0 0 0 0 5.5343777587186196 -1.1961314543038668 0 -1.1961314543038668 -0.0080089767750450847 0 0 0 0 27.151119914036826 -21.935558779418699 0 -21.935558779418699 -29.676444828795013 0 0 0 0 24.42186626351031 -2.1023912000272844 0 -2.1023912000272844 -18.76317270469508 0 0 0 0 5.2988204523131159 -1.5867953641908059 0 -1.5867953641908059 0.0041833712110244115 0 0 0 0 -46.249855274993024 -21.779608859187633 0 -21.779608859187633 37.50006691942616 0 0 0 0 -17.31224961195403 9.0748110143964205 0 9.0748110143964205 9.5593439192366141 0 0 0 0 -0.46592114068974411 -0.57269946637876501 0 -0.57269946637876501 0.16300406725319913 0 0 0 0 -5.9597003927046899 5.9614333414239518 0 5.9614333414239518 28.917265899734844 0 0 0 0 -14.521790963601234 3.7666752895564968 0 3.7666752895564968 -3.5856695545160484 0 0 0 0 4.5195376469335429 -0.65360198231686439 0 -0.65360198231686439 -1.3811250295195987 0 0 0 0 -5.0083211518503958 22.159771792754 0 22.159771792754 -15.110663336104686 0 0 0 0 -33.49901312788279 -26.634901041039459 0 -26.634901041039459 -17.669183217595346 0 0 0 0 0.093484758922720346 -0.3657543634737408 0 -0.3657543634737408 -0.17492199619873677 0 0 0 0 6.2942501570796594 10.727496541435739 0 10.727496541435739 6.4370792505396874 0 0 0 0 64.259384052216774 8.865343703222095 0 8.865343703222095 1.9479764323127196 0 0 0 0 124.65529450715258 -28.001252458573163 0 -28.001252458573163 -4.0430062443047348 0 0 0 0 10.299729571328498 12.416183838224029 0 12.416183838224029 -9.5851953424469798 0 0 0 0 -16.257081396906869 8.9203748303775399 0 8.9203748303775399 -8.8901801660154334 0 0 0 0 8.6427433151256992 16.517222392202573 0 16.517222392202573 10.229092867306118 0 0 0 0 56.466083213279489 -10.231969642423849 0 -10.231969642423849 -11.071286734867101 0 0 0 0 48.055425808277505 -9.7280564445373194 0 -9.7280564445373194 8.2308400340512051 0 0 0 0 35.443170202122928 -22.792029573971078 0 -22.792029573971078 -2.2695954300484971 0 0 0 0 48.372451909963274 9.5494459674236225 0 9.5494459674236225 -18.547370852423839 0 0 0 0 49.159014458833553 -23.568882473901695 0 -23.568882473901695 -45.80863826393491 0 0 0 0 0.380078085058841 1.7051010891362726 0 1.7051010891362726 -1.1368531144673655 0 0 0 0 -9.5023141979036154 -3.9857190550829671 0 -3.9857190550829671 -14.938571373484137 0 0 0 0 5.6090399043151535 -0.49033045999442493 0 -0.49033045999442493 -1.0768909018192256 0 0 0 0 18.148642886011658 28.374101268293906 0 28.374101268293906 -41.753007388375309 0 0 0 0 6.6350124442542437 -0.048030857898254453 0 -0.048030857898254453 -3.3595217475908044 0 0 0 0 7.9792952155838748 -1.1782952713328534 0 -1.1782952713328534 -0.88248838986869793 0 0 0 0 8.2734953804683755 -0.08126067333625997 0 -0.08126067333625997 1.9538707264413517 0 0 0 0 12.754249463250744 1.1333893835019353 0 1.1333893835019353 4.1884968306488872 0 0 0 0 8.1680010769910041 -2.3852337829670489 0 -2.3852337829670489 1.6210507627561128 0 0 0 0 14.718534213294333 -6.1133535022651273 0 -6.1133535022651273 4.0928227008544127 0 0 0 0 12.256703127441142 -2.5977569376952943 0 -2.5977569376952943 1.3733480855040625 0 0 0 0 14.172246821008201 -0.044393482840632714 0 -0.044393482840632714 -2.0371582273774429 0 0 0 0 9.6516737224374083 -5.1574142759406669 0 -5.1574142759406669 -1.0638014046959512 0 0 0 0 10.549325678932291 -4.75416506885961 0 -4.75416506885961 -2.6173521825273269 0 0 0 0 0.63494399551950664 -5.9219748281610851 0 -5.9219748281610851 -1.8744916537199003 0 0 0 0 6.6374707910727011 -1.5906915801487003 0 -1.5906915801487003 -3.7385457220754574 0 0 0 0 2.7931817763662536 -1.5533029118960968 0 -1.5533029118960968 -2.1487946193949616 0 0 0 0 3.28536448617524 -0.97214229439282462 0 -0.97214229439282462 -3.8462303327129348 0 0 0 0 0.25026295001437449 -0.99609288471104662 0 -0.99609288471104662 -0.052625612625299828 0 0 0 0 -0.015726059584963537 -0.084267183272579871 0 -0.084267183272579871 -0.10360026686766588 0 0 0 0 -0.018309573504666332 -1.2863696311983404 0 -1.2863696311983404 2.3143113484686637 0 0 0 0 3.9898264066578122 -5.2094895867347759 0 -5.2094895867347759 -2.230744244451671 0 0 0 0 3.3385416688306577 -1.939203794945179 0 -1.939203794945179 0.82059615883463266 0 0 0 0 4.7043289222160212 0.21288427353891493 0 0.21288427353891493 -2.3661524718678018 0 0 0 0 8.2083060897093674 0.73673409624348096 0 0.73673409624348096 -3.5556611371500821 0 0 0 0 6.9003358659538208 0.24230342718517761 0 0.24230342718517761 1.0728191331354342 0 0 0 0 0.79542082581832574 -0.39027398301171701 0 -0.39027398301171701 -0.37181239917747533 0 0 0 0 5.9227099722920684 -0.70556787819282363 0 -0.70556787819282363 -1.7464747627923316 0 0 0 0 34.440368228610168 0.84492715904241322 0 0.84492715904241322 1.0939969932890108 0 0 0 0 -0.47088170523365136 0.55690705411726071 0 0.55690705411726071 -0.20758711494752546 0 0 0 0 32.613341373726144 0.12847093245034102 0 0.12847093245034102 9.8818796742448285 0 0 0 0 24.520279966447561 -13.570166987420407 0 -13.570166987420407 -2.1336536746314323 0 0 0 0 21.834834657909596 7.9307779435687848 0 7.9307779435687848 37.553205625072678 0 0 0 0 35.756923043838469 -6.2047092170427049 0 -6.2047092170427049 -3.1422656510459319 0 0 0 0 3.6671882804934697 -0.78411026898933045 0 -0.78411026898933045 -1.5135619370360089 0 0 0 0 126.05335378376458 -16.388715946867315 0 -16.388715946867315 -42.812102845008212 0 0 0 0 30.786457770274865 31.527768147768711 0 31.527768147768711 -3.0493366952296128 0 0 0 0 146.08941093496105 -104.88533474221566 0 -104.88533474221566 11.082428596815134 0 0 0 0 0.051849372495674118 1.10487883931048 0 1.10487883931048 1.9498842530529075 0 0 0 0 55.918120728252688 -16.946849196019116 0 -16.946849196019116 -11.700638057523065 0 0 0 0 8.843970304576942 2.3003918613495671 0 2.3003918613495671 9.5236473477011714 0 0 0 0 33.637309471741901 -1.8218132585752755 0 -1.8218132585752755 -8.9690002398115212 0 0 0 0 29.046906414841942 -16.204632501282276 0 -16.204632501282276 8.5834662618614601 0 0 0 0 36.378618643193477 12.299560996538276 0 12.299560996538276 -2.5909968292544363 0 0 0 0 235.39726334409352 -9.5244755822656089 0 -9.5244755822656089 -109.97314425953431 0 0 0 0 213.08402978668892 -55.280909063180587 0 -55.280909063180587 -29.79436612949894 0 0 0 0 92.95338432299468 -92.386843448507378 0 -92.386843448507378 -22.844891922803924 0 0 0 0 427.95135841011506 -83.066188991835503 0 -83.066188991835503 -81.085156128812997 0 0 0 0 223.63239920323031 38.458277311636017 0 38.458277311636017 30.057855745276896 0 0 0 0 -104.33208612428643 126.74674557351128 0 126.74674557351128 101.59870402560693 0 0 0 0 0.23562416409762221 1.0761026180989788 0 1.0761026180989788 4.1915293120192265 0 0 0 0 41.433983855258703 -20.128996037192678 0 -20.128996037192678 3.2947729767136025 0 0 0 0 15.359929469312192 -4.6888968417463275 0 -4.6888968417463275 12.093069502367683 0 0 0 0 7.0228618132750853 4.4103201905098786 0 4.4103201905098786 0.91713541306916113 0 0 0 0 15.826591031918724 -6.7236861313941176 0 -6.7236861313941176 -0.72667045544812936 0 0 0 0 0.70671087263285148 -0.92699847228568899 0 -0.92699847228568899 -1.5223367878309513 0 0 0 0 2.9799444505279098 0.36458074755020675 0 0.36458074755020675 -2.9377903632012021 0 0 0 0 5.2930040609026037 -4.3245633105562433 0 -4.3245633105562433 -9.2432555201494324 0 0 0 0 2.4165092447001371 -16.717483376608925 0 -16.717483376608925 13.197328326008346 0 0 0 0 14.161841758563241 1.2151999706891274 0 1.2151999706891274 -8.7873759745452844 0 0 0 0 0.49402256842222414 -20.773996706573794 0 -20.773996706573794 -10.195600957519332 0 0 0 0 40.763786943884043 -19.456577193251587 0 -19.456577193251587 1.1761492983842938 0 0 0 0 6.1604414365720004 -16.651158350171244 0 -16.651158350171244 -20.403860005791842 0 0 0 0 2.6234534521235133 -3.5577460471193518 0 -3.5577460471193518 -0.98981748361222377 0 0 0 0 -8.0872044589559664 -7.9410130507745276 0 -7.9410130507745276 -3.0559860363614462 0 0 0 0 1.4625487704577829 -9.2622366244068104 0 -9.2622366244068104 -2.9092189519667064 0 0 0 0 -9.7971440703913686 -7.048719744169432 0 -7.048719744169432 -2.7500860346608533 0 0 0 0 4.480539335811045 -25.354071235136189 0 -25.354071235136189 -5.1463170232543689 0 0 0 0 12.739634089830361 -23.321677330399503 0 -23.321677330399503 -13.762472018262116 0 0 0 0 13.608790301677345 -19.66501075331184 0 -19.66501075331184 -78.159781373428331 0 0 0 0 7.4871569605529658 -63.996766715914845 0 -63.996766715914845 15.13427355201172 0 0 0 0 64.39774804525814 -36.376298186834163 0 -36.376298186834163 82.128571859540159 0 0 0 0 66.168185356153117 -50.074504536839981 0 -50.074504536839981 26.073095367312447 0 0 0 0 5.2346322250377852 -25.453073908448999 0 -25.453073908448999 19.956181091538468 0 0 0 0 76.817759854552605 -58.677277819782717 0 -58.677277819782717 21.273007743112487 0 0 0 0 70.840971385347075 -84.109263857651854 0 -84.109263857651854 -33.078903985569411 0 0 0 0 65.950703087524744 -68.087247933663846 0 -68.087247933663846 4.7644483411660854 0 0 0 0 68.132339227795455 -67.13014231269598 0 -67.13014231269598 -39.229538407385547 0 0 0 0 75.757027018611552 -88.409691000479995 0 -88.409691000479995 -9.7213880950864677 0 0 0 0 52.382193326440756 -44.39692863481315 0 -44.39692863481315 17.236722515225381 0 0 0 0 39.295164107694291 -75.48702879137744 0 -75.48702879137744 47.675457336005103 0 0 0 0 -0.55073311400337843 0.046441583872883996 0 0.046441583872883996 0.34276402245113763 0 0 0 0 36.864163108482899 -87.874494685048688 0 -87.874494685048688 -6.4085268596509763 0 0 0 0 57.991470912835211 -52.168167001866664 0 -52.168167001866664 -19.465760316163699 0 0 0 0 81.458054407587042 -45.145781880125043 0 -45.145781880125043 -17.797820282668429 0 0 0 0 55.147688337725413 -55.076425377207684 0 -55.076425377207684 -25.936537427973292 0 0 0 0 64.12888192894934 -58.070676921413117 0 -58.070676921413117 -7.5041953091784137 0 0 0 0 60.552399548789253 -44.632858964147758 0 -44.632858964147758 -41.705359412527258 0 0 0 0 -116.86541101082184 108.38444450302549 0 108.38444450302549 -147.17952524263001 0 0 0 0 48.450300619664631 -14.754639944934308 0 -14.754639944934308 -52.548471369593344 0 0 0 0 38.344632408363395 -16.091561439260911 0 -16.091561439260911 -15.997143326782187 0 0 0 0 39.600128305973158 -24.846747812751254 0 -24.846747812751254 2.900705879268429 0 0 0 0 97.550884385716017 -56.334061675399951 0 -56.334061675399951 -10.022928883467635 0 0 0 0 57.200274296017596 -53.773018883258629 0 -53.773018883258629 47.775388846796957 0 0 0 0 26.745807621104177 -3.7871892674307617 0 -3.7871892674307617 -2.7194605469003577 0 0 0 0 4.1613198938377831 -9.1900895137593821 0 -9.1900895137593821 -2.3293014952446796 0 0 0 0 86.330794448763299 -10.489984060037688 0 -10.489984060037688 -11.27360960059111 0 0 0 0 4.3245974571262877 -3.875352109334635 0 -3.875352109334635 -0.52205986639601365 0 0 0 0 16.743738345525344 -13.328887030502234 0 -13.328887030502234 1.8604056224095062 0 0 0 0 0.94046330671601908 -9.3603351042250793 0 -9.3603351042250793 0.59181375826029003 0 0 0 0 3.4796335589566496 -3.9769396768519556 0 -3.9769396768519556 -2.5208257285838807 0 0 0 0 15.844334290324696 -8.0412707450811141 0 -8.0412707450811141 -1.4386901981735747 0 0 0 0 14.987829455043538 -8.2607710647367654 0 -8.2607710647367654 0.47344236656309846 0 0 0 0 15.947254057451801 -7.3463544495167756 0 -7.3463544495167756 -1.0556287875780015 0 0 0 0 14.215677733547636 -8.1664675373278328 0 -8.1664675373278328 -0.92088921163497162 0 0 0 0 13.928713217479526 -10.435651456301969 0 -10.435651456301969 -4.3487198530656315 0 0 0 0 12.046458095166599 -10.224541873461192 0 -10.224541873461192 -2.8167325366878231 0 0 0 0 8.5326254360079474 -7.5672512359509767 0 -7.5672512359509767 -2.0928529156508375 0 0 0 0 17.264126488284091 -6.223104619744845 0 -6.223104619744845 -2.2590723006812823 0 0 0 0 15.822438820432581 -10.044827611623703 0 -10.044827611623703 -4.319969906995766 0 0 0 0 18.642990202548134 -2.9852919702130869 0 -2.9852919702130869 -4.1688349963671847 0 0 0 0 98.58120847196551 -15.523025681603201 0 -15.523025681603201 -76.629078102515791 0 0 0 0 8.2154516765518881 -15.777292372378909 0 -15.777292372378909 1.0257565248598075 0 0 0 0 128.73145343033684 -66.190995423408197 0 -66.190995423408197 18.213147813088455 0 0 0 0 34.069138575051511 -15.405451093182638 0 -15.405451093182638 -7.8057092515477677 0 0 0 0 8.313241883693081 -35.158799646376323 0 -35.158799646376323 31.053327029633124 0 0 0 0 51.223694896913912 -32.404128887913402 0 -32.404128887913402 -0.42428982760449685 0 0 0 0 10.312967879275675 -19.99224272484885 0 -19.99224272484885 4.3472136702357886 0 0 0 0 31.706606215794139 -6.6154652508979161 0 -6.6154652508979161 -1.615092624584695 0 0 0 0 14.89901253485732 -20.522501616273559 0 -20.522501616273559 -7.9117760247420819 0 0 0 0 4.758731879912375 27.51269813324933 0 27.51269813324933 2.028315256911668 0 0 0 0 59.025270793266827 -75.071215179105593 0 -75.071215179105593 153.52969769702111 0 0 0 0 -2.8881595810672422 -5.1014207577813728 0 -5.1014207577813728 2.9905628435558573 0 0 0 0 69.553211433696561 6.9045472693176748 0 6.9045472693176748 -11.770824519004535 0 0 0 0 98.219270505011082 2.7122183897395686 0 2.7122183897395686 -94.6167656266515 0 0 0 0 56.704920856784156 -24.398310469905589 0 -24.398310469905589 -10.112877290069889 0 0 0 0 65.103501711491845 -12.310198299185728 0 -12.310198299185728 -38.509718241693449 0 0 0 0 48.623806362676987 -46.279864690468578 0 -46.279864690468578 52.401328588444564 0 0 0 0 104.68855767270543 -87.515803871769464 0 -87.515803871769464 39.610390644117004 0 0 0 0 85.631662313491688 -17.473335578495664 0 -17.473335578495664 -6.7558271656817404 0 0 0 0 47.271223866955552 -12.586009326313803 0 -12.586009326313803 8.6780709713369077 0 0 0 0 27.839748550330114 -1.4935265376757085 0 -1.4935265376757085 -3.7930456218289983 0 0 0 0 6.4946927526932541 -2.0105503697975564 0 -2.0105503697975564 -0.17885422744427434 0 0 0 0 26.723967731522862 -2.3492047393870719 0 -2.3492047393870719 -4.1138972475572348 0 0 0 0 9.9577228808002474 -4.368930092241162 0 -4.368930092241162 -1.0511227611069818 0 0 0 0 17.680005447669828 9.4093086121209328 0 9.4093086121209328 -10.968538533372874 0 0 0 0 -0.38558526448096586 0.39549201182114757 0 0.39549201182114757 0.47154472718867596 0 0 0 0 21.89646573785285 -0.24828956809938912 0 -0.24828956809938912 -0.12267140981751359 0 0 0 0 27.660753328003921 0.14338414821257772 0 0.14338414821257772 -3.6041357456564018 0 0 0 0 25.396644075131917 0.77014488943636605 0 0.77014488943636605 -2.2954401914263478 0 0 0 0 26.37073845291161 0.17185812500196818 0 0.17185812500196818 -3.6010298328546515 0 0 0 0 24.446361574380717 -0.76693470228087679 0 -0.76693470228087679 -2.4069704195781041 0 0 0 0 27.932420322751568 0.57033064790918697 0 0.57033064790918697 -2.2480209831914091 0 0 0 0 25.656069571545231 -0.350482479786562 0 -0.350482479786562 -1.1190254706407803 0 0 0 0 26.367068517371081 -0.41636468527693937 0 -0.41636468527693937 -2.2372010730424883 0 0 0 0 374.42279503069585 157.56991876901213 0 157.56991876901213 196.86524073699863 0 0 0 0 -418.54562960445037 -106.54478169181726 0 -106.54478169181726 525.3079544741812 0 0 0 0 -20.832049547607312 58.899354606262364 0 58.899354606262364 110.93898651101654 0 0 0 0 80.653068572639313 -73.214187948385018 0 -73.214187948385018 84.799761990099583 0 0 0 0 642.10155019809099 -93.29386450967948 0 -93.29386450967948 -49.399633761253938 0 0 0 0 43.851299651032605 74.141159323838551 0 74.141159323838551 -167.47685225833385 0 0 0 0 12.402798350683611 1.0592805570815145 0 1.0592805570815145 -0.26679104877596743 0 0 0 0 25.731393171961827 1.1076460195521034 0 1.1076460195521034 -0.27519019655905197 0 0 0 0 58.87901262640662 -169.56511756591519 0 -169.56511756591519 -68.308612060979357 0 0 0 0 -10.218437924057071 91.124721011596193 0 91.124721011596193 -20.296976630374189 0 0 0 0 32.591098428481928 13.71798035053007 0 13.71798035053007 -72.370062025140967 0 0 0 0 24.893853303524295 -3.0651913493730909 0 -3.0651913493730909 0.01205366811456049 0 0 0 0 -95.482381740657729 143.28347571003599 0 143.28347571003599 -114.86551895580055 0 0 0 0 0.61069251803486679 0.093637434334688407 0 0.093637434334688407 -0.50499430387346722 0 0 0 0 125.3633846484845 -74.741557191506843 0 -74.741557191506843 48.765314142270036 0 0 0 0 4.8685375319450088 2.3887780419188829 0 2.3887780419188829 -0.43653020127864328 0 0 0 0 302.54987115647964 -91.074350860891741 0 -91.074350860891741 -16.662205173195417 0 0 0 0 250.14162748762101 -156.28717966045278 0 -156.28717966045278 29.589191958757311 0 0 0 0 80.282435918219562 -0.14133222309363308 0 -0.14133222309363308 0.30649101354121688 0 0 0 0 277.24525883358001 -204.76255573180822 0 -204.76255573180822 117.8828001802755 0 0 0 0 186.96937758340209 313.94871598664929 0 313.94871598664929 -198.70996352043107 0 0 0 0 9.9979362247770922 6.2029466931973971 0 6.2029466931973971 2.1846796875101893 0 0 0 0 -274.33702692196675 230.29456846927377 0 230.29456846927377 18.800300438343697 0 0 0 0 212.67175247318301 -86.051412626203216 0 -86.051412626203216 -135.51718973476841 0 0 0 0 79.709074093363597 7.3062394179134458 0 7.3062394179134458 52.395424191190799 0 0 0 0 492.72653288923175 -299.38011053276722 0 -299.38011053276722 40.854006271290928 0 0 0 0 -49.308886692815577 275.67054885766134 0 275.67054885766134 -169.89178826808001 0 0 0 0 -220.65295964755933 432.78171770667876 0 432.78171770667876 -119.23863391643428 0 0 0 0 4.2249945600779597 2.7549409922622701 0 2.7549409922622701 1.1986768221427104 0 0 0 0 247.48967284482751 178.96814634763868 0 178.96814634763868 -151.29519718701971 0 0 0 0 25.850190857112921 -4.5468329506296996 0 -4.5468329506296996 -5.2820987456320694 0 0 0 0 21.897444110429888 -2.2885676508244792 0 -2.2885676508244792 -0.73913546453049683 0 0 0 0 17.931324040549953 -6.5925598858127099 0 -6.5925598858127099 4.6275815011062109 0 0 0 0 225.78467793649907 223.45377231477752 0 223.45377231477752 367.84208132018182 0 0 0 0 15.674008520243376 -0.70222296992613664 0 -0.70222296992613664 -0.55467373075954063 0 0 0 0 29.813837534829872 -3.0948147699494672 0 -3.0948147699494672 -4.7592361424806935 0 0 0 0 1483.6523042794183 -493.20515217520074 0 -493.20515217520074 -2.291571442632963 0 0 0 0 6.6606629506782156 0.37922621018883618 0 0.37922621018883618 0.036245620361056718 0 0 0 0 1496.5999295168913 880.69046206329131 0 880.69046206329131 423.48607393596666 0 0 0 0 592.60909691627603 117.61588935795059 0 117.61588935795059 -95.532974890685182 0 0 0 0 602.38270120986272 212.41174563721819 0 212.41174563721819 -44.145047364838717 0 0 0 0 1500.6365193875972 193.95032812943995 0 193.95032812943995 -347.03463980422595 0 0 0 0 1144.0670573184289 152.45217375508835 0 152.45217375508835 -208.47507176464777 0 0 0 0 1767.4779929792639 24.35544584081407 0 24.35544584081407 -260.83882706067095 0 0 0 0 1499.8764156548241 191.47455938041048 0 191.47455938041048 375.88153895989001 0 0 0 0 5.7660498535887541 3.1866834618898565 0 3.1866834618898565 1.5327312257099688 0 0 0 0 -24.921426298409642 446.69439544201589 0 446.69439544201589 143.47914480982936 0 0 0 0 1597.1403882937884 -309.22882711414968 0 -309.22882711414968 -87.809717718314801 0 0 0 0 824.50399855605792 467.17400392192644 0 467.17400392192644 128.99492769520822 0 0 0 0 742.47786809223726 -449.1117776683086 0 -449.1117776683086 -109.08314484558281 0 0 0 0 234.55969660489063 93.771544221533759 0 93.771544221533759 -162.26642503485755 0 0 0 0 499.28613489944109 -108.44858152755825 0 -108.44858152755825 -170.17987371859363 0 0 0 0 365.1730505937303 -232.60200176301532 0 -232.60200176301532 -280.52166699166014 0 0 0 0 1.6033468817397249 0.18370170392358176 0 0.18370170392358176 -1.2711407734633453 0 0 0 0 474.30437894889474 -432.85480568574667 0 -432.85480568574667 133.65933935619714 0 0 0 0 -112.2560875451818 128.30870190862379 0 128.30870190862379 -140.90192555800144 0 0 0 0 123.58743984700595 -119.65221075594647 0 -119.65221075594647 147.50365236342202 0 0 0 0 2.389756372904543 0.44120554166369885 0 0.44120554166369885 -0.66202728712680825 0 0 0 0 -82.142652018097579 177.26592068467141 0 177.26592068467141 -63.450192797855152 0 0 0 0 -33.390949682441715 -42.417536348126077 0 -42.417536348126077 -22.791989572287548 0 0 0 0 57.998324203719676 -55.978964774880659 0 -55.978964774880659 -74.161161163359807 0 0 0 0 0.88590937925435753 -0.013013855607397318 0 -0.013013855607397318 -0.40470905647326777 0 0 0 0 430.54097147451466 -291.5219652524504 0 -291.5219652524504 16.609946978978989 0 0 0 0 503.77911654449417 -187.41215316641379 0 -187.41215316641379 163.33389075161708 0 0 0 0 131.62481047378969 -134.39278201252154 0 -134.39278201252154 204.46907155533768 0 0 0 0 -41.776504140942166 -310.96475987588332 0 -310.96475987588332 30.734878515641867 0 0 0 0 40.056166166315961 160.33571717425991 0 160.33571717425991 -64.967168621768081 0 0 0 0 361.3460610392176 163.32555106679871 0 163.32555106679871 -71.540140562294368 0 0 0 0 107.33858702558791 -4.8678349664774885 0 -4.8678349664774885 -22.641822049769232 0 0 0 0 231.58965835392155 -74.84849692806317 0 -74.84849692806317 4.5166133465469045 0 0 0 0 134.47024536562822 -62.356798208957613 0 -62.356798208957613 11.224263535336576 0 0 0 0 134.47150685705381 -61.664706351323943 0 -61.664706351323943 105.3836176007141 0 0 0 0 555.93350590398768 -10.689592692434985 0 -10.689592692434985 -39.004489574107765 0 0 0 0 778.05816181487535 257.23757739212641 0 257.23757739212641 61.382142047295375 0 0 0 0 1245.6061221671698 48.374005295777359 0 48.374005295777359 -181.76496491967222 0 0 0 0 1277.5170443254101 476.71904444577666 0 476.71904444577666 -60.24140508763287 0 0 0 0 1525.3781755240598 -8.9189479435388552 0 -8.9189479435388552 126.41391279453116 0 0 0 0 1500.0695848976538 207.67973573192512 0 207.67973573192512 -180.86863892556832 0 0 0 0 923.16338861938857 216.05668122994066 0 216.05668122994066 29.857488985769209 0 0 0 0 337.05247132029035 200.01155678674712 0 200.01155678674712 180.9417882529707 0 0 0 0 9.4477610671965522 0.50168083127141472 0 0.50168083127141472 -21.362393519090574 0 0 0 0 4.9472624196460337 5.737867280834422 0 5.737867280834422 -13.428866899345447 0 0 0 0 57.553110611182092 -3.9536397189668833 0 -3.9536397189668833 -21.257362218118942 0 0 0 0 9.0609403556217316 0.80215447163282505 0 0.80215447163282505 -4.9322231381738426 0 0 0 0 -78.293713392027712 63.075093846206073 0 63.075093846206073 71.964633943174249 0 0 0 0 34.615878464417975 -9.2376202202119337 0 -9.2376202202119337 0.66360192545766439 0 0 0 0 34.262703011256235 -27.279077012312882 0 -27.279077012312882 -15.68826284693796 0 0 0 0 5.9940250008003204 80.514456924358456 0 80.514456924358456 -150.92060258874062 0 0 0 0 -1.9918065739038866 11.345787096082404 0 11.345787096082404 -49.786322774723288 0 0 0 0 0.96782977784512525 0.54371373511671095 0 0.54371373511671095 -1.2485363285971194 0 0 0 0 5.1262866989568465 12.262425863061878 0 12.262425863061878 -58.802978682869252 0 0 0 0 8.3167867918018601 5.5375809426532214 0 5.5375809426532214 -52.943718847602213 0 0 0 0 7.5095586009133228 0.31780118963890969 0 0.31780118963890969 0.029597822011641961 0 0 0 0 2.2597557863087463 -1.025949930969368 0 -1.025949930969368 -0.2003395395969747 0 0 0 0 27.195213543121099 0.79963989143192293 0 0.79963989143192293 -62.821960393865083 0 0 0 0 9.7619885062965039 -0.50562376975592649 0 -0.50562376975592649 -0.11353221660785606 0 0 0 0 15.629530514845754 -6.1307504457051367 0 -6.1307504457051367 -2.4266976843707435 0 0 0 0 -2.2119890583380766 -9.1259084258283565 0 -9.1259084258283565 -28.970916374549233 0 0 0 0 48.400425265208469 15.260624368308527 0 15.260624368308527 -80.147923106918824 0 0 0 0 -17.12386067078296 -28.675840117062307 0 -28.675840117062307 -24.330055488428115 0 0 0 0 16.034219752294504 -6.8033130733426761 0 -6.8033130733426761 -0.3637864542583979 0 0 0 0 40.63888261905231 -10.219467299997177 0 -10.219467299997177 -66.655473258231154 0 0 0 0 11.929592073664026 -18.765409646035934 0 -18.765409646035934 -31.784617046916992 0 0 0 0 44.931089575766237 7.0393898900563272 0 7.0393898900563272 -17.297202546133803 0 0 0 0 32.660848855914082 12.591594069540861 0 12.591594069540861 -47.956269325555951 0 0 0 0 6.4314894902104243 15.02212889616132 0 15.02212889616132 -21.940885498755961 0 0 0 0 30.572315727826208 -2.6543057821986622 0 -2.6543057821986622 -12.067487744178607 0 0 0 0 22.324075981096939 24.36086554376115 0 24.36086554376115 2.8210806005572522 0 0 0 0 32.483112812617037 22.871897825296628 0 22.871897825296628 6.0478096935761414 0 0 0 0 23.277819887405713 26.043478704433085 0 26.043478704433085 17.691260640406199 0 0 0 0 27.58977338720797 5.0536591694224171 0 5.0536591694224171 -3.4973211390438337 0 0 0 0 83.563833846585112 26.82192328691815 0 26.82192328691815 -0.58006069090288293 0 0 0 0 57.196741132393072 -39.228244035084799 0 -39.228244035084799 20.674244967916366 0 0 0 0 10.119481068126333 61.223186763620333 0 61.223186763620333 74.38066630988078 0 0 0 0 134.34006375590707 -50.092467041161868 0 -50.092467041161868 20.249222788860607 0 0 0 0 138.61168234480328 13.326556856299561 0 13.326556856299561 2.0422943157318514 0 0 0 0 -22.397439194181061 -35.807718217263073 0 -35.807718217263073 4.3758473112450815 0 0 0 0 -37.717020846328523 -7.5003918221225376 0 -7.5003918221225376 38.852802978438149 0 0 0 0 4.5147358377359055 -1.069615490679297 0 -1.069615490679297 -0.41846652346084667 0 0 0 0 -13.094826780194126 -40.56728792536137 0 -40.56728792536137 -16.910440078797819 0 0 0 0 13.622909837056113 -11.634295749318717 0 -11.634295749318717 5.4914475246501642 0 0 0 0 37.189328773497436 -18.825085064482657 0 -18.825085064482657 -8.6475800939304008 0 0 0 0 -1.2874778403929668 -2.5612633977632413 0 -2.5612633977632413 4.5228998617003446 0 0 0 0 17.385079532185827 -7.5078943648258587 0 -7.5078943648258587 -0.20661394149061785 0 0 0 0 14.716244585901222 -1.3142246028975251 0 -1.3142246028975251 -3.5778602159798538 0 0 0 0 12.794957361542661 -4.8462139065140875 0 -4.8462139065140875 -1.0735512686476056 0 0 0 0 17.832310323620646 -5.9213995143353841 0 -5.9213995143353841 -2.5396929677930609 0 0 0 0 10.648947964600666 -6.3053928028059829 0 -6.3053928028059829 0.071499526065053942 0 0 0 0 0.12701754688615097 -0.21038548052157502 0 -0.21038548052157502 -1.4720002482320991 0 0 0 0 32.10985790079576 -18.502324611463109 0 -18.502324611463109 -7.6866336050170503 0 0 0 0 31.380264591325613 -22.214132793609252 0 -22.214132793609252 -12.641145118206623 0 0 0 0 34.193354920855199 -13.421184827344405 0 -13.421184827344405 -8.8642523888379401 0 0 0 0 36.321056184846384 -23.282255361748639 0 -23.282255361748639 -12.989417777980293 0 0 0 0 22.252308980852831 -33.025383138540519 0 -33.025383138540519 -19.687324159955097 0 0 0 0 20.972318468848243 -17.944342309553349 0 -17.944342309553349 -8.632613562542339 0 0 0 0 48.405815415739198 -30.792219335361153 0 -30.792219335361153 -31.99918179435042 0 0 0 0 48.875395955830754 -11.689546920200712 0 -11.689546920200712 -22.082305074116562 0 0 0 0 55.652464362843602 -16.873134835268502 0 -16.873134835268502 -25.385254533896642 0 0 0 0 41.735891112606623 -20.866431633433422 0 -20.866431633433422 -26.31355318498214 0 0 0 0 44.239364661487343 -12.135943827618348 0 -12.135943827618348 -21.680051462591337 0 0 0 0 49.192556217218225 -1.5073754908419232 0 -1.5073754908419232 -19.614356985669019 0 0 0 0 48.06898840701615 -12.684277674614691 0 -12.684277674614691 -23.216292463951731 0 0 0 0 33.928164490775089 4.2320173167620396 0 4.2320173167620396 -10.45861309304496 0 0 0 0 35.955627172603272 -11.811788508024392 0 -11.811788508024392 -24.668933883526506 0 0 0 0 37.140312166676267 -13.323388095349927 0 -13.323388095349927 -21.383249821490153 0 0 0 0 38.259036542862304 -6.9210777974763005 0 -6.9210777974763005 -21.096862836217497 0 0 0 0 32.246201061003376 -5.5262217344857163 0 -5.5262217344857163 -20.424154282212612 0 0 0 0 27.096832869385253 -8.8638427176524601 0 -8.8638427176524601 -21.423286901575239 0 0 0 0 35.222063743975013 -10.93065296133841 0 -10.93065296133841 -23.283331225159145 0 0 0 0 33.701642539243039 -15.509412538199058 0 -15.509412538199058 -15.45680193757812 0 0 0 0 36.493966193885171 -22.348461435280541 0 -22.348461435280541 -18.748706230486277 0 0 0 0 35.470815949316602 -25.397528823222331 0 -25.397528823222331 -67.50774143936178 0 0 0 0 -10.410563668221585 -13.110911553127039 0 -13.110911553127039 25.152193569562542 0 0 0 0 10.68547863724234 -10.220809750069634 0 -10.220809750069634 -26.854701676674722 0 0 0 0 13.105361633210123 -2.5949722436243405 0 -2.5949722436243405 -4.4061084700229003 0 0 0 0 24.906660568100051 -0.62005698719758584 0 -0.62005698719758584 -18.455302249720717 0 0 0 0 18.506850597113953 2.8508023472043078 0 2.8508023472043078 -7.1409871040577855 0 0 0 0 19.643204673586297 6.2111324523643816 0 6.2111324523643816 1.8146200419306524 0 0 0 0 32.409974501482793 1.6043782703482066 0 1.6043782703482066 -12.070066685936126 0 0 0 0 23.56141403465881 -1.9484754913939923 0 -1.9484754913939923 -13.475118431216742 0 0 0 0 24.80447114080016 -2.9197882072874108 0 -2.9197882072874108 -17.918712545427752 0 0 0 0 31.90998632887522 0.18313152385914577 0 0.18313152385914577 -17.784671555220029 0 0 0 0 28.557609376584878 -5.6637318776149641 0 -5.6637318776149641 -17.572007661396128 0 0 0 0 20.802484591738903 -2.377590857861378 0 -2.377590857861378 -17.89533376500458 0 0 0 0 9.6140525040100329 -2.0378395919951799 0 -2.0378395919951799 -13.857461214522459 0 0 0 0 18.624596613502945 -3.3971127232794061 0 -3.3971127232794061 -14.733798621343794 0 0 0 0 12.405999322596472 3.1432540781427178 0 3.1432540781427178 -15.643002807492849 0 0 0 0 14.910032506551943 1.1503924653220565 0 1.1503924653220565 -15.551604161849355 0 0 0 0 17.784838542196667 2.9527594906908234 0 2.9527594906908234 -16.175705818601273 0 0 0 0 20.561531522489531 -1.0141989231459547 0 -1.0141989231459547 -3.6442873538844651 0 0 0 0 18.21176575597201 -3.8830058875659574 0 -3.8830058875659574 21.122266281120119 0 0 0 0 6.996161227223638 7.0605325576673295 0 7.0605325576673295 -14.990419839153674 0 0 0 0 0.58631464509662123 -0.67608854043817246 0 -0.67608854043817246 -2.7335559388630504 0 0 0 0 1.9875449194586494 -2.3043981915842835 0 -2.3043981915842835 1.1674615147080987 0 0 0 0 17.95207915584615 -12.655893088192443 0 -12.655893088192443 2.1733241826882477 0 0 0 0 13.905979569186457 7.276484224782962 0 7.276484224782962 -21.476430864699296 0 0 0 0 6.2361441634784569 1.3985723956527636 0 1.3985723956527636 -12.08876878076353 0 0 0 0 -0.12329771743958418 -0.86043141989092931 0 -0.86043141989092931 1.0350464702468063 0 0 0 0 77.291248363137129 -67.531287927379708 0 -67.531287927379708 51.608899083974393 0 0 0 0 -26.154645067777892 -0.6129988977377252 0 -0.6129988977377252 29.82176241781417 0 0 0 0 9.9191893422430439 -23.138270309989366 0 -23.138270309989366 25.706498524674316 0 0 0 0 45.320647363609169 -31.971350053440347 0 -31.971350053440347 31.80372447965658 0 0 0 0 0.13824611175792256 0.57409031433650259 0 0.57409031433650259 -0.23752674922002237 0 0 0 0 1.6793323835264857 -4.1750172499762312 0 -4.1750172499762312 1.9113510402693503 0 0 0 0 4.0382223482010886 -5.8335307490201558 0 -5.8335307490201558 -23.582240924991424 0 0 0 0 -35.363898909388809 -36.217704218127437 0 -36.217704218127437 13.678427367335644 0 0 0 0 17.803038162521261 -4.8639855414967315 0 -4.8639855414967315 -14.075865043644171 0 0 0 0 22.700735697934064 -9.4322093296575549 0 -9.4322093296575549 1.5963094607249126 0 0 0 0 -3.9872513137815986 -52.637567632493301 0 -52.637567632493301 -2.2141508307222466 0 0 0 0 4.8651873133057961 -52.772953654521189 0 -52.772953654521189 -8.2975937770734163 0 0 0 0 -26.666751046999707 -37.340870113092933 0 -37.340870113092933 -12.454712865986949 0 0 0 0 -22.593666604392638 -31.874580616524781 0 -31.874580616524781 -5.3931250646364788 0 0 0 0 -6.5170745526881149 -9.5300873897793181 0 -9.5300873897793181 3.1865964097911608 0 0 0 0 6.6476355871272972 -26.468678723981611 0 -26.468678723981611 46.875160520390637 0 0 0 0 19.511163759467308 -42.728154450513102 0 -42.728154450513102 -7.6833643312802451 0 0 0 0 -2.1582898572669365 -35.535601937493993 0 -35.535601937493993 -8.3187684383624401 0 0 0 0 -19.361262040576548 -20.532413384252322 0 -20.532413384252322 5.5526010948597104 0 0 0 0 6.6373822875175392 -26.086199044054922 0 -26.086199044054922 -2.2372595754277427 0 0 0 0 1.1321145628753584 -29.27089836347659 0 -29.27089836347659 -1.7873042246174009 0 0 0 0 20.811254540079972 -16.583309733214264 0 -16.583309733214264 4.7183023952602525 0 0 0 0 7.6304202616011025 -14.490816191564136 0 -14.490816191564136 6.8849899029337394 0 0 0 0 1.0533725647837855 -7.4093020890959451 0 -7.4093020890959451 20.351739064917638 0 0 0 0 26.309887692026678 -9.7179091295083708 0 -9.7179091295083708 8.5552106900322542 0 0 0 0 -1.7507388574013021 -2.6393200678512585 0 -2.6393200678512585 32.110893474477052 0 0 0 0 15.603011559083825 -1.5543487567974807 0 -1.5543487567974807 22.707686973366435 0 0 0 0 25.330242859548889 -32.379274510361938 0 -32.379274510361938 18.006400779174783 0 0 0 0 16.968782476702472 -38.668914206776208 0 -38.668914206776208 16.627777182403179 0 0 0 0 11.941451300961489 -46.43048391751131 0 -46.43048391751131 14.122812623856589 0 0 0 0 13.159416916052578 -42.714266548766318 0 -42.714266548766318 16.013136908039087 0 0 0 0 25.081234529003268 -38.855203118431746 0 -38.855203118431746 12.01483595532136 0 0 0 0 27.150326472481538 -74.571646713642622 0 -74.571646713642622 81.163600630662586 0 0 0 0 -6.1263843671804352 -44.109982537086353 0 -44.109982537086353 82.46070087019325 0 0 0 0 -19.645254624112567 -18.40480139408146 0 -18.40480139408146 77.761979645290012 0 0 0 0 66.942034010804491 -67.450904892315066 0 -67.450904892315066 -23.709424079537712 0 0 0 0 18.49324477268965 -67.345320522337715 0 -67.345320522337715 78.89852165475709 0 0 0 0 338.77844831712719 5.2993839265127463 0 5.2993839265127463 -76.561423376184393 0 0 0 0 130.83701357003883 31.375277156921584 0 31.375277156921584 37.098310033950838 0 0 0 0 138.84367981199466 133.00658115173792 0 133.00658115173792 -38.564714447600863 0 0 0 0 -8.7308154092897894 150.67262557976755 0 150.67262557976755 -36.807515584531302 0 0 0 0 -11.431499134265437 -126.75297867394295 0 -126.75297867394295 -121.68973879429177 0 0 0 0 235.61436499725096 -191.64725108716266 0 -191.64725108716266 -200.65805875258411 0 0 0 0 0.71420648789765551 0.74563772032521314 0 0.74563772032521314 -0.10818821169091564 0 0 0 0 290.28708770812955 -42.858430679251342 0 -42.858430679251342 278.65517518971137 0 0 0 0 7.6121328720510064 0.094862021386802553 0 0.094862021386802553 -30.565704017521966 0 0 0 0 30.004376313109418 -8.1548071857258204 0 -8.1548071857258204 0.94217076406614175 0 0 0 0 235.60290087712929 -160.28049237888627 0 -160.28049237888627 -209.07287638226808 0 0 0 0 -49.454194840582204 107.22036664553707 0 107.22036664553707 -198.95168071209429 0 0 0 0 -103.47915487066348 43.235174811849902 0 43.235174811849902 -47.550412540440448 0 0 0 0 -80.690411493502324 -4.934467480832609 0 -4.934467480832609 -6.2364743880916649 0 0 0 0 -47.627314838551683 -12.178808521732208 0 -12.178808521732208 -13.99077968376514 0 0 0 0 -24.945949916058453 5.4538098887205706 0 5.4538098887205706 -7.4451381812496038 0 0 0 0 -60.768138573301258 5.7625800447694928 0 5.7625800447694928 -5.522601091532124 0 0 0 0 -39.263099185031024 -18.858739129869718 0 -18.858739129869718 3.096995417979997 0 0 0 0 -48.165740697586443 -9.7313566202356014 0 -9.7313566202356014 -3.0798700361192459 0 0 0 0 -1.5514263736331486 33.598869714729517 0 33.598869714729517 -97.220233943844505 0 0 0 0 326.41172426656158 -170.21755238645653 0 -170.21755238645653 -201.61772724796174 0 0 0 0 -19.448795985963443 4.1620171984912417 0 4.1620171984912417 13.608725948692154 0 0 0 0 -13.687856845688657 -10.063098651742621 0 -10.063098651742621 4.9806657653880393 0 0 0 0 -20.888688818509763 -3.8662183231432437 0 -3.8662183231432437 5.8686625826885574 0 0 0 0 -14.432655758486362 -3.3945279768558976 0 -3.3945279768558976 15.301870167318611 0 0 0 0 -21.426418829476461 1.5250941187678109 0 1.5250941187678109 13.666721327052073 0 0 0 0 -9.3854207391123055 -9.5441141133296696 0 -9.5441141133296696 18.963249005357284 0 0 0 0 -7.2658432939788327 -6.3924437937639595 0 -6.3924437937639595 13.92930750315918 0 0 0 0 -25.426168794634577 -10.746734975519985 0 -10.746734975519985 12.886636126640951 0 0 0 0 -12.877984232531162 -8.7011507068509673 0 -8.7011507068509673 28.902274879746983 0 0 0 0 2.333696598696406 -5.2763005181254812 0 -5.2763005181254812 20.512264064538613 0 0 0 0 -7.1703029238196905 -6.1025865698957205 0 -6.1025865698957205 21.259392599389685 0 0 0 0 -18.983251557307085 -2.607839827072894 0 -2.607839827072894 21.541001058289112 0 0 0 0 -13.329910427688446 -5.0068034164837627 0 -5.0068034164837627 24.507786388310706 0 0 0 0 -3.2711854263179703 0.99756210012856172 0 0.99756210012856172 14.82987153432714 0 0 0 0 -14.582101750502432 6.3129597568582483 0 6.3129597568582483 14.550623908527996 0 0 0 0 3.6907605059886919 0.59551511413609148 0 0.59551511413609148 -0.6215058204564361 0 0 0 0 299.92972213015196 -259.73778491359752 0 -259.73778491359752 -145.71455774011474 0 0 0 0 25.475003449602809 68.901336484331296 0 68.901336484331296 47.358386809359786 0 0 0 0 377.62159567952767 138.42984351560926 0 138.42984351560926 103.6489063191857 0 0 0 0 0.80395774254581198 -0.16683995685291819 0 -0.16683995685291819 -0.73181040675664555 0 0 0 0 249.75566901848651 114.84797381645058 0 114.84797381645058 439.82794002397168 0 0 0 0 -35.461973268422298 -249.79423854104061 0 -249.79423854104061 365.2253514364902 0 0 0 0 1.5320000729461754 -1.244310754502294 0 -1.244310754502294 7.0789195185939207 0 0 0 0 1.5727825526102919 -1.1976245381621102 0 -1.1976245381621102 0.48907422978835635 0 0 0 0 91.444556137175823 -279.92811820823022 0 -279.92811820823022 141.61696076396856 0 0 0 0 93.624456587902387 -246.82905029450808 0 -246.82905029450808 -92.862615697479669 0 0 0 0 1.9344615365262143 -4.0360722484532516 0 -4.0360722484532516 -0.17521662348235623 0 0 0 0 0.10465757073708915 -3.726717144245562 0 -3.726717144245562 -3.8435500833229304 0 0 0 0 -6.7617441097247166 -9.4857020738670457 0 -9.4857020738670457 -2.967949521723158 0 0 0 0 2.1119308511115378 -9.2541924777797249 0 -9.2541924777797249 2.2658863588155782 0 0 0 0 3.1367391012245207 -10.098333262163578 0 -10.098333262163578 16.795932927609101 0 0 0 0 -7.3444842863682425 -14.053086372714915 0 -14.053086372714915 32.74687719360864 0 0 0 0 -0.42231886397914309 -6.2220386007436304 0 -6.2220386007436304 -4.5048290578479904 0 0 0 0 13.188528104386933 -3.7728589818459568 0 -3.7728589818459568 -7.2470261717178346 0 0 0 0 2.5318030380071832 -11.205144356592882 0 -11.205144356592882 -1.7523900925662019 0 0 0 0 6.1242089379367997 -7.3213659080276496 0 -7.3213659080276496 -2.0653479123015348 0 0 0 0 3.8821537127369083 -8.3911754743148776 0 -8.3911754743148776 -5.5770206100987707 0 0 0 0 14.591159755422268 -10.301296956125498 0 -10.301296956125498 -9.1811975717228052 0 0 0 0 5.6701240184993367 -0.99012783510715963 0 -0.99012783510715963 -2.4482699319023595 0 0 0 0 5.5095572642203479 -4.6859428666655276 0 -4.6859428666655276 -5.5395854943444647 0 0 0 0 6.5073103645047965 -1.458079772259083 0 -1.458079772259083 -5.7130919624695737 0 0 0 0 7.9985619878571015 30.804266169584025 0 30.804266169584025 -212.75819022695214 0 0 0 0 5.5803009398348422 -3.5403653850263659 0 -3.5403653850263659 -4.1942875295494311 0 0 0 0 5.0768396221646981 -3.7591619723257281 0 -3.7591619723257281 -3.2011736481190383 0 0 0 0 2.6099673923654052 -3.5698908263891727 0 -3.5698908263891727 -3.3890849267127692 0 0 0 0 4.3800412161544955 -3.4110122736691579 0 -3.4110122736691579 -3.2463548979573389 0 0 0 0 18.051783414382953 -41.540289774459779 0 -41.540289774459779 -54.529482094807463 0 0 0 0 40.802126000860881 -23.168438867809527 0 -23.168438867809527 -40.820685146650931 0 0 0 0 45.006077924255806 -39.890298320104193 0 -39.890298320104193 -26.28929179091574 0 0 0 0 44.56779335426836 -34.164565776837208 0 -34.164565776837208 -18.944311773706431 0 0 0 0 48.258132706258039 -37.568005909292879 0 -37.568005909292879 -51.600119493737111 0 0 0 0 40.313609121870854 -50.85413075125475 0 -50.85413075125475 -17.76986194590063 0 0 0 0 20.062543528649257 -43.966911018958854 0 -43.966911018958854 8.3350105900517519 0 0 0 0 31.304935789725278 -38.684431064441924 0 -38.684431064441924 8.572374117460754 0 0 0 0 30.32942043224466 -30.356750845836359 0 -30.356750845836359 12.567949649872389 0 0 0 0 21.201065126544563 -11.456699225196189 0 -11.456699225196189 -36.889185047364663 0 0 0 0 27.862616716673074 -29.031880796053883 0 -29.031880796053883 -0.68719876375052991 0 0 0 0 19.658193403299052 -2.7607691366612213 0 -2.7607691366612213 -2.9851252175780081 0 0 0 0 42.026604785216477 -0.63112503146430754 0 -0.63112503146430754 -93.205897938717499 0 0 0 0 36.106537282306817 -42.461429716490329 0 -42.461429716490329 -36.395960726606972 0 0 0 0 4.326798681559751 -3.2514763394032613 0 -3.2514763394032613 -1.932737900975396 0 0 0 0 25.442416208630902 1.1741714838034392 0 1.1741714838034392 -1.5978383702734238 0 0 0 0 25.005809608068375 -7.2221883075098958 0 -7.2221883075098958 -7.4209211448115013 0 0 0 0 17.661714809572004 4.7966041402964947 0 4.7966041402964947 12.456120353046572 0 0 0 0 36.520428969881323 -1.9788994277048459 0 -1.9788994277048459 -4.7180475072127592 0 0 0 0 15.347165065802983 -4.6203936117677529 0 -4.6203936117677529 -5.0171675858637172 0 0 0 0 11.814456098092464 2.8855365758033429 0 2.8855365758033429 -0.99122349549169897 0 0 0 0 20.366775287253859 11.538415761113129 0 11.538415761113129 -16.730125012862572 0 0 0 0 8.5282972874138068 -1.8800429816500355 0 -1.8800429816500355 -3.4027302848921863 0 0 0 0 12.310810037379269 -5.4504526643631834 0 -5.4504526643631834 -3.3777566695625865 0 0 0 0 6.762938398154013 -4.6793303886779967 0 -4.6793303886779967 -5.1545293979287798 0 0 0 0 12.29338752625938 -3.6198759076690763 0 -3.6198759076690763 -5.1840351216955671 0 0 0 0 8.2398367149394645 -5.733777808236006 0 -5.733777808236006 -0.78299391451390044 0 0 0 0 23.09088569263622 -3.8388061862669929 0 -3.8388061862669929 -6.2024691473570783 0 0 0 0 11.375844039028351 -1.2925028116703743 0 -1.2925028116703743 -4.7237003791881662 0 0 0 0 15.263852486015821 -6.8740382677569869 0 -6.8740382677569869 -5.0703839735015208 0 0 0 0 5.6927287812812537 -3.4773409227064391 0 -3.4773409227064391 -1.6773119775233836 0 0 0 0 14.097350864645705 -8.4594561518800901 0 -8.4594561518800901 -1.339308494449142 0 0 0 0 18.996312691560888 -8.1738750710665045 0 -8.1738750710665045 -8.1556629058929957 0 0 0 0 16.25010967286903 -2.1733254668168094 0 -2.1733254668168094 -4.1732491799559419 0 0 0 0 18.742546416033292 -5.9957388618236109 0 -5.9957388618236109 -5.0503774121048082 0 0 0 0 26.364278493005258 -12.162861897913672 0 -12.162861897913672 -0.068127835699215211 0 0 0 0 10.451425576444677 -4.3416456432801098 0 -4.3416456432801098 -5.8722693525335181 0 0 0 0 20.897188897779415 -8.7780775823039221 0 -8.7780775823039221 -5.1337452108987236 0 0 0 0 5.627246733238124 -5.928857136998829 0 -5.928857136998829 -2.8341547199876427 0 0 0 0 29.36173562289332 -10.722120210111598 0 -10.722120210111598 -1.6743323380951551 0 0 0 0 16.690929755983234 0.10521161783435673 0 0.10521161783435673 -1.2977847217430281 0 0 0 0 4.1383106212665979 0.092833013711626222 0 0.092833013711626222 -1.4353328737431212 0 0 0 0 27.110998724365345 -6.9828416425536943 0 -6.9828416425536943 -5.255041872926995 0 0 0 0 23.413721475248167 -11.216328522745243 0 -11.216328522745243 0.34248293494931659 0 0 0 0 17.203486652859283 -7.4671428512790499 0 -7.4671428512790499 -0.30007361358457274 0 0 0 0 4.6685771399835083 2.9654594135329901 0 2.9654594135329901 -5.8759876162352951 0 0 0 0 23.053098291931747 25.21276602467124 0 25.21276602467124 14.217298924285103 0 0 0 0 0.083829965562443931 0.5612638625482731 0 0.5612638625482731 -0.96385682756757052 0 0 0 0 96.120161271712277 -15.148926249560304 0 -15.148926249560304 4.9673423774559069 0 0 0 0 24.690561002375034 -6.8061376439279684 0 -6.8061376439279684 -0.28807107455713776 0 0 0 0 139.00349397125319 1.8483782216000577 0 1.8483782216000577 5.5164364402609181 0 0 0 0 119.91779885204596 21.863512220084829 0 21.863512220084829 -12.171441041303467 0 0 0 0 266.35392574031721 45.475782698382943 0 45.475782698382943 -28.417061856225587 0 0 0 0 43.094560418918263 71.248028001329999 0 71.248028001329999 -8.491440377430024 0 0 0 0 2.6969190333595776 0.39387934417668191 0 0.39387934417668191 -0.11497395302006397 0 0 0 0 1.1464191246705013 -9.81965489949107 0 -9.81965489949107 -7.8949519946286273 0 0 0 0 3.6039218030957443 -1.3691924330077114 0 -1.3691924330077114 -3.7191517996090617 0 0 0 0 2.7423221269636997 -16.77423996262462 0 -16.77423996262462 21.938071373555772 0 0 0 0 24.613287394255167 -27.649834153295615 0 -27.649834153295615 -12.399741370421225 0 0 0 0 5.1683002481529385 -2.0924369662015039 0 -2.0924369662015039 -3.2395443950843914 0 0 0 0 12.965760691957257 -3.8416040984708388 0 -3.8416040984708388 -4.9763007048945838 0 0 0 0 0.78011707423731025 0.26458572845910311 0 0.26458572845910311 1.3693739590287315 0 0 0 0 326.40161198248825 -23.95434492450795 0 -23.95434492450795 1.853803046717303 0 0 0 0 -0.036054922814471979 0.20958438375064148 0 0.20958438375064148 -0.18527994917098067 0 0 0 0 232.60136351968686 -129.23424911708344 0 -129.23424911708344 29.86045903540446 0 0 0 0 152.80444961087051 -198.97408306859393 0 -198.97408306859393 11.166317638086639 0 0 0 0 186.22681575677416 -138.98812440366737 0 -138.98812440366737 108.67139363850777 0 0 0 0 8.7671961713077593 1.4134976495917613 0 1.4134976495917613 -1.2194262206999764 0 0 0 0 17.791822414179478 -4.6507515245112359 0 -4.6507515245112359 -37.34940668278341 0 0 0 0 105.44186302740127 -87.164208392303408 0 -87.164208392303408 224.41943260840014 0 0 0 0 162.5453737608259 -320.27671180736706 0 -320.27671180736706 327.17326405714812 0 0 0 0 -87.001879057845144 -244.65465694042314 0 -244.65465694042314 99.373333049976281 0 0 0 0 179.94232510964503 -213.30824920522491 0 -213.30824920522491 -104.36832653451074 0 0 0 0 9.4429915902337598 -3.0133463738190471 0 -3.0133463738190471 -4.0893746633437331 0 0 0 0 170.26910771153052 8.6673247882481519 0 8.6673247882481519 -14.337835680082208 0 0 0 0 5.8972490621607534 0.59118754171134924 0 0.59118754171134924 -1.772024204728794 0 0 0 0 -8.1230768740206258 -164.01706917779757 0 -164.01706917779757 217.80921991455489 0 0 0 0 21.419588547898456 -197.33849759548298 0 -197.33849759548298 187.23183986906588 0 0 0 0 -29.271676864444089 -90.384984639824722 0 -90.384984639824722 43.499938442441817 0 0 0 0 -27.147787338370108 -228.95394007616028 0 -228.95394007616028 167.41298499064214 0 0 0 0 -50.87538569085882 -183.98648775367474 0 -183.98648775367474 215.62472608286964 0 0 0 0 103.01364419888705 6.182869335297255 0 6.182869335297255 214.19761949089479 0 0 0 0 302.85117564420943 -162.62856644310932 0 -162.62856644310932 -26.092261283713924 0 0 0 0 13.62229397525698 15.730054998578453 0 15.730054998578453 9.8343175363888804 0 0 0 0 6.7664122083115217 3.2286471812201398 0 3.2286471812201398 3.6781536869036699 0 0 0 0 -7.0814958471405589 7.9171536407632743 0 7.9171536407632743 17.21334541721717 0 0 0 0 -9.0019992900606667 -4.9343940825738173 0 -4.9343940825738173 10.154115602492311 0 0 0 0 4.2395494645388681 -7.0876865515228928 0 -7.0876865515228928 -11.797266509895849 0 0 0 0 7.0508682790850798 1.0696532887376975 0 1.0696532887376975 1.5870201141055986 0 0 0 0 5.8618502584842958 3.0428273567646436 0 3.0428273567646436 0.2879031281607789 0 0 0 0 6.1043609074076812 -3.017222249419774 0 -3.017222249419774 4.1158658706699498 0 0 0 0 52.753244266076763 204.60296163739696 0 204.60296163739696 1.6272746225602077 0 0 0 0 6.809352974898502 2.6847833635347342 0 2.6847833635347342 2.9640850074351874 0 0 0 0 -64.980338465338889 40.350406408240815 0 40.350406408240815 -4.6441113553821083 0 0 0 0 5.6597613566065519 1.321819422717823 0 1.321819422717823 1.2274053152064817 0 0 0 0 12.021603401410175 -0.022164498224100271 0 -0.022164498224100271 3.8697622088645289 0 0 0 0 474.61280119193179 62.435490234950777 0 62.435490234950777 -112.37031308865562 0 0 0 0 -60.318952468594944 -154.87908163389872 0 -154.87908163389872 142.95313028517455 0 0 0 0 250.06166804371287 -74.50010364843402 0 -74.50010364843402 -26.634632305959826 0 0 0 0 153.5275518438516 -78.341299114779062 0 -78.341299114779062 -25.921730578300071 0 0 0 0 16.760419995133816 -44.611377996405444 0 -44.611377996405444 23.811833444043543 0 0 0 0 -96.514744676751434 -96.576419267623805 0 -96.576419267623805 -77.162638638783392 0 0 0 0 -144.06358139827717 -101.09217196454324 0 -101.09217196454324 -8.4442446408565957 0 0 0 0 2.8552771887799295 -3.3109394472196811 0 -3.3109394472196811 4.6244722961304321 0 0 0 0 -132.65562138929454 -20.700784799499388 0 -20.700784799499388 -9.5049143442065542 0 0 0 0 -81.194410485724802 -59.680308203018512 0 -59.680308203018512 8.102879449440394 0 0 0 0 -27.982935832173098 -14.363045929158034 0 -14.363045929158034 -19.373986346647143 0 0 0 0 -58.612388087669387 -100.64927046073092 0 -100.64927046073092 -67.274011459741359 0 0 0 0 -71.304846481002642 -39.283622509654464 0 -39.283622509654464 -4.0350314979923496 0 0 0 0 -301.6137449273956 -140.12268360892267 0 -140.12268360892267 -87.202417313798833 0 0 0 0 -71.09726128213606 -42.868600470995545 0 -42.868600470995545 -95.412455107408277 0 0 0 0 2.2106789437275225 -1.4071744535938144 0 -1.4071744535938144 -0.19635169979358658 0 0 0 0 -118.52883420106446 -122.52033851826968 0 -122.52033851826968 -24.58861739382678 0 0 0 0 4.6176599894847357 -4.8679824497098707 0 -4.8679824497098707 3.6849556503142393 0 0 0 0 -99.675631949998206 -73.226376800201706 0 -73.226376800201706 -66.392474852529176 0 0 0 0 -102.85104653854069 -51.187416394047204 0 -51.187416394047204 -21.232591887216358 0 0 0 0 45.264819984033238 -71.295184982814817 0 -71.295184982814817 -31.216725942031871 0 0 0 0 48.888604411182314 -13.848463798500575 0 -13.848463798500575 -10.766894666894814 0 0 0 0 -40.614172467883691 -44.580981999646667 0 -44.580981999646667 23.338075613002729 0 0 0 0 -26.17261100885662 -29.94764943272412 0 -29.94764943272412 47.534198709222174 0 0 0 0 183.3319633673982 12.365564045353381 0 12.365564045353381 8.2907326799677321 0 0 0 0 45.604194920381815 -20.243136574630398 0 -20.243136574630398 98.408787685848893 0 0 0 0 245.63892889946146 -60.676833984232417 0 -60.676833984232417 74.772644491532787 0 0 0 0 358.16284089037708 168.5364922920933 0 168.5364922920933 80.38702355010696 0 0 0 0 143.9187038344553 67.225151098942263 0 67.225151098942263 11.593576492084594 0 0 0 0 39.575874007241509 -9.6441814493891798 0 -9.6441814493891798 34.530457972669296 0 0 0 0 104.96787725005197 -52.643807987233231 0 -52.643807987233231 -26.652615735352583 0 0 0 0 7.7325537418032582 -27.275814984520579 0 -27.275814984520579 -23.765320529279052 0 0 0 0 29.895284378202632 -65.556602434291108 0 -65.556602434291108 -53.28992151578791 0 0 0 0 156.55739762242956 30.010322555393714 0 30.010322555393714 -37.602383361049078 0 0 0 0 34.287984087910445 33.995392895082205 0 33.995392895082205 -20.410367026281165 0 0 0 0 79.307261474910774 -12.483205650300874 0 -12.483205650300874 -71.648873884223576 0 0 0 0 -2.8891023399046389 0.89662324272239857 0 0.89662324272239857 -35.576406210232562 0 0 0 0 3.0586749967515061 -55.986062400169885 0 -55.986062400169885 -84.251872639532735 0 0 0 0 -23.746079977769114 -28.504709354362149 0 -28.504709354362149 -78.469227555729503 0 0 0 0 26.679395028571889 -48.292073463857378 0 -48.292073463857378 -128.03603547664738 0 0 0 0 0.4751939849622886 -2.1632194312475814 0 -2.1632194312475814 -0.67879881021794553 0 0 0 0 -54.83171084150581 -88.919783051414697 0 -88.919783051414697 -56.891324358641668 0 0 0 0 4.3200318922055629 -3.4952268807554105 0 -3.4952268807554105 0.48725927187826379 0 0 0 0 0.13556716912822253 -2.1355398784223949 0 -2.1355398784223949 -0.33114926899408159 0 0 0 0 2.921655770012876 -13.259462595460832 0 -13.259462595460832 6.7365244332480927 0 0 0 0 10.641701748317246 -4.4884239102744345 0 -4.4884239102744345 -3.8753989859437752 0 0 0 0 26.560077592928792 2.2251235608147795 0 2.2251235608147795 -1.8049265318450125 0 0 0 0 11.510509120103848 -74.434096500975784 0 -74.434096500975784 -71.194772723241385 0 0 0 0 433.08626359585833 215.45876967016511 0 215.45876967016511 74.205645645732602 0 0 0 0 669.44240902477395 55.620655359162583 0 55.620655359162583 -31.827903782306976 0 0 0 0 465.29467669866301 26.608698213349275 0 26.608698213349275 -39.513338943776489 0 0 0 0 385.80178217347202 51.268911959721663 0 51.268911959721663 -22.812055421352852 0 0 0 0 235.25078580016998 84.675161418116886 0 84.675161418116886 15.440628378310066 0 0 0 0 386.50581751371885 109.20377140728365 0 109.20377140728365 -1.8940426553594989 0 0 0 0 291.40920313551396 62.217328633537818 0 62.217328633537818 42.430909460902058 0 0 0 0 197.91141445222092 149.94908470722976 0 149.94908470722976 51.639160432839887 0 0 0 0 2.6254754477889222 -2.4272536052946876 0 -2.4272536052946876 2.8996150023680602 0 0 0 0 118.38871345433927 10.861543908247086 0 10.861543908247086 27.941152716341549 0 0 0 0 138.10479341041355 101.45198771563128 0 101.45198771563128 37.670732491136732 0 0 0 0 0.67485305722493649 -0.66569402722621618 0 -0.66569402722621618 1.5105125668015944 0 0 0 0 177.4306051027379 49.603784370306812 0 49.603784370306812 20.169877382706773 0 0 0 0 235.55133113459669 121.31323413245138 0 121.31323413245138 19.38192324467127 0 0 0 0 143.99413924736291 88.329464578515626 0 88.329464578515626 27.230234184735593 0 0 0 0 147.48154034292565 75.633024865723314 0 75.633024865723314 -93.071972888644723 0 0 0 0 205.9125233492814 9.1867480705859634 0 9.1867480705859634 -34.109511786185777 0 0 0 0 187.40934807094163 -28.258491236614645 0 -28.258491236614645 17.349828730698619 0 0 0 0 90.577075950331164 51.484554111593368 0 51.484554111593368 211.63918783499912 0 0 0 0 148.09418593080272 17.679034415219036 0 17.679034415219036 9.9082264428857343 0 0 0 0 163.24540546765638 56.048156738788066 0 56.048156738788066 -40.45671100492882 0 0 0 0 263.76573047713373 115.71084405656634 0 115.71084405656634 106.02229626794042 0 0 0 0 252.94687024020823 46.412782719760571 0 46.412782719760571 48.019102994354725 0 0 0 0 3.7526779259813381 -3.6185216388100621 0 -3.6185216388100621 4.1248627898980939 0 0 0 0 56.769873313000062 -243.03511007187058 0 -243.03511007187058 859.29909071548354 0 0 0 0 2.2223348246085948 -1.8954155092598342 0 -1.8954155092598342 2.4276304409685814 0 0 0 0 1068.1659704754347 -180.98555059306818 0 -180.98555059306818 162.07435159521515 0 0 0 0 1515.3923248889187 -362.28379827860635 0 -362.28379827860635 383.09737868570119 0 0 0 0 1049.1396236681358 -171.03108161586215 0 -171.03108161586215 1379.0242413734131 0 0 0 0 949.1686000290938 370.84799465594006 0 370.84799465594006 -6.8436616109788702 0 0 0 0 852.93054121841124 -249.1692919832617 0 -249.1692919832617 155.05511773260741 0 0 0 0 549.51078895550017 -311.72630750558301 0 -311.72630750558301 -74.193158854955527 0 0 0 0 458.28663435501949 88.029785578308747 0 88.029785578308747 -156.54519869015931 0 0 0 0 753.16157213995029 -281.40932566830952 0 -281.40932566830952 -340.40501204533257 0 0 0 0 1027.6943226560579 -519.19336659052567 0 -519.19336659052567 11.052535648890625 0 0 0 0 838.79928637469129 -120.103243000764 0 -120.103243000764 162.85119545401631 0 0 0 0 1733.8301307564154 -526.81534086249576 0 -526.81534086249576 323.83709075641673 0 0 0 0 1146.0719393164472 -525.48164204849172 0 -525.48164204849172 1252.2872523005763 0 0 0 0 700.76790439718025 -465.95406950355436 0 -465.95406950355436 351.00901475756632 0 0 0 0 1189.66198371071 -517.15033791240967 0 -517.15033791240967 355.59811847282435 0 0 0 0 610.13003796667908 -728.14207646841396 0 -728.14207646841396 477.8443553127529 0 0 0 0 820.44202278781813 -734.04693681770004 0 -734.04693681770004 471.81744360571793 0 0 0 0 573.96050910381018 -600.48886378544898 0 -600.48886378544898 -24.126057110348484 0 0 0 0 359.38046989291979 -472.73635853706355 0 -472.73635853706355 220.05981145933765 0 0 0 0 366.60834824564472 -426.22449811671117 0 -426.22449811671117 149.3552184923692 0 0 0 0 436.7683725246643 -370.69721864091616 0 -370.69721864091616 -11.236989246152234 0 0 0 0 448.53485057425451 -305.80678967276083 0 -305.80678967276083 -42.078682135474082 0 0 0 0 233.96313546921374 -203.33068004757627 0 -203.33068004757627 172.27516761810011 0 0 0 0 245.30390688357147 -286.86566844325694 0 -286.86566844325694 401.82016072670876 0 0 0 0 82.577375104774546 -94.911912059433575 0 -94.911912059433575 143.62945110787655 0 0 0 0 0.59935376529993789 -0.16209312596917247 0 -0.16209312596917247 0.15735773606967995 0 0 0 0 261.8412474426259 -106.50255825656905 0 -106.50255825656905 5.0343120574257227 0 0 0 0 169.40077520812702 -109.85871668967548 0 -109.85871668967548 27.474896211459736 0 0 0 0 565.19489052953941 -72.97455829885962 0 -72.97455829885962 -113.18878070670735 0 0 0 0 123.7478503153834 103.67366302520452 0 103.67366302520452 -69.984812383494273 0 0 0 0 7.7552330119964239 -5.6632717854665628 0 -5.6632717854665628 -0.58981209268642321 0 0 0 0 718.01635482265556 -43.009684199438937 0 -43.009684199438937 -5.348995448272035 0 0 0 0 338.60079144258634 41.204125538247126 0 41.204125538247126 -23.580689427250263 0 0 0 0 15.396652240147638 -15.296838681149449 0 -15.296838681149449 6.9604841600712328 0 0 0 0 934.93597153824157 -473.95997890279614 0 -473.95997890279614 -403.05151412028385 0 0 0 0 1503.2529631115249 -119.26058153293002 0 -119.26058153293002 -410.23223284511278 0 0 0 0 1086.6986668011996 757.1243135836653 0 757.1243135836653 90.156660225096857 0 0 0 0 733.31401819220628 -205.48482893104233 0 -205.48482893104233 -347.32755234753574 0 0 0 0 544.87774613197689 -349.90925897576699 0 -349.90925897576699 -201.95030302408804 0 0 0 0 518.36304569008644 -295.23742683292494 0 -295.23742683292494 -90.871601902103521 0 0 0 0 565.7233420413213 -402.39969716205474 0 -402.39969716205474 -75.984036518536868 0 0 0 0 787.9456979561528 -107.10374985375 0 -107.10374985375 -224.97861951110099 0 0 0 0 101.95422075030729 -328.94400326029586 0 -328.94400326029586 -173.14938290130112 0 0 0 0 576.54653905441592 -428.28444057588325 0 -428.28444057588325 -335.43186959554851 0 0 0 0 579.58412774731823 -582.27156817422315 0 -582.27156817422315 -309.24023093736446 0 0 0 0 341.21337958163713 32.917998540528515 0 32.917998540528515 -1139.4483432386239 0 0 0 0 -125.16999017371563 -116.50526528539717 0 -116.50526528539717 -52.726333234910385 0 0 0 0 13.464559752618527 3.3851646966413149 0 3.3851646966413149 0.044032867769695949 0 0 0 0 197.43307716030904 134.29768762793719 0 134.29768762793719 -727.50498605694452 0 0 0 0 367.54632887036132 179.98554916045691 0 179.98554916045691 -583.76230318719877 0 0 0 0 268.36516425408627 -206.20205259752424 0 -206.20205259752424 -283.01662412554379 0 0 0 0 16.823163553104678 -30.418807157662286 0 -30.418807157662286 -10.713597880562048 0 0 0 0 25.833734614723653 -26.02037925130702 0 -26.02037925130702 -25.099928840643543 0 0 0 0 15.61676728366001 -2.5403063903869452 0 -2.5403063903869452 -30.036610847429984 0 0 0 0 39.065960903977157 -27.955332417040424 0 -27.955332417040424 -11.902851496064613 0 0 0 0 11.444016429708029 -0.52115183118621111 0 -0.52115183118621111 0.051382771612813682 0 0 0 0 58.069803024307475 -3.8910535408292617 0 -3.8910535408292617 -32.092444713834993 0 0 0 0 -7.3026294714218238 5.4445302798671946 0 5.4445302798671946 2.0540276471627976 0 0 0 0 48.977804605063284 33.530860340338222 0 33.530860340338222 -81.314724142654086 0 0 0 0 4.2887561755778734 -9.4188149265064567 0 -9.4188149265064567 -27.823213739334278 0 0 0 0 -1.073991465801555 -51.132596943905241 0 -51.132596943905241 -40.355835030083654 0 0 0 0 11.747445632209605 -1.8191970522244112 0 -1.8191970522244112 -1.5866216305917038 0 0 0 0 17.027906680233571 -9.7108176329303166 0 -9.7108176329303166 -1.2869762794951742 0 0 0 0 13.325480065475858 -3.4506297012626419 0 -3.4506297012626419 -10.860053294115005 0 0 0 0 -10.645432410688954 -16.067973715665175 0 -16.067973715665175 18.659567474446703 0 0 0 0 8.8575042618359845 -0.72575947060536095 0 -0.72575947060536095 -3.7384346508687045 0 0 0 0 10.016836611219333 -9.3306248624467116 0 -9.3306248624467116 -9.7095419827473961 0 0 0 0 0.63658588916463543 -10.665844028758269 0 -10.665844028758269 0.095456359908844546 0 0 0 0 97.83842976744927 -17.662453542369803 0 -17.662453542369803 -46.720803733904177 0 0 0 0 -1.1155841566997964 -6.424706061746349 0 -6.424706061746349 -0.43164884140402393 0 0 0 0 -36.988673059240682 -18.636590485501074 0 -18.636590485501074 6.3863629757738636 0 0 0 0 28.775209478426227 -5.0355126355776711 0 -5.0355126355776711 -11.762444439097713 0 0 0 0 15.971080631967197 8.9648229190906932 0 8.9648229190906932 -2.056785256531839 0 0 0 0 -91.179963626695098 -46.736533853643778 0 -46.736533853643778 11.559462873605753 0 0 0 0 -72.199791137481952 -59.012493383595938 0 -59.012493383595938 59.092587718915411 0 0 0 0 134.92205606805601 -10.095064084989758 0 -10.095064084989758 -47.609538363414686 0 0 0 0 22.130809940159452 -24.4321083480948 0 -24.4321083480948 -7.0320957928183816 0 0 0 0 19.731612461651764 -16.875843113606582 0 -16.875843113606582 3.8044609388838122 0 0 0 0 -71.525273992923758 -53.804967604670537 0 -53.804967604670537 -3.97069110845365 0 0 0 0 18.692208973465313 -24.756529399189276 0 -24.756529399189276 -6.9276075319583015 0 0 0 0 5.9410285535996081 -27.559473833293396 0 -27.559473833293396 4.3615987564389798 0 0 0 0 19.770056199007421 -14.81074723823005 0 -14.81074723823005 0.66291953972749074 0 0 0 0 21.996023970797978 -127.52796007226652 0 -127.52796007226652 -11.775048805208201 0 0 0 0 20.225314067734871 -19.494405215334268 0 -19.494405215334268 7.1908841140837012 0 0 0 0 16.273186121899926 -22.699472114196851 0 -22.699472114196851 1.3307467977822398 0 0 0 0 8.9973717968805289 -8.7160000466477783 0 -8.7160000466477783 -5.1282232918329766 0 0 0 0 12.615173869264254 -18.814137281764829 0 -18.814137281764829 19.41521985492318 0 0 0 0 21.403606963285711 -16.714558129167017 0 -16.714558129167017 18.026679405305458 0 0 0 0 17.585123973043665 -23.425114231915273 0 -23.425114231915273 37.070621102532186 0 0 0 0 20.5088000061005 -7.9106417550869992 0 -7.9106417550869992 32.419381548573256 0 0 0 0 18.783723305932654 -24.166162137014453 0 -24.166162137014453 7.7616765511274934 0 0 0 0 18.759957652058802 -30.204138516299395 0 -30.204138516299395 8.9732447163819415 0 0 0 0 27.156619127119484 -26.953903595252086 0 -26.953903595252086 -9.7827587841088643 0 0 0 0 30.257961078670633 -41.370127301120192 0 -41.370127301120192 15.448727551729235 0 0 0 0 44.036632274248404 -20.235709301533234 0 -20.235709301533234 -5.6232184006785246 0 0 0 0 14.810588601889322 -11.331365759953769 0 -11.331365759953769 30.462563962179502 0 0 0 0 28.375199351816264 -53.700970328339054 0 -53.700970328339054 120.2527284510038 0 0 0 0 75.242990195969469 71.595696993994352 0 71.595696993994352 50.09956800913983 0 0 0 0 0.62713301947420064 -1.4307232631460804 0 -1.4307232631460804 0.62571956256375527 0 0 0 0 12.468760754914001 40.975308531624279 0 40.975308531624279 -23.404342572708629 0 0 0 0 5.8329030634636183 -6.0656272487426577 0 -6.0656272487426577 -15.187933729526776 0 0 0 0 34.962518559652381 28.516845478393105 0 28.516845478393105 -67.102293375551156 0 0 0 0 32.054129193725657 -0.46426152162509737 0 -0.46426152162509737 -8.310082683774958 0 0 0 0 34.796802307601411 28.974311957705861 0 28.974311957705861 -16.993910460258348 0 0 0 0 31.405816559292361 18.260751165294607 0 18.260751165294607 -236.03512668954863 0 0 0 0 29.906502656895242 -3.0600602262198535 0 -3.0600602262198535 -7.8315183491247122 0 0 0 0 24.169057401333703 -3.4316129390792867 0 -3.4316129390792867 -14.870827942818323 0 0 0 0 5.3387367290141157 2.5779287597914227 0 2.5779287597914227 -4.1275692242125617 0 0 0 0 18.563722049668286 -14.054292020216849 0 -14.054292020216849 -5.5796087717626506 0 0 0 0 -17.45018279987562 203.1172790285168 0 203.1172790285168 -585.23099281085911 0 0 0 0 11.566383606437995 -4.3443299036381084 0 -4.3443299036381084 -3.4870359515020928 0 0 0 0 25.239151391400426 -10.673407891072292 0 -10.673407891072292 1.2719548808074874 0 0 0 0 -531.3646642435051 -1888.146628489824 0 -1888.146628489824 491.697487843609 0 0 0 0 2758.2757723407485 -1231.7929107871435 0 -1231.7929107871435 -169.30276947349012 0 0 0 0 -1508.6301102709658 442.23760411815113 0 442.23760411815113 452.1675841430324 0 0 0 0 65.31983394465351 -322.73364865401794 0 -322.73364865401794 526.19679094414914 0 0 0 0 88.580175196322671 -324.36051913454844 0 -324.36051913454844 322.31647768930031 0 0 0 0 -456.8764237222058 587.03648097269047 0 587.03648097269047 -328.71059200807849 0 0 0 0 -480.93297923829232 131.15935751526692 0 131.15935751526692 276.52170618425907 0 0 0 0 -120.59365088426421 105.48658489582044 0 105.48658489582044 -10.993313299451756 0 0 0 0 -122.17324757530878 165.42666664520891 0 165.42666664520891 -39.62606421137707 0 0 0 0 -202.40929468509421 -0.75195014058030551 0 -0.75195014058030551 115.22327618538189 0 0 0 0 -88.833824853940314 -176.93935291811869 0 -176.93935291811869 349.08508674862259 0 0 0 0 -9.9104936646981514 -68.071326312992497 0 -68.071326312992497 104.96428938119936 0 0 0 0 221.82041241015395 -236.19448261173613 0 -236.19448261173613 57.834441823081761 0 0 0 0 228.72412318948045 -59.602306326959344 0 -59.602306326959344 155.54428106550992 0 0 0 0 1493.2692720382547 -469.40248329563855 0 -469.40248329563855 148.99844190945572 0 0 0 0 984.13716529659723 -76.618134745631437 0 -76.618134745631437 -191.05223400589153 0 0 0 0 198.0643307664759 -49.589121539202338 0 -49.589121539202338 -10.589333872263751 0 0 0 0 450.79776733205654 -208.3755948908406 0 -208.3755948908406 -127.83376684941538 0 0 0 0 409.08518021467899 -100.07136736518521 0 -100.07136736518521 -12.777848148312643 0 0 0 0 189.74221841955296 -71.134356054798999 0 -71.134356054798999 3.9284960328644729 0 0 0 0 29.835219826607499 -45.27402906538282 0 -45.27402906538282 -110.98174202551036 0 0 0 0 -1.3471848296298958 -1.1809574289014542 0 -1.1809574289014542 -0.65297698082659916 0 0 0 0 -1.4855475584336091 25.837810273803598 0 25.837810273803598 -0.13414668100668337 0 0 0 0 42.212828494608402 -44.627821548971042 0 -44.627821548971042 29.480025067836038 0 0 0 0 -37.920031184075924 -22.046548265603285 0 -22.046548265603285 35.240656609373453 0 0 0 0 -5.5095699845873867 -2.4358313228669317 0 -2.4358313228669317 -0.46562115408090898 0 0 0 0 -5.5255377182802476 28.009530719257846 0 28.009530719257846 37.184706079952747 0 0 0 0 -5.4536945421281757 1.1700693616789692 0 1.1700693616789692 1.2424510270201021 0 0 0 0 -3.5944341627928225 -0.86950261433731413 0 -0.86950261433731413 -1.5651595012943744 0 0 0 0 -3.5112385070933669 -0.43644355818122449 0 -0.43644355818122449 -0.35074569242215148 0 0 0 0 -4.5426811402259375 -1.158000993524066 0 -1.158000993524066 0.15222264050183465 0 0 0 0 -1.1974209700448739 5.2756947940694303 0 5.2756947940694303 -3.8368172178328859 0 0 0 0 -44.441576901619555 37.861159041182908 0 37.861159041182908 36.496058807610261 0 0 0 0 -57.104624379615416 66.144875677884812 0 66.144875677884812 22.713646794223472 0 0 0 0 -434.30502743788747 621.3874325776286 0 621.3874325776286 53.036447507552765 0 0 0 0 38.044265803099378 17.636672541576885 0 17.636672541576885 -5.0780810006322321 0 0 0 0 -271.59702538261581 -104.20171846136049 0 -104.20171846136049 163.31029485855515 0 0 0 0 -150.17424251074044 -183.47224746502172 0 -183.47224746502172 13.041430708967937 0 0 0 0 6.9787092052536792 1.6669991264758721 0 1.6669991264758721 -0.15586361330651766 0 0 0 0 -76.629570479995891 134.54350519056209 0 134.54350519056209 242.6898299736838 0 0 0 0 1042.4859374666885 329.57883915366051 0 329.57883915366051 -327.00930709853537 0 0 0 0 -266.74476935106577 -65.832714422663685 0 -65.832714422663685 410.87819756300223 0 0 0 0 564.05573440017906 486.58881658972791 0 486.58881658972791 658.82138867209619 0 0 0 0 1089.5696907014685 -355.9866042984375 0 -355.9866042984375 219.59713711428458 0 0 0 0 1993.1736077376991 655.40158010088589 0 655.40158010088589 259.76039059879258 0 0 0 0 1622.0854401923862 -843.56401280771706 0 -843.56401280771706 1886.4267794442603 0 0 0 0 -897.69226911805163 -116.09213057915531 0 -116.09213057915531 -178.31156634754188 0 0 0 0 1812.0774937408951 -1689.5871074232937 0 -1689.5871074232937 615.46537896080645 0 0 0 0 -1645.428292003402 -355.34012140776986 0 -355.34012140776986 1469.0085065963399 0 0 0 0 1.9133611049880841 -5.0269365300384479 0 -5.0269365300384479 3.4579319366244006 0 0 0 0 4416.8545998914051 905.72686224940298 0 905.72686224940298 189.84461608640777 0 0 0 0 -1.1827653446572413 -3.3495268425724856 0 -3.3495268425724856 0.81006332750140408 0 0 0 0 1899.2504652656644 29.074003784437082 0 29.074003784437082 666.73090773561762 0 0 0 0 3686.794441258462 1329.5864086823376 0 1329.5864086823376 -62.487754045027259 0 0 0 0 540.29575909073719 212.34813755839241 0 212.34813755839241 1386.0562314913714 0 0 0 0 4922.3311336143706 -334.74702253295891 0 -334.74702253295891 526.70366821086736 0 0 0 0 2394.2504909137933 -736.31679601196652 0 -736.31679601196652 763.52208168609513 0 0 0 0 1324.3072167632818 488.20372175858779 0 488.20372175858779 33.181546019425014 0 0 0 0 1753.6784067121662 161.36724871932006 0 161.36724871932006 -343.94970009301915 0 0 0 0 13.239732907638817 -7.8496976356045778 0 -7.8496976356045778 -0.99473338878016104 0 0 0 0 1403.0148411350142 38.337268729710161 0 38.337268729710161 135.46761317112941 0 0 0 0 1028.5314151904131 47.993418377588995 0 47.993418377588995 360.84303997654297 0 0 0 0 24.324652254230386 -13.835525910278051 0 -13.835525910278051 -2.9618805921227249 0 0 0 0 12.483397134950792 -21.135401776577737 0 -21.135401776577737 -7.3803232560858305 0 0 0 0 2210.5738588965032 -555.77126668756136 0 -555.77126668756136 -690.07047639707889 0 0 0 0 -1422.997345719421 -812.12871701490621 0 -812.12871701490621 172.20769314284098 0 0 0 0 11.72276052150076 -15.30992704103782 0 -15.30992704103782 6.4995862407178731 0 0 0 0 3144.806305960371 780.14969020359342 0 780.14969020359342 -90.113207810283257 0 0 0 0 6.1434370650683832 -6.9334998959445144 0 -6.9334998959445144 8.7156285335788759 0 0 0 0 -1051.007408573334 -262.46682055795821 0 -262.46682055795821 -693.31447871519094 0 0 0 0 1122.9718788534228 557.80379808520047 0 557.80379808520047 428.50200008670276 0 0 0 0 845.56814079899414 223.99191866812211 0 223.99191866812211 2.8130874060054794 0 0 0 0 839.64513563871878 159.49667279965578 0 159.49667279965578 120.99866421834588 0 0 0 0 553.95154129424191 -120.92339849657054 0 -120.92339849657054 -76.225657080564304 0 0 0 0 806.52035605561105 4.6192206885817768 0 4.6192206885817768 -74.897603473425306 0 0 0 0 839.15085452669155 184.08889731331146 0 184.08889731331146 40.168414155678875 0 0 0 0 740.32965775738558 75.660966199713158 0 75.660966199713158 -39.161495968338954 0 0 0 0 269.31089835076273 367.15892553758533 0 367.15892553758533 133.35041206282222 0 0 0 0 910.3552310388659 114.17008086686241 0 114.17008086686241 45.390135666442916 0 0 0 0 9.0746566941411544 -3.5990955116848511 0 -3.5990955116848511 0.68188276643906187 0 0 0 0 25.417450205616724 -20.49722835786875 0 -20.49722835786875 13.348359159227762 0 0 0 0 -163.6502231126251 -669.86072063945721 0 -669.86072063945721 -676.99849610760793 0 0 0 0 840.73249505447075 171.53685550471644 0 171.53685550471644 24.005279015827455 0 0 0 0 1214.8900634995007 -638.92711095707773 0 -638.92711095707773 -801.70997377143658 0 0 0 0 380.37591389875161 -220.34043549242006 0 -220.34043549242006 -152.61793495399434 0 0 0 0 39.744068553941361 480.08516672863192 0 480.08516672863192 -693.73086559295098 0 0 0 0 40.997197399479603 11.741635697865249 0 11.741635697865249 -8.408989243419569 0 0 0 0 885.09568191809558 456.70391073054498 0 456.70391073054498 -716.78175660661736 0 0 0 0 23.586342705122661 -37.479191553493649 0 -37.479191553493649 15.186817166399223 0 0 0 0 5.4811073812379618 92.257768200762484 0 92.257768200762484 -9.0442531319822592 0 0 0 0 19.161295389159932 -52.31228264953279 0 -52.31228264953279 96.667198120808621 0 0 0 0 238.48172215012528 52.725920750888008 0 52.725920750888008 35.477545245356396 0 0 0 0 28.145249734290701 -36.708538316805516 0 -36.708538316805516 23.247325948141622 0 0 0 0 104.8877571430985 116.38371494592448 0 116.38371494592448 -25.540872614668501 0 0 0 0 0.24687514244298825 -1.2468972836953753 0 -1.2468972836953753 1.5373437719790441 0 0 0 0 566.45659815198451 -191.22257644627416 0 -191.22257644627416 29.41288882397555 0 0 0 0 279.11564496540814 16.933730959120993 0 16.933730959120993 10.148247101461038 0 0 0 0 161.52114396671095 -36.444326514028759 0 -36.444326514028759 24.234524438200708 0 0 0 0 377.83591019966843 109.07189487468175 0 109.07189487468175 -64.190387436176024 0 0 0 0 7.3069322210724863 -0.4965341699060275 0 -0.4965341699060275 0.73049592131487207 0 0 0 0 -9.1624784588893817 -13.297131850489123 0 -13.297131850489123 129.60894356729887 0 0 0 0 415.40971545150387 36.815970831765071 0 36.815970831765071 6.7242308259105528 0 0 0 0 481.18817253477027 22.471559395369262 0 22.471559395369262 -0.8300693524566114 0 0 0 0 694.5762844020901 -3.8322148472935567 0 -3.8322148472935567 -69.818302550829969 0 0 0 0 560.09228398615232 62.768059076240775 0 62.768059076240775 -85.340781502940501 0 0 0 0 621.66022743933718 -50.595592118827824 0 -50.595592118827824 -50.000703872894462 0 0 0 0 702.74728590448285 -40.975203928439669 0 -40.975203928439669 -89.281258309064015 0 0 0 0 633.0138688339066 16.515099865457216 0 16.515099865457216 77.01501026809737 0 0 0 0 603.40942631955841 -94.875132385940105 0 -94.875132385940105 -71.202983657215498 0 0 0 0 581.74452045580256 -80.567584638066535 0 -80.567584638066535 -71.451411575961842 0 0 0 0 554.99735267860524 -48.805581759414395 0 -48.805581759414395 -73.504164057301182 0 0 0 0 556.71071844487278 -82.411700982221717 0 -82.411700982221717 4.4860053760332903 0 0 0 0 561.05425253068097 -116.83438617997982 0 -116.83438617997982 62.105493911649774 0 0 0 0 555.75104660385114 -56.629874782415385 0 -56.629874782415385 -33.462652942694987 0 0 0 0 465.69825148394011 7.7110946242097658 0 7.7110946242097658 42.925699881448963 0 0 0 0 508.8672320330661 -65.606670643231553 0 -65.606670643231553 73.808573970416532 0 0 0 0 485.73384441342205 -40.637292383136298 0 -40.637292383136298 159.25708553410792 0 0 0 0 486.14864035193023 33.578107114325533 0 33.578107114325533 16.553734368690371 0 0 0 0 482.74000993095979 38.397674636384963 0 38.397674636384963 42.657119490576633 0 0 0 0 566.43459593290754 81.403382143753106 0 81.403382143753106 64.443566596158547 0 0 0 0 501.41820939512763 -69.429499499246475 0 -69.429499499246475 -28.644419446673325 0 0 0 0 400.38824838805886 -4.4611454421496148 0 -4.4611454421496148 3.8183835407682096 0 0 0 0 420.8118935459097 -15.827143383754768 0 -15.827143383754768 -0.12787011962857336 0 0 0 0 393.31295095802125 -15.921629258139101 0 -15.921629258139101 80.649567843774349 0 0 0 0 365.75628929974482 77.126688028461757 0 77.126688028461757 43.533590782718321 0 0 0 0 256.48312206122137 9.5345024767999753 0 9.5345024767999753 76.928236435325786 0 0 0 0 333.70424005361019 -92.779491665018497 0 -92.779491665018497 145.4514359582875 0 0 0 0 406.99785753897595 -57.115671577638736 0 -57.115671577638736 0.13224790956321797 0 0 0 0 516.91023474118629 -97.650359539053795 0 -97.650359539053795 -0.021850087780006456 0 0 0 0 450.72130365874727 -136.40057079428499 0 -136.40057079428499 93.187531779965411 0 0 0 0 3.2529181068438788 -0.61384278032897743 0 -0.61384278032897743 0.028638465326602289 0 0 0 0 31.944947431256878 -10.165858161293137 0 -10.165858161293137 -16.410522635785341 0 0 0 0 9.2185648494414636 -98.385145075042786 0 -98.385145075042786 -93.405057565750155 0 0 0 0 18.86220345289621 23.502524547156384 0 23.502524547156384 -94.078510001397632 0 0 0 0 -131.96880477936065 -77.740021232618133 0 -77.740021232618133 77.525588558620157 0 0 0 0 3.0486815606226685 -0.49909644558228505 0 -0.49909644558228505 -0.07477258055598493 0 0 0 0 2.63487729888584 -16.284434815498315 0 -16.284434815498315 -20.323323947947358 0 0 0 0 5.5659240779350512 -3.4233214408312804 0 -3.4233214408312804 2.8973856135049099 0 0 0 0 4.3237554441614918 -1.3707031305447281 0 -1.3707031305447281 0.029028181673338919 0 0 0 0 33.481085979918134 5.0894558646430639 0 5.0894558646430639 5.4924084012688894 0 0 0 0 -31.103037057808251 -21.550834167697218 0 -21.550834167697218 3.9318354499059751 0 0 0 0 -8.4017964703161852 -5.8800455473955537 0 -5.8800455473955537 17.83536016945429 0 0 0 0 -5.4383923682612476 -0.87144335518974358 0 -0.87144335518974358 12.878357810444584 0 0 0 0 -17.057644139735203 6.4174211723749508 0 6.4174211723749508 21.690483728240565 0 0 0 0 -1.4145130450997385 14.254021698970014 0 14.254021698970014 18.193196752314122 0 0 0 0 -1.2961702839327387 -1.0237627895563861 0 -1.0237627895563861 0.088546307020629045 0 0 0 0 -14.522121966780105 -36.242507077413137 0 -36.242507077413137 38.470988873822137 0 0 0 0 39.173761146036668 29.900208175123623 0 29.900208175123623 46.659779561991286 0 0 0 0 163.91983607539441 20.224540225200428 0 20.224540225200428 38.175637205313166 0 0 0 0 40.626393781958541 15.40360139933615 0 15.40360139933615 82.158176596181306 0 0 0 0 -110.72672368650092 5.5341432326627853 0 5.5341432326627853 81.514661094839482 0 0 0 0 490.00684289395576 -89.722041030423725 0 -89.722041030423725 -53.888091562256044 0 0 0 0 470.123713667228 -45.812284553641007 0 -45.812284553641007 -56.250320589493299 0 0 0 0 227.50429033521505 -24.594828421460363 0 -24.594828421460363 6.9187007860773519 0 0 0 0 227.22483732017281 -25.934019891625155 0 -25.934019891625155 13.092201001037068 0 0 0 0 387.0745501155543 -1.898048401461125 0 -1.898048401461125 -41.063758039780964 0 0 0 0 255.53928098542383 114.03822104309799 0 114.03822104309799 -45.921835314560326 0 0 0 0 440.82906661150628 5.811862307410621 0 5.811862307410621 -53.495032955715544 0 0 0 0 253.23950567416614 112.04665214639573 0 112.04665214639573 -78.028658696589574 0 0 0 0 497.06130848791508 -21.262623310047729 0 -21.262623310047729 -59.505341054213098 0 0 0 0 1.3731143685158429 0.12066558447634712 0 0.12066558447634712 -0.053019506990290066 0 0 0 0 1.9801876145837412 -0.38128387853309464 0 -0.38128387853309464 0.0035134348666961608 0 0 0 0 604.83681954478379 -123.76751229426627 0 -123.76751229426627 -12.514158943713454 0 0 0 0 599.1017240818037 -11.785299610247883 0 -11.785299610247883 -101.49183767739396 0 0 0 0 462.30378173971258 55.806535532633006 0 55.806535532633006 -71.734617455882415 0 0 0 0 55.428749015758513 78.079901341517029 0 78.079901341517029 6.5345331156975863 0 0 0 0 -19.489773986184446 129.5932572133961 0 129.5932572133961 24.221826064207903 0 0 0 0 -42.476328399635349 -78.942992429987086 0 -78.942992429987086 88.409539240907435 0 0 0 0 -50.564260935735092 57.088947920646447 0 57.088947920646447 -11.646125598559507 0 0 0 0 230.17572455925983 -91.716420535612656 0 -91.716420535612656 -1.6098943479643175 0 0 0 0 242.75152854100452 -156.8917170382781 0 -156.8917170382781 72.550461691372249 0 0 0 0 480.2342252964736 -76.485005274489325 0 -76.485005274489325 2.2420466437184388 0 0 0 0 533.21031541198681 -133.69777036941909 0 -133.69777036941909 5.3990974290337626 0 0 0 0 636.58976055017047 -13.612429857930891 0 -13.612429857930891 -6.2698287279160709 0 0 0 0 258.30512598452333 -151.16634737553957 0 -151.16634737553957 19.326621707883785 0 0 0 0 278.78788328015071 -92.386177640672884 0 -92.386177640672884 3.4799718608774057 0 0 0 0 280.4547582463565 -126.4586151001903 0 -126.4586151001903 3.4566287601951853 0 0 0 0 92.127204554646596 -12.878637775904432 0 -12.878637775904432 0.10364000375533382 0 0 0 0 16.538345733220922 -48.845980074470162 0 -48.845980074470162 50.12977307004887 0 0 0 0 12.395320312988133 -3.1823388800703136 0 -3.1823388800703136 -4.8475646951740767 0 0 0 0 -43.452386373726767 25.767140695049548 0 25.767140695049548 37.724062971388705 0 0 0 0 -9.6193652563379146 55.32037741577517 0 55.32037741577517 -64.102632630830314 0 0 0 0 3.0984642144321697 10.200104659410488 0 10.200104659410488 -43.344235607388896 0 0 0 0 -13.043246769531379 13.389582458413962 0 13.389582458413962 -15.829591522708959 0 0 0 0 -11.601041393594642 -9.5827998356005359 0 -9.5827998356005359 -46.305264094817673 0 0 0 0 -7.9931364114927419 20.843775011141286 0 20.843775011141286 -1.9173260776009595 0 0 0 0 -2.4893449772753229 4.2966567910433273 0 4.2966567910433273 0.0080251025357985853 0 0 0 0 6.6200177971513767 7.0106184328038958 0 7.0106184328038958 -9.9226301685969123 0 0 0 0 7.8932112840993796 2.9371469571581881 0 2.9371469571581881 -10.824939737943071 0 0 0 0 12.822557492108899 -5.3595041536216614 0 -5.3595041536216614 -0.02121227739510715 0 0 0 0 25.808946003595338 -42.240822536616882 0 -42.240822536616882 15.4392153727185 0 0 0 0 43.686950614937814 -9.7568641641727591 0 -9.7568641641727591 -16.791376403434015 0 0 0 0 21.891562967601203 8.8461439895586427 0 8.8461439895586427 -28.943620530821633 0 0 0 0 2.6393354965839535 3.291081671206153 0 3.291081671206153 -9.4101619819181845 0 0 0 0 5.7096935128174664 -3.7898251955309545 0 -3.7898251955309545 0.024815916217387941 0 0 0 0 9.545867582779465 -7.6103682217298205 0 -7.6103682217298205 2.6166231537577218 0 0 0 0 -15.824934439340723 -8.279518507138846 0 -8.279518507138846 3.2817930653197203 0 0 0 0 -0.13446686724637402 -2.5430785141071803 0 -2.5430785141071803 2.6721617800490343 0 0 0 0 6.6816871652008558 -7.4126716473673246 0 -7.4126716473673246 -22.812139378580248 0 0 0 0 1.6133838797509554 -0.073061682382650872 0 -0.073061682382650872 -0.10048345328976464 0 0 0 0 -7.2963406398921506 25.682956145468335 0 25.682956145468335 -60.440441816447304 0 0 0 0 16.273520292088506 19.088560633059558 0 19.088560633059558 -33.948996948879305 0 0 0 0 -8.1353953237266978 10.960196283117408 0 10.960196283117408 -10.940233018292901 0 0 0 0 9.5168542441460886 29.357906686741515 0 29.357906686741515 -5.5301786565680118 0 0 0 0 -9.6673835229084943 25.41974917696265 0 25.41974917696265 2.947377906575845 0 0 0 0 -69.932063055304752 -10.673166307252822 0 -10.673166307252822 21.028863887112852 0 0 0 0 13.800049858175043 11.967190772942416 0 11.967190772942416 -30.103456008782054 0 0 0 0 1.065077212943379 -0.23055585529338729 0 -0.23055585529338729 -0.012478220836420702 0 0 0 0 -53.6879071182193 -6.0758511926645724 0 -6.0758511926645724 21.706849576456698 0 0 0 0 0.86416629260736499 -0.086250138679744737 0 -0.086250138679744737 -0.48519814048475213 0 0 0 0 0.79801368815884643 -0.65790256801510782 0 -0.65790256801510782 0.18530027941487895 0 0 0 0 -8.0390375429269625 0.34651285738335957 0 0.34651285738335957 1.3989667596116711 0 0 0 0 112.09532858592866 -48.641559049968393 0 -48.641559049968393 -62.879638129634031 0 0 0 0 -56.735367776658677 -6.8182884029981903 0 -6.8182884029981903 27.963642940408484 0 0 0 0 -19.925512891320977 0.085129305975314651 0 0.085129305975314651 0.40809088173948282 0 0 0 0 0.32971390967239245 -0.50382804410982374 0 -0.50382804410982374 0.10276414326021285 0 0 0 0 -4.0189698681497248 1.474019770628626 0 1.474019770628626 1.0953382427395582 0 0 0 0 -16.373496402098681 5.6402376436721369 0 5.6402376436721369 0.64205910529480548 0 0 0 0 -11.776519966242631 -2.371532248862593 0 -2.371532248862593 0.89248838484513726 0 0 0 0 -3.8764098563440825 -1.7931799249006701 0 -1.7931799249006701 -0.089224830091216567 0 0 0 0 -2.4896964398722048 -2.0108962240594224 0 -2.0108962240594224 -0.40421979612236214 0 0 0 0 1.2481499937566696 -2.872855926415383 0 -2.872855926415383 -2.6705724971872655 0 0 0 0 1.8256521723233163 -0.86132798880261419 0 -0.86132798880261419 0.69576468976076455 0 0 0 0 -3.7297401444957359 -15.657528065996591 0 -15.657528065996591 3.96784991107873 0 0 0 0 2.5351434169213292 -2.2867499096761321 0 -2.2867499096761321 0.46129385506685644 0 0 0 0 1.3895531133093755 -4.9064250831119409 0 -4.9064250831119409 -1.0878018672805183 0 0 0 0 -2.9797928529824276 -2.9426045585384628 0 -2.9426045585384628 -1.1357149541601075 0 0 0 0 8.9639778851778829 1.181366130431428 0 1.181366130431428 -5.3918140406400425 0 0 0 0 -0.69896661893290002 -1.5220989586667315 0 -1.5220989586667315 -4.9311577085510976 0 0 0 0 -6.7833386594957119 5.885053285484986 0 5.885053285484986 1.1087528217233285 0 0 0 0 3.9162583525612717 -6.1283417495050401 0 -6.1283417495050401 -8.8930234206838463 0 0 0 0 0.12011122671675878 -0.42058430056727047 0 -0.42058430056727047 0.83808291823832048 0 0 0 0 -8.6404065499373246 -11.371987639665008 0 -11.371987639665008 -5.786690863730314 0 0 0 0 -55.281829429091886 10.240345732808009 0 10.240345732808009 8.8067518830891913 0 0 0 0 -2.0910255214694189 -8.7810347677444156 0 -8.7810347677444156 -5.1338468640271202 0 0 0 0 -0.30896194638155805 -0.73429843907586445 0 -0.73429843907586445 1.0803984684218737 0 0 0 0 -18.507907864095614 3.2443700093350358 0 3.2443700093350358 0.60110237035010528 0 0 0 0 -22.903567685047165 5.1113378246628685 0 5.1113378246628685 0.83873622585681318 0 0 0 0 -23.120410534011341 23.235938709689613 0 23.235938709689613 20.251768020012065 0 0 0 0 -15.396671088354196 7.8847676789936543 0 7.8847676789936543 15.74941338919885 0 0 0 0 -45.975954119896414 17.171657106547691 0 17.171657106547691 25.225174732478138 0 0 0 0 -39.9494188487879 -18.405461806161355 0 -18.405461806161355 -6.0266030821794985 0 0 0 0 9.3813265770155283 3.0053462489955622 0 3.0053462489955622 18.083640358577128 0 0 0 0 83.606027864516363 -2.3345170106604982 0 -2.3345170106604982 13.688056864903785 0 0 0 0 -5.6017756751462002 29.637171761887402 0 29.637171761887402 50.111885966714851 0 0 0 0 60.894448377901426 -93.04924935459988 0 -93.04924935459988 110.36345036240924 0 0 0 0 48.073061260191025 22.342507664855606 0 22.342507664855606 125.2481014529465 0 0 0 0 27.21907656879921 -22.229821909781499 0 -22.229821909781499 38.240049252871842 0 0 0 0 -10.637500188837294 -62.512472269887951 0 -62.512472269887951 48.65257782331264 0 0 0 0 -78.415298250256456 -24.884084175920208 0 -24.884084175920208 15.772188313393286 0 0 0 0 -63.902530898150872 19.295385202319835 0 19.295385202319835 -12.200267035775653 0 0 0 0 -26.136389176928787 -16.63897796852396 0 -16.63897796852396 21.288576376480805 0 0 0 0 -9.979437363173929 9.7038465751946319 0 9.7038465751946319 16.755961836830863 0 0 0 0 -11.305103378734202 -41.178879677759937 0 -41.178879677759937 -50.13031665579831 0 0 0 0 -5.4556830846413504 -40.715442416212227 0 -40.715442416212227 -28.437613757117504 0 0 0 0 -143.15791263367282 -68.484204132882041 0 -68.484204132882041 110.35311446639048 0 0 0 0 -8.176557459306423 -29.141993699097313 0 -29.141993699097313 -33.936793386973022 0 0 0 0 -0.32922318642616766 -0.48364759021809789 0 -0.48364759021809789 -0.034886308354380446 0 0 0 0 -23.646985932369716 -96.225798875470446 0 -96.225798875470446 9.8623625328166895 0 0 0 0 119.39740393817374 -30.237165931876277 0 -30.237165931876277 -10.784119291317211 0 0 0 0 0.14631520466359405 -0.27162003608590624 0 -0.27162003608590624 0.1725459201175874 0 0 0 0 -34.34965812714654 -50.018517207600667 0 -50.018517207600667 61.282050619428446 0 0 0 0 49.117308176442748 -79.560817891064858 0 -79.560817891064858 39.684010051413622 0 0 0 0 42.577982701011933 -53.108472566225515 0 -53.108472566225515 24.782358542455597 0 0 0 0 -21.574274302303365 -59.773715279424763 0 -59.773715279424763 49.196802974719958 0 0 0 0 25.834150366346876 -63.776251413777231 0 -63.776251413777231 43.089836210178362 0 0 0 0 81.888398340030108 -31.649281248993447 0 -31.649281248993447 -26.226480286709602 0 0 0 0 31.331002792179333 -34.637078825099088 0 -34.637078825099088 -45.711431142555966 0 0 0 0 31.9259212025122 -28.444486516593606 0 -28.444486516593606 -22.31554453277181 0 0 0 0 -29.754735737409646 -0.92988490116687217 0 -0.92988490116687217 -16.355357003529775 0 0 0 0 6.7555099647597672 -25.711548359085569 0 -25.711548359085569 31.380172633606207 0 0 0 0 53.043416188200354 17.269064554542865 0 17.269064554542865 2.6954794618301605 0 0 0 0 4.2999201467464445 -74.359774544685479 0 -74.359774544685479 -11.338121092974234 0 0 0 0 19.330163841661602 -13.32918288836882 0 -13.32918288836882 5.8049511237612075 0 0 0 0 148.37635387721821 -106.73564591086733 0 -106.73564591086733 -6.2295778082554989 0 0 0 0 76.879206632293062 43.55434843003377 0 43.55434843003377 -64.602416931033531 0 0 0 0 7.8330210408530547 -32.037094477751737 0 -32.037094477751737 -0.51627205740032878 0 0 0 0 3.0294423751911381 6.4189358240053025 0 6.4189358240053025 3.6522868139359161 0 0 0 0 1.0510339949387344 -1.8587762894970439 0 -1.8587762894970439 0.22397170321952087 0 0 0 0 -23.286829932971159 -0.069809829274163349 0 -0.069809829274163349 32.931447597255101 0 0 0 0 44.380093296218547 -28.894317011128237 0 -28.894317011128237 11.101596999370202 0 0 0 0 24.089977272284159 -11.780789391691172 0 -11.780789391691172 16.107633684423149 0 0 0 0 16.642814641651057 3.7585309324317677 0 3.7585309324317677 2.0443367169315252 0 0 0 0 24.138447411380184 19.162963359914016 0 19.162963359914016 30.790536911949403 0 0 0 0 -18.949943988714949 -1.6539520808257748 0 -1.6539520808257748 22.985888808752115 0 0 0 0 16.67244741326067 38.239123349481247 0 38.239123349481247 39.466962391929655 0 0 0 0 5.2153615201527543 11.196754026295249 0 11.196754026295249 16.380436386643169 0 0 0 0 5.2664607793666391 5.6644466710742636 0 5.6644466710742636 7.0871081417114965 0 0 0 0 1.492872860929424 -2.3474155127342868 0 -2.3474155127342868 4.0147728393956772 0 0 0 0 12.845825588381558 13.90035265236142 0 13.90035265236142 10.681376997290045 0 0 0 0 32.958927805389976 10.567117612051618 0 10.567117612051618 -3.0663436774427169 0 0 0 0 32.695887477901124 4.6897501313794123 0 4.6897501313794123 -10.57559330117229 0 0 0 0 61.411153192431811 24.3859149531919 0 24.3859149531919 1.143588836707977 0 0 0 0 79.040267232798215 -10.626204586411916 0 -10.626204586411916 -25.224241477575191 0 0 0 0 215.39988194271427 -43.759425645353815 0 -43.759425645353815 -6.1238142725761335 0 0 0 0 67.169689195625324 -11.661275972665905 0 -11.661275972665905 -12.970016644977136 0 0 0 0 111.99846004211577 77.879004504541086 0 77.879004504541086 16.79567739285585 0 0 0 0 29.970529713405995 15.353011841021839 0 15.353011841021839 12.218205020022197 0 0 0 0 50.359548742853804 23.69355537412099 0 23.69355537412099 15.62282559443301 0 0 0 0 11.95354803702503 38.681383331381262 0 38.681383331381262 59.451910447224492 0 0 0 0 2.4644724121856427 0.67745248461018903 0 0.67745248461018903 0.25462673951065151 0 0 0 0 8.843920358318428 69.12978885106034 0 69.12978885106034 34.684282435695991 0 0 0 0 107.62652003607582 -99.241191716091947 0 -99.241191716091947 61.528339435293631 0 0 0 0 194.39242773277601 -78.00760798617236 0 -78.00760798617236 -6.7867862905907259 0 0 0 0 152.17193310352013 49.088085627848002 0 49.088085627848002 35.634509929745498 0 0 0 0 138.23694843112753 -57.598417901256653 0 -57.598417901256653 -13.343701932576039 0 0 0 0 15.360191508458229 -48.917967798499348 0 -48.917967798499348 34.617377521371033 0 0 0 0 87.285694669611985 -82.076731852907159 0 -82.076731852907159 21.790656651305124 0 0 0 0 51.900183413185005 -24.648845688997255 0 -24.648845688997255 10.239722040404047 0 0 0 0 14.0113306489975 -24.63862678745912 0 -24.63862678745912 22.108320978450507 0 0 0 0 37.844543958213762 -29.49568082403789 0 -29.49568082403789 -21.425428519850165 0 0 0 0 9.5771963194029013 15.126628193329264 0 15.126628193329264 -33.169050422248773 0 0 0 0 -6.8693885408647475 34.496297863744772 0 34.496297863744772 -20.955304683049548 0 0 0 0 -33.398107749831979 8.0948497135505235 0 8.0948497135505235 16.858705529744618 0 0 0 0 22.61788933679918 -38.746318231878938 0 -38.746318231878938 34.027021223910822 0 0 0 0 -180.45289367303485 -210.78332727640262 0 -210.78332727640262 92.732564736942251 0 0 0 0 0.51178437744701455 -0.83396562768341909 0 -0.83396562768341909 1.4182413978956798 0 0 0 0 -91.628544693478034 29.226270033054746 0 29.226270033054746 59.621150292140726 0 0 0 0 13.298099504198035 26.628950128920593 0 26.628950128920593 6.0989508546114166 0 0 0 0 5.6627988879263285 60.711215754145961 0 60.711215754145961 -21.48683909611265 0 0 0 0 39.593258378656174 17.344136550401146 0 17.344136550401146 -78.513269002054585 0 0 0 0 7.7188742995131179 -43.946229367174077 0 -43.946229367174077 -44.428775160031691 0 0 0 0 4.8798422748961912 0.98447073045512923 0 0.98447073045512923 0.057470560209656268 0 0 0 0 182.00080511793931 -8.1158147048431228 0 -8.1158147048431228 -94.579210398291906 0 0 0 0 43.792319204891101 -9.1753575804944596 0 -9.1753575804944596 24.443493968288038 0 0 0 0 13.241935337551695 -14.124993138429922 0 -14.124993138429922 23.683223276414637 0 0 0 0 16.121541728796728 -28.637660920216966 0 -28.637660920216966 25.901641133107788 0 0 0 0 62.826553395629162 -40.723193438013851 0 -40.723193438013851 19.312318062779525 0 0 0 0 76.859178949576744 -42.467859175462777 0 -42.467859175462777 30.763972746291536 0 0 0 0 71.160695797625522 -23.36763579557833 0 -23.36763579557833 30.514149430731148 0 0 0 0 34.288176796359039 -20.669381433320769 0 -20.669381433320769 40.479402292624776 0 0 0 0 94.280887993823853 17.35975293718478 0 17.35975293718478 36.939125924717622 0 0 0 0 30.648957092991623 0.53224589485393514 0 0.53224589485393514 40.334361492627217 0 0 0 0 0.80920423834135136 -0.098230760282001839 0 -0.098230760282001839 -0.019090044606938781 0 0 0 0 86.154376107617281 -67.738094622984804 0 -67.738094622984804 0.90035169087387601 0 0 0 0 78.357896009256365 -19.114649478432845 0 -19.114649478432845 44.0522082510969 0 0 0 0 133.48262309048005 -52.671032370716105 0 -52.671032370716105 -11.859625711504663 0 0 0 0 108.09763192859828 -23.115957830551093 0 -23.115957830551093 -9.1206029029939408 0 0 0 0 63.305973045327846 34.035260495408998 0 34.035260495408998 -27.005597389517174 0 0 0 0 74.961751971906779 5.4224819266643074 0 5.4224819266643074 -10.249209996692493 0 0 0 0 51.159102510046068 -4.6987362089600548 0 -4.6987362089600548 -0.018159930262306521 0 0 0 0 35.257812419542461 14.4255756577938 0 14.4255756577938 -1.5131481682711243 0 0 0 0 69.923344771916163 -9.1167559800702485 0 -9.1167559800702485 9.5825242640957278 0 0 0 0 80.319660631687839 -9.9015029857220505 0 -9.9015029857220505 0.0073503449950286272 0 0 0 0 89.987876016388327 0.5103580921246782 0 0.5103580921246782 11.091340985094146 0 0 0 0 92.363334074852901 -2.7604774231542719 0 -2.7604774231542719 -0.0018537774495022581 0 0 0 0 103.81088829559303 -0.21920192201666344 0 -0.21920192201666344 6.7267923550468911 0 0 0 0 93.558872348585282 1.4915772839652353 0 1.4915772839652353 6.6246039638971519 0 0 0 0 0.30835572163212888 0.10347078930249154 0 0.10347078930249154 0.016323848907739982 0 0 0 0 177.76445664014227 -10.693203706135913 0 -10.693203706135913 -18.913380774904418 0 0 0 0 156.56433581078818 -5.1642046848579106 0 -5.1642046848579106 0.025969313663273094 0 0 0 0 134.56521752743356 -26.401751147320201 0 -26.401751147320201 -10.907971171263046 0 0 0 0 122.12772578289696 -10.379627769056853 0 -10.379627769056853 -0.037034933313647586 0 0 0 0 130.06907745392164 -35.794367885177131 0 -35.794367885177131 -8.9297518074058058 0 0 0 0 129.80808503947446 -34.829389340835846 0 -34.829389340835846 -11.737238575473306 0 0 0 0 165.89129754953319 -14.909760229530994 0 -14.909760229530994 -18.562558571311328 0 0 0 0 167.25222688947542 -18.404184728874291 0 -18.404184728874291 -14.584693714042368 0 0 0 0 187.27921309682279 -13.380725468545359 0 -13.380725468545359 -19.804585352763542 0 0 0 0 171.85837777234701 -26.304711313131495 0 -26.304711313131495 -6.9049102936005387 0 0 0 0 185.54671627344214 -42.090947850590524 0 -42.090947850590524 -13.958963492453993 0 0 0 0 117.43401470871322 -51.308356442098152 0 -51.308356442098152 1.5696787011540216 0 0 0 0 113.62449620275584 -76.689650085110472 0 -76.689650085110472 32.284135386389707 0 0 0 0 3.6435847897373606 6.8451966294847466 0 6.8451966294847466 57.567775394383347 0 0 0 0 98.877198641275754 -108.39316847337712 0 -108.39316847337712 83.159425919090367 0 0 0 0 -4.1701695494703017 -20.268335166720107 0 -20.268335166720107 37.242547588173252 0 0 0 0 238.45534643323481 -86.910171765378564 0 -86.910171765378564 1.7413923951379502 0 0 0 0 209.92081820919702 3.8688987991392523 0 3.8688987991392523 -18.876242269654888 0 0 0 0 0.89826483230501708 0.047196140113673124 0 0.047196140113673124 0.50020985942138285 0 0 0 0 240.95202525464993 -70.856875241552586 0 -70.856875241552586 104.55086655507029 0 0 0 0 232.56808726900636 -8.0830250018234047 0 -8.0830250018234047 -2.7844818680337591 0 0 0 0 291.92296123242704 47.159531670964277 0 47.159531670964277 -28.58412467518108 0 0 0 0 -25.312161052657757 31.081700045627485 0 31.081700045627485 42.6739685758169 0 0 0 0 91.204794411365583 67.920334924963967 0 67.920334924963967 45.822185206195677 0 0 0 0 184.58792635563077 25.039727506137535 0 25.039727506137535 0.5249230475173241 0 0 0 0 0.24064429631457074 0.089430436158252746 0 0.089430436158252746 0.021745206114680938 0 0 0 0 101.48982973344755 40.784444584378569 0 40.784444584378569 16.651135735807454 0 0 0 0 9.7823877110604371 0.18449455284616878 0 0.18449455284616878 -0.61196865874568651 0 0 0 0 16.674621915150055 -6.3934948453765479 0 -6.3934948453765479 -0.0039243580100195305 0 0 0 0 4.4941550685362017 -6.100520286940748 0 -6.100520286940748 -0.0014692593340868056 0 0 0 0 5.4389441564853769 -3.356198122546779 0 -3.356198122546779 3.2007938493475052 0 0 0 0 5.420185732167738 -1.6390677255733799 0 -1.6390677255733799 -0.83517936309200991 0 0 0 0 -5.7723394951608498 0.70330759323123015 0 0.70330759323123015 1.5897720749415991 0 0 0 0 56.052245332084567 -9.2016458146806546 0 -9.2016458146806546 0.050821068326284427 0 0 0 0 0.016464180337052881 -0.0833087953070617 0 -0.0833087953070617 0.012833929790471921 0 0 0 0 83.42006941724685 -29.715015530396983 0 -29.715015530396983 7.1436681540893723 0 0 0 0 83.499453679414728 -27.815634056722317 0 -27.815634056722317 -5.2357947402097444 0 0 0 0 56.745283855685557 -40.19976231133537 0 -40.19976231133537 23.396890543248613 0 0 0 0 57.894874097284628 -29.015976294897008 0 -29.015976294897008 -8.5368632065276771 0 0 0 0 27.664997714164201 -10.258237531459249 0 -10.258237531459249 14.894942211897712 0 0 0 0 0.97062779514926234 -0.22153388510766092 0 -0.22153388510766092 -0.79583052886637851 0 0 0 0 12.519124823502352 -3.5017962664016409 0 -3.5017962664016409 -9.9134156036981267 0 0 0 0 4.6732907384794089 8.5765845024578766 0 8.5765845024578766 15.06819319359402 0 0 0 0 1.5652093774442619 -2.4177491485743019 0 -2.4177491485743019 -2.3233678346433067 0 0 0 0 0.88258570450838647 0.27333174189290332 0 0.27333174189290332 -0.22159598768368649 0 0 0 0 1.0976810790234595 -2.6055339974355576 0 -2.6055339974355576 0.79639160710753742 0 0 0 0 4.0086620403308189 -5.0908675877645635 0 -5.0908675877645635 -2.4324512268275384 0 0 0 0 -0.19140095740793583 -0.26522384401886256 0 -0.26522384401886256 -0.088768962788242242 0 0 0 0 -1.9487142639336525 -1.2121120658904907 0 -1.2121120658904907 2.6470915023521542 0 0 0 0 4.5237224039592547 -2.9892758264491519 0 -2.9892758264491519 0.31013185222812467 0 0 0 0 8.3520314342749771 -6.2366677463392293 0 -6.2366677463392293 2.0861675376694606 0 0 0 0 5.4354430038656574 -0.53505261850298691 0 -0.53505261850298691 3.5635180780084852 0 0 0 0 15.940501181859872 -4.2586631850608612 0 -4.2586631850608612 0.13813958140254456 0 0 0 0 0.040049171979802622 0.0031525825780818195 0 0.0031525825780818195 0.00031255381346639854 0 0 0 0 0.34780668092415112 -0.75905771410245038 0 -0.75905771410245038 -0.28825669533288945 0 0 0 0 2.5705540847557131 -7.1881768282119509 0 -7.1881768282119509 -11.345527996384874 0 0 0 0 -1.1658076131716371 -3.4278453672454248 0 -3.4278453672454248 -5.8258124916329166 0 0 0 0 0.60635554596228758 -3.6472414154358432 0 -3.6472414154358432 -9.0148943321937054 0 0 0 0 7.6621830285839678 6.67936270186825 0 6.67936270186825 -3.6767925969382418 0 0 0 0 -0.16755977130378596 -5.3959114549270311 0 -5.3959114549270311 -9.6226207275305171 0 0 0 0 6.4649959210237284 9.3763794086036505 0 9.3763794086036505 -0.85547720879438316 0 0 0 0 17.367605921619543 -4.1367649362395191 0 -4.1367649362395191 -7.0271373582644117 0 0 0 0 0.0096459493046410216 -0.023563551691481166 0 -0.023563551691481166 0.012591679163138025 0 0 0 0 9.9912966122938087 3.4916003766839054 0 3.4916003766839054 -9.7146082530370137 0 0 0 0 6.8364729566092137 -5.688754578551757 0 -5.688754578551757 -4.2970481412183688 0 0 0 0 4.2044474723079475 -1.6527234360394871 0 -1.6527234360394871 -2.7738019084892187 0 0 0 0 3.977325940704759 -5.9791825223549182 0 -5.9791825223549182 -9.698775993664384 0 0 0 0 1.6241156919422792 -1.9329887595943944 0 -1.9329887595943944 -6.9614487155191966 0 0 0 0 5.2080004182062112 2.5223702727215596 0 2.5223702727215596 2.3677161789729553 0 0 0 0 4.5617040996386606 0.051430201647505669 0 0.051430201647505669 -1.9128402241987832 0 0 0 0 4.5069174456148176 -2.9296105356511646 0 -2.9296105356511646 -11.445561131996243 0 0 0 0 0.83087606630036248 0.33150070811245769 0 0.33150070811245769 -0.13206036605018034 0 0 0 0 -3.9585661550518125 -10.808290961393965 0 -10.808290961393965 -15.402976086055787 0 0 0 0 2.3952653134911088 1.5757780547605762 0 1.5757780547605762 -5.9470827546111309 0 0 0 0 3.4138616776265707 0.12830185171932129 0 0.12830185171932129 -2.0542928633192754 0 0 0 0 9.1005001579032978 3.0039302446778038 0 3.0039302446778038 -0.63707548147385751 0 0 0 0 6.7825969332172917 4.8110865287044451 0 4.8110865287044451 0.038371776024177962 0 0 0 0 6.1096164791961201 3.5629328753331038 0 3.5629328753331038 -1.2916509735605359 0 0 0 0 7.8065452789742267 4.7407546293667338 0 4.7407546293667338 -0.16118691300221144 0 0 0 0 6.7174771590857745 2.8442336594373216 0 2.8442336594373216 -0.57835799802660404 0 0 0 0 7.0492167466290994 1.2760440148454677 0 1.2760440148454677 0.83857198533769406 0 0 0 0 5.4074951593356673 2.3601099571781106 0 2.3601099571781106 0.43229545853046147 0 0 0 0 3.6422797688210267 2.0165360545440763 0 2.0165360545440763 0.88398526768671459 0 0 0 0 4.8099239421499078 1.0931365798433603 0 1.0931365798433603 1.6603717946495635 0 0 0 0 5.8968758826522389 1.8264551123496631 0 1.8264551123496631 0.89141024540781544 0 0 0 0 2.4207922092537046 -4.4158901820209682 0 -4.4158901820209682 -4.5097804705321778 0 0 0 0 4.7636184118544804 0.37984885834906379 0 0.37984885834906379 -1.3121973564323945 0 0 0 0 4.5390202974085696 2.1107329116696292 0 2.1107329116696292 2.3883379718089373 0 0 0 0 1.8057058768099523 -2.7086077077878485 0 -2.7086077077878485 -4.5163470072607197 0 0 0 0 7.9456229973548034 -0.62795488943615396 0 -0.62795488943615396 -1.4364099294722337 0 0 0 0 4.9241945365683932 2.0159094234083454 0 2.0159094234083454 1.0615904738692734 0 0 0 0 1.4442491716830972 0.48650245217235977 0 0.48650245217235977 0.24909625510086064 0 0 0 0 2.6944331311096903 -1.946375034958777 0 -1.946375034958777 -1.9543946408341526 0 0 0 0 3.7679742506959997 -0.20614652722419535 0 -0.20614652722419535 -0.38725111104486543 0 0 0 0 24.906019091034977 -11.106586435903296 0 -11.106586435903296 -22.399758059312489 0 0 0 0 -0.012369745424841483 -0.038798131378825929 0 -0.038798131378825929 0.20181372652327001 0 0 0 0 5.1547114414570387 1.1270408493915056 0 1.1270408493915056 -0.16978777562917458 0 0 0 0 3.2573406074807281 -0.1518775886407866 0 -0.1518775886407866 0.35347611700268544 0 0 0 0 2.2639949439180782 -0.80431315201096254 0 -0.80431315201096254 5.0188027057911313 0 0 0 0 0.96228901232825592 6.1277626015628925 0 6.1277626015628925 11.398396131004233 0 0 0 0 5.4768291443106136 16.352219251804286 0 16.352219251804286 -4.3529137884718239 0 0 0 0 -2.7847248533071252 18.454917863315359 0 18.454917863315359 -21.262814782369787 0 0 0 0 4.9014405693014851 8.0233868472290624 0 8.0233868472290624 -11.697861919955017 0 0 0 0 14.319219116150634 3.7412768976186612 0 3.7412768976186612 -24.805251731932856 0 0 0 0 4.8631288152759851 13.238409033180471 0 13.238409033180471 -12.323595301241312 0 0 0 0 11.844123789407604 2.0687989630008587 0 2.0687989630008587 -13.909228513671422 0 0 0 0 6.1107966279232642 6.623240290949866 0 6.623240290949866 -6.8275095917825297 0 0 0 0 6.1342549658704684 5.5486366654105241 0 5.5486366654105241 -6.605418095773075 0 0 0 0 0.882643401401765 7.0719123083760138 0 7.0719123083760138 0.2122221670529143 0 0 0 0 4.1444346711214166 1.162786551945203 0 1.162786551945203 2.2967280454306547 0 0 0 0 5.2895920698792906 3.0054258721490896 0 3.0054258721490896 -1.9362463458164711 0 0 0 0 5.5703071558527881 2.3606271539871386 0 2.3606271539871386 -2.3963626381357699 0 0 0 0 6.7409479594498407 2.4129254274015466 0 2.4129254274015466 -2.2557683768827701 0 0 0 0 5.2208218811138067 3.4063620655230125 0 3.4063620655230125 -2.716455380183902 0 0 0 0 7.0740579701960087 2.3105548095975337 0 2.3105548095975337 -3.9754926415529326 0 0 0 0 7.4195242027344648 2.8135940325166757 0 2.8135940325166757 -4.1683198185219226 0 0 0 0 7.2498128899824223 3.5665520151069359 0 3.5665520151069359 -7.4208932074748191 0 0 0 0 7.8591375274190796 2.3453398085654271 0 2.3453398085654271 -13.773731294196068 0 0 0 0 5.8815707527755876 2.9659874694842756 0 2.9659874694842756 -7.2412229331615379 0 0 0 0 7.4631071380717913 4.1697240530448312 0 4.1697240530448312 -9.4262910272259433 0 0 0 0 11.167170166805946 -1.1645746092500886 0 -1.1645746092500886 -3.6821720907881508 0 0 0 0 16.624546353763435 -11.8377242696954 0 -11.8377242696954 5.3811531455733075 0 0 0 0 7.8807712205671123 2.4512696553801447 0 2.4512696553801447 -9.4737004966203813 0 0 0 0 7.1774766887874648 3.6550922552559442 0 3.6550922552559442 -7.0113830590444195 0 0 0 0 5.8966653498719097 2.3430130259824864 0 2.3430130259824864 0.55510007937277805 0 0 0 0 6.823565337312175 0.36443060159569995 0 0.36443060159569995 -3.515134438547193 0 0 0 0 -2.9682826772768749 -9.6614709974710991 0 -9.6614709974710991 -4.9154967145931892 0 0 0 0 6.7720112001520647 0.93057403281547835 0 0.93057403281547835 -7.9878854076209791 0 0 0 0 5.7938055926517933 0.19546496570560379 0 0.19546496570560379 -3.4334563795508748 0 0 0 0 242.75100436986395 -50.148386282539974 0 -50.148386282539974 -51.295379337625917 0 0 0 0 220.66200198338629 -34.42536889358027 0 -34.42536889358027 -59.348716734762718 0 0 0 0 214.74965439845982 -55.248688416716135 0 -55.248688416716135 -21.654539663828842 0 0 0 0 -29.511717975219653 36.017333267007416 0 36.017333267007416 16.181911405017139 0 0 0 0 103.90724801424949 9.3142742355312294 0 9.3142742355312294 16.397589398490339 0 0 0 0 53.909269354764547 -69.016811734084882 0 -69.016811734084882 8.8899857967303024 0 0 0 0 210.9130886699495 -106.95161582091289 0 -106.95161582091289 5.398994690976771 0 0 0 0 324.79838200226004 -17.282782256051917 0 -17.282782256051917 -41.844168192777175 0 0 0 0 119.2703691453753 98.165085638042555 0 98.165085638042555 7.5716209526054712 0 0 0 0 2.3543894746938179 0.38341790873502646 0 0.38341790873502646 0.04146708098976476 0 0 0 0 270.74102920914447 53.969407188891324 0 53.969407188891324 69.54632631394972 0 0 0 0 208.60632465319941 -35.494783789472358 0 -35.494783789472358 138.61206521437214 0 0 0 0 164.51816921849968 20.826523478674851 0 20.826523478674851 65.522860189604103 0 0 0 0 230.9155235304861 -37.659952909943705 0 -37.659952909943705 33.168354547975532 0 0 0 0 244.37731054489268 7.3936426413909473 0 7.3936426413909473 -11.744849789889415 0 0 0 0 0.91134812865795567 1.481903905042202 0 1.481903905042202 1.8590855043987631 0 0 0 0 75.773505428267526 34.521318060096299 0 34.521318060096299 33.892003214354432 0 0 0 0 172.99949692569498 55.710785851038864 0 55.710785851038864 -2.351019208972545 0 0 0 0 4.2435332083696267 5.9020830105145023 0 5.9020830105145023 5.8490695262225927 0 0 0 0 170.7489393535725 -27.555836650581099 0 -27.555836650581099 -23.820329753091755 0 0 0 0 197.69116979704268 -12.186306504820493 0 -12.186306504820493 -30.510385061787574 0 0 0 0 249.54501047803205 -9.5676829756129393 0 -9.5676829756129393 -40.210350675127927 0 0 0 0 192.58134793303179 5.6354313172100206 0 5.6354313172100206 -10.143046765451693 0 0 0 0 214.24043020160025 -40.229832622428461 0 -40.229832622428461 -26.90101993759265 0 0 0 0 198.4403474766732 -25.146326608650526 0 -25.146326608650526 -38.72352762306349 0 0 0 0 0.43086663822823112 1.1078232573566567 0 1.1078232573566567 1.2711682577244769 0 0 0 0 -4.6699121223682596 6.5125600861726411 0 6.5125600861726411 22.770567191728674 0 0 0 0 150.91200386326818 -15.172534023056386 0 -15.172534023056386 -5.0824760393448969 0 0 0 0 9.863672774979932 6.9700238905838603 0 6.9700238905838603 -13.553825174557915 0 0 0 0 1.1763863940650481 4.3710973606571315 0 4.3710973606571315 -14.313770535678714 0 0 0 0 175.17305776042485 -45.240722068646392 0 -45.240722068646392 21.608575185472091 0 0 0 0 117.96311714972398 -40.628571363657272 0 -40.628571363657272 21.474977455409544 0 0 0 0 143.04176404177997 -60.234372114367375 0 -60.234372114367375 26.538729696666906 0 0 0 0 149.49470924395428 -211.88280212695156 0 -211.88280212695156 87.964997568301669 0 0 0 0 435.46243917701941 -151.32876412460121 0 -151.32876412460121 -40.770791880483081 0 0 0 0 275.71956218342302 35.009253833975961 0 35.009253833975961 -63.230307541245679 0 0 0 0 215.538172561392 -89.518158076629064 0 -89.518158076629064 -49.230641971662408 0 0 0 0 281.13320483959978 -50.620347896443462 0 -50.620347896443462 -60.006209572277498 0 0 0 0 108.60779433721473 -11.717429609108308 0 -11.717429609108308 -26.436273129693518 0 0 0 0 7.2739168161933776 -15.986543924297877 0 -15.986543924297877 25.825624291864827 0 0 0 0 0.92103877172783655 -0.97651632839773583 0 -0.97651632839773583 0.2935139663696662 0 0 0 0 444.00429573157453 335.53078032880228 0 335.53078032880228 92.67452374850302 0 0 0 0 33.530214823560527 118.26595466539341 0 118.26595466539341 72.814741473012759 0 0 0 0 516.16704169211152 -358.61294483113261 0 -358.61294483113261 -74.057538992107197 0 0 0 0 85.416735521917872 -346.21584856492882 0 -346.21584856492882 109.0757908940102 0 0 0 0 1.4258805313707654 -1.3425420930744565 0 -1.3425420930744565 -1.6109389098740028 0 0 0 0 0.73613353103428381 -166.18127220356587 0 -166.18127220356587 96.703914281965353 0 0 0 0 843.99525820068811 4.9678698826787411 0 4.9678698826787411 -58.182192463447677 0 0 0 0 4.2432465472314362 -1.9146761045679952 0 -1.9146761045679952 1.0788063255039013 0 0 0 0 647.4669574983036 463.36524622203677 0 463.36524622203677 186.07979970893243 0 0 0 0 359.9934159073091 182.32881530000043 0 182.32881530000043 -111.53438929882441 0 0 0 0 264.34065869747428 162.32230993880421 0 162.32230993880421 68.967751981577905 0 0 0 0 90.443327039487485 57.901559951485183 0 57.901559951485183 81.804168786042283 0 0 0 0 2.1101366621405759 -21.744345724635536 0 -21.744345724635536 -7.6447219731267069 0 0 0 0 3.5458470249391212 -4.7670528139931889 0 -4.7670528139931889 4.7922849422176119 0 0 0 0 13.26609252790513 13.488885220859629 0 13.488885220859629 -9.4044220942660104 0 0 0 0 31.520569443237036 -4.3507204906368315 0 -4.3507204906368315 -25.250525905032191 0 0 0 0 34.675971530159586 6.1147931027835511 0 6.1147931027835511 -0.43714722688855545 0 0 0 0 -11.244603956670801 11.53146669220682 0 11.53146669220682 47.705621561861335 0 0 0 0 20.755406736272562 -10.394015327929992 0 -10.394015327929992 46.445617723520627 0 0 0 0 30.386237441773119 -47.256799581853556 0 -47.256799581853556 80.723010043800969 0 0 0 0 -2.1827378966409015 -11.052135056925181 0 -11.052135056925181 46.857252856396371 0 0 0 0 -24.598605562059674 -34.927140842768949 0 -34.927140842768949 98.643310055751499 0 0 0 0 -9.1233281884196913 -16.690101816958304 0 -16.690101816958304 103.51681483073276 0 0 0 0 470.19514225256353 98.070522247426084 0 98.070522247426084 -76.920393813697046 0 0 0 0 2.3919093006347794 -2.327350492089451 0 -2.327350492089451 1.397439134891421 0 0 0 0 -11.300406228723858 3.5551000582483763 0 3.5551000582483763 97.384389858054419 0 0 0 0 204.41292958431586 274.08960393426077 0 274.08960393426077 -171.48911865699029 0 0 0 0 -26.726452323913691 -26.669837875526355 0 -26.669837875526355 133.30747305078194 0 0 0 0 35.502111777688697 -134.44953574997294 0 -134.44953574997294 67.273645677187687 0 0 0 0 -19.293790868861834 -52.489186527850052 0 -52.489186527850052 82.206849207587766 0 0 0 0 100.37418792695826 74.033857030760828 0 74.033857030760828 40.657437957171169 0 0 0 0 59.342412429061369 118.56976712894766 0 118.56976712894766 -7.5377810029274315 0 0 0 0 120.60435441676964 125.38304450605619 0 125.38304450605619 123.42780554402088 0 0 0 0 312.6163529011792 -24.667479627609168 0 -24.667479627609168 35.173544200984452 0 0 0 0 44.285423716588411 106.7124643288123 0 106.7124643288123 1.2453635583717642 0 0 0 0 53.460432435084158 -47.943352022341223 0 -47.943352022341223 -92.229933408896613 0 0 0 0 -0.41131859152994821 6.0335668345746605 0 6.0335668345746605 -7.4811568592194639 0 0 0 0 22.405007323573955 28.628731795029353 0 28.628731795029353 -16.314445675721117 0 0 0 0 21.392976249494524 -1.819920557951157 0 -1.819920557951157 -7.871407305084281 0 0 0 0 -1.8770589665318766 39.896008086162645 0 39.896008086162645 -44.014464646013039 0 0 0 0 287.03236444708455 9.5612719876411703 0 9.5612719876411703 -2.8762871044480036 0 0 0 0 0.4290655912682837 -0.049121714738795674 0 -0.049121714738795674 -0.28875988045241519 0 0 0 0 -10.122400242853473 7.6758759390058913 0 7.6758759390058913 53.212507751116391 0 0 0 0 85.229460255941376 -49.930088267757355 0 -49.930088267757355 -94.793484300357932 0 0 0 0 13.374582972662083 -5.5372663740395112 0 -5.5372663740395112 -0.59591491938378649 0 0 0 0 13.027214486312005 51.107569179424729 0 51.107569179424729 -83.758732220127371 0 0 0 0 124.54409856420534 30.262720288102742 0 30.262720288102742 -125.25525069148171 0 0 0 0 95.624338541509132 -43.853637067876519 0 -43.853637067876519 21.325599654150437 0 0 0 0 -31.820093272772283 41.286272814849823 0 41.286272814849823 -41.475291687647882 0 0 0 0 0.24683890748855219 0.44105638097562405 0 0.44105638097562405 0.35274459824314075 0 0 0 0 -10.099308921591728 14.152235278983255 0 14.152235278983255 -21.729340395129896 0 0 0 0 155.67534832512683 -35.633268634381295 0 -35.633268634381295 -26.01859203050617 0 0 0 0 23.268172866038014 -1.7308108532458206 0 -1.7308108532458206 -7.7666287326397256 0 0 0 0 -2.896132174115337 30.469405089686774 0 30.469405089686774 -25.832366146853474 0 0 0 0 28.342768631373474 13.171348396538178 0 13.171348396538178 -36.691299011541105 0 0 0 0 14.169180154254718 7.7054508312069174 0 7.7054508312069174 -42.941536787657355 0 0 0 0 3.8479053458114265 2.9679952587281591 0 2.9679952587281591 -5.5891558826814336 0 0 0 0 8.7746434832602631 -3.560655085541832 0 -3.560655085541832 -4.0664561659296687 0 0 0 0 18.201521337432638 -4.5459304766965367 0 -4.5459304766965367 -1.1369382026273991 0 0 0 0 40.47418877916698 -5.8999888636658397 0 -5.8999888636658397 -95.27520745278207 0 0 0 0 27.01624843098034 11.897192656358811 0 11.897192656358811 -32.349133534609791 0 0 0 0 26.829977662186138 6.9035057428075106 0 6.9035057428075106 -31.988519401531221 0 0 0 0 25.236256545533251 7.4816912503356434 0 7.4816912503356434 -23.857752334538418 0 0 0 0 11.964595869332697 -5.4709057249592661 0 -5.4709057249592661 -0.39825610680418322 0 0 0 0 13.42642034470191 -11.696221345190907 0 -11.696221345190907 -9.7899961880186765 0 0 0 0 23.217941219103523 46.146719235234741 0 46.146719235234741 -39.528533169022921 0 0 0 0 -1.67241992259369 -53.702574136387739 0 -53.702574136387739 -91.213039340438627 0 0 0 0 17.111109139012115 -12.579113164029422 0 -12.579113164029422 -15.243938411828822 0 0 0 0 13.953926877891035 -4.9187159024908809 0 -4.9187159024908809 1.4845996709861309 0 0 0 0 90.852898225657555 -99.045568508429824 0 -99.045568508429824 -194.05909133154091 0 0 0 0 127.61263607342789 -111.34527225171109 0 -111.34527225171109 22.116852678504074 0 0 0 0 81.844896485614299 58.769920731701404 0 58.769920731701404 3.7011307276025036 0 0 0 0 169.52312808144052 37.000453751273199 0 37.000453751273199 52.475427416934053 0 0 0 0 0.75477685793761395 0.44603846756191601 0 0.44603846756191601 -1.3360409253717442 0 0 0 0 45.088123922953855 53.746591031606613 0 53.746591031606613 50.647834971007796 0 0 0 0 75.368822983045902 -27.120674223635547 0 -27.120674223635547 115.98530301769824 0 0 0 0 82.003484118895358 23.121391060183413 0 23.121391060183413 12.480144822311559 0 0 0 0 94.043551560906053 -61.277545597354674 0 -61.277545597354674 57.903234713326128 0 0 0 0 -0.30462775015907084 2.0314814021721652 0 2.0314814021721652 -3.2309679227261636 0 0 0 0 35.008382888863707 50.228556717823039 0 50.228556717823039 18.526734156066823 0 0 0 0 31.778167708198453 13.372318224914807 0 13.372318224914807 1.4940589440948315 0 0 0 0 31.245789339078328 -80.499456329199575 0 -80.499456329199575 -243.49996110470829 0 0 0 0 63.480949574484839 226.92277156279533 0 226.92277156279533 138.44809609690674 0 0 0 0 300.63795102083168 180.95290247908952 0 180.95290247908952 -84.882963751081661 0 0 0 0 49.953294557792105 -377.45805465835508 0 -377.45805465835508 -25.807698152789726 0 0 0 0 -167.32189655175898 -33.024298034184085 0 -33.024298034184085 14.915371056134973 0 0 0 0 282.0465239292862 274.18463790577584 0 274.18463790577584 223.96083876783359 0 0 0 0 -33.788623958142125 171.15164013552248 0 171.15164013552248 159.10381636713169 0 0 0 0 6.0213496143226024 2.9095564621494319 0 2.9095564621494319 1.8575706347938628 0 0 0 0 337.47264291848478 -367.0198521883492 0 -367.0198521883492 152.98463093627106 0 0 0 0 580.20767140179669 -199.91870443678567 0 -199.91870443678567 -94.036400979210157 0 0 0 0 19.043288447910527 21.565661415774684 0 21.565661415774684 14.790729302399996 0 0 0 0 18.748131231834151 16.063587231102421 0 16.063587231102421 13.304783872136104 0 0 0 0 19.869615938987408 -43.735469564797455 0 -43.735469564797455 25.22890385854717 0 0 0 0 29.450939483445836 -19.711042613997051 0 -19.711042613997051 31.677120891252343 0 0 0 0 -21.359752414180548 -61.941853122086286 0 -61.941853122086286 -3.0536973496709834 0 0 0 0 -97.139308003934275 -31.377038141261892 0 -31.377038141261892 321.07104286907816 0 0 0 0 -27.544556933764397 -50.822925517846329 0 -50.822925517846329 -12.180585323209925 0 0 0 0 -99.462406227372412 -77.407739842320098 0 -77.407739842320098 1.6189090620471234 0 0 0 0 98.565321404756105 -86.912675274542835 0 -86.912675274542835 -9.8459862384715962 0 0 0 0 55.512698070156148 60.495182142541395 0 60.495182142541395 35.646451999147985 0 0 0 0 16.204768816916072 12.833633576175501 0 12.833633576175501 10.911557953802125 0 0 0 0 86.377593985357379 -76.474997572574239 0 -76.474997572574239 86.101561966835561 0 0 0 0 -70.476295279971964 170.77002606823908 0 170.77002606823908 79.080072507974137 0 0 0 0 -1.9573868862546107 1.9417036068519558 0 1.9417036068519558 3.6692340024830443 0 0 0 0 88.128159831932862 34.035195116780301 0 34.035195116780301 54.635395408702834 0 0 0 0 -15.862776789537747 -19.437463293403312 0 -19.437463293403312 88.389002897212322 0 0 0 0 7.6178958668533596 19.724537944653662 0 19.724537944653662 151.03339827062428 0 0 0 0 14.71789214364162 -106.65061307680722 0 -106.65061307680722 90.667986196172478 0 0 0 0 60.171618952488643 -1.8561491553269889 0 -1.8561491553269889 8.6376783612242889 0 0 0 0 -9.3375361954695109 42.459638263496004 0 42.459638263496004 20.708544912369007 0 0 0 0 51.587417144719439 -19.19312850025301 0 -19.19312850025301 4.5935497945120005 0 0 0 0 63.448290170679684 -41.478927811104768 0 -41.478927811104768 45.132792548268299 0 0 0 0 21.976832107960945 -11.730283114878148 0 -11.730283114878148 63.33985062047725 0 0 0 0 -5.580263741347153 7.7268623018712788 0 7.7268623018712788 75.0645546297078 0 0 0 0 -21.558007715517306 54.285792123076135 0 54.285792123076135 -0.65656385255103089 0 0 0 0 20.710593901316315 8.7108368810738739 0 8.7108368810738739 -2.385296426952209 0 0 0 0 -17.241003292969253 46.665783143502722 0 46.665783143502722 2.1421325220135685 0 0 0 0 -40.243623566777387 82.518028064545433 0 82.518028064545433 -49.389140621763545 0 0 0 0 -54.752308206039743 102.58278387760913 0 102.58278387760913 -49.750060727335949 0 0 0 0 -17.268878146136558 34.333456599477358 0 34.333456599477358 -27.25782903904701 0 0 0 0 335.53582370113872 -89.912418289838115 0 -89.912418289838115 -59.582279612012513 0 0 0 0 359.05494391865068 -209.03606162924302 0 -209.03606162924302 10.390429718386258 0 0 0 0 354.12182523452793 13.10939471277743 0 13.10939471277743 176.39742989648539 0 0 0 0 297.97237792137457 -264.29355255113569 0 -264.29355255113569 -6.0118762744195919 0 0 0 0 -33.273950804883498 -121.62942266294522 0 -121.62942266294522 26.464321993167687 0 0 0 0 297.31913182223252 -270.32092753171673 0 -270.32092753171673 -60.156823591349166 0 0 0 0 14.7724890648648 9.6151559302203964 0 9.6151559302203964 6.2743227380391504 0 0 0 0 33.224533794185845 -50.302689983023811 0 -50.302689983023811 -43.345428545286723 0 0 0 0 2.5412978165435192 0.22039654371786099 0 0.22039654371786099 0.0052615702449987367 0 0 0 0 245.43515068470151 258.48420103677427 0 258.48420103677427 -196.03637025602097 0 0 0 0 38.373277338403568 -73.107197748545559 0 -73.107197748545559 131.59431194036006 0 0 0 0 58.267751098872395 25.638805332308948 0 25.638805332308948 110.668323489047 0 0 0 0 129.59572070853756 -36.321531177667111 0 -36.321531177667111 64.010589591774988 0 0 0 0 13.889080508397456 -2.2438536574372847 0 -2.2438536574372847 93.153191243547553 0 0 0 0 -7.8023580742446939 29.491869505341583 0 29.491869505341583 33.837357553035645 0 0 0 0 36.312862703671271 9.4471437325564693 0 9.4471437325564693 20.657659504536241 0 0 0 0 42.095903658024326 -17.251754837950102 0 -17.251754837950102 61.333049096073523 0 0 0 0 66.564627959756763 -1.1021686265726203 0 -1.1021686265726203 21.735394324980007 0 0 0 0 12.520008788264519 5.5923057582327047 0 5.5923057582327047 2.5036904330776997 0 0 0 0 59.087050188762078 -47.818055276370615 0 -47.818055276370615 63.771591764314508 0 0 0 0 44.349630544278625 25.936679146221422 0 25.936679146221422 68.876531531298951 0 0 0 0 43.870236372496606 -56.168358989448734 0 -56.168358989448734 78.939059207301398 0 0 0 0 43.893992238867213 -51.244745632387549 0 -51.244745632387549 81.11898110761922 0 0 0 0 13.179974729366222 72.873416098508386 0 72.873416098508386 286.95103102792928 0 0 0 0 82.936863790047937 -76.557105255066745 0 -76.557105255066745 97.475485953958923 0 0 0 0 39.972644058092555 -64.265354083123839 0 -64.265354083123839 64.114497900652623 0 0 0 0 30.506937301237485 -40.956998043133808 0 -40.956998043133808 79.105293811431636 0 0 0 0 16.462957979954808 -62.539768270125023 0 -62.539768270125023 98.143430290992001 0 0 0 0 4.5948486483455753 1.7409951770729215 0 1.7409951770729215 1.0549237878665831 0 0 0 0 26.617598363860452 -1.2146175185425818 0 -1.2146175185425818 251.14841810707549 0 0 0 0 157.20954730397352 89.394982434421763 0 89.394982434421763 34.849806690212517 0 0 0 0 285.33325313918976 -172.82765093145429 0 -172.82765093145429 -201.59800976933957 0 0 0 0 3.205006040757155 1.7663743269507881 0 1.7663743269507881 0.82748847347168475 0 0 0 0 17.269383084632011 7.502709713654454 0 7.502709713654454 2.0867499200600879 0 0 0 0 427.00755586071318 -439.55205645454339 0 -439.55205645454339 33.446154289336846 0 0 0 0 -32.586993665268892 135.46325836475347 0 135.46325836475347 442.73170592487395 0 0 0 0 25.678271386470442 105.73989488742359 0 105.73989488742359 -158.50756060188246 0 0 0 0 22.842891237793083 -6.000243950388267 0 -6.000243950388267 -6.4870807522372615 0 0 0 0 9.4757995481268154 19.12133152424326 0 19.12133152424326 -3.7100505392600098 0 0 0 0 15.678352890543394 4.9006539019117747 0 4.9006539019117747 -0.60911735524751265 0 0 0 0 69.946542684752785 -31.7998847567751 0 -31.7998847567751 -107.89511273144535 0 0 0 0 17.138076780963701 3.0597394014256061 0 3.0597394014256061 -1.9724240154211241 0 0 0 0 46.440001554944956 3.5869527692840961 0 3.5869527692840961 -0.0011644567712210119 0 0 0 0 33.102442280331161 -69.418207848463226 0 -69.418207848463226 47.701725141275801 0 0 0 0 -30.085665642927779 19.061200734501881 0 19.061200734501881 9.009442897559893 0 0 0 0 14.160369260044149 64.607450936225149 0 64.607450936225149 -188.61579083390143 0 0 0 0 1.6182803397344827 0.63645381070325158 0 0.63645381070325158 -0.042343570233165373 0 0 0 0 48.809367435551394 -75.709531137815475 0 -75.709531137815475 -121.52542595253817 0 0 0 0 249.07000495013563 112.9006595220003 0 112.9006595220003 22.223431011807861 0 0 0 0 0.7226306966791185 0.62210761451564878 0 0.62210761451564878 0.32631752871034436 0 0 0 0 127.49033900914219 -129.21478740073917 0 -129.21478740073917 118.35089757469541 0 0 0 0 27.794316251427517 177.78876487132493 0 177.78876487132493 71.368465355616308 0 0 0 0 -3.2263009312241593 -12.504733171990381 0 -12.504733171990381 -40.108314076364877 0 0 0 0 12.854354656414216 -44.913719986173419 0 -44.913719986173419 -23.705149355444519 0 0 0 0 77.568753856830881 98.573080559862319 0 98.573080559862319 -148.87869697320139 0 0 0 0 -24.83622337837005 -32.139206673852641 0 -32.139206673852641 -83.319457056792658 0 0 0 0 48.992026559832084 -0.058839958175440188 0 -0.058839958175440188 -71.473365327502506 0 0 0 0 -4.9834461146238027 -36.876532471521841 0 -36.876532471521841 -68.172583316705641 0 0 0 0 -94.781698004873761 -5.4784427075549047 0 -5.4784427075549047 -54.75168327301526 0 0 0 0 -1.0106530344892235 27.711293773280659 0 27.711293773280659 -111.99605656829999 0 0 0 0 10.422895987101555 -7.3572203509023666 0 -7.3572203509023666 4.2295900327547411 0 0 0 0 231.61341230994367 188.83707076731895 0 188.83707076731895 90.747979677803187 0 0 0 0 -88.461381770681328 -118.05399696657719 0 -118.05399696657719 -113.84505265225312 0 0 0 0 243.21690703239437 58.095579409940513 0 58.095579409940513 4.8305825466175065 0 0 0 0 84.457447937798861 -5.0794174011269888 0 -5.0794174011269888 129.66247124361718 0 0 0 0 5.3277299338484454 13.95396281574714 0 13.95396281574714 6.3201568489403464 0 0 0 0 26.980946083769595 76.462267271020238 0 76.462267271020238 32.785806034661164 0 0 0 0 455.64594792684511 393.28248606428679 0 393.28248606428679 -15.121603700193077 0 0 0 0 3.435715811319028 -2.1878866830952433 0 -2.1878866830952433 1.4324214060157114 0 0 0 0 -54.642913011985002 -192.2014125142403 0 -192.2014125142403 -4.4333046343326714 0 0 0 0 97.227570113594993 -97.702081246729449 0 -97.702081246729449 -283.18831179852077 0 0 0 0 22.613813107775968 28.280449712281609 0 28.280449712281609 22.392590214673533 0 0 0 0 5.2691854461244674 14.967388628781535 0 14.967388628781535 8.3783385806868349 0 0 0 0 109.95016563887475 15.791382591041838 0 15.791382591041838 711.79319844732163 0 0 0 0 214.9337016728532 -421.25847322843765 0 -421.25847322843765 -124.18530604931038 0 0 0 0 14.897075714624535 12.886526308544369 0 12.886526308544369 6.2049768244537731 0 0 0 0 12.075652154653653 2.9037951482748099 0 2.9037951482748099 24.963136568921357 0 0 0 0 47.961730919523291 -16.266039141223899 0 -16.266039141223899 0.62481738443265744 0 0 0 0 88.847140519013919 18.038196767190925 0 18.038196767190925 -135.82932590882274 0 0 0 0 55.064016202079074 36.68113103446035 0 36.68113103446035 -18.728836988918403 0 0 0 0 73.743614870398233 -91.04036534721962 0 -91.04036534721962 -48.555752235744876 0 0 0 0 66.794264171010582 -4.0470240973211276 0 -4.0470240973211276 -119.45098804662757 0 0 0 0 44.023307572217163 -13.950725746149068 0 -13.950725746149068 -1.8612706050692482 0 0 0 0 -103.03392559322856 -92.146539262878548 0 -92.146539262878548 -18.959077270467333 0 0 0 0 56.333949567389936 -91.852170724456073 0 -91.852170724456073 -30.036797976026719 0 0 0 0 9.2266473601066537 -4.7602830171620667 0 -4.7602830171620667 5.9940363467603675 0 0 0 0 -16.731643330829684 -60.360873949180132 0 -60.360873949180132 -8.0026530479235589 0 0 0 0 109.82306765000612 -90.172864491347809 0 -90.172864491347809 -228.40895520644654 0 0 0 0 49.008433930484898 -13.828240041675087 0 -13.828240041675087 -109.31920697409441 0 0 0 0 93.157621974296489 67.491385766685198 0 67.491385766685198 -15.15941265079141 0 0 0 0 88.168488491322933 9.8164265933380648 0 9.8164265933380648 23.146110306988021 0 0 0 0 165.18889387207514 -42.389624389422501 0 -42.389624389422501 50.425925625841955 0 0 0 0 0.79573075786835545 1.0503782664663603 0 1.0503782664663603 1.4655326363502579 0 0 0 0 419.23436485978527 -107.15062035765328 0 -107.15062035765328 -46.238965987865129 0 0 0 0 156.4608537172644 48.574542769240452 0 48.574542769240452 -73.598889476515296 0 0 0 0 40.102647324517498 -10.316853989119828 0 -10.316853989119828 -4.6599723436313916 0 0 0 0 80.866256330216856 -71.026785574839323 0 -71.026785574839323 -71.930547673391743 0 0 0 0 -129.79752548615943 161.37979569391882 0 161.37979569391882 -103.54705717076502 0 0 0 0 -105.99924667724918 71.685050099652926 0 71.685050099652926 -39.327275127138819 0 0 0 0 3.2106465752082016 3.4174195903149425 0 3.4174195903149425 2.2693423274346944 0 0 0 0 -159.33261971011598 34.818545785885874 0 34.818545785885874 -18.627195222101477 0 0 0 0 -189.31289005376539 213.20721462437024 0 213.20721462437024 -44.177092220960276 0 0 0 0 -68.150807184894802 47.789886515825401 0 47.789886515825401 -111.25898520182695 0 0 0 0 -53.60985444036487 85.492761587315556 0 85.492761587315556 -36.442389586332411 0 0 0 0 -11.822121043187508 21.898515009282505 0 21.898515009282505 -34.611339839468201 0 0 0 0 -28.986719964810618 -4.685546819911508 0 -4.685546819911508 9.8986173557412798 0 0 0 0 20.785498252480465 -34.774401333174637 0 -34.774401333174637 51.028365431636956 0 0 0 0 -27.08166490151234 9.3168502979292924 0 9.3168502979292924 49.377052748729966 0 0 0 0 -32.429947590182564 2.5092765125353935 0 2.5092765125353935 57.379304900118086 0 0 0 0 -62.461481973107766 78.40617487447102 0 78.40617487447102 -23.416005561831298 0 0 0 0 24.343953233779757 56.149188913320927 0 56.149188913320927 87.384786713175401 0 0 0 0 -5.4714153372115106 41.77613021995171 0 41.77613021995171 89.847179001684935 0 0 0 0 24.531317914821557 -8.3386458686200058 0 -8.3386458686200058 -14.631320213587969 0 0 0 0 -11.965929959507775 -45.457844436439245 0 -45.457844436439245 -14.20346913090907 0 0 0 0 28.227071784259536 -0.52064251364843628 0 -0.52064251364843628 -8.2591716548264831 0 0 0 0 40.315408735994424 -17.21159751816333 0 -17.21159751816333 35.519603801253254 0 0 0 0 -23.167675424399931 -12.488957574915347 0 -12.488957574915347 56.642463702331952 0 0 0 0 57.363275838833943 17.83386479019498 0 17.83386479019498 65.235849387255655 0 0 0 0 24.253713030608196 12.133737619302792 0 12.133737619302792 -19.135519526502321 0 0 0 0 43.999661233960069 -33.361987724601022 0 -33.361987724601022 -56.204191116845323 0 0 0 0 57.605271881868248 -28.269129810583763 0 -28.269129810583763 -61.21367947305589 0 0 0 0 206.37520953755484 297.50904910401255 0 297.50904910401255 -58.062831210956119 0 0 0 0 242.36433818047226 -5.6760209496410425 0 -5.6760209496410425 39.241054382561742 0 0 0 0 40.996866248498918 151.81085359498152 0 151.81085359498152 -80.515260505886204 0 0 0 0 45.463021399642457 -36.993109768097383 0 -36.993109768097383 -47.82314963848512 0 0 0 0 34.344650361913438 -6.2517807391382973 0 -6.2517807391382973 -7.8122156257116382 0 0 0 0 29.970371851813979 -45.367405739408241 0 -45.367405739408241 -42.107598888710982 0 0 0 0 56.862403425941011 -57.066290112851675 0 -57.066290112851675 -50.434195344343607 0 0 0 0 15.531196464115055 -44.174996457809357 0 -44.174996457809357 -41.099221419847026 0 0 0 0 27.939806891954504 -60.556428176582131 0 -60.556428176582131 -50.150788752354856 0 0 0 0 62.484007675557223 -88.30895296431936 0 -88.30895296431936 -31.345984632189811 0 0 0 0 74.970868765522027 -72.085699931453746 0 -72.085699931453746 -96.6975155998216 0 0 0 0 70.591817595901375 -47.356496339833029 0 -47.356496339833029 -78.390884344188635 0 0 0 0 61.813159417861243 -45.245552185141719 0 -45.245552185141719 -77.484624697794061 0 0 0 0 40.105565110257885 -3.3107111795832225 0 -3.3107111795832225 -94.670035639406706 0 0 0 0 84.662060965580167 -32.826019197171263 0 -32.826019197171263 -96.406768335305145 0 0 0 0 141.01029246195503 -119.6813561479039 0 -119.6813561479039 -64.841168863435087 0 0 0 0 61.678561140062811 -125.93438448733832 0 -125.93438448733832 3.0202786891968572 0 0 0 0 -17.78778344928287 -93.675511765093233 0 -93.675511765093233 12.37805088220739 0 0 0 0 3.1521876319344955 -1.1966564874548808 0 -1.1966564874548808 0.45415723786865847 0 0 0 0 -10.196373394806869 -83.723026678158021 0 -83.723026678158021 -21.747600069524196 0 0 0 0 2.7658952672754822 -61.784603700471735 0 -61.784603700471735 2.2305373763274474 0 0 0 0 -69.642477819579653 -52.652472730673708 0 -52.652472730673708 6.3545733038436083 0 0 0 0 8.847556657219684 -60.358097856833183 0 -60.358097856833183 -39.847585009420641 0 0 0 0 6.1091968599212123 182.40082678799035 0 182.40082678799035 -28.237113498011695 0 0 0 0 4.5658731444190011 2.8689485252586699 0 2.8689485252586699 2.7332711084883758 0 0 0 0 -18.927652537327958 55.436959460314483 0 55.436959460314483 126.4591217499019 0 0 0 0 7.7443573262072505 -1.1945519870804517 0 -1.1945519870804517 -5.8857324572539067 0 0 0 0 46.497007166373805 2.2301877912666441 0 2.2301877912666441 -17.435981228363744 0 0 0 0 25.464270858450618 -15.050836085155424 0 -15.050836085155424 80.156034695399285 0 0 0 0 -23.340315613575513 -59.223070141109929 0 -59.223070141109929 18.711829826705127 0 0 0 0 -14.823196552330046 -3.6116783754837343 0 -3.6116783754837343 15.405627026105321 0 0 0 0 -39.540387702936641 -1.76647047435074 0 -1.76647047435074 -81.589225541732048 0 0 0 0 31.81891416641156 6.0725881101593586 0 6.0725881101593586 -5.9842731046082918 0 0 0 0 9.5074251517161485 -3.2601588031949866 0 -3.2601588031949866 0.72625554309636886 0 0 0 0 14.322605685538292 -134.4452606227228 0 -134.4452606227228 -160.97301723290298 0 0 0 0 -9.7837839746134705 35.155983855943305 0 35.155983855943305 -128.32388453101612 0 0 0 0 -59.263977117007016 -128.1462988836829 0 -128.1462988836829 -13.601161816240563 0 0 0 0 44.990840088561526 -3.7767610594593179 0 -3.7767610594593179 -18.895946886403181 0 0 0 0 24.912107932809704 -17.156483669421732 0 -17.156483669421732 -24.720813251657091 0 0 0 0 20.502296783808561 -3.9210760727071374 0 -3.9210760727071374 -10.536983814692178 0 0 0 0 15.588170730422277 -11.464882046711764 0 -11.464882046711764 6.7884634679078282 0 0 0 0 12.893648788620339 -9.4923791824211321 0 -9.4923791824211321 -0.2643518670438425 0 0 0 0 -44.682245346564741 38.811007750605249 0 38.811007750605249 499.16872680741943 0 0 0 0 17.626482555160464 -13.465208061613616 0 -13.465208061613616 8.5092856217498891 0 0 0 0 0.30337903524832655 -98.042772468421632 0 -98.042772468421632 31.836706164684536 0 0 0 0 28.023011210156255 96.646053774920347 0 96.646053774920347 76.105861131662451 0 0 0 0 8.0776973872125382 4.0342751579771425 0 4.0342751579771425 10.91040650262439 0 0 0 0 139.50526065612939 71.359012120737788 0 71.359012120737788 -12.881553549366345 0 0 0 0 138.2494127443515 66.506329289536311 0 66.506329289536311 -27.862947003601548 0 0 0 0 191.74090210965369 49.460895244175276 0 49.460895244175276 -39.169106224751872 0 0 0 0 147.55278793154866 -43.03198819318191 0 -43.03198819318191 -28.533394515732589 0 0 0 0 140.836625543845 -25.095326033335908 0 -25.095326033335908 -18.280942793953919 0 0 0 0 125.46640603323613 -21.320279633618426 0 -21.320279633618426 -40.104288745921451 0 0 0 0 38.316594222575077 -28.064672765919326 0 -28.064672765919326 -1.8062425978214804 0 0 0 0 110.34060158199281 -82.935684964562483 0 -82.935684964562483 70.760345481837618 0 0 0 0 5.5294387839074659 0.28347407801276603 0 0.28347407801276603 -0.68845953959732054 0 0 0 0 -5.3064565759559628 -28.996336094518881 0 -28.996336094518881 60.12813558148838 0 0 0 0 130.40643483481836 -64.671924981881688 0 -64.671924981881688 8.7108800313509676 0 0 0 0 377.43227023570944 132.25644219208024 0 132.25644219208024 -11.828103092280827 0 0 0 0 316.45163494235021 -77.989031635853379 0 -77.989031635853379 -13.02614353988163 0 0 0 0 305.43857760340325 259.08822350460827 0 259.08822350460827 40.416916375255141 0 0 0 0 448.3736091378305 146.30991586427317 0 146.30991586427317 -164.22244553099807 0 0 0 0 121.80886712500069 165.23868992884485 0 165.23868992884485 244.26287353306341 0 0 0 0 2.8278547935874911 -0.5272957557462945 0 -0.5272957557462945 -0.29443600729924296 0 0 0 0 -33.674990469669865 65.48095650736775 0 65.48095650736775 56.515230591625368 0 0 0 0 146.6376952640494 100.2851612022634 0 100.2851612022634 52.79668190359962 0 0 0 0 127.86814191925805 117.80901388762419 0 117.80901388762419 46.233214542370888 0 0 0 0 -22.193216754834907 -318.41700638376687 0 -318.41700638376687 123.74130562233631 0 0 0 0 115.39181920090232 -10.778543326758836 0 -10.778543326758836 -140.00968831917362 0 0 0 0 151.52811444855615 103.36192674360154 0 103.36192674360154 46.300091034773857 0 0 0 0 16.135806404056552 -12.252459681435667 0 -12.252459681435667 7.5048155107912216 0 0 0 0 228.69253221971303 -23.855088069482349 0 -23.855088069482349 -130.29649245842063 0 0 0 0 17.573973355574708 -37.649394921464364 0 -37.649394921464364 28.983384057265994 0 0 0 0 -31.327258867826458 8.9708627722124987 0 8.9708627722124987 21.828651256009778 0 0 0 0 71.894451646876405 38.432806160772429 0 38.432806160772429 53.500232870510672 0 0 0 0 103.07984851585934 27.810944345237488 0 27.810944345237488 12.238998683412092 0 0 0 0 84.157421028488898 22.697103097908609 0 22.697103097908609 5.7791419852396757 0 0 0 0 16.071754827472972 2.4097484031044663 0 2.4097484031044663 -0.89215872634408999 0 0 0 0 64.710053209071702 -2.4978734837707037 0 -2.4978734837707037 -22.035987800569728 0 0 0 0 22.445981095632305 2.8903073925798708 0 2.8903073925798708 -11.134279535118935 0 0 0 0 52.447569082389236 -7.3464173244627631 0 -7.3464173244627631 -40.928466183287469 0 0 0 0 58.522247489061556 24.935132497967544 0 24.935132497967544 27.363720536229351 0 0 0 0 22.31086081808462 -18.249495537971654 0 -18.249495537971654 -11.515177080900685 0 0 0 0 33.76400643686793 9.9498345614538266 0 9.9498345614538266 -26.974190783604442 0 0 0 0 4.6610860093500577 2.9454044224987186 0 2.9454044224987186 -1.2600969501931314 0 0 0 0 30.939389408667921 -8.5233762758990679 0 -8.5233762758990679 3.9545853540368299 0 0 0 0 7.1527359441024601 9.6713511673265629 0 9.6713511673265629 -8.2224680751048993 0 0 0 0 -5.8273302892594074 -17.076433727337175 0 -17.076433727337175 -17.002755854305462 0 0 0 0 12.274622941193229 5.4310603952353631 0 5.4310603952353631 -3.3636037990172554 0 0 0 0 13.385252877471913 5.1145981632931168 0 5.1145981632931168 -1.4340727783941356 0 0 0 0 14.494610670646836 1.0016796083371311 0 1.0016796083371311 -3.2510421075701972 0 0 0 0 22.471050097170519 6.3431572278163912 0 6.3431572278163912 -18.720077376183553 0 0 0 0 22.292197679418678 2.6714592990998938 0 2.6714592990998938 -22.785366388655802 0 0 0 0 22.045754497841699 4.9042540654843378 0 4.9042540654843378 -18.510634206972554 0 0 0 0 26.11546151235234 5.7315284383187191 0 5.7315284383187191 -20.380011719763843 0 0 0 0 26.329770574430086 -1.5645027490705559 0 -1.5645027490705559 -12.074824153082318 0 0 0 0 31.602712541556684 -10.713624260980737 0 -10.713624260980737 -19.523692127777522 0 0 0 0 23.207912676996784 6.7389698538800076 0 6.7389698538800076 -19.197310754515911 0 0 0 0 31.787956634012517 -3.5438448360775965 0 -3.5438448360775965 -12.118175279390641 0 0 0 0 34.304827526990266 -3.9523323618375343 0 -3.9523323618375343 -13.357091887084948 0 0 0 0 -27.500359998841304 28.320705581137219 0 28.320705581137219 14.703255243437567 0 0 0 0 2.0219250878876096 -2.1447373069286968 0 -2.1447373069286968 -4.1067349345241144 0 0 0 0 33.114620951950201 -1.5273843007674941 0 -1.5273843007674941 -12.865795070501576 0 0 0 0 -16.654481155870599 8.9214875302862211 0 8.9214875302862211 -26.111715003476974 0 0 0 0 -0.66626620777832102 -1.1025952468728235 0 -1.1025952468728235 -2.2960026162266702 0 0 0 0 40.487557190002917 -24.129280652061567 0 -24.129280652061567 -14.89476580444817 0 0 0 0 56.495059014880098 -32.017207052478227 0 -32.017207052478227 -9.8189968995974652 0 0 0 0 25.673184398481681 -8.8419368915747327 0 -8.8419368915747327 2.430102596817278 0 0 0 0 12.323153738936526 -61.447195067748908 0 -61.447195067748908 0.23586697116792266 0 0 0 0 21.637075812956027 -4.6180088317244383 0 -4.6180088317244383 21.850050452222717 0 0 0 0 -0.12779871895622819 -0.39186045851374729 0 -0.39186045851374729 -0.90752733959784759 0 0 0 0 8.3212099880001915 41.540046070701266 0 41.540046070701266 -154.92812543848515 0 0 0 0 31.636893294278707 -12.661339826455276 0 -12.661339826455276 -47.629285855737209 0 0 0 0 56.175017815570754 -13.775888946452156 0 -13.775888946452156 -50.492025783322461 0 0 0 0 57.835026532659867 -19.327020959858643 0 -19.327020959858643 -36.979408991601602 0 0 0 0 113.05670663754063 -17.346753731446427 0 -17.346753731446427 -66.6305127246642 0 0 0 0 86.676837954442817 18.562436727749063 0 18.562436727749063 -35.718864734801016 0 0 0 0 74.574370815615111 -5.3473910571830743 0 -5.3473910571830743 -69.717902934060916 0 0 0 0 74.363542758988842 -4.3814528594468065 0 -4.3814528594468065 -73.799826746933775 0 0 0 0 55.201387016044464 -12.669444468416607 0 -12.669444468416607 16.642867727669227 0 0 0 0 0.13045365780794782 -0.17483292308045151 0 -0.17483292308045151 -0.44393868249707352 0 0 0 0 58.407713173299271 -2.34718816236213 0 -2.34718816236213 -66.383571788450539 0 0 0 0 97.563601971185562 -44.05262996472382 0 -44.05262996472382 13.694632829889628 0 0 0 0 62.389839842107904 -26.54639739407569 0 -26.54639739407569 13.743159742629755 0 0 0 0 72.172403775533894 -70.254773727208004 0 -70.254773727208004 3.5241350956953035 0 0 0 0 0.056043078211189368 -0.40396806717794931 0 -0.40396806717794931 -0.74346848665607834 0 0 0 0 60.947413240726746 -31.146655447381221 0 -31.146655447381221 -6.3252805411603674 0 0 0 0 14.606169818818671 -35.809245176445913 0 -35.809245176445913 -1.5491333886548659 0 0 0 0 -48.387862660296378 -56.215804405691472 0 -56.215804405691472 -53.527298512723121 0 0 0 0 24.007061777923809 -29.615056044625874 0 -29.615056044625874 -43.932852401053367 0 0 0 0 53.236895715301216 -44.715446204138686 0 -44.715446204138686 -74.172980120382931 0 0 0 0 21.434145303464902 -21.172860770672855 0 -21.172860770672855 -3.1562842509039086 0 0 0 0 -2.8163194712906261 -3.6875972360838603 0 -3.6875972360838603 0.38868675508990691 0 0 0 0 53.242391715175472 14.572943663825725 0 14.572943663825725 -30.716429152646754 0 0 0 0 18.510302512026101 -4.0981303024531428 0 -4.0981303024531428 -2.7000092641508218 0 0 0 0 3.480978271629084 -1.4653853349386949 0 -1.4653853349386949 -0.062097534160196755 0 0 0 0 -4.2120562077470822 -8.1111116700965908 0 -8.1111116700965908 -0.23018852056758377 0 0 0 0 9.4083486174349673 -36.075514250765877 0 -36.075514250765877 -12.194814948567469 0 0 0 0 19.778426549273718 -2.330182286900822 0 -2.330182286900822 1.8955544455980942 0 0 0 0 14.232732479110069 -8.9673629637867478 0 -8.9673629637867478 3.5489196757240835 0 0 0 0 22.999312764884962 -18.726466127821364 0 -18.726466127821364 2.3240139846394072 0 0 0 0 26.301395457448962 -25.196328456868848 0 -25.196328456868848 11.423888483776921 0 0 0 0 34.313911170618667 2.04705105119546 0 2.04705105119546 -1.8565527043583501 0 0 0 0 109.87462288222014 -7.6555651434517742 0 -7.6555651434517742 -4.7799933767722962 0 0 0 0 115.4602826699338 -60.732101355734457 0 -60.732101355734457 30.081314592393554 0 0 0 0 36.194512994657998 -30.98551473722879 0 -30.98551473722879 20.077258004725309 0 0 0 0 15.537975063198246 -7.5185555243843964 0 -7.5185555243843964 11.898592061920001 0 0 0 0 92.292668707785197 17.608263095666494 0 17.608263095666494 -13.202599132593974 0 0 0 0 110.11391016968628 25.560531873782217 0 25.560531873782217 -20.062766494946644 0 0 0 0 150.70572602831089 7.4266394581000696 0 7.4266394581000696 -17.047795114566561 0 0 0 0 68.002646064243891 34.667406571947957 0 34.667406571947957 -21.182723481504524 0 0 0 0 72.361477203550749 23.657566155830338 0 23.657566155830338 6.6266197945415168 0 0 0 0 134.58450198010541 25.203556978276513 0 25.203556978276513 -48.972399779287116 0 0 0 0 110.41396912535129 63.120193755292306 0 63.120193755292306 -10.941913296022911 0 0 0 0 105.98886805767688 33.12384202924553 0 33.12384202924553 -32.051400703906573 0 0 0 0 89.213867008504167 -24.347232734390502 0 -24.347232734390502 -32.311290424073952 0 0 0 0 69.807818547433271 -4.8972272342309999 0 -4.8972272342309999 -7.5002006825314815 0 0 0 0 105.50063173871604 -25.86812134554701 0 -25.86812134554701 2.655995038641862 0 0 0 0 94.467785943272247 -5.7939279204472065 0 -5.7939279204472065 32.999189598579164 0 0 0 0 0.2470609051479471 0.41788425460561029 0 0.41788425460561029 0.38854688355892247 0 0 0 0 5.7362246742923162 35.84883726900641 0 35.84883726900641 6.4968821916724835 0 0 0 0 95.814967923235599 36.396263993332212 0 36.396263993332212 -7.936106444200135 0 0 0 0 -15.059994140465278 -18.409446696884203 0 -18.409446696884203 8.5338058544098203 0 0 0 0 44.587018003523553 4.2916894395308915 0 4.2916894395308915 -4.1964561459764269 0 0 0 0 6.6818909665198589 8.3421440335196557 0 8.3421440335196557 3.9546762928024464 0 0 0 0 22.956198472827964 -1.7453491431328274 0 -1.7453491431328274 -3.0035410425312818 0 0 0 0 0.2953942694423688 -0.06234357611017316 0 -0.06234357611017316 -0.011978499145992416 0 0 0 0 32.726404158325749 2.4958681965836433 0 2.4958681965836433 -8.1147139286096319 0 0 0 0 27.975782500179776 9.648355962153488 0 9.648355962153488 8.343471951785574 0 0 0 0 6.2989845101692481 -8.5833421154509892 0 -8.5833421154509892 3.6265609738746463 0 0 0 0 38.887920312419737 -15.315846906942809 0 -15.315846906942809 -11.050345255991715 0 0 0 0 22.614473641685436 3.1164980606453629 0 3.1164980606453629 0.20028576459000647 0 0 0 0 33.111631674310047 -2.0495361312905427 0 -2.0495361312905427 -4.6829010995818585 0 0 0 0 42.21098439933121 14.616527352847594 0 14.616527352847594 -0.055108568997674467 0 0 0 0 50.694147410111327 -1.8497071320540002 0 -1.8497071320540002 -9.0544204900774261 0 0 0 0 66.77961599637274 -7.3288095541779796 0 -7.3288095541779796 -8.4420440315712639 0 0 0 0 76.452798342463211 -24.03290250666975 0 -24.03290250666975 -1.3814719531970354 0 0 0 0 59.574373455639943 -16.070029367958863 0 -16.070029367958863 -12.359101039265944 0 0 0 0 47.397084667409217 -8.5282188977063118 0 -8.5282188977063118 -7.4281289201517264 0 0 0 0 50.515784838408536 -14.269928555406063 0 -14.269928555406063 -0.0040919319931576621 0 0 0 0 62.345618668407042 -10.051112173984702 0 -10.051112173984702 -8.6302435498478367 0 0 0 0 42.53837232949445 -5.2837395552119526 0 -5.2837395552119526 -4.1652116571441962 0 0 0 0 46.361715676156564 -5.5760804638918922 0 -5.5760804638918922 -5.0558092596373196 0 0 0 0 38.755261693539069 -7.8736809628336228 0 -7.8736809628336228 -0.001175066517748821 0 0 0 0 30.064094695364474 -2.621592680531275 0 -2.621592680531275 -0.37990679763082702 0 0 0 0 0.048324777372943828 -0.002866353889913853 0 -0.002866353889913853 -0.0016677910110018401 0 0 0 0 41.88194408581694 -2.127230386167172 0 -2.127230386167172 -4.1672923813422873 0 0 0 0 44.381132901989986 -23.181353468834963 0 -23.181353468834963 -39.755941617847512 0 0 0 0 -0.029712925699755033 -0.24106999666269502 0 -0.24106999666269502 -0.30351095613575596 0 0 0 0 23.804361891139706 -66.204719994455047 0 -66.204719994455047 26.597924463199199 0 0 0 0 20.658896519111295 -53.128358395813621 0 -53.128358395813621 -9.8865828767609969 0 0 0 0 13.361139070409081 -34.840015644908881 0 -34.840015644908881 34.224272875889653 0 0 0 0 65.519173674896592 -27.142338832539323 0 -27.142338832539323 3.7887543559294272 0 0 0 0 56.043836074615683 -27.593081934285721 0 -27.593081934285721 3.820781462536547 0 0 0 0 42.899516258919903 -17.86662195362219 0 -17.86662195362219 -2.8021382575741534 0 0 0 0 60.921782895406068 -12.469704907540741 0 -12.469704907540741 -8.9247678266428281 0 0 0 0 44.324674341547507 -32.498013931320102 0 -32.498013931320102 -24.324341121457095 0 0 0 0 50.422762356341991 -18.459826009004257 0 -18.459826009004257 -6.338396317557315 0 0 0 0 50.513523495838399 -14.29027250076863 0 -14.29027250076863 -0.025124603577851869 0 0 0 0 32.244082619621622 -27.033363148480539 0 -27.033363148480539 0.0056965171338955282 0 0 0 0 13.871235658207297 -41.641660815796286 0 -41.641660815796286 -8.9658901429636231 0 0 0 0 28.353557581998757 -29.390000864679809 0 -29.390000864679809 -19.424821610247662 0 0 0 0 11.210940189142548 -25.632194170194854 0 -25.632194170194854 -1.1678763737454148 0 0 0 0 22.740867465421616 -31.762030950531422 0 -31.762030950531422 0.00048946159893330015 0 0 0 0 32.463921346803545 -22.548170385425287 0 -22.548170385425287 -2.3509452609213852 0 0 0 0 62.339802517646604 -22.692476499295338 0 -22.692476499295338 -1.7903588420881151 0 0 0 0 43.043411351904069 -32.978466200270965 0 -32.978466200270965 0.0059043726032651372 0 0 0 0 39.49649153444625 -29.492075994587786 0 -29.492075994587786 1.6560088846445353 0 0 0 0 41.277128903639095 -32.206809389784809 0 -32.206809389784809 5.2234692734506041 0 0 0 0 30.63991506761522 -36.140804549407747 0 -36.140804549407747 -0.051985923004108869 0 0 0 0 25.255848320484802 -42.463612747247794 0 -42.463612747247794 10.81731530377661 0 0 0 0 42.332848106601887 -25.97735917901403 0 -25.97735917901403 0.91826649462532828 0 0 0 0 25.828297198793734 -39.688220744101955 0 -39.688220744101955 2.7312958299846493 0 0 0 0 27.236656200344441 -22.600260755151226 0 -22.600260755151226 -12.240437157265035 0 0 0 0 35.274385529271967 -33.468174789950268 0 -33.468174789950268 2.3289240334947294 0 0 0 0 8.8074465942409006 -37.694497056172537 0 -37.694497056172537 11.129251121670166 0 0 0 0 0.049645656702811181 -0.036818071446433009 0 -0.036818071446433009 0.022857257081216442 0 0 0 0 11.845370520790311 -11.353325832516049 0 -11.353325832516049 13.412904403330288 0 0 0 0 70.515109378182387 -29.026373607954682 0 -29.026373607954682 -3.6416550547749011 0 0 0 0 52.555131002032795 -12.969057563408633 0 -12.969057563408633 -17.910309750085901 0 0 0 0 70.395857616451394 -28.280750658821745 0 -28.280750658821745 -7.9071561553352225 0 0 0 0 60.699409462846234 -16.740269150103103 0 -16.740269150103103 -4.564757744770322 0 0 0 0 47.404795216658385 -31.132253572445336 0 -31.132253572445336 4.7540604044028782 0 0 0 0 62.188898669985065 -22.166123384527118 0 -22.166123384527118 1.9860777345106513 0 0 0 0 85.372270521169412 -8.6707509302750339 0 -8.6707509302750339 6.5022842228884556 0 0 0 0 4.9174163619900355 -0.40958442266813222 0 -0.40958442266813222 -0.61025481177284746 0 0 0 0 62.959493765836669 -23.121975101891707 0 -23.121975101891707 13.418073436935913 0 0 0 0 85.610463512639399 -24.927241240849749 0 -24.927241240849749 1.3438754258793253 0 0 0 0 0.29229465360232609 0.20284642112034135 0 0.20284642112034135 0.10948648663715571 0 0 0 0 97.799078919339081 -18.918408600719907 0 -18.918408600719907 -5.8554306870577548 0 0 0 0 4.380516599107068 0.07601312831121021 0 0.07601312831121021 0.64340856611204345 0 0 0 0 62.918851078953594 -23.289236051806462 0 -23.289236051806462 2.6679932157503146 0 0 0 0 84.641678419167874 -19.273813683718668 0 -19.273813683718668 -1.6902214744182675 0 0 0 0 62.35966837437536 -23.334495532020313 0 -23.334495532020313 9.9267761329685058 0 0 0 0 86.758742925027036 -28.718820236619493 0 -28.718820236619493 0.0052723054875980259 0 0 0 0 119.07046578250447 -10.313610228324048 0 -10.313610228324048 3.1930144408855976 0 0 0 0 0.43761737040302151 -0.060278611692481832 0 -0.060278611692481832 0.064563966167980061 0 0 0 0 143.40244047322813 30.349064248133878 0 30.349064248133878 -34.253433287952205 0 0 0 0 146.48844503302826 17.702178917653065 0 17.702178917653065 11.958525384525686 0 0 0 0 0.44765963582351276 0.048290081757258463 0 0.048290081757258463 0.068619436330996833 0 0 0 0 3.1109327008180117 0.1739801539006387 0 0.1739801539006387 7.9689100649294308e-05 0 0 0 0 145.02856097456242 26.685510024734931 0 26.685510024734931 0.034957829861454397 0 0 0 0 170.5388088915206 47.775712262328227 0 47.775712262328227 8.149398781102505 0 0 0 0 111.97870568259214 7.2034267249514174 0 7.2034267249514174 8.7730552920545577 0 0 0 0 114.4181960010078 58.862558695177547 0 58.862558695177547 38.810777058299166 0 0 0 0 110.97806966424105 22.523825098589896 0 22.523825098589896 35.471529300712277 0 0 0 0 0.2658092239134362 -0.25382249519465461 0 -0.25382249519465461 0.23091577522237927 0 0 0 0 0.28871337537889818 -0.42733728381784886 0 -0.42733728381784886 0.18318970146959027 0 0 0 0 104.34431117665372 -24.555544108718692 0 -24.555544108718692 59.030163738156688 0 0 0 0 31.831344119324058 15.520891169553227 0 15.520891169553227 39.53559903000901 0 0 0 0 167.00749390416968 26.267624866565097 0 26.267624866565097 -24.257468126822332 0 0 0 0 271.07409938776982 54.39947109405167 0 54.39947109405167 0.043106238005312408 0 0 0 0 163.68495862060536 69.780491558187748 0 69.780491558187748 43.566232703854311 0 0 0 0 262.09953258390306 48.309492835752117 0 48.309492835752117 15.516822183754755 0 0 0 0 146.85454900687779 23.11780272470142 0 23.11780272470142 -0.65199470642546942 0 0 0 0 147.19225176145846 61.196259757257771 0 61.196259757257771 55.781797688084708 0 0 0 0 139.01280532049714 39.047661126512182 0 39.047661126512182 4.0177017187880608 0 0 0 0 174.09958118440045 2.1335875548176944 0 2.1335875548176944 21.670425661719854 0 0 0 0 212.78673832130153 69.616220976967824 0 69.616220976967824 78.167137515878352 0 0 0 0 108.55952045860613 3.2874116777060181 0 3.2874116777060181 5.0648620653235099 0 0 0 0 0.097870876793377803 -0.27289997639688579 0 -0.27289997639688579 0.13216331577339091 0 0 0 0 81.900038288193173 53.696514398447064 0 53.696514398447064 11.601226042570076 0 0 0 0 125.8231877823564 40.136371943172065 0 40.136371943172065 -7.1301583654659737 0 0 0 0 48.430136677183327 3.5680542320037887 0 3.5680542320037887 25.728731912281354 0 0 0 0 0.4267341560004283 -0.61414171343788837 0 -0.61414171343788837 0.48863354069378639 0 0 0 0 96.610235483500219 -4.9835541126709302 0 -4.9835541126709302 6.4081522826688229 0 0 0 0 47.378679582769109 5.0496471997948333 0 5.0496471997948333 4.6735437629053536 0 0 0 0 85.423728531339293 -6.8475724433338563 0 -6.8475724433338563 27.730810204977502 0 0 0 0 54.545814757750122 1.1687883781891486 0 1.1687883781891486 -14.427168044833252 0 0 0 0 0.44235125413752741 -0.66454032118501516 0 -0.66454032118501516 0.30074191473177891 0 0 0 0 11.265749619029521 -14.643792724858088 0 -14.643792724858088 -0.47586869045636604 0 0 0 0 38.312977938952827 -30.870202274287664 0 -30.870202274287664 -48.289418037931 0 0 0 0 233.93786631114199 22.042625331819323 0 22.042625331819323 22.317239858370272 0 0 0 0 156.40813870212878 -4.2282784498183901 0 -4.2282784498183901 -7.9406503820126204 0 0 0 0 170.54499714752819 -9.2565588474304406 0 -9.2565588474304406 42.350561171285449 0 0 0 0 163.89318365897816 9.9192940724123986 0 9.9192940724123986 -10.150620580943837 0 0 0 0 198.80856035849865 -28.697388977444518 0 -28.697388977444518 -94.094592029975615 0 0 0 0 178.78434306957934 -22.486821914970051 0 -22.486821914970051 -10.2109186610253 0 0 0 0 136.09668981412688 5.9721905418181791 0 5.9721905418181791 -13.057688871987182 0 0 0 0 164.8685516358164 6.959677829201496 0 6.959677829201496 -69.49028664496484 0 0 0 0 93.621891606264398 7.4966131725366836 0 7.4966131725366836 -69.494219087115198 0 0 0 0 19.400440780053032 87.585887062511858 0 87.585887062511858 -155.46690881274276 0 0 0 0 152.65817221763427 100.50773090817052 0 100.50773090817052 -287.34451947068942 0 0 0 0 254.51850299742364 17.087425937837679 0 17.087425937837679 -230.12504659950719 0 0 0 0 295.44758036009625 -89.561290792151937 0 -89.561290792151937 -74.428484333262986 0 0 0 0 5.2684191812004428 -35.008641112834553 0 -35.008641112834553 -47.511233288423909 0 0 0 0 7.4293257493845886 -34.281575114281736 0 -34.281575114281736 -47.472598752088402 0 0 0 0 14.968935074699402 -15.855282159961689 0 -15.855282159961689 -71.315388027107417 0 0 0 0 0.3061618657280647 -0.43062353778522322 0 -0.43062353778522322 -0.019446297797451439 0 0 0 0 -7.1765693878260208 -45.030053553900188 0 -45.030053553900188 -95.010496217536115 0 0 0 0 8.6488332471926697 -9.32866382585172 0 -9.32866382585172 -87.583866159999388 0 0 0 0 36.96449186506652 -44.995240050024222 0 -44.995240050024222 -78.2777909393497 0 0 0 0 35.897625206484008 -46.359749084971241 0 -46.359749084971241 -67.305341360846455 0 0 0 0 49.698276999304653 -33.331545138396649 0 -33.331545138396649 -58.109666646392384 0 0 0 0 49.857535756898869 -37.533845763048589 0 -37.533845763048589 -83.468312320474737 0 0 0 0 47.431313942098882 -42.635121124110405 0 -42.635121124110405 -60.189285701996369 0 0 0 0 47.449799947316933 -41.378143246899242 0 -41.378143246899242 -77.712014363317962 0 0 0 0 40.283802657941123 -45.58659973741527 0 -45.58659973741527 -61.802624921881602 0 0 0 0 77.800341086745902 -30.500484136751766 0 -30.500484136751766 -55.97396204402844 0 0 0 0 60.394165826750395 -54.254094720367277 0 -54.254094720367277 -49.784519667718314 0 0 0 0 42.683455015314394 -34.632727665467144 0 -34.632727665467144 -41.912300368073403 0 0 0 0 18.241346152804908 -30.738901519139176 0 -30.738901519139176 -42.521179848510883 0 0 0 0 26.123808739293963 -82.632841183969418 0 -82.632841183969418 -118.19105932773778 0 0 0 0 6.4502646929977345 22.958666704230211 0 22.958666704230211 -117.47619028715609 0 0 0 0 54.070769019563159 -49.031339747898556 0 -49.031339747898556 -78.856403165527468 0 0 0 0 36.63954821970583 -20.585416636550125 0 -20.585416636550125 -50.422151663408442 0 0 0 0 36.394517546074894 -21.940945898708076 0 -21.940945898708076 -53.951116634858465 0 0 0 0 -16.597144803556148 -33.42545355729402 0 -33.42545355729402 1.2003171986116854 0 0 0 0 7.8008541348826839 -3.2953421714447018 0 -3.2953421714447018 -43.375892164944233 0 0 0 0 42.810522277839482 -24.75109270026357 0 -24.75109270026357 -48.454752085148186 0 0 0 0 24.21810776973507 -26.067415767623345 0 -26.067415767623345 -12.263998599461672 0 0 0 0 37.964510650817829 -27.226760383415524 0 -27.226760383415524 -15.070839190018113 0 0 0 0 43.510558669244347 -16.101963307655694 0 -16.101963307655694 -22.003750243061234 0 0 0 0 54.879975445526725 -15.635861520295251 0 -15.635861520295251 -26.714292166514326 0 0 0 0 41.128370332446138 -40.485788446932602 0 -40.485788446932602 -46.530835996065889 0 0 0 0 33.949258640968765 -30.260343582305723 0 -30.260343582305723 -29.358163018065511 0 0 0 0 49.340503827925204 -27.096320561049794 0 -27.096320561049794 -40.77445398459065 0 0 0 0 1498.8324488749922 240.00515199568335 0 240.00515199568335 -142.93260845850747 0 0 0 0 936.80417409180882 91.288466431001297 0 91.288466431001297 0.05342283462974487 0 0 0 0 1282.9173254273883 116.14220479758538 0 116.14220479758538 -65.236610411072675 0 0 0 0 798.64572770738414 305.26084759165599 0 305.26084759165599 28.119793570337222 0 0 0 0 662.50463190471055 143.63630960244291 0 143.63630960244291 11.527218296178177 0 0 0 0 386.60425646308875 214.77406326999801 0 214.77406326999801 158.55193252241077 0 0 0 0 828.75140393395031 261.68543627992875 0 261.68543627992875 32.813432943405061 0 0 0 0 488.95103137231126 70.87552183363438 0 70.87552183363438 0.11708105404874369 0 0 0 0 399.73586400579734 149.06855686052302 0 149.06855686052302 25.115745786131498 0 0 0 0 293.59515115631802 35.526218211307707 0 35.526218211307707 63.142368509180493 0 0 0 0 258.9845481006696 104.63758361703781 0 104.63758361703781 96.460896031479081 0 0 0 0 394.79104635474869 94.136980319647407 0 94.136980319647407 45.524553276611861 0 0 0 0 214.3060021739002 19.590815386642191 0 19.590815386642191 67.19149755472705 0 0 0 0 253.61254505745183 92.11517281078288 0 92.11517281078288 105.90104536726886 0 0 0 0 295.75236422779562 109.91933250639109 0 109.91933250639109 97.629593567379061 0 0 0 0 219.68215860342752 30.496471005638909 0 30.496471005638909 20.327518721867591 0 0 0 0 198.6316267609036 -19.447022156114144 0 -19.447022156114144 -17.050976071374407 0 0 0 0 177.34071315588517 -40.173458866770261 0 -40.173458866770261 0.69114963205430513 0 0 0 0 130.77871429519291 1.8515391753852555 0 1.8515391753852555 -139.7115750174296 0 0 0 0 142.29492050818226 -78.950401547006663 0 -78.950401547006663 32.214927511365431 0 0 0 0 75.263080969554721 -56.671496926187956 0 -56.671496926187956 -28.09545410305725 0 0 0 0 133.48283009470833 8.3884326110860172 0 8.3884326110860172 73.576316411735775 0 0 0 0 102.98932978375888 124.11357880548812 0 124.11357880548812 128.99278837242974 0 0 0 0 203.91870737000863 54.364398361468233 0 54.364398361468233 -15.123761053733588 0 0 0 0 23.270761486965057 -5.6117423709790728 0 -5.6117423709790728 -160.47416648308877 0 0 0 0 62.340741486322713 93.542719505446627 0 93.542719505446627 -23.688469824527601 0 0 0 0 -78.424145702781971 -4.0587978347757598 0 -4.0587978347757598 32.672861149902587 0 0 0 0 -8.2402361517379177 298.25755566359157 0 298.25755566359157 -379.94584558848624 0 0 0 0 358.43139054852145 430.65736906839629 0 430.65736906839629 257.20641691752132 0 0 0 0 553.86324374055403 265.91975777832602 0 265.91975777832602 123.99232336181645 0 0 0 0 302.30137521463621 97.823695977386706 0 97.823695977386706 118.72473744236783 0 0 0 0 1187.3628757515071 304.32439994614361 0 304.32439994614361 -12.725992199187449 0 0 0 0 531.4147089670264 401.48833958798605 0 401.48833958798605 145.1065392255847 0 0 0 0 547.90262393331068 334.69693237500582 0 334.69693237500582 116.43699182198401 0 0 0 0 1386.191628533943 856.43436002457963 0 856.43436002457963 99.755588562682078 0 0 0 0 8.1260422948442823 3.9474819077160745 0 3.9474819077160745 2.0774073333249783 0 0 0 0 -18.418394482015628 717.52428310714231 0 717.52428310714231 398.16455754860658 0 0 0 0 1502.8656781078607 -518.43465870934938 0 -518.43465870934938 121.54978968843426 0 0 0 0 1905.021538423538 373.6906077631412 0 373.6906077631412 -85.661732388259608 0 0 0 0 1456.2699266776654 562.94489406439152 0 562.94489406439152 469.34100882686869 0 0 0 0 1419.5726513032373 134.42125895244371 0 134.42125895244371 511.17568523367652 0 0 0 0 1500.6182877034116 384.29476904637198 0 384.29476904637198 229.77537998533487 0 0 0 0 1183.4863392652446 297.88483736116245 0 297.88483736116245 1.9432232812169112 0 0 0 0 1482.8117136445617 275.15048687630349 0 275.15048687630349 3.2707030863294748 0 0 0 0 1237.3512957172024 477.72816951127481 0 477.72816951127481 66.059734550481181 0 0 0 0 1077.9398288247248 319.03558036203907 0 319.03558036203907 -76.145361331571479 0 0 0 0 1456.4199494287677 496.64823552141348 0 496.64823552141348 -6.1800716380904248 0 0 0 0 1269.1637531064807 487.54214667264364 0 487.54214667264364 38.899878492142726 0 0 0 0 1153.5550463234031 184.81233294215431 0 184.81233294215431 -147.98591093866608 0 0 0 0 1000.0497766981061 201.0420947709348 0 201.0420947709348 -25.544041559186084 0 0 0 0 906.10099974788682 -184.175622402915 0 -184.175622402915 -45.240218699493497 0 0 0 0 195.98394659264886 -183.71016338315411 0 -183.71016338315411 184.64306290275437 0 0 0 0 -17.170040042429719 66.98029728910754 0 66.98029728910754 -14.051498034216308 0 0 0 0 358.37474848671263 72.604626234070722 0 72.604626234070722 -17.779014629358812 0 0 0 0 0.47413982822354583 0.85246792914126956 0 0.85246792914126956 -0.49473149248928805 0 0 0 0 1024.3260155110293 191.30778851560638 0 191.30778851560638 -58.442016845488062 0 0 0 0 620.40066554539226 4.1846905512540502 0 4.1846905512540502 -145.06203455262781 0 0 0 0 1069.9317006572892 390.01773260583127 0 390.01773260583127 -21.710315784605768 0 0 0 0 158.51963917927424 236.70187033179633 0 236.70187033179633 328.29495200713359 0 0 0 0 6.5379500113213176 0.57539313633802891 0 0.57539313633802891 -2.8718069175236653 0 0 0 0 3.43245681465487 22.615116169887244 0 22.615116169887244 -14.031489613973633 0 0 0 0 4.2553486848859023 2.9875060791172743 0 2.9875060791172743 -1.8187781125369906 0 0 0 0 31.795839142141631 -10.532421902050544 0 -10.532421902050544 -17.230459511805066 0 0 0 0 86.850210410346335 -18.932196436718442 0 -18.932196436718442 -32.707957518467595 0 0 0 0 51.163282167897705 7.717929497189175 0 7.717929497189175 21.316992434010501 0 0 0 0 33.354192872779095 -19.885822614624658 0 -19.885822614624658 21.929986850783816 0 0 0 0 40.308080724356842 -8.0422859833589513 0 -8.0422859833589513 7.1445457183356993 0 0 0 0 90.941873576193757 -0.40996825843171791 0 -0.40996825843171791 1.2212307699043095 0 0 0 0 93.253551688478183 -30.490957813966702 0 -30.490957813966702 -9.444584041651936 0 0 0 0 95.100696233957933 -10.085539828238964 0 -10.085539828238964 -27.214529471941091 0 0 0 0 96.165282886460773 -3.0527839742769558 0 -3.0527839742769558 -30.978119285204347 0 0 0 0 52.473920230258955 21.187327158051716 0 21.187327158051716 -37.450621128530543 0 0 0 0 97.094916266520158 -100.15122330236642 0 -100.15122330236642 94.403517670091972 0 0 0 0 19.168250172228269 9.406368808782883 0 9.406368808782883 3.7646265710100848 0 0 0 0 192.14866918424912 71.461959784302479 0 71.461959784302479 18.596910112572658 0 0 0 0 22.685557940745056 12.498367249771778 0 12.498367249771778 2.5193703537887568 0 0 0 0 -34.51842820510501 216.55949418678506 0 216.55949418678506 -330.08814223162153 0 0 0 0 62.913941033792071 -27.964434589345064 0 -27.964434589345064 23.124014974715855 0 0 0 0 15.15923544267207 -6.1099653941229723 0 -6.1099653941229723 16.642961301987654 0 0 0 0 12.358567046382191 9.3102146357047175 0 9.3102146357047175 -3.7564917471420647 0 0 0 0 -0.18712476990185678 18.335684842608885 0 18.335684842608885 -9.5375682504845827 0 0 0 0 5.4667931470157214 8.7711450783420233 0 8.7711450783420233 6.9164236723954939 0 0 0 0 14.147807631278738 12.517900582339607 0 12.517900582339607 -110.50688563721269 0 0 0 0 67.02202019579272 -9.006263595473456 0 -9.006263595473456 -70.415956698167065 0 0 0 0 67.790761230886346 30.761324931496631 0 30.761324931496631 -170.99426643314746 0 0 0 0 -5.9208183646187535 153.72632712127165 0 153.72632712127165 -216.66612324854424 0 0 0 0 99.021617873542709 74.573125858882577 0 74.573125858882577 -220.2080287627316 0 0 0 0 1.0591113825339562 19.989907224386343 0 19.989907224386343 -3.5131845374583008 0 0 0 0 -1.9451636248686555 14.848424493128817 0 14.848424493128817 -3.4587199601226075 0 0 0 0 35.748673671176221 6.3734829418369614 0 6.3734829418369614 2.6891194638541265 0 0 0 0 35.956763599624537 -5.8213553010278503 0 -5.8213553010278503 3.957789467335715 0 0 0 0 40.468239941350475 -12.250752109315783 0 -12.250752109315783 11.722933712119186 0 0 0 0 7.7933110569644484 9.7613406607675444 0 9.7613406607675444 -1.5103900469241904 0 0 0 0 19.338225706647791 14.110466123185915 0 14.110466123185915 -7.3609310470499167 0 0 0 0 -3.3473357950424543 28.985044840370165 0 28.985044840370165 -3.0297215202656389 0 0 0 0 9.5991894904436776 27.272993452340813 0 27.272993452340813 -7.920861287878779 0 0 0 0 41.611711080950045 14.885502192284434 0 14.885502192284434 -22.181365427501532 0 0 0 0 -0.16400524137861794 11.166312501013351 0 11.166312501013351 0.2321355761198447 0 0 0 0 39.887802798119083 -0.096730893167659815 0 -0.096730893167659815 -13.247622843806312 0 0 0 0 17.741218470106901 9.3896325763338595 0 9.3896325763338595 -1.0944903295849677 0 0 0 0 37.712842662258481 -5.2156502749500646 0 -5.2156502749500646 4.1261697034737495 0 0 0 0 43.030472942984488 2.9416729770502741 0 2.9416729770502741 -15.424223647274061 0 0 0 0 64.475829768183758 63.140843265228312 0 63.140843265228312 -57.219151830951205 0 0 0 0 65.899756307129721 -64.837806795869454 0 -64.837806795869454 -4.9645825867856956 0 0 0 0 147.82112285490075 55.839615989903052 0 55.839615989903052 -179.26333636856702 0 0 0 0 44.092336382337464 8.6303333106092328 0 8.6303333106092328 -0.85152670002438735 0 0 0 0 12.530802766311183 37.312973339609847 0 37.312973339609847 6.2590506748190684 0 0 0 0 -84.333014007674137 168.27077876293987 0 168.27077876293987 -13.24929363405181 0 0 0 0 -40.137544523309771 80.406231401518198 0 80.406231401518198 -45.209956240681549 0 0 0 0 149.69416272053786 268.02165227319404 0 268.02165227319404 138.66602612839733 0 0 0 0 268.49792976228764 -78.909076892517234 0 -78.909076892517234 15.779729764931972 0 0 0 0 -94.566353121292195 -6.1289979966705772 0 -6.1289979966705772 100.76506083908384 0 0 0 0 286.23124479315902 56.629988062405062 0 56.629988062405062 73.498750918479573 0 0 0 0 -25.255695235500752 -12.003684855745227 0 -12.003684855745227 16.97102156979355 0 0 0 0 343.96661401418169 5.407177754718191 0 5.407177754718191 -38.166268112600505 0 0 0 0 0.41940641885890528 0.78516403519175171 0 0.78516403519175171 2.3807582970702184 0 0 0 0 -15.685199377898243 -25.98183614772222 0 -25.98183614772222 16.022190966599055 0 0 0 0 0.70710867178253167 -0.57339988955945032 0 -0.57339988955945032 0.5558086064450336 0 0 0 0 391.21601808413106 120.20797293603215 0 120.20797293603215 -33.093460264459964 0 0 0 0 40.891253025853075 -49.503602185946534 0 -49.503602185946534 23.986088867608942 0 0 0 0 154.61310933909317 -54.677862192649627 0 -54.677862192649627 10.646106214947167 0 0 0 0 185.12821112234087 82.863106328666731 0 82.863106328666731 116.7759046848106 0 0 0 0 30.255491468458786 -28.357354278452078 0 -28.357354278452078 24.442876734722347 0 0 0 0 50.506838553683338 -8.4774090965926234 0 -8.4774090965926234 15.805219121302571 0 0 0 0 15.576875068785739 0.77672456317431227 0 0.77672456317431227 1.8511988771400638 0 0 0 0 17.828050659411019 -2.3186914040704778 0 -2.3186914040704778 0.22934438204893581 0 0 0 0 0.0069266074608211881 1.619706569275678 0 1.619706569275678 -6.1932598156477692 0 0 0 0 -12.924404835333917 47.198071520456445 0 47.198071520456445 19.315560108563261 0 0 0 0 30.57403489062699 -20.811877746949435 0 -20.811877746949435 0.84049113924834273 0 0 0 0 11.985831533548437 -0.91211754498552366 0 -0.91211754498552366 -9.4673808083566655 0 0 0 0 48.249728567312559 -26.181688900305886 0 -26.181688900305886 0.078885912914206102 0 0 0 0 59.074737589740835 -10.723989542612685 0 -10.723989542612685 -105.58861271707696 0 0 0 0 46.749172947701233 2.9578825671691318 0 2.9578825671691318 -0.41638004814007129 0 0 0 0 61.430092417198466 -13.141278472104659 0 -13.141278472104659 -61.157987062150909 0 0 0 0 57.249158898082896 -31.80625954213788 0 -31.80625954213788 -4.1878627522251008 0 0 0 0 60.443697664410138 -19.737188278304657 0 -19.737188278304657 -34.409043893341277 0 0 0 0 90.123417880631678 61.25962368839815 0 61.25962368839815 -27.08781650072973 0 0 0 0 45.706318027031159 3.9331172955093114 0 3.9331172955093114 -1.9484608950721636 0 0 0 0 7.2616775508213323 34.45908641840424 0 34.45908641840424 39.810261484365583 0 0 0 0 1498.2564119781787 981.52647597748239 0 981.52647597748239 352.00436751781444 0 0 0 0 34.636204693675793 -9.9203971485788021 0 -9.9203971485788021 2.6284818520148034 0 0 0 0 67.63559130158319 -17.79169345531227 0 -17.79169345531227 -84.815771167988942 0 0 0 0 46.163955445848842 7.4675954909300799 0 7.4675954909300799 -14.797534259212398 0 0 0 0 -60.975469689990859 -99.577071078030713 0 -99.577071078030713 -102.6528895820079 0 0 0 0 21.454168778855745 1.5899990700052662 0 1.5899990700052662 -6.9650502923830615 0 0 0 0 32.817504834259744 -4.9760433229799581 0 -4.9760433229799581 -6.0738520690927951 0 0 0 0 12.553236029780237 -1.1226280535092883 0 -1.1226280535092883 -12.420242282731579 0 0 0 0 50.677403439824175 -0.81687419097533365 0 -0.81687419097533365 -6.5954154701033696 0 0 0 0 299.17081653080822 -146.35051227784683 0 -146.35051227784683 51.519099896812463 0 0 0 0 329.84195616479701 311.04269485725365 0 311.04269485725365 285.17979569473226 0 0 0 0 4.199169784541283 -2.5618623848676663 0 -2.5618623848676663 1.0513641429036069 0 0 0 0 140.83149733038044 9.8683017415191898 0 9.8683017415191898 -75.59014716304722 0 0 0 0 61.322783525152772 -133.07334287597288 0 -133.07334287597288 20.940480890644494 0 0 0 0 32.051103453637552 26.093479665385246 0 26.093479665385246 -37.360597907862029 0 0 0 0 83.527529470713489 56.717358435055019 0 56.717358435055019 -21.745414844753213 0 0 0 0 94.827427120795619 -65.757217847703089 0 -65.757217847703089 72.975782118001916 0 0 0 0 172.43538989830995 -169.03085647195419 0 -169.03085647195419 168.59938132224036 0 0 0 0 156.25833065703046 -84.188003910886223 0 -84.188003910886223 10.848858653700526 0 0 0 0 305.23852736621302 -327.49101704884782 0 -327.49101704884782 336.53652781481799 0 0 0 0 138.86729774469131 -38.624004385902424 0 -38.624004385902424 59.253900651298466 0 0 0 0 170.86399790703763 -14.396016447204943 0 -14.396016447204943 116.73869637867688 0 0 0 0 765.14049713754503 -378.40378750470262 0 -378.40378750470262 24.437157483637208 0 0 0 0 1496.836969464759 -910.27408433853384 0 -910.27408433853384 153.81906918091789 0 0 0 0 781.75014896158245 -483.43078227944943 0 -483.43078227944943 -93.414339929002608 0 0 0 0 136.88138456336492 -676.78480863478273 0 -676.78480863478273 1074.4395396970592 0 0 0 0 9.34150435051464 -2.9754096584101006 0 -2.9754096584101006 2.6815504112039585 0 0 0 0 24.064477929788936 -8.8246560921852701 0 -8.8246560921852701 3.8481503389786194 0 0 0 0 816.86196443681183 728.13067571948704 0 728.13067571948704 337.44432467835094 0 0 0 0 56.501964196162589 -28.801506835718556 0 -28.801506835718556 15.968728409800832 0 0 0 0 21.72549392350993 -82.879259932408786 0 -82.879259932408786 112.09843058753995 0 0 0 0 3.1798201335631688 -0.034029836360615739 0 -0.034029836360615739 0.20590906112856444 0 0 0 0 15.44241073129524 13.794573202965921 0 13.794573202965921 45.719476517330804 0 0 0 0 138.82925076240645 -78.09873798197566 0 -78.09873798197566 -23.496259958005567 0 0 0 0 133.5134346800553 41.110411806275806 0 41.110411806275806 -81.36962915923732 0 0 0 0 39.336258788047417 -7.0125768607115333 0 -7.0125768607115333 -61.65791979991377 0 0 0 0 179.12611926977843 31.790987226444827 0 31.790987226444827 -55.362625367127521 0 0 0 0 -36.376035392757331 -122.24543441308134 0 -122.24543441308134 27.747007050583306 0 0 0 0 -0.2352770193567153 0.16232332918947634 0 0.16232332918947634 0.88081348400933646 0 0 0 0 -16.949476969064563 -40.251193602706877 0 -40.251193602706877 34.707794613533224 0 0 0 0 -16.857723090237414 -32.348918751176598 0 -32.348918751176598 75.880761072644418 0 0 0 0 9.6183250596191101 12.507030533050838 0 12.507030533050838 1.4853308455000942 0 0 0 0 30.900921797122692 -8.2621721781690063 0 -8.2621721781690063 -2.4858536317750701 0 0 0 0 51.591812207152543 -3.3472250582383936 0 -3.3472250582383936 -5.3815230681985753 0 0 0 0 17.283150048289826 0.79454622888823678 0 0.79454622888823678 -19.479237328198906 0 0 0 0 16.517468512916821 3.431742817591271 0 3.431742817591271 -5.0019430594924188 0 0 0 0 27.410705329538906 -3.0945882012328809 0 -3.0945882012328809 -5.1532349465290874 0 0 0 0 9.8122130787466233 -1.2882981936042914 0 -1.2882981936042914 -0.56642631834609469 0 0 0 0 -3.1971176900260616 -35.805659800657395 0 -35.805659800657395 -12.784382777996598 0 0 0 0 122.08187332763919 0.091236924519080276 0 0.091236924519080276 -65.077894211788163 0 0 0 0 1.4893308324826648 -7.8933702955409899 0 -7.8933702955409899 -6.147394526529979 0 0 0 0 10.339396433148067 -2.0717584764690855 0 -2.0717584764690855 -2.9705871384910552 0 0 0 0 43.599193979218398 108.27690552178979 0 108.27690552178979 -179.33180147129622 0 0 0 0 203.73246096990988 -17.794890091482046 0 -17.794890091482046 -122.41664605045446 0 0 0 0 1.8160803585337248 0.50023407761644023 0 0.50023407761644023 0.038794403234327257 0 0 0 0 81.565592566887062 -111.82643168440248 0 -111.82643168440248 67.391936284358394 0 0 0 0 -130.1770182339751 31.213091312627512 0 31.213091312627512 113.2206341258559 0 0 0 0 4.9025874651144719 -0.97865080334625532 0 -0.97865080334625532 -0.76435033314252721 0 0 0 0 6.0462765220145229 14.382188229155815 0 14.382188229155815 -16.199426923895317 0 0 0 0 18.256026105878846 14.140287284935766 0 14.140287284935766 -30.867257012091613 0 0 0 0 30.25990692506457 -2.9681018086588864 0 -2.9681018086588864 -41.89981761925992 0 0 0 0 8.9605880716808315 -27.855526438141339 0 -27.855526438141339 -17.166011692326947 0 0 0 0 0.95223397079098504 -14.518019037537215 0 -14.518019037537215 -7.8336240532067904 0 0 0 0 7.1721313468160588 8.3804186279933504 0 8.3804186279933504 -39.25809825934698 0 0 0 0 55.435920729403733 -4.5865047371420928 0 -4.5865047371420928 -36.341816087950519 0 0 0 0 33.231303754851979 -27.227380173607685 0 -27.227380173607685 -8.7067660769697568 0 0 0 0 -105.13206075935886 63.05530146893841 0 63.05530146893841 99.103821746749574 0 0 0 0 211.36565767871798 -38.110267136247217 0 -38.110267136247217 -120.81958650515526 0 0 0 0 1.707099375409598 90.32636431903552 0 90.32636431903552 -180.60139597722116 0 0 0 0 24.137382214816171 -33.601885190851533 0 -33.601885190851533 -54.3053589111924 0 0 0 0 4.544785518951528 0.43459000909906464 0 0.43459000909906464 -0.39535259903020292 0 0 0 0 32.953192771321369 -21.632499648526661 0 -21.632499648526661 -67.935655652029368 0 0 0 0 4.816841151114005 0.15684411960400269 0 0.15684411960400269 -0.63288338827408319 0 0 0 0 25.935081084204285 -3.8150901458222677 0 -3.8150901458222677 -178.99430951958118 0 0 0 0 -103.61404232042696 1.7326904970967689 0 1.7326904970967689 22.136341162613917 0 0 0 0 51.962948442815104 40.514016759319247 0 40.514016759319247 -183.73188701545314 0 0 0 0 17.437327724433089 -46.151260449953469 0 -46.151260449953469 -47.977309525065266 0 0 0 0 -5.0452559717068652 -3.365317098901528 0 -3.365317098901528 39.062761548453409 0 0 0 0 1.1845210240230415 0.42683013372717227 0 0.42683013372717227 -0.1064167342690201 0 0 0 0 65.342478350874444 -71.617873396111122 0 -71.617873396111122 -120.44133668403572 0 0 0 0 264.36947160631826 3.6962951190787408 0 3.6962951190787408 -92.181456223571786 0 0 0 0 308.43294176457766 -234.10881638948143 0 -234.10881638948143 38.382988135512278 0 0 0 0 242.63514720195963 -203.49018660092588 0 -203.49018660092588 113.81136040056276 0 0 0 0 2.1885047120346997 0.050826370469760462 0 0.050826370469760462 -0.24653779029100598 0 0 0 0 269.12933538792277 -81.136093108524165 0 -81.136093108524165 -67.81416483920907 0 0 0 0 231.06807571988611 -89.704377156066357 0 -89.704377156066357 28.568954440258494 0 0 0 0 260.6217474234727 -62.323836302491145 0 -62.323836302491145 -182.79665758078374 0 0 0 0 316.73269549546239 -176.2476635677433 0 -176.2476635677433 -61.589683820880055 0 0 0 0 154.39458160846698 -155.45117819666802 0 -155.45117819666802 -115.46636595240261 0 0 0 0 109.77554762532964 61.323002402970587 0 61.323002402970587 -151.28383141861082 0 0 0 0 3.3196619436930632 -26.429469762643066 0 -26.429469762643066 -118.88471844646233 0 0 0 0 7.8679372802801026 7.1407566969862373 0 7.1407566969862373 5.8400507549307843 0 0 0 0 110.21621326293644 0.96790579598393833 0 0.96790579598393833 -17.991276838880367 0 0 0 0 2.0145097456844248 1.0615642355283228 0 1.0615642355283228 -1.6389856776108802 0 0 0 0 269.2681965331285 -83.293209495222072 0 -83.293209495222072 24.689191072304993 0 0 0 0 204.40144979951583 35.545517339772005 0 35.545517339772005 -95.252278270301758 0 0 0 0 241.34402963009779 36.82223440052212 0 36.82223440052212 14.772621368417731 0 0 0 0 209.95925963712216 -0.60163076131215121 0 -0.60163076131215121 -16.794383510347643 0 0 0 0 171.16197130353248 9.0400997745137204 0 9.0400997745137204 6.9562339826966308 0 0 0 0 234.25949619688981 -7.3193610209934832 0 -7.3193610209934832 -1.7645915831276398 0 0 0 0 193.51209207884312 -21.806623897155077 0 -21.806623897155077 33.935441878476922 0 0 0 0 222.09745671209021 36.390019916339725 0 36.390019916339725 11.94117400974784 0 0 0 0 -31.59045628030799 31.787737385997559 0 31.787737385997559 -0.025815399314296883 0 0 0 0 1.9849148515503856 4.557636261267433 0 4.557636261267433 6.5873903411852819 0 0 0 0 -1.3313929585728488 0.65859655104613779 0 0.65859655104613779 1.8883903414912488 0 0 0 0 -7.1614886638890312 16.93404215279736 0 16.93404215279736 -3.282725296453691 0 0 0 0 -20.777544463344384 18.514475425969408 0 18.514475425969408 1.3449205017498116 0 0 0 0 -58.403828576989326 8.2311270960866523 0 8.2311270960866523 36.572223905126776 0 0 0 0 1.3537187773370789 1.8176954425023126 0 1.8176954425023126 0.77311871287609613 0 0 0 0 -60.060654462206003 32.276628904101131 0 32.276628904101131 215.71725745426966 0 0 0 0 175.15008901127294 -30.475792098015631 0 -30.475792098015631 11.918238234766164 0 0 0 0 131.35253236388053 8.0292995073859288 0 8.0292995073859288 11.807159397055557 0 0 0 0 139.54274182841618 -28.143709049751237 0 -28.143709049751237 -5.659325629278726 0 0 0 0 34.28008227803366 -23.177621769781538 0 -23.177621769781538 21.180752571974153 0 0 0 0 18.755998976359479 17.408116676662623 0 17.408116676662623 20.551954571044234 0 0 0 0 132.83369622571627 -6.327223489327821 0 -6.327223489327821 0.65737517859156469 0 0 0 0 132.46578722221329 -8.7418779250600025 0 -8.7418779250600025 8.7513018581328197 0 0 0 0 203.27396803289594 -8.102581187714577 0 -8.102581187714577 -7.6037585147763025 0 0 0 0 90.492011867376277 -27.025935965728479 0 -27.025935965728479 7.9050526394783844 0 0 0 0 175.8328406573637 -0.89106831092573202 0 -0.89106831092573202 -7.6606948924186895 0 0 0 0 98.24019835319632 34.13415170510072 0 34.13415170510072 6.2764687196392401 0 0 0 0 129.87780587047746 11.006417040126053 0 11.006417040126053 4.7612575338578154 0 0 0 0 24.109008226219885 23.404620536761513 0 23.404620536761513 35.854398356982301 0 0 0 0 -2.924618400487816 -36.215298498310403 0 -36.215298498310403 1.7800427012509772 0 0 0 0 4.463533661780275 31.750235254806952 0 31.750235254806952 -54.997510714865257 0 0 0 0 -41.579579605939216 -16.946635863800793 0 -16.946635863800793 -6.6594989096690824 0 0 0 0 200.73288044978108 -32.888358214052005 0 -32.888358214052005 16.484754701748152 0 0 0 0 204.77462979936536 -2.1522028031831724 0 -2.1522028031831724 13.875050356553743 0 0 0 0 191.00170065494603 -21.465232750182736 0 -21.465232750182736 -6.4986629146090991 0 0 0 0 304.9952293758106 -15.397227195797541 0 -15.397227195797541 -43.893561202728847 0 0 0 0 177.15006764656573 1.8720246380534604 0 1.8720246380534604 -5.9172796820588474 0 0 0 0 271.4295027868211 -32.371169213554708 0 -32.371169213554708 -14.140051051849923 0 0 0 0 242.72210575864301 27.279965504619128 0 27.279965504619128 -27.235639221488782 0 0 0 0 -50.907274937588227 53.924416337238576 0 53.924416337238576 -2.3850376578495798 0 0 0 0 -126.6157652386828 42.225650604292369 0 42.225650604292369 69.06818435213961 0 0 0 0 0.81253720379040217 2.7594956857690107 0 2.7594956857690107 4.5016813650688627 0 0 0 0 18.797564423244857 11.919012659230624 0 11.919012659230624 0.8203738183450715 0 0 0 0 18.753195979619171 18.204210390664358 0 18.204210390664358 -0.19952542939248596 0 0 0 0 7.2943732180501684 3.8221450050014028 0 3.8221450050014028 0.56072301740766761 0 0 0 0 -44.820234473358141 39.548574059293003 0 39.548574059293003 14.720019800757271 0 0 0 0 -32.338658343476709 12.50182761220799 0 12.50182761220799 54.29839674237769 0 0 0 0 17.525050040669157 -8.3283858838356082 0 -8.3283858838356082 36.654018486215477 0 0 0 0 -3.8330410983675449 10.48202828068356 0 10.48202828068356 2.4740853295374956 0 0 0 0 -229.60987098191617 52.606785795407106 0 52.606785795407106 23.83378904290791 0 0 0 0 -51.314168265487297 43.311278098376242 0 43.311278098376242 -70.830879619795724 0 0 0 0 -73.559352471485909 22.679997356007568 0 22.679997356007568 -9.1830379392129444 0 0 0 0 -242.23408991149699 132.3607533799331 0 132.3607533799331 78.223529130811357 0 0 0 0 24.586787997775048 31.21530531939138 0 31.21530531939138 1.6724220334584177 0 0 0 0 456.80118394174679 -1.4316810630827774 0 -1.4316810630827774 -32.942540399156542 0 0 0 0 463.4072490174658 28.057931822599585 0 28.057931822599585 92.168945169632707 0 0 0 0 0.40159167772683801 0.91693430491173444 0 0.91693430491173444 1.6585317616960951 0 0 0 0 465.65717186169786 62.225044147069752 0 62.225044147069752 33.507466162715218 0 0 0 0 149.29920607860549 -50.739014927352002 0 -50.739014927352002 28.306662719143681 0 0 0 0 -96.954328045610964 28.496552693055918 0 28.496552693055918 22.793043523874189 0 0 0 0 22.623929386133952 31.882659188767189 0 31.882659188767189 0.89129697451225109 0 0 0 0 -64.748675851365078 31.368196371088942 0 31.368196371088942 0.0065985312287466513 0 0 0 0 -194.96809781846969 107.59795706213708 0 107.59795706213708 109.40144534183833 0 0 0 0 -13.653013957540679 -28.703657324887615 0 -28.703657324887615 20.475219628096852 0 0 0 0 20.521394299254375 -14.796049704885604 0 -14.796049704885604 0.53301579159200818 0 0 0 0 137.57768394128288 80.008518343886749 0 80.008518343886749 21.889261773031222 0 0 0 0 8.0903958835115191 -45.025422803819595 0 -45.025422803819595 10.08444091434426 0 0 0 0 231.10953465500279 -110.2578166311564 0 -110.2578166311564 45.001981706818754 0 0 0 0 5.4878316155304105 -4.6405952453925963 0 -4.6405952453925963 -0.62562384425696482 0 0 0 0 -2.7263759818233666 -131.89008207880249 0 -131.89008207880249 78.81232545008433 0 0 0 0 23.702486399785371 -16.870017213376883 0 -16.870017213376883 -0.86540786495247679 0 0 0 0 9.6113294540647445 -1.5011422959541783 0 -1.5011422959541783 0.34907689244777523 0 0 0 0 11.30992934531605 -15.656949913385318 0 -15.656949913385318 7.7067414719667227 0 0 0 0 12.064614388917107 -21.873316200179488 0 -21.873316200179488 49.941828686162523 0 0 0 0 84.732391404759255 -45.533778903109607 0 -45.533778903109607 37.995909633403301 0 0 0 0 185.34799977290822 47.573888890248327 0 47.573888890248327 46.453260968365186 0 0 0 0 92.891670293737434 4.3037104139579387 0 4.3037104139579387 3.7989688714419572 0 0 0 0 90.701681566678985 -47.062722348061911 0 -47.062722348061911 9.5535251296062143 0 0 0 0 64.602517048051595 -11.379882514156918 0 -11.379882514156918 2.5143688389412091 0 0 0 0 36.553755686261866 -26.932287864512602 0 -26.932287864512602 -18.281634199506129 0 0 0 0 34.186711697868304 -26.494828835373937 0 -26.494828835373937 5.8968080342908706 0 0 0 0 16.418557999713812 -36.025509296312066 0 -36.025509296312066 -22.983253604144465 0 0 0 0 25.871414226268826 -46.186814219140899 0 -46.186814219140899 -12.063391859081776 0 0 0 0 21.791471080169458 -14.182805364397773 0 -14.182805364397773 0.83931232651779242 0 0 0 0 27.644399962801117 -18.217279045607267 0 -18.217279045607267 -13.555176247476993 0 0 0 0 71.713381677305733 -32.707300774268049 0 -32.707300774268049 -13.167543291464199 0 0 0 0 51.345303331225296 -9.6666884422332799 0 -9.6666884422332799 -15.842829710275282 0 0 0 0 61.209804071659164 -23.839519141251799 0 -23.839519141251799 -31.443064476879158 0 0 0 0 14.448732209144509 -32.191217852706814 0 -32.191217852706814 -23.467526634127125 0 0 0 0 29.481202630086358 -11.257572871619569 0 -11.257572871619569 -1.392031328978329 0 0 0 0 48.784736251247523 -24.766231382286378 0 -24.766231382286378 -19.964772117014491 0 0 0 0 42.606036822819078 -29.552552785835815 0 -29.552552785835815 -23.241172034390047 0 0 0 0 7.3024221484021012 0.61086729718915223 0 0.61086729718915223 1.1126399479895612 0 0 0 0 27.253098054578004 42.612856438842186 0 42.612856438842186 -60.844264594421702 0 0 0 0 7.8327576925733666 1.3684256925005016 0 1.3684256925005016 -0.070362948099777167 0 0 0 0 6.7122306744277012 -7.7640231600382776 0 -7.7640231600382776 -5.743762799191245 0 0 0 0 13.528951951491763 -5.5990717796994431 0 -5.5990717796994431 -60.615196055143599 0 0 0 0 13.519872776756529 -33.078876907939502 0 -33.078876907939502 -1.7993846502013184 0 0 0 0 25.900723100207884 -13.997713629643052 0 -13.997713629643052 0.32674991437189238 0 0 0 0 13.439501589692689 -0.43804584784892597 0 -0.43804584784892597 -5.7673818838230293 0 0 0 0 51.88475795130671 13.878504360932567 0 13.878504360932567 -3.0912909462068683 0 0 0 0 55.555302716558799 12.829502475361096 0 12.829502475361096 -8.3182146695867232 0 0 0 0 46.965942181755963 7.2970798403714525 0 7.2970798403714525 -1.3436971298745277 0 0 0 0 67.399673674262885 -4.7892026776319199 0 -4.7892026776319199 -16.904687760544391 0 0 0 0 25.893505659143557 -13.239833514458013 0 -13.239833514458013 -10.358682773681494 0 0 0 0 54.16300239168595 13.852619205831786 0 13.852619205831786 -6.0174366160736099 0 0 0 0 93.946356151791406 -5.9964743860149383 0 -5.9964743860149383 -17.524351950435999 0 0 0 0 80.943656675717648 25.134123555132192 0 25.134123555132192 -3.4060558099706952 0 0 0 0 55.606386047598789 19.208132312164139 0 19.208132312164139 0.31149159159241435 0 0 0 0 53.014318568042654 16.711818685799244 0 16.711818685799244 1.9698197549194845 0 0 0 0 56.028054782560503 15.010055382018095 0 15.010055382018095 -7.3798984418740474 0 0 0 0 55.242178919366324 25.220533137398405 0 25.220533137398405 8.2658396288790073 0 0 0 0 122.17781476317759 46.373206371821027 0 46.373206371821027 12.908016386839776 0 0 0 0 30.796395105833653 -26.567251776107867 0 -26.567251776107867 45.945088324738009 0 0 0 0 135.27594547816443 95.688342896312264 0 95.688342896312264 1.1043421234086281 0 0 0 0 -0.029621880519329125 0.13064077831810295 0 0.13064077831810295 0.73555097371391609 0 0 0 0 116.71290645480258 -25.183329396260206 0 -25.183329396260206 38.597840803997883 0 0 0 0 27.641311452636728 2.9322410415427385 0 2.9322410415427385 11.456172797675947 0 0 0 0 37.959705942565051 32.713938698327127 0 32.713938698327127 74.5056315584917 0 0 0 0 33.695814559874634 -10.231011791738439 0 -10.231011791738439 4.4985661246950031 0 0 0 0 32.658525214344991 -2.6929841823504717 0 -2.6929841823504717 9.6576343217741396 0 0 0 0 7.5258920965919955 -1.995739169698787 0 -1.995739169698787 1.7244954997536339 0 0 0 0 260.7161134015405 81.09117252497839 0 81.09117252497839 -29.975336790699259 0 0 0 0 -11.073612229134596 -72.257197669698485 0 -72.257197669698485 165.34095017166328 0 0 0 0 -64.87660548315398 23.129063801682122 0 23.129063801682122 27.144972480752813 0 0 0 0 22.797874458127346 -10.874468975904904 0 -10.874468975904904 3.6355457275667753 0 0 0 0 52.092216558936343 -99.066679533532579 0 -99.066679533532579 -19.904079186359496 0 0 0 0 34.780119183087663 -9.8526599777450201 0 -9.8526599777450201 -4.4095038419018238 0 0 0 0 14.680718872203215 14.627524686452844 0 14.627524686452844 -17.243742526087544 0 0 0 0 15.896773521617433 -12.727785193911359 0 -12.727785193911359 5.8879866433967436 0 0 0 0 17.161641988976044 -19.858625924284866 0 -19.858625924284866 2.4431840762918 0 0 0 0 22.999054162723382 -10.240222609903466 0 -10.240222609903466 3.5587994406682473 0 0 0 0 7.7321926151323161 -1.2441780315530053 0 -1.2441780315530053 -2.0582430767226452 0 0 0 0 31.817542075848905 -11.317956268901526 0 -11.317956268901526 -0.36022646994820207 0 0 0 0 36.470798839929557 -12.934745933824843 0 -12.934745933824843 -3.2695352953887777 0 0 0 0 19.951508308895427 -18.601714804036078 0 -18.601714804036078 0.047946886264526256 0 0 0 0 28.761682823387673 -7.6891448724429665 0 -7.6891448724429665 -2.3683513393754083 0 0 0 0 33.237624139444961 -12.179501444461721 0 -12.179501444461721 0.14905542202910738 0 0 0 0 29.320526120042587 -11.063083703500382 0 -11.063083703500382 6.7321145902092212 0 0 0 0 28.727328712639519 -16.311349540120759 0 -16.311349540120759 2.0384131332764355 0 0 0 0 35.670425177188008 -6.3389718301484663 0 -6.3389718301484663 5.5567106580190568 0 0 0 0 37.788430218563008 -12.406122974865411 0 -12.406122974865411 -0.19938747853802852 0 0 0 0 3.3133846744329993 0.92661989648443921 0 0.92661989648443921 -1.8308499567353591 0 0 0 0 30.633090576743598 0.98859156472983045 0 0.98859156472983045 -1.0895217003328526 0 0 0 0 36.340593084598368 -22.456301756182995 0 -22.456301756182995 6.4689394331317089 0 0 0 0 2.0963501545527521 -1.6827291498644428 0 -1.6827291498644428 -0.96887852759802495 0 0 0 0 129.71742309286128 -120.13712169463219 0 -120.13712169463219 60.015409687056035 0 0 0 0 77.45663741682074 62.440813789477716 0 62.440813789477716 100.43240519176675 0 0 0 0 204.06095127367007 33.040959909720982 0 33.040959909720982 -6.59367246850843 0 0 0 0 25.911444525512707 -14.554838220065221 0 -14.554838220065221 1.4871700284775216 0 0 0 0 -3.9338150552149393 -9.5549804038108732 0 -9.5549804038108732 0.9153082249899871 0 0 0 0 60.827447509993362 -26.638522803114711 0 -26.638522803114711 9.6774107194586492 0 0 0 0 15.331931013803114 -7.9560489213595247 0 -7.9560489213595247 4.5621898426302323 0 0 0 0 -1.4680695167108695 -1.6204649768843211 0 -1.6204649768843211 1.5788913257369943 0 0 0 0 136.09552127695497 33.27839857097365 0 33.27839857097365 -38.979051395888632 0 0 0 0 2.2985857031095023 -0.80044086774786649 0 -0.80044086774786649 0.30296812369703652 0 0 0 0 136.5910992877798 70.623351353514863 0 70.623351353514863 50.539804064070267 0 0 0 0 17.840270193358272 -9.8534862555764278 0 -9.8534862555764278 2.8318691931036071 0 0 0 0 168.87153047006723 108.23783434649147 0 108.23783434649147 27.286429411007646 0 0 0 0 106.47926255403218 64.609033351005337 0 64.609033351005337 7.0801305154252532 0 0 0 0 154.64301977457217 15.030430809968038 0 15.030430809968038 12.79300323889828 0 0 0 0 151.45482970310513 -63.498286544835651 0 -63.498286544835651 86.341487217972599 0 0 0 0 283.53984887870865 42.827661369593045 0 42.827661369593045 18.771547037369373 0 0 0 0 219.80131020004046 131.24371832891256 0 131.24371832891256 83.26338929315466 0 0 0 0 131.67134854641699 28.176728959927004 0 28.176728959927004 6.4589315682756023 0 0 0 0 116.38630120034759 -20.695189140434493 0 -20.695189140434493 21.456758477593667 0 0 0 0 81.533710167877871 15.44839140123284 0 15.44839140123284 22.930876702788453 0 0 0 0 87.20756112345407 20.462841080989676 0 20.462841080989676 8.1106702885142568 0 0 0 0 155.92671853665888 110.13382376871178 0 110.13382376871178 14.156943590246101 0 0 0 0 104.3130939330058 78.590913200137976 0 78.590913200137976 -5.1106274651256172 0 0 0 0 269.73451285017654 -24.472826233194326 0 -24.472826233194326 -25.946337717496135 0 0 0 0 55.372478019537084 82.775690690097548 0 82.775690690097548 39.450739426083132 0 0 0 0 1.4125302901929331 1.8557712978104099 0 1.8557712978104099 0.96580408380001126 0 0 0 0 202.26149961038936 -61.001449846062002 0 -61.001449846062002 39.933941274918993 0 0 0 0 -14.663454630543129 -17.695810373536901 0 -17.695810373536901 13.893567244246128 0 0 0 0 42.612772250144189 -14.372537185055165 0 -14.372537185055165 -37.622631735561811 0 0 0 0 25.249516976407904 -18.35600061220066 0 -18.35600061220066 -0.64604339852553494 0 0 0 0 32.535590566158135 -16.301644777203308 0 -16.301644777203308 -0.081492999067592109 0 0 0 0 27.754520290669461 -13.979445933607309 0 -13.979445933607309 4.3766551375537119 0 0 0 0 8.6903485807561083 -10.478108279081312 0 -10.478108279081312 37.249962986138598 0 0 0 0 32.675369962445984 -32.197100557222768 0 -32.197100557222768 13.954744930991637 0 0 0 0 33.861544190334826 -9.7824480089832946 0 -9.7824480089832946 25.954919748346128 0 0 0 0 -17.629607988721546 30.699348022693584 0 30.699348022693584 -1.0305629076100331 0 0 0 0 -44.249118718711543 21.663693830171155 0 21.663693830171155 4.3343335194847441 0 0 0 0 87.273480989490054 63.116241694015372 0 63.116241694015372 -88.015588934569962 0 0 0 0 26.081049004569095 31.172052546806611 0 31.172052546806611 -1.4873277906542066 0 0 0 0 93.728534008507268 -0.53464773892517314 0 -0.53464773892517314 -70.920451726041989 0 0 0 0 -11.824425649716432 19.488872747926706 0 19.488872747926706 -6.5998213229129306 0 0 0 0 270.38822131109191 33.425568977012745 0 33.425568977012745 -151.72612083502759 0 0 0 0 118.01256263375763 4.7716468873129259 0 4.7716468873129259 -69.961707536206404 0 0 0 0 33.184177210964862 -15.883235449935427 0 -15.883235449935427 -0.947436853235607 0 0 0 0 10.5657611975912 -1.5601499268284442 0 -1.5601499268284442 5.2374420339270102 0 0 0 0 42.008093493914203 -7.873266313433021 0 -7.873266313433021 0.39949290213075983 0 0 0 0 13.912007815382619 12.360910717559964 0 12.360910717559964 -1.1196011957733287 0 0 0 0 19.020160153651364 1.91236772733604 0 1.91236772733604 -0.49026085204486458 0 0 0 0 50.179031238576023 21.073660062468402 0 21.073660062468402 -5.8723542622712435 0 0 0 0 -3.9143751338969963 -0.27236153213321757 0 -0.27236153213321757 1.7731243966287096 0 0 0 0 46.050609039230039 19.653781179398493 0 19.653781179398493 5.3388535928525016 0 0 0 0 -16.330295192543417 16.93451209677869 0 16.93451209677869 -9.8410998057152028 0 0 0 0 20.486907971266191 34.338910179010782 0 34.338910179010782 -5.8259125191962085 0 0 0 0 -8.1026603698483086 24.633672518375306 0 24.633672518375306 8.879407609689224 0 0 0 0 1.4362915806832461 22.975359975478909 0 22.975359975478909 4.2504977344489134 0 0 0 0 -10.423426900731556 11.565893471417354 0 11.565893471417354 -2.5520838915358581 0 0 0 0 1.991893624960106 3.1916453469040107 0 3.1916453469040107 8.7700027880811344 0 0 0 0 -20.352847532032683 26.215190982774075 0 26.215190982774075 40.597044108817158 0 0 0 0 0.8718019520638336 24.252060024828097 0 24.252060024828097 5.0552911964764888 0 0 0 0 39.491973368334584 11.12081034895694 0 11.12081034895694 1.1459691548976885 0 0 0 0 9.438356275728438 1.9367330033164478 0 1.9367330033164478 -4.9003888273213407 0 0 0 0 44.835441664537939 5.9056264151538329 0 5.9056264151538329 4.5717830692133958 0 0 0 0 39.456134430687143 11.671732803074846 0 11.671732803074846 -2.4338397180157756 0 0 0 0 23.315962365715677 19.022260345012928 0 19.022260345012928 1.0839684782390098 0 0 0 0 8.8684987042269725 0.15811962348888997 0 0.15811962348888997 -1.280056244559572 0 0 0 0 50.23494582069543 17.673730812795625 0 17.673730812795625 0.31549029887975166 0 0 0 0 86.26587366430067 3.2808320177916812 0 3.2808320177916812 -9.3167645301497828 0 0 0 0 -1.1287137426697882 9.184108498856201 0 9.184108498856201 -11.430951986923475 0 0 0 0 14.960912960363203 -46.930546585880954 0 -46.930546585880954 12.432878363815039 0 0 0 0 1.3818199958063957 -0.49595984273350879 0 -0.49595984273350879 1.6195430334387977 0 0 0 0 0.61046549964725472 0.29221467741892937 0 0.29221467741892937 -0.010435308751690076 0 0 0 0 48.269301266813272 -7.5150511148669921 0 -7.5150511148669921 18.503290317018127 0 0 0 0 48.431619237137056 -4.4677401982391984 0 -4.4677401982391984 67.608601829913141 0 0 0 0 -0.36341567036652123 -17.385821936022523 0 -17.385821936022523 39.192544241482437 0 0 0 0 30.028791952216125 22.681310818639247 0 22.681310818639247 4.2483979284689326 0 0 0 0 15.711474950391448 14.319539074739129 0 14.319539074739129 4.0650276249157216 0 0 0 0 13.537320648782043 -4.6355638951864648 0 -4.6355638951864648 8.2694569407752851 0 0 0 0 -27.112291461515269 23.301466675116671 0 23.301466675116671 24.887738639079316 0 0 0 0 24.340219667250494 6.5137237117625943 0 6.5137237117625943 0.341441462553842 0 0 0 0 15.841638706929061 14.983595791230243 0 14.983595791230243 4.3717555177426037 0 0 0 0 42.196522318490679 27.563200790763599 0 27.563200790763599 -3.8107388180633279 0 0 0 0 -3.6757713444130786 65.495624080275434 0 65.495624080275434 10.602161448819459 0 0 0 0 32.165898166536863 5.1632658942156695 0 5.1632658942156695 28.095203740276929 0 0 0 0 93.560093679174315 33.829373735223726 0 33.829373735223726 -31.919186248234382 0 0 0 0 43.889845584144496 39.624760121230111 0 39.624760121230111 -29.785653559294133 0 0 0 0 20.403540474579131 17.642790455172985 0 17.642790455172985 20.807143441433197 0 0 0 0 11.021992074211084 33.188083569583128 0 33.188083569583128 10.766231784621823 0 0 0 0 8.6444431292402442 5.2878257885616904 0 5.2878257885616904 7.8270344239127994 0 0 0 0 11.967822363059895 2.1684766848930508 0 2.1684766848930508 24.11608509974343 0 0 0 0 8.3617909033346223 8.640075246243498 0 8.640075246243498 12.819624945266696 0 0 0 0 -49.255103831535962 -23.807495410307638 0 -23.807495410307638 92.087003898314379 0 0 0 0 15.681059524831838 -0.96673419184962173 0 -0.96673419184962173 2.3106143658227944 0 0 0 0 22.536875575657014 12.575811627646075 0 12.575811627646075 4.7564791410344185 0 0 0 0 5.0350718764020712 12.985733746044502 0 12.985733746044502 17.099480879326848 0 0 0 0 31.884665255358414 -105.02606969032814 0 -105.02606969032814 -9.8293318754002712 0 0 0 0 10.829180070005222 -0.013339248090218803 0 -0.013339248090218803 -4.000921390563871 0 0 0 0 68.216734898716822 43.012847822295861 0 43.012847822295861 5.0688566197323865 0 0 0 0 22.438017176413268 14.319984185644614 0 14.319984185644614 25.659851116846028 0 0 0 0 57.736132313744747 38.494410785442298 0 38.494410785442298 13.52475240619458 0 0 0 0 25.883409968861088 11.089987087428142 0 11.089987087428142 29.831236181178838 0 0 0 0 45.102150580143643 34.464351879755895 0 34.464351879755895 41.275746359599964 0 0 0 0 17.80316315134769 14.105030282679593 0 14.105030282679593 42.027019062127323 0 0 0 0 2.5106891053007629 -0.7671021207439539 0 -0.7671021207439539 0.45306235414979112 0 0 0 0 119.24042752609603 73.553668538293437 0 73.553668538293437 69.728196535055531 0 0 0 0 -13.341701868572272 -10.296731530318397 0 -10.296731530318397 250.89054728662711 0 0 0 0 228.20544996116587 -156.06906953573906 0 -156.06906953573906 47.398599521196843 0 0 0 0 -12.523987003464697 -96.859438535761427 0 -96.859438535761427 -100.10509834927055 0 0 0 0 -20.723732004547855 55.991839748773351 0 55.991839748773351 86.857769023837818 0 0 0 0 7.576513457231556 -3.1371540620718426 0 -3.1371540620718426 1.0634066961140982 0 0 0 0 -15.701433502465079 20.124892246502895 0 20.124892246502895 -0.0101280218817692 0 0 0 0 12.130955328032314 -1.0232299001587286 0 -1.0232299001587286 0.28194530334162737 0 0 0 0 31.427783779709536 -8.6333469430527465 0 -8.6333469430527465 0.84350313804047761 0 0 0 0 62.15717907595581 -28.573213716166038 0 -28.573213716166038 -50.105327626082101 0 0 0 0 15.344470020208973 -1.4298337894824726 0 -1.4298337894824726 -12.714648376938726 0 0 0 0 22.071251241082351 0.0063384872388410063 0 0.0063384872388410063 -0.19950008058139401 0 0 0 0 91.78496434455883 70.339459771858458 0 70.339459771858458 -121.75850059199342 0 0 0 0 236.31111492008131 -66.186077106812817 0 -66.186077106812817 -252.31714130564438 0 0 0 0 27.872521790660699 -2.4931680334199067 0 -2.4931680334199067 -0.07601677034071444 0 0 0 0 -53.612803372856433 66.281077346984375 0 66.281077346984375 53.44445636156388 0 0 0 0 25.478078478628959 -80.694863658826165 0 -80.694863658826165 -118.01502178191041 0 0 0 0 5.3602274171784714 -3.1057848232098797 0 -3.1057848232098797 1.5024761193260807 0 0 0 0 -12.765119146005418 9.8451661341593422 0 9.8451661341593422 -5.2908681573858303 0 0 0 0 -34.885488927313418 25.843313028485539 0 25.843313028485539 98.702358957638282 0 0 0 0 -9.9176853525914339 -98.215043044713212 0 -98.215043044713212 -30.417943793659163 0 0 0 0 117.70235781373776 -34.827996127695087 0 -34.827996127695087 -24.354667762981535 0 0 0 0 30.446303871190729 6.870760221315285 0 6.870760221315285 -2.225824044589586 0 0 0 0 1.7535891473016463 5.8649621959371867 0 5.8649621959371867 -0.71183588985498758 0 0 0 0 -1.4970083020034508 56.772591711591133 0 56.772591711591133 -26.917135662055891 0 0 0 0 -2.5633020873901842 66.473138477297752 0 66.473138477297752 14.489566870425058 0 0 0 0 50.326741028817196 31.647685182625253 0 31.647685182625253 6.7213735311570417 0 0 0 0 33.100371452521358 2.2860095305935033 0 2.2860095305935033 -16.755346713337403 0 0 0 0 79.55327889004775 -27.700492075513154 0 -27.700492075513154 26.670512786749441 0 0 0 0 120.7010392658849 43.835334710989741 0 43.835334710989741 2.898947447798605 0 0 0 0 35.890770641209201 19.841561377342231 0 19.841561377342231 74.257561289754449 0 0 0 0 122.70015683489328 86.608677935569062 0 86.608677935569062 113.13764874114383 0 0 0 0 -23.750631486980637 -52.001308072514405 0 -52.001308072514405 31.339026726072916 0 0 0 0 1.6584972883170863 -1.2389263891689932 0 -1.2389263891689932 0.83380878716949569 0 0 0 0 226.19997699329724 -20.158854519640045 0 -20.158854519640045 25.177131124328071 0 0 0 0 38.107875852983852 4.6507754013996419 0 4.6507754013996419 3.5586002279832201 0 0 0 0 66.555334698241495 -76.051157327376814 0 -76.051157327376814 156.67980787374972 0 0 0 0 78.217822059573336 -10.375343946015249 0 -10.375343946015249 -13.527983945193029 0 0 0 0 23.896715053931075 -23.3319189559192 0 -23.3319189559192 13.955594543803016 0 0 0 0 -0.86320269751744583 1.0348425321412815 0 1.0348425321412815 4.8581582123321425 0 0 0 0 45.074007439296111 -50.338759639116034 0 -50.338759639116034 35.833521922063341 0 0 0 0 31.320516477631827 -64.937291645485288 0 -64.937291645485288 62.861622500599424 0 0 0 0 93.718598466826734 -41.755164816251636 0 -41.755164816251636 0.77993182894329038 0 0 0 0 6.0583805385972482 -21.461114375713578 0 -21.461114375713578 27.407805420765726 0 0 0 0 48.718096173732988 -22.290973854242807 0 -22.290973854242807 -7.6384426255981452 0 0 0 0 48.196469798685939 -28.580520354174723 0 -28.580520354174723 10.361700096275626 0 0 0 0 48.440500757882546 -20.819607762870874 0 -20.819607762870874 -4.1934332526599292 0 0 0 0 51.510285800983183 -22.603655405499808 0 -22.603655405499808 -2.0416524739516717 0 0 0 0 10.251580643755323 -1.7170715086391724 0 -1.7170715086391724 4.4089302286577254 0 0 0 0 8.3536915390577633 30.506147189580304 0 30.506147189580304 38.312544717676701 0 0 0 0 38.373930165073034 -11.148961379626485 0 -11.148961379626485 -6.8284064425415636 0 0 0 0 42.592731400810408 -21.566503977746152 0 -21.566503977746152 2.3089432840386053 0 0 0 0 36.950776556795972 -12.451584180034388 0 -12.451584180034388 -2.8650354493772738 0 0 0 0 45.321206294021977 -9.6793989209304527 0 -9.6793989209304527 0.88810636238463303 0 0 0 0 31.626622583016342 -7.1951386962413011 0 -7.1951386962413011 0.46141642581210363 0 0 0 0 28.192589437363495 -20.801334999620508 0 -20.801334999620508 6.2246274499816536 0 0 0 0 17.907911386473941 -5.4333089696934671 0 -5.4333089696934671 1.9996938392631227 0 0 0 0 38.823619559938379 -11.270332358923071 0 -11.270332358923071 -0.096996848316621254 0 0 0 0 37.650633359079578 -10.572030150270361 0 -10.572030150270361 2.2642752522203113 0 0 0 0 36.69924422641634 -9.1613992274019438 0 -9.1613992274019438 -2.14698319153797 0 0 0 0 78.167364445045678 -54.445992062111713 0 -54.445992062111713 11.537306556016944 0 0 0 0 7.0858549594312095 -12.827989128386015 0 -12.827989128386015 -2.0348729352545529 0 0 0 0 72.711890824277361 -40.893755954795722 0 -40.893755954795722 -20.235964839880808 0 0 0 0 92.265730541643279 11.077270870636426 0 11.077270870636426 -36.051336977184747 0 0 0 0 85.227073563524755 2.8119382196803144 0 2.8119382196803144 -11.795410257563219 0 0 0 0 23.753807845994743 -74.22665799299466 0 -74.22665799299466 -146.08376091604123 0 0 0 0 52.838730617725446 -5.3999379221950559 0 -5.3999379221950559 0.060296560883259964 0 0 0 0 74.552669896522275 0.26365278323595476 0 0.26365278323595476 -40.556227567053838 0 0 0 0 180.07471805406203 -193.27706028019657 0 -193.27706028019657 -66.952458210600184 0 0 0 0 55.602113803088272 -10.271692095059233 0 -10.271692095059233 0.35181734667281139 0 0 0 0 64.513173329695746 28.412572925613176 0 28.412572925613176 -119.5747522939464 0 0 0 0 51.275682995867101 129.85392348382516 0 129.85392348382516 95.337197202158109 0 0 0 0 994.50367688585902 45.496828445554826 0 45.496828445554826 -379.9518222431243 0 0 0 0 1127.8842711970883 64.981262544071527 0 64.981262544071527 -378.36925865010971 0 0 0 0 957.41993630100751 -34.347274770190722 0 -34.347274770190722 -252.72159496534937 0 0 0 0 700.24600948504667 -14.365722595812599 0 -14.365722595812599 -192.38763313494968 0 0 0 0 1499.5934090998853 -101.07230412945096 0 -101.07230412945096 -399.04062747601785 0 0 0 0 1500.3424176554315 -554.48436756520493 0 -554.48436756520493 -200.88729475047825 0 0 0 0 612.07429483808664 -364.4254781873766 0 -364.4254781873766 35.949486991772432 0 0 0 0 1035.2108853642258 -252.74223909176058 0 -252.74223909176058 -266.42854255449208 0 0 0 0 779.15532164859542 -41.714760978233357 0 -41.714760978233357 -183.36414873965543 0 0 0 0 949.3873426218488 -183.99625555616996 0 -183.99625555616996 -291.05846704263786 0 0 0 0 749.93794719145808 -118.04800508466894 0 -118.04800508466894 -147.39919986623192 0 0 0 0 481.36513620666301 -176.27792143740169 0 -176.27792143740169 -29.502005834412302 0 0 0 0 542.39766796356434 -216.40650619523709 0 -216.40650619523709 -3.038605777163724 0 0 0 0 333.79487369518029 -137.20127300004799 0 -137.20127300004799 -18.503526399241082 0 0 0 0 331.90063081737298 -142.71972148695062 0 -142.71972148695062 -18.129151134564268 0 0 0 0 76.118258603524737 -93.435280677518705 0 -93.435280677518705 77.663217664756075 0 0 0 0 285.81764728661528 -51.69354456229263 0 -51.69354456229263 -10.427671259812769 0 0 0 0 180.75968390308481 -72.436922745628777 0 -72.436922745628777 15.113911961163495 0 0 0 0 262.73270720823893 -99.534599309611878 0 -99.534599309611878 -9.7085428944951673 0 0 0 0 356.79878460595137 -84.313483865439991 0 -84.313483865439991 -60.661207400998023 0 0 0 0 287.1105755251956 -11.300476302586901 0 -11.300476302586901 -102.37414775651109 0 0 0 0 431.61191056641292 21.666426018032666 0 21.666426018032666 -112.93238009009099 0 0 0 0 654.23135931023717 -103.38130850647417 0 -103.38130850647417 -148.42644405129937 0 0 0 0 568.6350308231149 -29.081089660650122 0 -29.081089660650122 -168.98758181756989 0 0 0 0 656.80777415800549 126.70127196604932 0 126.70127196604932 -211.10102664465637 0 0 0 0 280.53474641992216 -88.366581445670704 0 -88.366581445670704 -213.61004380843156 0 0 0 0 266.57418379552109 62.511005246844263 0 62.511005246844263 -156.76471104255438 0 0 0 0 241.83500701158692 -42.564765363709974 0 -42.564765363709974 -267.4745472181437 0 0 0 0 243.44241374509147 -118.43788656285847 0 -118.43788656285847 -248.58973756000938 0 0 0 0 213.52912395490057 -25.511680126434385 0 -25.511680126434385 -97.747148828085074 0 0 0 0 0.84102081836072529 0.0069787099836950972 0 0.0069787099836950972 0.16675606947854682 0 0 0 0 300.36132403281226 -22.133244583459032 0 -22.133244583459032 -131.74551339230584 0 0 0 0 252.1759805603142 -30.259561138879803 0 -30.259561138879803 -112.43986262257397 0 0 0 0 255.12306348760467 -8.6456832027924975 0 -8.6456832027924975 -248.04835013111142 0 0 0 0 215.47965375228523 -48.453031507090827 0 -48.453031507090827 -121.41973655012043 0 0 0 0 222.57394528701843 65.140469377533464 0 65.140469377533464 -128.01199119886951 0 0 0 0 309.08113638189025 -18.973764401392259 0 -18.973764401392259 -551.76644141126167 0 0 0 0 297.62800278890791 -17.362888709611298 0 -17.362888709611298 -192.83355842549372 0 0 0 0 229.72908879760507 23.177422050515474 0 23.177422050515474 113.44793817961636 0 0 0 0 600.7297035818774 48.870357411266014 0 48.870357411266014 113.83135275652575 0 0 0 0 285.50462987248466 100.10239302212995 0 100.10239302212995 -51.768572600878485 0 0 0 0 537.31206903167185 186.24204944189705 0 186.24204944189705 35.389613551953516 0 0 0 0 296.25973799590793 -28.423953579705767 0 -28.423953579705767 -99.105073834158247 0 0 0 0 515.30387511658773 144.42181735810254 0 144.42181735810254 -43.233270734367807 0 0 0 0 126.83303323403743 73.79497685266665 0 73.79497685266665 26.995595997315718 0 0 0 0 161.81463326877929 174.05794940800604 0 174.05794940800604 67.856275364338217 0 0 0 0 221.82770990096606 87.903667143166089 0 87.903667143166089 15.283819923403868 0 0 0 0 1.208364220664258 -1.0910675899586195 0 -1.0910675899586195 1.9251988897935788 0 0 0 0 167.9922069621789 151.71736887513543 0 151.71736887513543 50.219904701915766 0 0 0 0 108.58340685113944 71.613118402341343 0 71.613118402341343 73.077954800140446 0 0 0 0 93.16080616306408 158.26552071158102 0 158.26552071158102 145.27858750128462 0 0 0 0 109.74798503421698 75.369061495773167 0 75.369061495773167 56.201539355637578 0 0 0 0 0.91604174686154138 -0.40707420364818958 0 -0.40707420364818958 -0.103046961591303 0 0 0 0 247.64843031574128 -52.871124415424674 0 -52.871124415424674 143.7233782236367 0 0 0 0 285.83288152358 -8.3408670308990622 0 -8.3408670308990622 20.799004059728958 0 0 0 0 45.61741532159067 85.413670087683158 0 85.413670087683158 49.912794265601406 0 0 0 0 288.61518232139133 19.705104762317092 0 19.705104762317092 -58.143571461886495 0 0 0 0 218.4203537095309 11.008499550705892 0 11.008499550705892 23.884403960177849 0 0 0 0 201.41920220325301 -30.876494457394756 0 -30.876494457394756 -27.473812780744538 0 0 0 0 261.82422455756023 2.8754247196985716 0 2.8754247196985716 -21.645614602336991 0 0 0 0 225.65253039192248 -54.43873720167818 0 -54.43873720167818 -21.145615018807803 0 0 0 0 206.80815543818608 -43.734219135487251 0 -43.734219135487251 -7.2757825766872202 0 0 0 0 205.3955983464657 -39.430432568969707 0 -39.430432568969707 -11.013598056017429 0 0 0 0 114.0273280094134 -85.45036871296989 0 -85.45036871296989 31.342979163650227 0 0 0 0 68.866178153588407 -0.5065173577300186 0 -0.5065173577300186 30.501996797117059 0 0 0 0 176.10797144039134 -96.146408242397769 0 -96.146408242397769 -15.838749103460827 0 0 0 0 1.1273281896437304 1.839911892466791 0 1.839911892466791 -3.9011991658856151 0 0 0 0 2.0750445628164016 21.952457611701348 0 21.952457611701348 26.374382910817815 0 0 0 0 7.0672440239359275 9.8044297240791707 0 9.8044297240791707 -10.557534127513009 0 0 0 0 1.5931901277400051 1.6436722483027388 0 1.6436722483027388 -2.9057767703567166 0 0 0 0 8.4889952645953599 -11.408173153442675 0 -11.408173153442675 -3.7840182454092428 0 0 0 0 220.72635182716294 20.201928720536557 0 20.201928720536557 9.7261533936664364 0 0 0 0 2.0441372208366211 -2.2260178598652445 0 -2.2260178598652445 1.5601378998069508 0 0 0 0 226.93031282244829 47.343229118917478 0 47.343229118917478 -1.6921423760932157 0 0 0 0 207.35117668439489 34.609593063517195 0 34.609593063517195 7.9874784196559858 0 0 0 0 271.91316371434732 107.59636454569841 0 107.59636454569841 33.995539962893872 0 0 0 0 173.31452814256772 35.48443882829821 0 35.48443882829821 27.812479151081334 0 0 0 0 35.406868710025265 35.663485238938335 0 35.663485238938335 31.517408890422757 0 0 0 0 0.58846127220319033 2.1024996185710734 0 2.1024996185710734 6.4135308349804188 0 0 0 0 175.12392847423689 -35.417376440018643 0 -35.417376440018643 -12.271370695269866 0 0 0 0 58.429019676637836 -18.558552979306569 0 -18.558552979306569 6.5569686475716935 0 0 0 0 174.97183572713038 37.903905380263495 0 37.903905380263495 -14.051551624574643 0 0 0 0 43.193943184709497 -18.543738092017293 0 -18.543738092017293 -4.9641664264768224 0 0 0 0 59.185524361488206 10.382527175294086 0 10.382527175294086 31.334676249312679 0 0 0 0 166.37137902042195 72.09907233780865 0 72.09907233780865 57.053024623078727 0 0 0 0 235.15469495500656 57.825193079047068 0 57.825193079047068 23.521177227298267 0 0 0 0 154.28105325187789 81.18665068606137 0 81.18665068606137 180.69821348175253 0 0 0 0 400.14499062561663 73.094663379115332 0 73.094663379115332 22.391893351682029 0 0 0 0 91.339099127231748 -18.264175218215598 0 -18.264175218215598 50.578242082527382 0 0 0 0 182.17549836755279 -41.30665491021665 0 -41.30665491021665 52.964394470727541 0 0 0 0 173.86657822437701 40.980109487254971 0 40.980109487254971 -34.934689515815862 0 0 0 0 50.19168992541745 5.4302515984073549 0 5.4302515984073549 41.055652948576856 0 0 0 0 88.423907528118434 -47.380919979113372 0 -47.380919979113372 -38.097202345865313 0 0 0 0 23.408281227599218 -23.965659108740255 0 -23.965659108740255 37.98981712349422 0 0 0 0 7.0938706323267979 -48.748949473490384 0 -48.748949473490384 33.820247088431813 0 0 0 0 0.74699574696381887 -0.60541973398443361 0 -0.60541973398443361 0.047969900253896247 0 0 0 0 180.30544481575635 9.1484446940975204 0 9.1484446940975204 -48.19831757757531 0 0 0 0 126.07271493187 -20.753143954870083 0 -20.753143954870083 -28.067537399151227 0 0 0 0 33.889119428588856 -58.216226139239566 0 -58.216226139239566 18.403386568752978 0 0 0 0 1.2647201451378152 1.4071328921438599 0 1.4071328921438599 -1.2093479287324511 0 0 0 0 39.784769675099596 -80.649266704633916 0 -80.649266704633916 83.939237186711409 0 0 0 0 33.088209973643416 17.475770340868536 0 17.475770340868536 -25.768960487066352 0 0 0 0 117.17476177637991 -62.386983332419824 0 -62.386983332419824 74.179528042692368 0 0 0 0 30.980276656649949 4.1713828465845495 0 4.1713828465845495 61.979537175323742 0 0 0 0 230.97289210233066 -92.249652249258133 0 -92.249652249258133 57.759603360145661 0 0 0 0 124.43982668041281 -39.678029916084654 0 -39.678029916084654 32.294603191350831 0 0 0 0 34.375525937713974 -40.008862271526823 0 -40.008862271526823 233.32756232844281 0 0 0 0 32.37368200233476 44.940950569476833 0 44.940950569476833 31.644214322463995 0 0 0 0 344.16720403680665 85.767889216886303 0 85.767889216886303 -10.232487601687581 0 0 0 0 26.497967635541045 154.02290848913484 0 154.02290848913484 -164.02261349977232 0 0 0 0 -23.918843363891938 -30.063530016776625 0 -30.063530016776625 -46.623688256930222 0 0 0 0 20.886394146620592 -5.9727776039724176 0 -5.9727776039724176 0.84073096550032522 0 0 0 0 -9.1638620978023937 74.938491093398966 0 74.938491093398966 62.854798813180082 0 0 0 0 42.119420965923723 6.1613455865719393 0 6.1613455865719393 -1.4862396919778149 0 0 0 0 37.910501810224062 10.746279034191243 0 10.746279034191243 -1.9221786747856398 0 0 0 0 -14.757699399650022 78.517458422487479 0 78.517458422487479 -50.328263534233088 0 0 0 0 -15.719596733328217 25.012929720352531 0 25.012929720352531 33.78995623153412 0 0 0 0 -46.251017962937112 45.398750663782266 0 45.398750663782266 32.297608713325019 0 0 0 0 12.323762373843454 7.5261094596518845 0 7.5261094596518845 -2.0642605958532876 0 0 0 0 24.800258718829355 -0.83555649431559686 0 -0.83555649431559686 -3.375157666626535 0 0 0 0 25.0922878286393 3.1921925094331396 0 3.1921925094331396 -1.627632245707999 0 0 0 0 44.18735044999903 7.2418668068592069 0 7.2418668068592069 -5.6340810150766174 0 0 0 0 134.9409074218247 68.368403600336137 0 68.368403600336137 -87.995454973408869 0 0 0 0 6.8608000961936764 0.40256948211991173 0 0.40256948211991173 -0.40906841877794431 0 0 0 0 46.092251493221056 6.6688812787832603 0 6.6688812787832603 -15.539094724319284 0 0 0 0 93.961394133416434 -3.3646188821813894 0 -3.3646188821813894 175.88374755783116 0 0 0 0 39.106641905538709 2.7196068829093747 0 2.7196068829093747 6.0422854846119662 0 0 0 0 36.448248402160971 -14.322056445864064 0 -14.322056445864064 -18.860188745066353 0 0 0 0 42.399139401271896 -3.7024719679925511 0 -3.7024719679925511 -12.085535336106432 0 0 0 0 47.281662637884438 5.0646923735440623 0 5.0646923735440623 -22.053602675753609 0 0 0 0 46.893125819184206 5.1021371765027652 0 5.1021371765027652 -19.50593272611377 0 0 0 0 38.187858596995284 0.76992002096642409 0 0.76992002096642409 4.2934338426075556 0 0 0 0 41.846779398027479 4.2305909089184581 0 4.2305909089184581 2.1292290072674405 0 0 0 0 25.532606656964383 -12.882915267428928 0 -12.882915267428928 -2.3282364900621113 0 0 0 0 113.55066793052811 20.86828961837368 0 20.86828961837368 8.3211635425559507 0 0 0 0 43.930665018791842 -4.9638619243823996 0 -4.9638619243823996 9.1065481249133882 0 0 0 0 55.533605954376981 -1.2100116128040099 0 -1.2100116128040099 14.848794346459727 0 0 0 0 16.267242821366743 -3.2462882804715889 0 -3.2462882804715889 -3.0740357999136378 0 0 0 0 34.823800927599223 50.330822722532048 0 50.330822722532048 18.45343082498448 0 0 0 0 126.28176334449745 17.310961730192503 0 17.310961730192503 -6.029986511817242 0 0 0 0 7.5574687331057788 -6.697528637786343 0 -6.697528637786343 -4.0138629019085403 0 0 0 0 114.76367881493252 -0.58313210494240764 0 -0.58313210494240764 43.871229081391448 0 0 0 0 92.199733456171089 108.37636236612167 0 108.37636236612167 10.0105505578515 0 0 0 0 248.79512439375685 280.40883398390815 0 280.40883398390815 374.04614814698016 0 0 0 0 52.15509833715123 -11.441653941117167 0 -11.441653941117167 36.123511414513359 0 0 0 0 56.614647367736325 27.685346400587378 0 27.685346400587378 84.767195570922013 0 0 0 0 71.297867419689283 41.410911568126039 0 41.410911568126039 -13.412755554080832 0 0 0 0 -20.068808671392617 104.05611998007231 0 104.05611998007231 -12.138684979133394 0 0 0 0 13.273913807061035 17.283816899579506 0 17.283816899579506 -22.737670395253645 0 0 0 0 1.0731353198698974 0.86924822370095356 0 0.86924822370095356 -0.26890891149116136 0 0 0 0 -0.27298304194118828 -4.8754027046579722 0 -4.8754027046579722 -8.4716371552540295 0 0 0 0 120.19759508742209 7.7111192381202649 0 7.7111192381202649 30.017996498353419 0 0 0 0 71.809130739900866 -53.126111748604387 0 -53.126111748604387 16.987206255682736 0 0 0 0 56.528025168960085 8.0930581129020709 0 8.0930581129020709 81.814215141475046 0 0 0 0 254.12130178085499 223.83784891660389 0 223.83784891660389 62.172424009416318 0 0 0 0 374.0834704586232 107.27600483410424 0 107.27600483410424 191.05351315844746 0 0 0 0 2.8027328114411638 -3.2830213207976193 0 -3.2830213207976193 5.6000494635449938 0 0 0 0 274.28485821265349 203.48508714155832 0 203.48508714155832 364.99951967456582 0 0 0 0 819.02867039487137 283.72923266790565 0 283.72923266790565 13.7289968618893 0 0 0 0 504.07594374659675 204.23121893549205 0 204.23121893549205 29.66714018548555 0 0 0 0 536.8576236102017 132.56519263162488 0 132.56519263162488 69.165043831974799 0 0 0 0 689.8559724880688 155.57401359652795 0 155.57401359652795 -21.817220570089376 0 0 0 0 741.08497552970221 69.346251463104636 0 69.346251463104636 -10.174839557462292 0 0 0 0 627.03953501973956 179.51184482324311 0 179.51184482324311 47.976012623902079 0 0 0 0 517.11574695297168 380.17495471189204 0 380.17495471189204 331.17773445795137 0 0 0 0 143.21213602017815 -311.01176617400597 0 -311.01176617400597 -361.93068152851583 0 0 0 0 2.3324100695574259 0.18875122934058908 0 0.18875122934058908 -1.8425210368704099 0 0 0 0 600.77712563184105 559.66050361490875 0 559.66050361490875 346.4976091933604 0 0 0 0 32.12127252447317 -250.0075477795998 0 -250.0075477795998 -173.8167087808788 0 0 0 0 575.40079861732011 57.88612783940394 0 57.88612783940394 -211.98256819073345 0 0 0 0 565.5206911752939 77.938144664449197 0 77.938144664449197 -223.90782218292009 0 0 0 0 37.47592817630067 106.82747355523769 0 106.82747355523769 -47.47517145044867 0 0 0 0 509.77199738124182 141.55278838692448 0 141.55278838692448 -61.431518258700052 0 0 0 0 5.4811394152279362 0.34279805650579576 0 0.34279805650579576 -4.4695219109876527 0 0 0 0 433.35894816867784 395.25081971254713 0 395.25081971254713 266.50132446432826 0 0 0 0 441.84327196857521 223.47376583556957 0 223.47376583556957 93.398536941127077 0 0 0 0 298.90759090571646 411.66590260823722 0 411.66590260823722 417.01018817673412 0 0 0 0 277.93502934289802 287.41633094612308 0 287.41633094612308 164.35432632237416 0 0 0 0 269.17220786170037 145.4795630845386 0 145.4795630845386 189.1729483539836 0 0 0 0 94.873138811379249 49.602333593669869 0 49.602333593669869 23.742472291661215 0 0 0 0 3.0541908602744918 -4.9058138531096773 0 -4.9058138531096773 8.1493109935715218 0 0 0 0 46.521174983410674 37.98597353225523 0 37.98597353225523 51.664873693971458 0 0 0 0 59.118883333478152 8.289613397228095 0 8.289613397228095 8.2451293483054542 0 0 0 0 30.532488397535417 -15.29854578145364 0 -15.29854578145364 -35.870865354196667 0 0 0 0 23.876922931511679 -8.7167312978033422 0 -8.7167312978033422 -4.5332230137753022 0 0 0 0 48.324846957271802 7.5152395614541092 0 7.5152395614541092 13.21977043761035 0 0 0 0 35.41684840131893 -19.45275328224966 0 -19.45275328224966 -42.21526064066893 0 0 0 0 164.43438494656584 85.560054745085267 0 85.560054745085267 159.8467876415898 0 0 0 0 6.3878369543023936 -3.9362441340966896 0 -3.9362441340966896 9.5476753349486838 0 0 0 0 53.899607203126834 19.273665411730576 0 19.273665411730576 15.575283048742676 0 0 0 0 134.15251296771385 182.96784652692168 0 182.96784652692168 240.24711888978391 0 0 0 0 248.70738348199666 162.95749980883147 0 162.95749980883147 142.16787428781095 0 0 0 0 313.11388444570912 153.76025625762111 0 153.76025625762111 34.594618171469165 0 0 0 0 281.81694793674978 229.26902172369807 0 229.26902172369807 201.32176882004944 0 0 0 0 355.23283082403486 221.88435677066738 0 221.88435677066738 144.21418570687274 0 0 0 0 267.74383861680326 231.9401140343864 0 231.9401140343864 311.58966126292734 0 0 0 0 884.88495393307312 431.60237462246732 0 431.60237462246732 137.91897434423061 0 0 0 0 343.41597123766633 318.93934946258054 0 318.93934946258054 227.78802428085623 0 0 0 0 6.1495383655104447 0.51823832829155947 0 0.51823832829155947 -4.5306863709969409 0 0 0 0 268.90652317505737 226.46529264371449 0 226.46529264371449 236.62787284556856 0 0 0 0 263.05420872081822 243.43423607022149 0 243.43423607022149 198.85341248430737 0 0 0 0 1498.8857345705946 940.73430297894026 0 940.73430297894026 516.80842273639894 0 0 0 0 4.551143843398421 0.99425188915689233 0 0.99425188915689233 -2.0923750715210314 0 0 0 0 902.56378558990309 551.37175581569056 0 551.37175581569056 276.12072401117956 0 0 0 0 1499.8755801548859 602.8959822298649 0 602.8959822298649 -26.638565673952005 0 0 0 0 1032.0541713353305 221.72565732987727 0 221.72565732987727 -306.40549273829902 0 0 0 0 508.69103901807989 149.37627246085731 0 149.37627246085731 -86.393596914040472 0 0 0 0 939.48220885951923 515.01822677194605 0 515.01822677194605 141.36410234711505 0 0 0 0 897.84145016226648 320.47393571933191 0 320.47393571933191 -127.85299814903482 0 0 0 0 1499.65601729016 314.07002135043768 0 314.07002135043768 -349.22398847144012 0 0 0 0 1500.2323117283804 -454.82664763766428 0 -454.82664763766428 -225.23139696458784 0 0 0 0 988.31613759106858 -305.96018898766704 0 -305.96018898766704 -77.893893935209093 0 0 0 0 689.35540147586471 -279.74487613790615 0 -279.74487613790615 -24.070125943390948 0 0 0 0 905.97591948628542 -429.62339371607169 0 -429.62339371607169 6.328523716773276 0 0 0 0 666.23549243945718 -309.14488108724657 0 -309.14488108724657 69.173706915172758 0 0 0 0 291.46818149267528 -239.58850447007759 0 -239.58850447007759 143.53243790251224 0 0 0 0 600.44849303599131 -513.49579703973598 0 -513.49579703973598 272.57241646676448 0 0 0 0 904.98662980797326 -493.34763321889278 0 -493.34763321889278 -118.26474039896875 0 0 0 0 354.42066429306851 -744.2351078722819 0 -744.2351078722819 943.56612304259352 0 0 0 0 1497.2373733359743 -916.30584734073136 0 -916.30584734073136 109.23204535748593 0 0 0 0 302.13186450221292 216.86990925504321 0 216.86990925504321 311.01138880318661 0 0 0 0 1486.4064624917398 961.35490418204085 0 961.35490418204085 637.72951851990115 0 0 0 0 8.7126796817737819 -1.9004889915033369 0 -1.9004889915033369 1.9078405281237578 0 0 0 0 305.04534721576601 236.10106850332448 0 236.10106850332448 203.52415909823333 0 0 0 0 243.01757889345026 251.65199706485646 0 251.65199706485646 246.42255712335907 0 0 0 0 24.049002297672118 -3.0298342894630497 0 -3.0298342894630497 2.2852861691768411 0 0 0 0 192.65111524557233 -174.98670517620121 0 -174.98670517620121 -206.51928424487232 0 0 0 0 234.50025243013442 213.69318898664591 0 213.69318898664591 215.96710139055011 0 0 0 0 284.43335142517026 249.64614748912146 0 249.64614748912146 222.57293318348297 0 0 0 0 -1.9523571814465868 13.355991234984685 0 13.355991234984685 11.614428628736277 0 0 0 0 149.78133987016554 -270.77548075863183 0 -270.77548075863183 342.30672245318874 0 0 0 0 93.784766989183481 -75.316297578388401 0 -75.316297578388401 200.25609853959531 0 0 0 0 126.93089714561211 6.4834609211405905 0 6.4834609211405905 38.359870062195455 0 0 0 0 50.293210348463617 48.547254006435651 0 48.547254006435651 44.845845868014749 0 0 0 0 123.28868905050876 16.690588455326349 0 16.690588455326349 35.26738324101045 0 0 0 0 77.755914657595895 -10.7640669662037 0 -10.7640669662037 144.82493727337339 0 0 0 0 7.9520801178086913 2.9614282947817401 0 2.9614282947817401 -13.065938131737994 0 0 0 0 92.116185558267262 -34.639579578662591 0 -34.639579578662591 -4.6255485607755418 0 0 0 0 22.765508063785546 65.238424400620886 0 65.238424400620886 -56.850689114697161 0 0 0 0 47.036928056500983 -4.682198055648314 0 -4.682198055648314 -94.458347360035532 0 0 0 0 66.994423736352473 -113.60354520463079 0 -113.60354520463079 -84.286291518741336 0 0 0 0 46.438557711071553 10.404656867346375 0 10.404656867346375 -79.633718466731807 0 0 0 0 148.95671008440581 -28.034662198622851 0 -28.034662198622851 -14.917668168557157 0 0 0 0 -36.260128550018635 -63.966451324746686 0 -63.966451324746686 -107.38115589563267 0 0 0 0 -52.149323178968189 34.512193503425806 0 34.512193503425806 -192.09895052855427 0 0 0 0 -46.161402997371624 43.312514816750991 0 43.312514816750991 -237.84304776503086 0 0 0 0 -37.027108687645523 19.556873120450973 0 19.556873120450973 -177.66251126568568 0 0 0 0 -50.696545227709066 28.59778607021326 0 28.59778607021326 -172.39388353550021 0 0 0 0 -2.5072029958791973 -31.600177322961372 0 -31.600177322961372 -114.57621535531598 0 0 0 0 8.5410502271424775 43.75152063292262 0 43.75152063292262 -141.11216554045313 0 0 0 0 -16.649828499796058 -15.695013706054056 0 -15.695013706054056 -189.34539316313931 0 0 0 0 14.634882319583085 46.072341574261941 0 46.072341574261941 -243.81903703810804 0 0 0 0 -8.7424399014707888 55.143395892828266 0 55.143395892828266 -281.18003547390117 0 0 0 0 21.053433518733073 26.479038404404491 0 26.479038404404491 -282.30984198397709 0 0 0 0 23.370667795988993 19.148573975623094 0 19.148573975623094 -259.62360931307467 0 0 0 0 43.189213611702144 19.894047484208386 0 19.894047484208386 23.211323928251659 0 0 0 0 24.316175984893245 -4.7976375199851287 0 -4.7976375199851287 -2.3156645114444432 0 0 0 0 35.463761908828019 28.636255244301083 0 28.636255244301083 -291.10787295923706 0 0 0 0 -19.259383708813402 -124.98617830905368 0 -124.98617830905368 -310.19925621313178 0 0 0 0 5.2299769092053321 1.507621297886641 0 1.507621297886641 -1.5590504191503318 0 0 0 0 51.272252751670749 17.920632352495431 0 17.920632352495431 -283.87317616501133 0 0 0 0 173.02424732759391 240.6424721754384 0 240.6424721754384 246.56658771188302 0 0 0 0 48.359377869681339 -13.815341253450697 0 -13.815341253450697 -74.248722801680742 0 0 0 0 64.207484581424069 10.638858071780078 0 10.638858071780078 -85.862128768807565 0 0 0 0 45.348301559124593 -15.333654145760192 0 -15.333654145760192 -60.998925351006619 0 0 0 0 50.974941287878664 -1.6824854863871224 0 -1.6824854863871224 -49.476473943514975 0 0 0 0 52.735814833960831 -4.1027923197908649 0 -4.1027923197908649 -58.783979125002588 0 0 0 0 36.481093514135864 -15.217769458476141 0 -15.217769458476141 -38.466555979998702 0 0 0 0 34.888483308848663 -21.122608299129752 0 -21.122608299129752 -58.322737606244118 0 0 0 0 28.770856777404333 -16.417138318840898 0 -16.417138318840898 -45.969424678230098 0 0 0 0 -6.7044202889373992 -33.346795118861337 0 -33.346795118861337 9.3343605192167161 0 0 0 0 -2.1246363636633951 -3.3738563123482503 0 -3.3738563123482503 1.116659812575846 0 0 0 0 -25.526937742619339 -62.324579433974122 0 -62.324579433974122 -126.96809781685624 0 0 0 0 46.863811045088369 -7.4595346559940481 0 -7.4595346559940481 -146.78829196271477 0 0 0 0 4.952188608481265 -78.747388321580615 0 -78.747388321580615 -118.60265127764615 0 0 0 0 -0.25341577946164762 -54.258278586028609 0 -54.258278586028609 -150.29375225545846 0 0 0 0 46.736812424071104 -12.495463018892224 0 -12.495463018892224 -107.20233070354368 0 0 0 0 19.227961514850904 -42.303978755223397 0 -42.303978755223397 -45.561257574755956 0 0 0 0 42.148272704892406 -28.384304634136925 0 -28.384304634136925 -112.99253708051765 0 0 0 0 62.94539096113067 0.49295007937661239 0 0.49295007937661239 -141.71444342504674 0 0 0 0 61.120273677563091 44.062338644662759 0 44.062338644662759 -137.32882956128219 0 0 0 0 -4.2650894793514453 44.061255734787665 0 44.061255734787665 -138.07395465986701 0 0 0 0 33.566325738182059 -43.662476924059547 0 -43.662476924059547 -239.11012265636873 0 0 0 0 44.545633159310455 28.444605533018603 0 28.444605533018603 -136.07181513706837 0 0 0 0 42.066641432315009 55.695316522308985 0 55.695316522308985 -84.209973007268673 0 0 0 0 67.784929590494357 40.337123167486197 0 40.337123167486197 -84.864003279451481 0 0 0 0 59.630277116350953 46.275466425163359 0 46.275466425163359 -89.184959663599329 0 0 0 0 61.175951978387729 2.9117215056708119 0 2.9117215056708119 -102.33910705284688 0 0 0 0 59.631075958352085 12.007892334263943 0 12.007892334263943 -62.175156489793153 0 0 0 0 64.982436015701751 24.740960862280417 0 24.740960862280417 -75.87564445114981 0 0 0 0 66.632697490117039 49.967415314716405 0 49.967415314716405 -55.698675397164607 0 0 0 0 56.669787360006012 41.406676693766258 0 41.406676693766258 -35.331671296236777 0 0 0 0 59.981646178445772 55.208962689272312 0 55.208962689272312 -28.553244199650408 0 0 0 0 60.029307260808309 21.010711990464984 0 21.010711990464984 -22.243004955034564 0 0 0 0 69.342427202275758 67.717141040755905 0 67.717141040755905 -43.515359262356327 0 0 0 0 44.592563226658967 38.227485227807392 0 38.227485227807392 -52.555386742552855 0 0 0 0 47.654779202104237 59.577391038814 0 59.577391038814 29.586268740856895 0 0 0 0 101.4031119828735 -4.7011436883717064 0 -4.7011436883717064 59.305731029160391 0 0 0 0 89.050091735912247 34.854441464036697 0 34.854441464036697 25.657688395358036 0 0 0 0 130.05943396590737 11.392241328001006 0 11.392241328001006 90.009073612761512 0 0 0 0 72.413514087978001 2.6234496612139537 0 2.6234496612139537 111.31343859507274 0 0 0 0 208.6109385764139 -84.72333887080012 0 -84.72333887080012 120.56056033146558 0 0 0 0 320.1121998014678 -199.55315177897117 0 -199.55315177897117 146.57108882538097 0 0 0 0 220.8006249796581 -72.001501850889412 0 -72.001501850889412 127.47537457773812 0 0 0 0 250.06946360361871 -53.959280587080343 0 -53.959280587080343 98.255274471242501 0 0 0 0 239.80187555471457 -129.34179463738343 0 -129.34179463738343 159.81590244403696 0 0 0 0 451.32865274215465 -87.66951061916302 0 -87.66951061916302 29.108020712074364 0 0 0 0 557.60176223600956 -142.63544636031736 0 -142.63544636031736 44.596895599167283 0 0 0 0 178.4543512876412 -54.693175357834093 0 -54.693175357834093 93.58186407035717 0 0 0 0 113.36007896774709 25.355482385390481 0 25.355482385390481 120.00415607491314 0 0 0 0 -3.1392194757636389 -13.007538516039872 0 -13.007538516039872 115.28304788702434 0 0 0 0 -31.337982732825367 -31.528806613530811 0 -31.528806613530811 52.139857307569748 0 0 0 0 -1.2319120922575166 -13.998832327802774 0 -13.998832327802774 59.715891727530035 0 0 0 0 24.882210626704364 38.687248509382584 0 38.687248509382584 1.8049719454282354 0 0 0 0 33.801138449028258 39.14757779998564 0 39.14757779998564 93.755067218164271 0 0 0 0 30.483773060662315 16.912320107065369 0 16.912320107065369 26.090722081451531 0 0 0 0 45.116876403326387 65.455039551343816 0 65.455039551343816 23.852919029333037 0 0 0 0 33.44259161497348 36.897696435630124 0 36.897696435630124 -11.47161999388095 0 0 0 0 34.755170291530703 41.725567863237984 0 41.725567863237984 -8.7592688310435278 0 0 0 0 60.255045266257639 48.483531310136982 0 48.483531310136982 -32.422538514015741 0 0 0 0 53.905938273626816 30.278156849186757 0 30.278156849186757 -40.037783910647477 0 0 0 0 64.758303888073556 29.642391411254223 0 29.642391411254223 -48.662160777624194 0 0 0 0 48.21266129342257 25.779048879428615 0 25.779048879428615 -37.377719518915455 0 0 0 0 47.283291187815394 25.136245895846969 0 25.136245895846969 -18.044753066390967 0 0 0 0 51.088258660985957 14.72668302627244 0 14.72668302627244 -31.196474629610066 0 0 0 0 46.791350828222676 11.787240411931066 0 11.787240411931066 -23.035308873335907 0 0 0 0 51.608406304771052 0.6490155417573078 0 0.6490155417573078 -32.128185472051882 0 0 0 0 51.402139548832565 2.4973989736665771 0 2.4973989736665771 -44.159342415074661 0 0 0 0 56.698000393396796 14.100214621104897 0 14.100214621104897 -50.601227391292241 0 0 0 0 59.813486436321909 12.831103076490763 0 12.831103076490763 -61.18013554667732 0 0 0 0 53.577146403537881 14.787558213184639 0 14.787558213184639 -40.08205772071824 0 0 0 0 40.340157114485024 5.1506199373680666 0 5.1506199373680666 -12.270190565951907 0 0 0 0 40.08520519033209 17.139025802749757 0 17.139025802749757 -26.653404376401795 0 0 0 0 16.342658618585119 9.1591134708577329 0 9.1591134708577329 -12.342237816686634 0 0 0 0 -7.538514712401593 42.614401340385371 0 42.614401340385371 16.643990520553416 0 0 0 0 -27.741146922324674 25.739044368151369 0 25.739044368151369 15.138719045528205 0 0 0 0 -0.59327240522616198 0.97746552992514157 0 0.97746552992514157 0.41486371333236516 0 0 0 0 25.0636369656022 30.139858542110801 0 30.139858542110801 -16.552990896714618 0 0 0 0 73.376524193999103 7.5416319708000401 0 7.5416319708000401 -13.228170342673593 0 0 0 0 78.950250305696727 3.424127831773319 0 3.424127831773319 -36.280389613765465 0 0 0 0 68.216354768254803 -6.4002256192910849 0 -6.4002256192910849 -37.114770229848318 0 0 0 0 87.840328970641167 -13.588048168137561 0 -13.588048168137561 -77.780528290029224 0 0 0 0 3.2311053255065136 4.3919630667395193 0 4.3919630667395193 -0.4502342949731275 0 0 0 0 35.478681297365256 -47.376623008464094 0 -47.376623008464094 75.031726748025392 0 0 0 0 59.858354271929784 -34.539158870687061 0 -34.539158870687061 11.60514319872118 0 0 0 0 90.311852041412749 -25.4500356488129 0 -25.4500356488129 -23.335491114543402 0 0 0 0 115.92611225369598 -124.14230902668962 0 -124.14230902668962 -35.129777004689686 0 0 0 0 25.436736355237372 -4.493289806869825 0 -4.493289806869825 -0.87905442274677625 0 0 0 0 22.453529966483075 3.5300037833114857 0 3.5300037833114857 -11.17859496302799 0 0 0 0 3.5383162011758031 -13.714545451652157 0 -13.714545451652157 -21.694675774309417 0 0 0 0 1.3774671957520361 1.5129669112692599 0 1.5129669112692599 -0.86865506551299432 0 0 0 0 35.717632344494632 7.1978164844804269 0 7.1978164844804269 -15.705750059305501 0 0 0 0 35.805512542884571 -5.3207871502995658 0 -5.3207871502995658 7.3434742414460743 0 0 0 0 31.622467469214371 4.7290098463446384 0 4.7290098463446384 -15.983804364125263 0 0 0 0 33.59017941246384 -14.895496261742892 0 -14.895496261742892 -3.4773604023744156 0 0 0 0 42.478929416176015 -12.96882212040714 0 -12.96882212040714 -11.590474324347042 0 0 0 0 17.522222296914151 -2.808929037159146 0 -2.808929037159146 -8.4954787547626438 0 0 0 0 32.481165833654927 -7.751090727980511 0 -7.751090727980511 -12.749061068571791 0 0 0 0 32.199754584678885 -8.4457004659889208 0 -8.4457004659889208 -11.661789066732808 0 0 0 0 34.928701574976913 -4.8041938581525301 0 -4.8041938581525301 -7.4224873191576535 0 0 0 0 68.436553710018728 -10.160676262425717 0 -10.160676262425717 -15.986432114289983 0 0 0 0 48.754171447466433 -16.810963612937712 0 -16.810963612937712 -10.976830327191777 0 0 0 0 49.321005327372404 -5.2328342391430169 0 -5.2328342391430169 -10.408315821529186 0 0 0 0 47.322256169456523 -8.2741023147783608 0 -8.2741023147783608 -9.5224064108438142 0 0 0 0 31.143957933413731 -2.9325406867516222 0 -2.9325406867516222 -6.5484152155813717 0 0 0 0 47.901316770310359 -0.94328378974711313 0 -0.94328378974711313 -7.1721883671571049 0 0 0 0 32.702333464357253 2.6886457274709414 0 2.6886457274709414 -5.9949430899266929 0 0 0 0 52.57300166924415 -6.7492352819560892 0 -6.7492352819560892 -10.994031166578182 0 0 0 0 55.747393953988649 0.49043298604644292 0 0.49043298604644292 5.4030100661905749 0 0 0 0 0.26882360092095858 0.47592480566910567 0 0.47592480566910567 0.19289055145922568 0 0 0 0 69.03174058136301 -22.147795643032872 0 -22.147795643032872 -2.9574138545509179 0 0 0 0 59.28044844755027 -10.831828322430631 0 -10.831828322430631 -15.244297589552886 0 0 0 0 62.927333062760226 -7.2445119170827894 0 -7.2445119170827894 -12.039585786623775 0 0 0 0 66.582625812104425 4.3349654723396949 0 4.3349654723396949 -33.315242876620218 0 0 0 0 75.665260886277224 -25.375888976858285 0 -25.375888976858285 -5.0139778291837445 0 0 0 0 85.418517583910216 -20.22713646171389 0 -20.22713646171389 -63.147903230388408 0 0 0 0 96.167988680492272 4.1282546981131603 0 4.1282546981131603 -46.569442653743693 0 0 0 0 149.65437934387501 -77.01883813236708 0 -77.01883813236708 -13.145110160622423 0 0 0 0 -22.019778755445259 -132.55039587013891 0 -132.55039587013891 9.0290258161154497 0 0 0 0 244.39572609610195 -219.5580365688902 0 -219.5580365688902 35.28152943816383 0 0 0 0 -230.2989828931768 -185.30759110578208 0 -185.30759110578208 248.8139373987575 0 0 0 0 129.34581725824955 14.950031513202788 0 14.950031513202788 -82.777480133649135 0 0 0 0 3.8026020695971336 -1.9219120210836538 0 -1.9219120210836538 0.58847708228194118 0 0 0 0 -326.19155855624285 23.006515300572119 0 23.006515300572119 145.35922012242895 0 0 0 0 278.53845961542447 -64.187849516024585 0 -64.187849516024585 -74.080051818895996 0 0 0 0 545.26132653869536 -209.16447800863403 0 -209.16447800863403 -146.05273566645474 0 0 0 0 7.2899331421234228 -3.6744580456185885 0 -3.6744580456185885 0.21532857023436214 0 0 0 0 9.0832706283050584 -3.6251818391930186 0 -3.6251818391930186 -2.3742164154520822 0 0 0 0 -14.179204874329116 -25.111461309114475 0 -25.111461309114475 3.1561819669690578 0 0 0 0 9.0032921502433858 -3.6844208069464655 0 -3.6844208069464655 0.44948462423405999 0 0 0 0 7.7233736180064696 -5.3926018797977324 0 -5.3926018797977324 2.2764022652812201 0 0 0 0 9.9219363972686949 -5.2231145067415383 0 -5.2231145067415383 3.3092955785990625 0 0 0 0 8.6811440739159806 -2.0998868075422887 0 -2.0998868075422887 3.0813297156980184 0 0 0 0 12.668424886070905 -1.954463620758061 0 -1.954463620758061 -0.1520220626944136 0 0 0 0 0.9754378102345953 7.7410093166270784 0 7.7410093166270784 -9.4489101173044929 0 0 0 0 -14.403755653195702 -19.18565326581875 0 -19.18565326581875 34.140108637044129 0 0 0 0 -4.5886487371471674 17.382123835240083 0 17.382123835240083 32.72184570066328 0 0 0 0 -62.104194906074554 8.3576278231497199 0 8.3576278231497199 -76.551202837947301 0 0 0 0 -70.202336970896567 67.731671466914065 0 67.731671466914065 -201.42903567136619 0 0 0 0 -29.102042136526507 -67.595698968982873 0 -67.595698968982873 -29.003823408788435 0 0 0 0 -39.645305945736709 -69.824127303704742 0 -69.824127303704742 53.600115430106143 0 0 0 0 -7.7857147196376673 -34.162942159898442 0 -34.162942159898442 -19.476385073286679 0 0 0 0 21.49594128685294 -62.023659917218339 0 -62.023659917218339 -35.746539820159853 0 0 0 0 -11.845309362684475 -38.599133924865953 0 -38.599133924865953 130.6118679408786 0 0 0 0 126.08858727570532 16.185064185015051 0 16.185064185015051 64.84152806110788 0 0 0 0 651.47076159706012 74.59332707395987 0 74.59332707395987 -23.641371858823703 0 0 0 0 291.05879336758926 78.00102573116699 0 78.00102573116699 33.150112026881175 0 0 0 0 49.567406539239983 114.66612105941732 0 114.66612105941732 90.25340772059937 0 0 0 0 767.93023468706679 377.07221256236312 0 377.07221256236312 -126.69341002545592 0 0 0 0 74.531970183895282 -101.80034569936944 0 -101.80034569936944 -140.75113513926351 0 0 0 0 99.688638717717367 -37.217033701962144 0 -37.217033701962144 -294.64676278176648 0 0 0 0 12.410004769671676 -1.4632590112953059 0 -1.4632590112953059 -0.21965352304371755 0 0 0 0 26.154583929757507 33.275986603568477 0 33.275986603568477 -68.522037647613629 0 0 0 0 168.15184489206558 -155.83232976726447 0 -155.83232976726447 126.32119856250964 0 0 0 0 -18.802742118679191 69.688404057285979 0 69.688404057285979 127.73350346569703 0 0 0 0 422.45052284138814 -342.11721515501887 0 -342.11721515501887 137.20598518231827 0 0 0 0 5.9455335468913031 -0.46695866607992703 0 -0.46695866607992703 -0.011540381199787588 0 0 0 0 1166.0946855309885 -101.36980096546695 0 -101.36980096546695 -149.00471862347203 0 0 0 0 1143.400123436473 289.30586476183959 0 289.30586476183959 -135.43764560417915 0 0 0 0 1499.3613689527861 36.732779607566393 0 36.732779607566393 34.42036108245378 0 0 0 0 1499.8861716202528 -93.103464669464003 0 -93.103464669464003 -216.70444490385532 0 0 0 0 1218.2693662466759 -127.25462422266418 0 -127.25462422266418 -19.185522661071357 0 0 0 0 1284.5432803487222 -111.68359120821836 0 -111.68359120821836 -170.54420374387266 0 0 0 0 1014.9641264627699 62.318939628861273 0 62.318939628861273 -211.64398109313004 0 0 0 0 693.64909366160623 -59.864011999061624 0 -59.864011999061624 -88.77324210448819 0 0 0 0 766.00712854210087 -53.107572069044124 0 -53.107572069044124 -93.881512180781783 0 0 0 0 1105.1009857492563 -194.97409263906695 0 -194.97409263906695 -247.55206046886715 0 0 0 0 1268.3251941466199 -220.82252075905171 0 -220.82252075905171 -246.37815800286745 0 0 0 0 33.608870884377211 1.3340104521091121 0 1.3340104521091121 -83.260752024167999 0 0 0 0 102.73267232959506 82.396695051161331 0 82.396695051161331 -179.03899448253071 0 0 0 0 59.304840442004547 -38.901655785481367 0 -38.901655785481367 -47.529337612860672 0 0 0 0 238.11368350806706 -63.232348607376821 0 -63.232348607376821 -72.757673224771111 0 0 0 0 -35.968417580202072 56.792104109030248 0 56.792104109030248 -31.220898876191967 0 0 0 0 165.51056807756856 177.98898175923296 0 177.98898175923296 33.211600481344988 0 0 0 0 -169.58992987964763 73.18438036946344 0 73.18438036946344 52.31738743465889 0 0 0 0 -10.729609045694538 125.59012334278957 0 125.59012334278957 -95.218305223082837 0 0 0 0 32.507978808203916 -1.2368568324127409 0 -1.2368568324127409 6.5640467670159524 0 0 0 0 26.658847384067975 5.6024064855811613 0 5.6024064855811613 -3.0275095111584442 0 0 0 0 46.152726071077268 -8.0228948799569366 0 -8.0228948799569366 -0.10038241475263021 0 0 0 0 2.6245078935987536 0.39635384568952325 0 0.39635384568952325 4.8770059046588372 0 0 0 0 38.230848935789709 8.3565156666105658 0 8.3565156666105658 -28.07976308594084 0 0 0 0 33.554303115684888 -8.5699849796195764 0 -8.5699849796195764 10.678723636190654 0 0 0 0 25.053374854789581 9.6593463467667675 0 9.6593463467667675 -7.4477501883211517 0 0 0 0 -1.0178315568387006 -25.881241170756482 0 -25.881241170756482 15.79253000361723 0 0 0 0 -10.512402316604494 21.150715114269929 0 21.150715114269929 18.796299009726681 0 0 0 0 40.417523399587481 9.0860564707650155 0 9.0860564707650155 -2.5909449119244528 0 0 0 0 0.17021191169914651 1.2502822375945559 0 1.2502822375945559 4.858362846069296 0 0 0 0 50.070036792023075 -22.300649841879249 0 -22.300649841879249 0.4264957478108613 0 0 0 0 22.973990443244475 33.100791642471449 0 33.100791642471449 5.7400120163574684 0 0 0 0 39.349475591995542 -17.313929911137421 0 -17.313929911137421 11.880558215582397 0 0 0 0 32.569629031038858 -9.0974268438666286 0 -9.0974268438666286 -7.3072901131890973 0 0 0 0 48.920383537629277 -19.933100353765596 0 -19.933100353765596 -15.08080639065173 0 0 0 0 29.304192489301943 6.7021391887743667 0 6.7021391887743667 -3.0208681041403009 0 0 0 0 20.029699528029369 21.249911381262166 0 21.249911381262166 -71.603024527241104 0 0 0 0 59.207295652639914 37.706925186431 0 37.706925186431 -68.42720010253521 0 0 0 0 30.356272513952966 7.2455759662598815 0 7.2455759662598815 -2.9208606991744923 0 0 0 0 35.102622724094545 -18.666987375429187 0 -18.666987375429187 -14.272839533133222 0 0 0 0 62.723605752450567 37.751895236380733 0 37.751895236380733 -33.727279412218877 0 0 0 0 28.728003311886823 4.6582222986286297 0 4.6582222986286297 -4.712290262305487 0 0 0 0 124.99227762504961 1.122163197711302 0 1.122163197711302 -19.021261147602672 0 0 0 0 70.614076495588506 -44.470285776367632 0 -44.470285776367632 -12.690844611681229 0 0 0 0 50.363818034194423 9.5565073594615342 0 9.5565073594615342 36.714001304708631 0 0 0 0 31.217032485678828 -21.988165060270944 0 -21.988165060270944 -5.9041397186929316 0 0 0 0 3.1399622890716774 -0.57484596723208936 0 -0.57484596723208936 -0.33419587437336218 0 0 0 0 13.028475255684214 13.777396462074506 0 13.777396462074506 -24.916414425477797 0 0 0 0 22.807822731669148 0.68009906002816933 0 0.68009906002816933 -25.607918643062575 0 0 0 0 31.034272472275688 -24.451328380142172 0 -24.451328380142172 15.066509199321445 0 0 0 0 75.471763702592852 -78.18630705238229 0 -78.18630705238229 53.595283758049618 0 0 0 0 0.95675828636484006 -0.014223125629439171 0 -0.014223125629439171 -0.20257330231730908 0 0 0 0 82.741401349198895 10.299437592536464 0 10.299437592536464 -17.310594366702503 0 0 0 0 15.866970991290145 34.401216827232076 0 34.401216827232076 -2.8707759579012873 0 0 0 0 7.7504418394171353 0.45074092957207768 0 0.45074092957207768 -3.4491218528346508 0 0 0 0 18.798207695059773 4.6556282941511995 0 4.6556282941511995 -2.4698785361497926 0 0 0 0 16.12027434612628 -5.7078080368552264 0 -5.7078080368552264 -14.8329471701702 0 0 0 0 30.989565822181248 -3.0773826622120168 0 -3.0773826622120168 -6.0339527269088862 0 0 0 0 20.116529528479077 0.30885108023539942 0 0.30885108023539942 -5.7889519307715744 0 0 0 0 32.689883688290138 3.4198070927085098 0 3.4198070927085098 -2.4694836461546856 0 0 0 0 30.263459103087143 9.0817325481923987 0 9.0817325481923987 -14.045443176285232 0 0 0 0 26.13920356168569 0.97505086633971416 0 0.97505086633971416 -18.778914216185058 0 0 0 0 7.884289872287809 -15.450062120411246 0 -15.450062120411246 -24.491467909848136 0 0 0 0 18.984981452621469 -12.409773050372564 0 -12.409773050372564 -40.082938572409404 0 0 0 0 10.941729735968238 3.3988884045289751 0 3.3988884045289751 -21.474640077684882 0 0 0 0 25.510895854265073 -3.7148926893668062 0 -3.7148926893668062 -18.467851559604846 0 0 0 0 27.906483275970913 10.595480112949858 0 10.595480112949858 -19.791120944606384 0 0 0 0 34.416495761764963 -44.583808126107812 0 -44.583808126107812 -19.50914608680273 0 0 0 0 29.311454300867126 -33.25172222249207 0 -33.25172222249207 -14.952478776229555 0 0 0 0 48.521257177569851 -12.782143257385997 0 -12.782143257385997 -25.24181773699641 0 0 0 0 31.423627863207457 -35.955879110030537 0 -35.955879110030537 -19.045871013408401 0 0 0 0 20.18375293938675 -27.083015227164978 0 -27.083015227164978 -24.852451536610459 0 0 0 0 26.378590477050921 -31.978139170954663 0 -31.978139170954663 -40.956755523883288 0 0 0 0 18.285616887622382 -44.13563547505656 0 -44.13563547505656 -18.1035336124609 0 0 0 0 13.543313063257642 -28.441398936533375 0 -28.441398936533375 -33.023524488275257 0 0 0 0 20.796488930738406 -35.755951467541195 0 -35.755951467541195 -62.169455923927728 0 0 0 0 9.5997691126353146 -1.7413573519376364 0 -1.7413573519376364 0.07614552686298115 0 0 0 0 -2.7744787405965781 -24.786028684056532 0 -24.786028684056532 -42.660503760032014 0 0 0 0 47.228986488825058 -448.01051433487049 0 -448.01051433487049 188.84119425758666 0 0 0 0 61.088420115125246 272.88888375722803 0 272.88888375722803 149.22534543328862 0 0 0 0 119.00234045357456 78.463019876165134 0 78.463019876165134 -222.39972387806952 0 0 0 0 1.3241914720889838 102.24899677154407 0 102.24899677154407 96.237174551701344 0 0 0 0 -13.5595426312575 28.272981824325257 0 28.272981824325257 -40.710157758366677 0 0 0 0 22.458412471762131 18.935900251354155 0 18.935900251354155 -33.434554992411194 0 0 0 0 21.331955930123513 -11.483594617291967 0 -11.483594617291967 -37.10485388579275 0 0 0 0 -37.108254991561807 -38.233862579113634 0 -38.233862579113634 -49.334872526368116 0 0 0 0 8.5114153751540016 -8.2038419646220291 0 -8.2038419646220291 -76.603919438808362 0 0 0 0 6.74740280876631 -0.24622157261862299 0 -0.24622157261862299 -45.699219274106355 0 0 0 0 -4.0246798768685039 -23.410675884330743 0 -23.410675884330743 -37.326662608992365 0 0 0 0 12.340016291972006 -40.766504850063825 0 -40.766504850063825 -107.00311011966926 0 0 0 0 -35.177307715871848 -145.11250465371705 0 -145.11250465371705 571.79112540025267 0 0 0 0 9.8770317661285603 -2.9921283091600186 0 -2.9921283091600186 0.39553040549523116 0 0 0 0 266.08064414372672 -282.73076335646692 0 -282.73076335646692 -262.43895646043643 0 0 0 0 132.56926197966754 68.36079095985815 0 68.36079095985815 -65.964185926647758 0 0 0 0 -116.13932996690892 -48.651336943275965 0 -48.651336943275965 123.137035358422 0 0 0 0 -202.42133243210117 -35.570410529138769 0 -35.570410529138769 225.29430502140883 0 0 0 0 10.291673479949749 -2.6305287981187697 0 -2.6305287981187697 -0.36452250126950059 0 0 0 0 23.647050931923218 -50.426552734197969 0 -50.426552734197969 208.99450925138183 0 0 0 0 34.299177778430249 -24.720160974928586 0 -24.720160974928586 -66.670219292511447 0 0 0 0 3.404840780437969 -0.36976602798639524 0 -0.36976602798639524 -2.1232473902223901 0 0 0 0 2.8181810022329046 -41.35104469811774 0 -41.35104469811774 7.4526832998345292 0 0 0 0 146.19530582229197 89.443413379814984 0 89.443413379814984 -35.030370340924023 0 0 0 0 3.3132216027690014 -0.65799358102401118 0 -0.65799358102401118 0.32433518131221478 0 0 0 0 188.70425439552866 -24.97799918281433 0 -24.97799918281433 6.0557818772125529 0 0 0 0 32.375400816123147 17.260717800364716 0 17.260717800364716 29.089221184841449 0 0 0 0 9.5738518169532654 -39.052449483654925 0 -39.052449483654925 10.684503335086163 0 0 0 0 -4.1167833812778554 10.775065475594914 0 10.775065475594914 26.14612161975117 0 0 0 0 50.508997899243525 76.832647254737537 0 76.832647254737537 101.01543439471351 0 0 0 0 287.91175766560195 -12.861795914554989 0 -12.861795914554989 -11.162400954985571 0 0 0 0 142.32549530840947 -73.467426555164593 0 -73.467426555164593 250.63650186249833 0 0 0 0 171.88392618504827 104.95170940227499 0 104.95170940227499 128.09761299095697 0 0 0 0 246.95288101605337 76.369055361631581 0 76.369055361631581 6.7089734925530706 0 0 0 0 48.564526286380101 28.084167659977396 0 28.084167659977396 117.31128081079441 0 0 0 0 59.187310634252526 4.6518335531086166 0 4.6518335531086166 62.789045939780685 0 0 0 0 78.921607234094537 0.80882089387978873 0 0.80882089387978873 38.563864325575253 0 0 0 0 86.180109497001723 -60.837605380078685 0 -60.837605380078685 53.67098756319151 0 0 0 0 70.174418340528007 88.324610384285165 0 88.324610384285165 98.936978449297428 0 0 0 0 108.24903184401649 76.108178829851951 0 76.108178829851951 31.461319395932669 0 0 0 0 53.46082239951086 29.741318495844482 0 29.741318495844482 32.157174174277202 0 0 0 0 332.98008710516888 36.859812085777534 0 36.859812085777534 16.265177086755724 0 0 0 0 3.6208711758275438 -0.45022278227537227 0 -0.45022278227537227 0.15943757886155041 0 0 0 0 54.881742957475204 -108.39781404193147 0 -108.39781404193147 64.676307565439544 0 0 0 0 111.91030575936512 179.00920184614171 0 179.00920184614171 127.98769723225229 0 0 0 0 -14.996385964843398 59.668220286750405 0 59.668220286750405 -17.184400750639334 0 0 0 0 61.663509229256761 -69.072205509026332 0 -69.072205509026332 189.72277174993516 0 0 0 0 -11.040933727465216 -54.658212777983771 0 -54.658212777983771 55.187547097232027 0 0 0 0 5.5305703359820768 -6.4921964164269923 0 -6.4921964164269923 -3.6937035126466071 0 0 0 0 -0.16865019935773784 0.45756103046728824 0 0.45756103046728824 0.26036449543391971 0 0 0 0 117.69492994838484 -10.556177717739899 0 -10.556177717739899 -11.07271808308613 0 0 0 0 -0.14000224278521267 -0.27430127032373242 0 -0.27430127032373242 -0.1262385302068032 0 0 0 0 -6.8693878153215167 28.158455212854193 0 28.158455212854193 -22.532944236892547 0 0 0 0 11.375745367658254 -4.167962821186066 0 -4.167962821186066 -13.939131769790151 0 0 0 0 9.640132139070829 -0.14129175036669039 0 -0.14129175036669039 -18.751703355418876 0 0 0 0 2.6278479573774121 -1.4894517860996217 0 -1.4894517860996217 -9.0039883671343546 0 0 0 0 4.3866539963453306 0.81577043242739933 0 0.81577043242739933 -14.034286450114223 0 0 0 0 1.7124521369486274 0.46842475270295836 0 0.46842475270295836 -10.105208049445274 0 0 0 0 -11.79980613949084 38.382362314556076 0 38.382362314556076 5.4177498916717184 0 0 0 0 -5.5405550527345895 15.972075961676637 0 15.972075961676637 44.777268192295608 0 0 0 0 0.25859386076218449 0.45035850864036009 0 0.45035850864036009 0.39011370652874872 0 0 0 0 -21.502318360961908 -34.358528393151758 0 -34.358528393151758 80.133710957339773 0 0 0 0 6.765018936161141 9.9087297324647636 0 9.9087297324647636 -11.130487361781434 0 0 0 0 0.17671318781710621 2.385190087192063 0 2.385190087192063 -0.4683797592669543 0 0 0 0 0.40785667098498379 4.8287116094618341 0 4.8287116094618341 -0.32024737686697335 0 0 0 0 -0.22788950676226705 8.1284406208970097 0 8.1284406208970097 -6.8727536609435163 0 0 0 0 1.6800325889106489 12.000606050945962 0 12.000606050945962 -5.9642100907095994 0 0 0 0 -6.4829812575751475 14.922382084936572 0 14.922382084936572 4.272757621364768 0 0 0 0 18.631142303119532 8.9770292813243096 0 8.9770292813243096 -11.935014410722445 0 0 0 0 9.3933855850527763 6.3578626911772478 0 6.3578626911772478 -3.1203147770986153 0 0 0 0 27.931823228431313 -24.517882887948446 0 -24.517882887948446 41.131081694559384 0 0 0 0 36.178817613729734 -0.1660004851875474 0 -0.1660004851875474 -28.312426319071292 0 0 0 0 24.973146496771733 -10.134176417134437 0 -10.134176417134437 15.847492022326932 0 0 0 0 38.135095362958964 -26.7539468230122 0 -26.7539468230122 -0.39408656233041484 0 0 0 0 1.3700956406078149 31.95353743741228 0 31.95353743741228 23.526017348583878 0 0 0 0 8.490378843722624 24.997676654817816 0 24.997676654817816 -2.0793403930194643 0 0 0 0 11.270381372072666 8.2320764500267174 0 8.2320764500267174 0.99214159943761793 0 0 0 0 -1.5579340281601439 1.2295077886635681 0 1.2295077886635681 1.3671495793174131 0 0 0 0 63.748232558387826 -6.4397707121074745 0 -6.4397707121074745 -3.4097469364958215 0 0 0 0 69.08834072639911 -17.398285349598979 0 -17.398285349598979 11.31320292263166 0 0 0 0 64.08450264084513 -10.833646294058676 0 -10.833646294058676 30.935286309111348 0 0 0 0 -94.407448722434765 11.111874913943666 0 11.111874913943666 53.627458169363756 0 0 0 0 -14.78699374717371 61.870968450968725 0 61.870968450968725 -38.545481828571411 0 0 0 0 8.6496549151597719 30.2468602468565 0 30.2468602468565 4.1029368033619633 0 0 0 0 22.499514424346444 7.2711701829301205 0 7.2711701829301205 -7.9023938127688496 0 0 0 0 10.443120364717288 26.360630435924854 0 26.360630435924854 -20.918223046562019 0 0 0 0 15.156774308635239 5.7124444742643199 0 5.7124444742643199 0.083837787900366001 0 0 0 0 26.218437550459385 23.433385765560672 0 23.433385765560672 -44.124099393477991 0 0 0 0 41.652012843542323 -0.027366692785289359 0 -0.027366692785289359 -13.687656307735097 0 0 0 0 42.633185426077034 -8.7648906774434749 0 -8.7648906774434749 -2.5950505793098273 0 0 0 0 6.594543682005229 -0.42041091563087085 0 -0.42041091563087085 -1.2060462962194443 0 0 0 0 22.240731859611564 5.9871937634964603 0 5.9871937634964603 0.0013584536147601689 0 0 0 0 29.45890017291822 7.6854702620801163 0 7.6854702620801163 -2.9717498383904513 0 0 0 0 28.774942785730673 4.2279681714422281 0 4.2279681714422281 -3.1084281515497771 0 0 0 0 28.408840482627056 5.1926755083390219 0 5.1926755083390219 2.5529844377736026 0 0 0 0 9.2342454660283693 1.8629230679704278 0 1.8629230679704278 0.99954207873958012 0 0 0 0 10.356415764039051 7.276195105484474 0 7.276195105484474 3.7494204534404321 0 0 0 0 15.047090664739942 -3.0872546279244837 0 -3.0872546279244837 3.9047132390893946 0 0 0 0 24.535136142736519 -6.2991272715057676 0 -6.2991272715057676 25.011542389899546 0 0 0 0 11.016711596121596 3.7350188964528463 0 3.7350188964528463 2.0607599530307334 0 0 0 0 7.406515067291366 14.579561174962947 0 14.579561174962947 -0.10352553578286461 0 0 0 0 38.552800157129241 10.228250779256086 0 10.228250779256086 -4.5661644383167186 0 0 0 0 50.253606100024626 -0.35832841264485893 0 -0.35832841264485893 -7.0496177265578979 0 0 0 0 1.6137904836809849 2.1159794179171687 0 2.1159794179171687 2.2640141420875368 0 0 0 0 49.338966934983546 -14.430324719535555 0 -14.430324719535555 0.52836894975604309 0 0 0 0 3.3685631959033344 9.8433152388457756 0 9.8433152388457756 18.508782961805309 0 0 0 0 4.56929879729908 2.6590341171917213 0 2.6590341171917213 3.9238852079290316 0 0 0 0 18.847770906874757 -1.4861352063236382 0 -1.4861352063236382 6.1655948262465472 0 0 0 0 20.582894540191774 -5.1105187135412393 0 -5.1105187135412393 12.26289174757278 0 0 0 0 28.685150951367177 7.7381619504900527 0 7.7381619504900527 -1.5545730890746654 0 0 0 0 61.967058323556557 -24.5494736615899 0 -24.5494736615899 4.3254670214271869 0 0 0 0 8.9297084227014238 21.960505352024313 0 21.960505352024313 15.549986716810054 0 0 0 0 63.81931888552208 -18.502758602047777 0 -18.502758602047777 17.974229283578666 0 0 0 0 127.87554711081657 -49.732979246933297 0 -49.732979246933297 9.2970720703580128 0 0 0 0 0.69693752612131199 0.38429844484341658 0 0.38429844484341658 -0.14314621816124129 0 0 0 0 29.384244154407497 -23.730310319576233 0 -23.730310319576233 11.356760877742275 0 0 0 0 63.572772674376665 17.360146007662138 0 17.360146007662138 48.524084483115303 0 0 0 0 57.43698542783477 -29.533456467220503 0 -29.533456467220503 32.356997550936569 0 0 0 0 21.322439746696546 -13.446535823834552 0 -13.446535823834552 37.160300756210972 0 0 0 0 71.971201543602319 12.813536470877736 0 12.813536470877736 29.189119445226424 0 0 0 0 57.34332724179103 3.0227424501740643 0 3.0227424501740643 26.504610274091419 0 0 0 0 39.35345324069749 12.27317624743057 0 12.27317624743057 26.797094552262024 0 0 0 0 21.527611205690846 -19.08826511771008 0 -19.08826511771008 34.4220745875636 0 0 0 0 -8.7091851802579185 -38.931828230967994 0 -38.931828230967994 35.361241918892802 0 0 0 0 17.3379224699529 -32.941531461140357 0 -32.941531461140357 44.569223085458304 0 0 0 0 33.633797958666037 -18.958009060882432 0 -18.958009060882432 41.906313708190737 0 0 0 0 35.298711229084802 -36.616615454627663 0 -36.616615454627663 31.813552250314842 0 0 0 0 66.773251208788679 -66.629435134279106 0 -66.629435134279106 50.111440113942535 0 0 0 0 -0.12799788158227154 0.44389791560671377 0 0.44389791560671377 0.90018734058728711 0 0 0 0 90.03667575509462 -48.000388293893593 0 -48.000388293893593 19.273287560968356 0 0 0 0 147.49270537437769 -184.9104593446591 0 -184.9104593446591 151.63881751265944 0 0 0 0 116.18251013479858 -11.756872402583895 0 -11.756872402583895 31.940418277258459 0 0 0 0 2.3156856400879651 1.1479487929899843 0 1.1479487929899843 1.5219800785500315 0 0 0 0 0.96137501154627891 0.86138066259179524 0 0.86138066259179524 0.4444095834157924 0 0 0 0 223.56576759216841 29.069111344926114 0 29.069111344926114 -133.18963400245138 0 0 0 0 8.8435988417804765 -18.442532115836684 0 -18.442532115836684 42.592644187567657 0 0 0 0 40.166284648346846 -7.1074977457392379 0 -7.1074977457392379 46.694310498741288 0 0 0 0 14.208738842120965 -28.716287642956502 0 -28.716287642956502 39.106209027015666 0 0 0 0 16.554652950810123 -34.133364477599798 0 -34.133364477599798 29.972389494397362 0 0 0 0 172.6294591804085 -30.239818230723188 0 -30.239818230723188 -24.775503758862442 0 0 0 0 155.9067914278221 -33.001497930734445 0 -33.001497930734445 -15.141363400675687 0 0 0 0 161.81087282807766 -30.368991833300242 0 -30.368991833300242 25.594660995377808 0 0 0 0 168.59904713007381 -42.703463376389664 0 -42.703463376389664 1.315786948183586 0 0 0 0 210.72272683427127 -35.310219373674045 0 -35.310219373674045 -20.886251764904273 0 0 0 0 190.39863539356884 29.230392038034665 0 29.230392038034665 24.281621848753957 0 0 0 0 96.704178553396559 12.918756475195778 0 12.918756475195778 33.633671495769249 0 0 0 0 158.43387876369525 1.5852335703910967 0 1.5852335703910967 1.7557438442479452 0 0 0 0 93.064369660576631 26.481112730000632 0 26.481112730000632 22.793565295586177 0 0 0 0 134.41715885348003 -5.109254465116237 0 -5.109254465116237 1.836273111276908 0 0 0 0 106.70637204197283 -13.381044735218211 0 -13.381044735218211 5.375141535197173 0 0 0 0 84.638658078340995 -24.08279141290086 0 -24.08279141290086 9.879810490285081 0 0 0 0 9.0164499799184341 10.648009162267954 0 10.648009162267954 26.019285767562138 0 0 0 0 81.772965986041527 13.168109538828162 0 13.168109538828162 24.06484923267783 0 0 0 0 52.387647864624341 -0.21872249746843409 0 -0.21872249746843409 5.8637778826920233 0 0 0 0 72.011266050590621 -37.774620974069421 0 -37.774620974069421 2.014236043748042 0 0 0 0 124.63944592002008 -45.946105580286286 0 -45.946105580286286 19.18355335687329 0 0 0 0 153.03267154908735 -4.9947874295008319 0 -4.9947874295008319 61.284308689815589 0 0 0 0 152.36697537493001 -20.570611545770191 0 -20.570611545770191 -2.5697864614663501 0 0 0 0 163.87006012102211 -40.215612793901528 0 -40.215612793901528 -22.724549479867278 0 0 0 0 178.53044266427514 -64.978895082718225 0 -64.978895082718225 15.915153890362944 0 0 0 0 221.71299233758214 -2.519279568737133 0 -2.519279568737133 -11.65199679810587 0 0 0 0 197.69233747164981 -12.657790217149795 0 -12.657790217149795 -14.566388015992409 0 0 0 0 137.09640666839368 -15.684737202096301 0 -15.684737202096301 11.696443516189291 0 0 0 0 186.28417671071134 -20.31750492981482 0 -20.31750492981482 -9.4387213609633704 0 0 0 0 188.31576402748533 -26.57701665835431 0 -26.57701665835431 -1.4402224032517097 0 0 0 0 119.93865534449651 -45.312309650871185 0 -45.312309650871185 21.197575877655296 0 0 0 0 238.0190012176281 -20.475641020482048 0 -20.475641020482048 -11.162665840264204 0 0 0 0 186.56346764681894 -0.57613093749520772 0 -0.57613093749520772 -11.781662990007476 0 0 0 0 70.290726886356254 -37.673628578158926 0 -37.673628578158926 16.503992415340917 0 0 0 0 1.2263872324259424 0.82622009102436245 0 0.82622009102436245 0.057993317314778636 0 0 0 0 109.24958970786611 -29.251508777048571 0 -29.251508777048571 10.946317131405067 0 0 0 0 99.116795528189868 -51.340354810764723 0 -51.340354810764723 7.5391273027951229 0 0 0 0 122.14582503234305 -44.63973490830125 0 -44.63973490830125 -2.3869330984219346 0 0 0 0 114.55878919060342 -22.26092289243384 0 -22.26092289243384 12.01463800807776 0 0 0 0 104.11498213640334 -14.03806663694502 0 -14.03806663694502 106.07870116880127 0 0 0 0 1.425426332210268 0.8808097622124933 0 0.8808097622124933 0.08908127131098964 0 0 0 0 60.75596897172818 -77.895828387928958 0 -77.895828387928958 38.623298532118156 0 0 0 0 2.4932577838308134 -8.6580710007674497 0 -8.6580710007674497 20.939285054044689 0 0 0 0 3.4148286576919418 -41.891063205007669 0 -41.891063205007669 78.477439945433105 0 0 0 0 48.664777424404747 -53.550124695759763 0 -53.550124695759763 21.060053324004066 0 0 0 0 26.413218971991228 -41.499034699849418 0 -41.499034699849418 52.952245699858956 0 0 0 0 35.235389785828374 -22.264650990663416 0 -22.264650990663416 10.711680276948243 0 0 0 0 17.37209615949655 -0.61113142009806154 0 -0.61113142009806154 -7.3349580029184835 0 0 0 0 16.226302032318017 -2.3358020636335652 0 -2.3358020636335652 -9.6560057667726369 0 0 0 0 22.871825128915589 -1.3762836208454985 0 -1.3762836208454985 -9.5554143806685943 0 0 0 0 25.502397225523964 9.134399071497171 0 9.134399071497171 -0.25708740307105415 0 0 0 0 66.333473777668587 -33.581188869423045 0 -33.581188869423045 22.280110682593829 0 0 0 0 -0.28509427069387705 0.0088302935899413626 0 0.0088302935899413626 0.93616521482060466 0 0 0 0 140.97369065000646 -69.814787048274482 0 -69.814787048274482 -33.804125849961373 0 0 0 0 145.6893854273967 12.289948607643595 0 12.289948607643595 -1.7545267282223449 0 0 0 0 59.414702708531877 -43.181808526291661 0 -43.181808526291661 8.9596233172366055 0 0 0 0 32.677224167593522 -41.892378593392863 0 -41.892378593392863 47.944217365444331 0 0 0 0 8.0939014006812613 -0.18875079493638225 0 -0.18875079493638225 10.191325738503792 0 0 0 0 17.929542237181522 13.734100713184034 0 13.734100713184034 1.5766461556654576 0 0 0 0 22.747731855111851 6.3464769039066766 0 6.3464769039066766 -7.4153542685796765 0 0 0 0 5.8227163623259042 1.883746095274724 0 1.883746095274724 -0.42189156643798686 0 0 0 0 10.945937581193448 -5.1117482419207221 0 -5.1117482419207221 4.5216402746117978 0 0 0 0 2.8359732051267201 9.4717220072245709 0 9.4717220072245709 7.5347920093598759 0 0 0 0 -2.0722103980951943 -3.7402733381536564 0 -3.7402733381536564 -27.57689780461169 0 0 0 0 0.51350036699516721 0.59149846898020808 0 0.59149846898020808 -0.84689907675312726 0 0 0 0 -2.6614551356651646 -3.2884707528492072 0 -3.2884707528492072 -9.0683567796340867 0 0 0 0 9.6226141018428955 2.9574935582299746 0 2.9574935582299746 -5.416226001175553 0 0 0 0 0.73759182192952721 3.5337558107352152 0 3.5337558107352152 -2.3054706316027023 0 0 0 0 1.011943655608035 4.0122675150751732 0 4.0122675150751732 -2.0402308268458391 0 0 0 0 6.7195988619492688 6.2265248132507924 0 6.2265248132507924 -5.5461528050477256 0 0 0 0 11.65065990590665 1.7993799949613276 0 1.7993799949613276 7.6000705899823515 0 0 0 0 3.1783306276170027 -0.096301869686723052 0 -0.096301869686723052 0.68892544139741108 0 0 0 0 12.324443961280849 -3.5053148392543108 0 -3.5053148392543108 -5.8784462298008293 0 0 0 0 191.84849637677638 -26.554696438894688 0 -26.554696438894688 30.464560373188426 0 0 0 0 189.42474105949159 6.355762747619579 0 6.355762747619579 33.066828925863803 0 0 0 0 0.98259465475117125 0.41329162860269975 0 0.41329162860269975 -0.11455681607006296 0 0 0 0 308.99018455042915 -87.661135547180891 0 -87.661135547180891 16.710692206254791 0 0 0 0 62.380040371907626 -61.435260622131892 0 -61.435260622131892 26.567513631828092 0 0 0 0 188.02609959366237 -77.2376734941206 0 -77.2376734941206 32.537868941546257 0 0 0 0 275.74986306945266 14.235264215779637 0 14.235264215779637 37.736774204329265 0 0 0 0 311.1217849740824 -64.276588322948328 0 -64.276588322948328 28.390576238840168 0 0 0 0 2.2572789203249251 0.48959715259131631 0 0.48959715259131631 0.26202843904515338 0 0 0 0 334.3965226065493 64.390971544474695 0 64.390971544474695 103.73953695710622 0 0 0 0 163.21074655396296 40.151693023090729 0 40.151693023090729 219.05539872263313 0 0 0 0 131.90414804150032 -48.742673297423153 0 -48.742673297423153 46.312647034070068 0 0 0 0 201.24246110717286 -0.11032518356188348 0 -0.11032518356188348 72.884564304000946 0 0 0 0 193.17543850299421 13.989193516425239 0 13.989193516425239 107.82442901884616 0 0 0 0 92.84434610272092 -58.094369440218344 0 -58.094369440218344 106.93315393608674 0 0 0 0 116.42928433888801 -28.730132479164453 0 -28.730132479164453 14.073113095192525 0 0 0 0 106.99481904389995 -39.719923061592063 0 -39.719923061592063 88.445794329000421 0 0 0 0 132.40339128915002 -16.237535537491226 0 -16.237535537491226 -27.5632004014941 0 0 0 0 133.2255615211634 -34.532449703511588 0 -34.532449703511588 7.7302267432914391 0 0 0 0 57.754270915947473 -32.93053949639912 0 -32.93053949639912 48.390492264613925 0 0 0 0 -9.6318836256879194 -5.7120703654919325 0 -5.7120703654919325 4.4843348504430764 0 0 0 0 -0.14060569712858517 -0.48470504137853787 0 -0.48470504137853787 1.2835934937228983 0 0 0 0 26.632591122634039 0.28989614683122511 0 0.28989614683122511 -10.492974853582211 0 0 0 0 24.719785356745888 -13.308923954499818 0 -13.308923954499818 -26.533525759975078 0 0 0 0 53.169857142667297 30.783944081435678 0 30.783944081435678 -1.3041936316725469 0 0 0 0 8.8545792279755915 2.9766392843181393 0 2.9766392843181393 4.4228163868244081 0 0 0 0 37.793256682683705 -1.7462064719605479 0 -1.7462064719605479 -13.797962497642573 0 0 0 0 1.9432494992970533 -5.8560058927756131 0 -5.8560058927756131 3.1021199561680248 0 0 0 0 1.4434325299064792 0.0076642051302537872 0 0.0076642051302537872 -0.20927442802485019 0 0 0 0 81.589890325416945 -80.199344597633285 0 -80.199344597633285 69.567378778391571 0 0 0 0 16.167143568654751 20.300421680598831 0 20.300421680598831 13.330374923473642 0 0 0 0 28.629482800684855 -38.102016454151908 0 -38.102016454151908 45.653254870555998 0 0 0 0 38.237526305074425 -29.265252242130032 0 -29.265252242130032 7.0688949770612908 0 0 0 0 34.212275815998964 -35.788941906134312 0 -35.788941906134312 11.921239138725696 0 0 0 0 3.6247684262355211 0.49846506936264046 0 0.49846506936264046 0.027196222795697667 0 0 0 0 188.03811401195287 -69.434846068180264 0 -69.434846068180264 18.960968396612543 0 0 0 0 90.299137731657538 -53.195516322984929 0 -53.195516322984929 19.334182387783216 0 0 0 0 20.957236220061986 3.4053260466525366 0 3.4053260466525366 25.981975917839236 0 0 0 0 5.5176678765578799 -2.6041747427022415 0 -2.6041747427022415 -4.1620417649058936 0 0 0 0 0.60965252109887835 -0.47425858800663878 0 -0.47425858800663878 0.87940510349873025 0 0 0 0 20.833975450215803 9.173773757308652 0 9.173773757308652 5.2055449283432296 0 0 0 0 33.726086980347191 -33.101274617297122 0 -33.101274617297122 40.635394544027804 0 0 0 0 41.431945406606246 -29.134860246998528 0 -29.134860246998528 10.693081889329065 0 0 0 0 55.635990969914474 -4.3948000167420673 0 -4.3948000167420673 -13.313693739848759 0 0 0 0 56.04707510259118 -15.898763819892039 0 -15.898763819892039 -7.3179736374253253 0 0 0 0 72.350141981887646 -14.247920896988262 0 -14.247920896988262 -19.544151975360251 0 0 0 0 84.145905107531007 -25.639115445402211 0 -25.639115445402211 -12.554688030735406 0 0 0 0 71.143006831319099 -16.419905696556299 0 -16.419905696556299 -13.052845965657411 0 0 0 0 106.09190137690985 -23.01021655013659 0 -23.01021655013659 -18.305019645513426 0 0 0 0 89.151376748699477 5.5790000784943601 0 5.5790000784943601 10.986601500221582 0 0 0 0 85.67531675159853 -19.212305009647821 0 -19.212305009647821 -14.947470706725142 0 0 0 0 207.13742021398957 16.643298115789378 0 16.643298115789378 -16.794735907592951 0 0 0 0 156.40253324230707 -57.570960784515535 0 -57.570960784515535 2.2991735338709987 0 0 0 0 76.258351212334674 -29.326993504570851 0 -29.326993504570851 9.6665012724579356 0 0 0 0 119.42319247866135 -11.926532378731054 0 -11.926532378731054 -4.275906169175073 0 0 0 0 77.200990576856384 15.649567093404926 0 15.649567093404926 -24.423217627993182 0 0 0 0 68.116753919079883 -24.899183008491349 0 -24.899183008491349 -31.1296449642781 0 0 0 0 0.17112324179490201 -0.21734978895725554 0 -0.21734978895725554 0.71054565753220311 0 0 0 0 -45.675356100722411 -47.534046680898456 0 -47.534046680898456 64.938353747042413 0 0 0 0 -22.054959497955224 -27.661987361979733 0 -27.661987361979733 -3.1240692395386915 0 0 0 0 0.51222280890565841 -1.0267385522133092 0 -1.0267385522133092 1.5426677452748092 0 0 0 0 105.21499710496198 -19.575010922914046 0 -19.575010922914046 14.917902778813641 0 0 0 0 45.223993254403467 -4.2634822951293927 0 -4.2634822951293927 12.995679290502864 0 0 0 0 78.129654971683976 -16.204652316320789 0 -16.204652316320789 -2.7950764448792143 0 0 0 0 61.043447587710034 -2.0859755154974664 0 -2.0859755154974664 57.19688874138933 0 0 0 0 94.475770915402791 -55.71494453215513 0 -55.71494453215513 38.817151271190141 0 0 0 0 38.011348276093941 29.1855571198154 0 29.1855571198154 40.944439589769104 0 0 0 0 24.358362545606269 -9.1014785035703198 0 -9.1014785035703198 -31.784377429159946 0 0 0 0 73.170819266531907 -20.405144299394124 0 -20.405144299394124 -19.631608542750655 0 0 0 0 27.048094471931108 2.829876015283503 0 2.829876015283503 -12.327810962067815 0 0 0 0 10.961906128441797 55.000271633844591 0 55.000271633844591 -17.983746038950216 0 0 0 0 22.251723277977618 11.855447839998874 0 11.855447839998874 -11.955133207948521 0 0 0 0 88.976503148391657 10.993912418138734 0 10.993912418138734 -23.023690973484236 0 0 0 0 33.27859030001548 4.5311348050171603 0 4.5311348050171603 -28.296608606274276 0 0 0 0 39.412444402204983 19.83331888428404 0 19.83331888428404 -31.465577704989187 0 0 0 0 24.534382996310036 10.685351971240237 0 10.685351971240237 -11.672341278431936 0 0 0 0 22.840734916043743 50.369432830593531 0 50.369432830593531 10.616864102209547 0 0 0 0 40.853108824306901 6.0228220318016383 0 6.0228220318016383 -40.625073813273048 0 0 0 0 38.967571911888626 10.16944820133665 0 10.16944820133665 -25.890835329943684 0 0 0 0 38.72244121919357 5.7978626217422971 0 5.7978626217422971 -37.390409054852398 0 0 0 0 43.084015154550798 20.114141891072109 0 20.114141891072109 -3.6731692753677407 0 0 0 0 65.124709562182261 1.3647138339873095 0 1.3647138339873095 -24.86608180454482 0 0 0 0 70.50360874061812 -36.602465575475776 0 -36.602465575475776 -1.5061937091625168 0 0 0 0 2.1549657716911952 -15.400388984900843 0 -15.400388984900843 -22.065045864822423 0 0 0 0 23.209993232551824 -22.911624817191068 0 -22.911624817191068 -19.468418877752811 0 0 0 0 45.055140784614196 -5.8723026292018403 0 -5.8723026292018403 -34.779204628480329 0 0 0 0 41.322795038491677 15.098902136204515 0 15.098902136204515 -43.703482967532182 0 0 0 0 26.433692423353932 -0.40958959495856107 0 -0.40958959495856107 -40.505132053958505 0 0 0 0 21.616779070462144 -21.338005786502436 0 -21.338005786502436 -98.010323646896722 0 0 0 0 6.329073777404119 13.830064245090398 0 13.830064245090398 -44.28967443698275 0 0 0 0 2.0409362321648361 0.20597083851265463 0 0.20597083851265463 -0.21134877236230309 0 0 0 0 32.272306598819341 -7.0060746322526342 0 -7.0060746322526342 -2.2912753170922713 0 0 0 0 5.9214471770087673 5.7998301706750555 0 5.7998301706750555 -4.054348181651628 0 0 0 0 -1.0550816160321119 6.0435861634128969 0 6.0435861634128969 -10.169828618446786 0 0 0 0 -0.90219378209716083 0.3226285351819147 0 0.3226285351819147 0.10221287580417648 0 0 0 0 9.5436145112576014 3.4278789203455062 0 3.4278789203455062 0.21576595452916081 0 0 0 0 11.485396639877347 6.9350239445723378 0 6.9350239445723378 -2.6712941113742268 0 0 0 0 11.899080982986561 8.5786841192438033 0 8.5786841192438033 -9.3652716182486984 0 0 0 0 14.353980952244456 11.465233370436067 0 11.465233370436067 -11.620171884988849 0 0 0 0 10.302886932023824 5.7734273905783571 0 5.7734273905783571 -1.8512557829425016 0 0 0 0 12.326805671822513 9.0375394589100324 0 9.0375394589100324 -7.4463148645154433 0 0 0 0 -0.91196228310735705 2.7028641659738817 0 2.7028641659738817 0.80110587356653462 0 0 0 0 32.573600551031149 -1.2649901367814742 0 -1.2649901367814742 -18.875532108318232 0 0 0 0 15.662496208093216 8.4382013269755589 0 8.4382013269755589 -8.4222381871641119 0 0 0 0 13.655609257793982 -1.8233542092531376 0 -1.8233542092531376 -5.5030271983988541 0 0 0 0 -15.676450769033181 12.460656977495319 0 12.460656977495319 -8.1367222570619333 0 0 0 0 12.942422050644929 3.5563159317301931 0 3.5563159317301931 -5.5108033209547402 0 0 0 0 2.6098137586170935 1.5307376665443764 0 1.5307376665443764 -2.0360038190028691 0 0 0 0 36.734424440444855 4.0357609533526215 0 4.0357609533526215 -16.413321707693306 0 0 0 0 33.189627608280716 -10.045633743366139 0 -10.045633743366139 22.06277043757359 0 0 0 0 36.15084264674806 -0.12492437868922934 0 -0.12492437868922934 -10.25803762886062 0 0 0 0 22.978892502414894 -0.16580675009832602 0 -0.16580675009832602 -3.500481867514825 0 0 0 0 33.629929085884669 9.7037282408860008 0 9.7037282408860008 -11.071195260620698 0 0 0 0 2.0113452426169189 3.0711437102208192 0 3.0711437102208192 -2.3571063119139932 0 0 0 0 59.361059960812781 54.285576696584485 0 54.285576696584485 7.6715089865546133 0 0 0 0 80.391797916732685 -23.69163801486286 0 -23.69163801486286 -13.471928300750278 0 0 0 0 -14.816796531022419 1.8857660271505878 0 1.8857660271505878 14.775671297472172 0 0 0 0 171.08360198235459 -28.734361980942367 0 -28.734361980942367 -25.784135318866902 0 0 0 0 49.564987188485247 19.078637275161554 0 19.078637275161554 -8.4064889806777501 0 0 0 0 1.5415067226019872 -0.67218322827662824 0 -0.67218322827662824 -0.53266663091670396 0 0 0 0 73.303994529531337 -154.33942764835342 0 -154.33942764835342 45.276029005596001 0 0 0 0 73.034645884352358 -31.544399430578601 0 -31.544399430578601 0.19431815810288455 0 0 0 0 200.16180291067212 31.59306435525798 0 31.59306435525798 -65.227333844281475 0 0 0 0 20.041854730472551 -101.38722748122194 0 -101.38722748122194 -114.77799594105707 0 0 0 0 21.643245233286507 -0.77357395090735181 0 -0.77357395090735181 -10.976249158608237 0 0 0 0 88.699679319479401 -8.5911210312949606 0 -8.5911210312949606 -10.722037868633208 0 0 0 0 78.016044718975536 -8.3038647956055911 0 -8.3038647956055911 108.51347476151659 0 0 0 0 58.559614547422825 47.389656184539206 0 47.389656184539206 38.51350445635012 0 0 0 0 131.76139765897096 16.313260809104918 0 16.313260809104918 -11.027500529498525 0 0 0 0 108.06604209643592 -55.459062318483234 0 -55.459062318483234 0.68627476677374943 0 0 0 0 202.23842705354127 32.006142787199451 0 32.006142787199451 -105.86179033485314 0 0 0 0 156.64031605631112 -98.515617956564199 0 -98.515617956564199 -6.6893539598254392 0 0 0 0 55.862561183024809 -147.73749162762874 0 -147.73749162762874 203.71197067204912 0 0 0 0 -0.055128119919473306 0.096780511920279366 0 0.096780511920279366 2.6760021804357921 0 0 0 0 46.097952516142868 -3.9698665152187687 0 -3.9698665152187687 -10.666180962478506 0 0 0 0 195.02151957186186 10.4411157852158 0 10.4411157852158 -21.964386288847436 0 0 0 0 10.776797686928148 12.844290365971688 0 12.844290365971688 26.133982756059652 0 0 0 0 1.7119146144924535 -0.026675409090047175 0 -0.026675409090047175 0.083131936752249391 0 0 0 0 -9.6922208054124894 46.251160993885179 0 46.251160993885179 -22.305041146104031 0 0 0 0 48.430249978577194 -22.421950542641298 0 -22.421950542641298 -3.2400508519936011 0 0 0 0 0.90025309879223414 0.39914913670084573 0 0.39914913670084573 1.8728994730537387 0 0 0 0 28.134525703245345 -51.343322135550352 0 -51.343322135550352 10.370395589191503 0 0 0 0 59.326566779475797 -63.899505304881131 0 -63.899505304881131 7.2308913086053508 0 0 0 0 63.657733113197537 -41.609246381191269 0 -41.609246381191269 -38.404312900885998 0 0 0 0 20.770720892956888 -14.895939173932447 0 -14.895939173932447 -10.64597799506214 0 0 0 0 42.143965665750784 -44.497629779903036 0 -44.497629779903036 0.29872957779798526 0 0 0 0 5.4990035906378303 -0.65918744556809772 0 -0.65918744556809772 0.58523137209609022 0 0 0 0 9.5870993361841101 0.51635009757399075 0 0.51635009757399075 -60.874135110528641 0 0 0 0 25.181918633657006 -16.183639163084308 0 -16.183639163084308 -61.495777810731397 0 0 0 0 4.296510194442817 -3.965960973950132 0 -3.965960973950132 -22.573270848696438 0 0 0 0 42.90800842374847 -83.416978290927773 0 -83.416978290927773 63.551594215466366 0 0 0 0 77.189309348240386 49.930830273382298 0 49.930830273382298 45.14537152484661 0 0 0 0 1.8241176193716626 -0.69790155017976074 0 -0.69790155017976074 0.20368257857623728 0 0 0 0 1.1990860186642749 -42.962489612346872 0 -42.962489612346872 25.934617030262416 0 0 0 0 9.7940400358138504 15.521743240826254 0 15.521743240826254 29.79823100648423 0 0 0 0 63.601868079947963 6.9732020883559471 0 6.9732020883559471 -2.1315161832462763 0 0 0 0 8.4658625222218689 12.92405579779961 0 12.92405579779961 -3.2323715968501574 0 0 0 0 6.1561729635104712 8.0996053389292229 0 8.0996053389292229 10.26572170120528 0 0 0 0 8.2247882112906154 8.3046443796549738 0 8.3046443796549738 6.4863633028148797 0 0 0 0 7.5164144903158103 10.947589008314424 0 10.947589008314424 9.6345971228320195 0 0 0 0 9.4930977017456826 14.439744053847789 0 14.439744053847789 -2.1785743357270348 0 0 0 0 13.263843673881638 25.657354765457058 0 25.657354765457058 3.0049080146345659 0 0 0 0 10.813450666717472 10.784105689405123 0 10.784105689405123 -17.215690351877129 0 0 0 0 -0.31623200090598402 2.5937228466711986 0 2.5937228466711986 1.2608728809927925 0 0 0 0 18.95328364275656 11.792176991989379 0 11.792176991989379 -11.504368807908577 0 0 0 0 -18.396808739178596 23.123180577995299 0 23.123180577995299 -11.509902798540228 0 0 0 0 -37.216242364935169 -17.735550312957457 0 -17.735550312957457 -9.6644498954356095 0 0 0 0 37.165157858953535 -2.2291043197565159 0 -2.2291043197565159 -9.112797508561016 0 0 0 0 37.999514602895943 -46.607216856037212 0 -46.607216856037212 -9.6116749920837492 0 0 0 0 47.874196006907368 -3.4351844435855128 0 -3.4351844435855128 -20.613675292300854 0 0 0 0 53.63661800340742 -33.792424236529314 0 -33.792424236529314 -0.44601568603502528 0 0 0 0 87.472969493101118 -47.952325864539944 0 -47.952325864539944 -1.1413188930823708 0 0 0 0 45.90731587598566 -14.559084393071316 0 -14.559084393071316 32.019228052769904 0 0 0 0 94.062616012166473 -45.893120030948467 0 -45.893120030948467 -9.6268000164548084 0 0 0 0 115.19928611535397 -28.614871743342178 0 -28.614871743342178 -29.641822592163408 0 0 0 0 -28.509795456801385 -22.834688827747641 0 -22.834688827747641 92.686076808219241 0 0 0 0 52.970068452957094 -18.094660325603286 0 -18.094660325603286 -8.0457344085407385 0 0 0 0 100.90149930278733 -20.484709940195273 0 -20.484709940195273 -32.687941708472863 0 0 0 0 98.711739382020824 -0.4267612936698697 0 -0.4267612936698697 -5.907517908182399 0 0 0 0 153.58815780816349 -2.8235399211253025 0 -2.8235399211253025 -14.662821523075763 0 0 0 0 150.60235673624936 -15.156492550865778 0 -15.156492550865778 -35.473289073715932 0 0 0 0 33.691554971728692 1.8258676332429786 0 1.8258676332429786 -4.1490943639796569 0 0 0 0 -62.465184309953656 -37.248468548913479 0 -37.248468548913479 77.08941332868244 0 0 0 0 0.086335882390478513 0.10106465941153431 0 0.10106465941153431 1.0894513021775971 0 0 0 0 141.0481394122321 -77.124779216734396 0 -77.124779216734396 -7.8753681319958559 0 0 0 0 83.886496472838758 -93.911760296475848 0 -93.911760296475848 75.709072095578449 0 0 0 0 27.708177846742728 -107.85433494459767 0 -107.85433494459767 85.058260475704174 0 0 0 0 2.6394812645577304 0.4138534921821293 0 0.4138534921821293 0.21138453095171683 0 0 0 0 37.837053863252549 77.700609924450191 0 77.700609924450191 171.9315051518829 0 0 0 0 -20.726039533426501 -90.840568881212391 0 -90.840568881212391 81.92200028919342 0 0 0 0 3.1437395160828601 -43.007804030878106 0 -43.007804030878106 162.80335279814062 0 0 0 0 -81.39041920630325 109.01905556050372 0 109.01905556050372 177.52662932237763 0 0 0 0 69.819000399752213 24.258502008402473 0 24.258502008402473 72.651275259138856 0 0 0 0 75.415243360835234 84.386026743906669 0 84.386026743906669 60.445896064328736 0 0 0 0 -61.769564619136872 15.853651039696615 0 15.853651039696615 26.341824434286082 0 0 0 0 30.909424960502292 36.074548223988813 0 36.074548223988813 -66.291673009732904 0 0 0 0 -1.0375791478856549 4.4410751053792312 0 4.4410751053792312 0.48578846156663436 0 0 0 0 -23.595347704196683 95.83796844189294 0 95.83796844189294 35.493047833062519 0 0 0 0 61.714904451051552 32.01676321002742 0 32.01676321002742 -61.037331262017688 0 0 0 0 -10.535397075545916 3.8338811839194022 0 3.8338811839194022 -0.92728054298629559 0 0 0 0 0.156972420335034 0.43704439407088014 0 0.43704439407088014 0.4687599781385865 0 0 0 0 6.5179324806524903 0.91571521847646586 0 0.91571521847646586 0.19153294834477363 0 0 0 0 35.203901458403379 5.3693006870264526 0 5.3693006870264526 -10.067421271432977 0 0 0 0 3.7046353618306966 -21.76355837809183 0 -21.76355837809183 0.37513133707625457 0 0 0 0 9.2696712221186317 -18.997090376486995 0 -18.997090376486995 35.852230039561896 0 0 0 0 -50.212706775173501 16.099281796115292 0 16.099281796115292 119.07015755464181 0 0 0 0 34.900477854724159 91.694100172544495 0 91.694100172544495 -14.172469453011217 0 0 0 0 49.166636217183395 -16.164755761312733 0 -16.164755761312733 23.045123527343094 0 0 0 0 52.354097193911002 -12.459194683408896 0 -12.459194683408896 13.573664371101586 0 0 0 0 48.036612381652958 -6.4296550638509871 0 -6.4296550638509871 21.554028395255955 0 0 0 0 32.932680526604599 -31.347164525373046 0 -31.347164525373046 -58.328288685626831 0 0 0 0 0.74438503793604838 1.6302638330127026 0 1.6302638330127026 -0.40396812747348942 0 0 0 0 7.852019773097517 3.7280145274830923 0 3.7280145274830923 -0.070196670399421457 0 0 0 0 13.896185806309404 24.294248277979023 0 24.294248277979023 -32.203389547060397 0 0 0 0 17.494270360345581 8.0290965337333091 0 8.0290965337333091 -24.46387076353767 0 0 0 0 -5.2425209320081194 10.739568293964112 0 10.739568293964112 12.681767562983964 0 0 0 0 3.0307872566863807 15.048033542371059 0 15.048033542371059 -9.8308435648450541 0 0 0 0 6.4732161501815426 26.496400795569116 0 26.496400795569116 7.9870588224813446 0 0 0 0 9.0047700764333811 10.948221333615336 0 10.948221333615336 -0.81220521130866219 0 0 0 0 19.205019397515571 12.897881174215399 0 12.897881174215399 -17.525640113608006 0 0 0 0 28.136016155662219 7.7663011287841073 0 7.7663011287841073 -14.959272504816909 0 0 0 0 16.164030419378832 5.3320378441458161 0 5.3320378441458161 -5.5469830325064322 0 0 0 0 17.522827252435413 6.2220092160384652 0 6.2220092160384652 -2.5538841073053646 0 0 0 0 -3.9228691786993295 6.935922720193048 0 6.935922720193048 7.5767902086563481 0 0 0 0 18.151860617810598 27.097460459342301 0 27.097460459342301 -7.7616192324130679 0 0 0 0 37.949019274426973 27.459979754264623 0 27.459979754264623 -10.96402882997063 0 0 0 0 45.95990794309364 -5.2706720917095709 0 -5.2706720917095709 -3.9788727741461116 0 0 0 0 9.2984110061242973 18.700689624083452 0 18.700689624083452 -2.6783746140044968 0 0 0 0 14.913286795937893 8.8316072266489982 0 8.8316072266489982 -4.7646843671768693 0 0 0 0 19.508262200723948 25.897344091576656 0 25.897344091576656 5.4392865685667857 0 0 0 0 46.033463499858044 2.7208453537818968 0 2.7208453537818968 10.189654584744858 0 0 0 0 12.601834510846395 6.8214968306736843 0 6.8214968306736843 -0.11824094587791922 0 0 0 0 43.069282051803384 4.6164850963796198 0 4.6164850963796198 -6.3199767524065464 0 0 0 0 7.3537915470186448 -0.55734096173499381 0 -0.55734096173499381 -0.4702094015021121 0 0 0 0 14.840393836559088 1.6256396369126378 0 1.6256396369126378 -2.3514594014154682 0 0 0 0 43.427412639342947 0.09963414320100128 0 0.09963414320100128 -2.5755307798253853 0 0 0 0 38.478044443560584 3.7363227823745149 0 3.7363227823745149 -7.5054090632647803 0 0 0 0 -60.219138862819818 -72.433996253407713 0 -72.433996253407713 -47.16534067016471 0 0 0 0 10.982434863519181 10.708670338563991 0 10.708670338563991 1.1593860765287307 0 0 0 0 -0.70729584338914719 1.614071306612459 0 1.614071306612459 -9.1655561812131054 0 0 0 0 -5.7770246099698852 22.019310593787168 0 22.019310593787168 3.9288322388338202 0 0 0 0 -14.945948942178802 28.581743150233706 0 28.581743150233706 -2.7456253184215029 0 0 0 0 13.82765216382392 8.6777842408551837 0 8.6777842408551837 -0.50599312073918057 0 0 0 0 -37.979869305901957 95.195486900818196 0 95.195486900818196 107.04575739532584 0 0 0 0 23.045157278606901 13.843518205127264 0 13.843518205127264 0.96689614892971676 0 0 0 0 193.27553360797174 228.36846523798431 0 228.36846523798431 100.67006641812804 0 0 0 0 15.862664364311613 10.555745736671106 0 10.555745736671106 0.93514712650170395 0 0 0 0 37.556307812857995 -5.3915128947052153 0 -5.3915128947052153 -11.791545062937985 0 0 0 0 9.5735899362168979 1.3412131185744798 0 1.3412131185744798 3.0268691931610263 0 0 0 0 60.353923102613408 6.0921825534228446 0 6.0921825534228446 13.748942384980182 0 0 0 0 17.487715088329423 -9.5988256882910719 0 -9.5988256882910719 -4.7392233826794836 0 0 0 0 3.3147975928574027 3.5231045919396458 0 3.5231045919396458 1.9552820626645389 0 0 0 0 13.733521500922507 15.860832777502537 0 15.860832777502537 -13.40828899722834 0 0 0 0 14.228542863071198 43.879204770693832 0 43.879204770693832 -63.994837646169344 0 0 0 0 1.6218120316810101 0.61540715549494251 0 0.61540715549494251 -2.3270546115354787 0 0 0 0 88.643574392623123 -52.650084292101383 0 -52.650084292101383 -40.301546638689388 0 0 0 0 37.205398140660691 31.316965584968557 0 31.316965584968557 74.18223184173803 0 0 0 0 2.357587923540386 2.9050028129852805 0 2.9050028129852805 3.4645290715613921 0 0 0 0 19.971569209714737 13.725760556158127 0 13.725760556158127 0.60104583267180534 0 0 0 0 16.527390175956647 12.760540357392006 0 12.760540357392006 2.1207157507065606 0 0 0 0 -47.519904724540538 112.2859669320701 0 112.2859669320701 47.121862717771819 0 0 0 0 25.285096443047223 54.65134368545182 0 54.65134368545182 21.332865688632978 0 0 0 0 21.811690366354014 45.150762806007208 0 45.150762806007208 -20.524022708767461 0 0 0 0 45.700781146978443 14.129594000823431 0 14.129594000823431 -18.608052729428891 0 0 0 0 -32.258893277568859 17.519240828205511 0 17.519240828205511 -64.90278415056423 0 0 0 0 79.902374961978239 38.42377364451599 0 38.42377364451599 -31.458632110899089 0 0 0 0 66.482340489386843 97.28879623387229 0 97.28879623387229 -10.289433708500383 0 0 0 0 10.853625020623895 41.300072911741609 0 41.300072911741609 -20.431982002942277 0 0 0 0 -126.02413878505467 -45.96909484569278 0 -45.96909484569278 -134.99811700664031 0 0 0 0 186.06364333125566 -120.78451268826382 0 -120.78451268826382 -97.207756288089513 0 0 0 0 -16.62179257020216 40.562043849661904 0 40.562043849661904 34.563460251324457 0 0 0 0 0.61271733493586567 0.75316585332295105 0 0.75316585332295105 1.1102836191288397 0 0 0 0 76.4304653236386 18.583669535920819 0 18.583669535920819 -23.33260381973173 0 0 0 0 51.350246225914596 2.4786171477922831 0 2.4786171477922831 -3.853739017784406 0 0 0 0 62.104090611639549 0.25813223395425666 0 0.25813223395425666 -14.472346364441563 0 0 0 0 40.462090723740403 0.46877539518405342 0 0.46877539518405342 -1.1050559372341886 0 0 0 0 35.161957937802072 -12.548879440703923 0 -12.548879440703923 -28.971362687854871 0 0 0 0 45.623885962584609 12.634179012686833 0 12.634179012686833 -32.992295177070119 0 0 0 0 44.955400084407302 11.427304142181793 0 11.427304142181793 0.4345078679002139 0 0 0 0 11.099610573367766 3.2195175258514439 0 3.2195175258514439 -2.1045255974085806 0 0 0 0 48.077031606622768 1.9574491998012036 0 1.9574491998012036 4.3423316345385956 0 0 0 0 174.88262752189621 21.566946626418058 0 21.566946626418058 -12.048993547701201 0 0 0 0 -0.8603386356503151 1.1839080979059737 0 1.1839080979059737 0.55626090623540925 0 0 0 0 80.869104382749356 23.565209246079348 0 23.565209246079348 11.429609650406178 0 0 0 0 69.935014627215423 -22.94397509208034 0 -22.94397509208034 4.2942194918602468 0 0 0 0 61.750172084462974 -2.5450939976635141 0 -2.5450939976635141 -33.146320286186665 0 0 0 0 70.932553658050892 18.130844110551152 0 18.130844110551152 -7.9602535423660328 0 0 0 0 47.750146033936147 3.1156224395293695 0 3.1156224395293695 -1.0857048555567674 0 0 0 0 29.009831347210223 2.2616797881536446 0 2.2616797881536446 -0.61722648543410874 0 0 0 0 140.71011102831108 163.84011640562642 0 163.84011640562642 -134.07566387645147 0 0 0 0 39.152155593841599 -5.4421370003446299 0 -5.4421370003446299 -1.6771730333335313 0 0 0 0 14.538422450152979 -2.4488011717261671 0 -2.4488011717261671 -3.9671293344512257 0 0 0 0 37.31884395504494 -11.192399618502222 0 -11.192399618502222 3.7665283224768586 0 0 0 0 37.110125657351091 4.7693993770717498 0 4.7693993770717498 -2.1248540009823955 0 0 0 0 15.274058910700909 6.4992937302020124 0 6.4992937302020124 -2.492235727153548 0 0 0 0 32.569105572445551 4.1991976122938013 0 4.1991976122938013 3.4733248483993293 0 0 0 0 15.253898194088833 7.3180656014787928 0 7.3180656014787928 -9.8489799481931186 0 0 0 0 15.539280836950638 8.0304542571859656 0 8.0304542571859656 -8.4707872625181153 0 0 0 0 10.911830272139923 5.1740552934597872 0 5.1740552934597872 -10.192041060175825 0 0 0 0 25.590340503251355 7.0188695990333372 0 7.0188695990333372 -4.4877213253630543 0 0 0 0 25.131215311481355 6.643999215441454 0 6.643999215441454 0.65908962229377721 0 0 0 0 24.254516176413176 7.0042328433692962 0 7.0042328433692962 0.64057669447523691 0 0 0 0 -12.821012536274793 17.000582471654525 0 17.000582471654525 17.791011817227286 0 0 0 0 -14.394651434813568 13.3187650836594 0 13.3187650836594 9.5276759911548652 0 0 0 0 1.0484313649452872 1.0666405559262913 0 1.0666405559262913 1.2448168517679017 0 0 0 0 68.767557998486154 -52.20022926712636 0 -52.20022926712636 -17.933845044806731 0 0 0 0 8.8891338573375833 32.58693441713126 0 32.58693441713126 -62.40635505502587 0 0 0 0 47.907059367378679 -8.771100697507336 0 -8.771100697507336 -18.741504325353162 0 0 0 0 70.204595827533922 -6.5585907560971464 0 -6.5585907560971464 -92.631356445971733 0 0 0 0 78.895439631043701 6.9142008416793033 0 6.9142008416793033 -86.76702100897387 0 0 0 0 30.945569604798948 -1.7173296873618256 0 -1.7173296873618256 -47.98366254226039 0 0 0 0 97.764742949129868 -8.0729970342941897 0 -8.0729970342941897 -50.389041115303371 0 0 0 0 9.073628631071827 2.4035816746112459 0 2.4035816746112459 -1.6365976687594301 0 0 0 0 -21.359771654633732 -7.3229134685674353 0 -7.3229134685674353 192.41206733811214 0 0 0 0 57.308388362171172 0.40207978471721617 0 0.40207978471721617 0.90920958089100168 0 0 0 0 60.706183774142119 11.923124121986802 0 11.923124121986802 11.314144628438726 0 0 0 0 -0.72045530621511489 -0.056140050457507584 0 -0.056140050457507584 -0.64629954502853337 0 0 0 0 -23.969077299097989 -47.380503061046056 0 -47.380503061046056 -73.840564176878161 0 0 0 0 112.94191348792083 39.147217037299015 0 39.147217037299015 -17.401537991335317 0 0 0 0 86.253230354828702 0.94396456916797433 0 0.94396456916797433 -69.541987715637788 0 0 0 0 54.093452693599829 5.7877511238577881 0 5.7877511238577881 -8.1395629845358144 0 0 0 0 19.819126965083967 -6.7301793891140562 0 -6.7301793891140562 -11.367798918371335 0 0 0 0 60.464451436602758 0.93100795727252716 0 0.93100795727252716 -5.9627097685411172 0 0 0 0 61.649280650926812 5.6608241270819235 0 5.6608241270819235 -9.501677208865658 0 0 0 0 66.930784115385904 -91.515039497059433 0 -91.515039497059433 -11.231997040160195 0 0 0 0 61.654884766514442 -61.64993155169509 0 -61.64993155169509 -85.175368876508628 0 0 0 0 48.874194286217062 -49.831519840950364 0 -49.831519840950364 -36.286187169324876 0 0 0 0 46.543219643593147 -18.909097832205759 0 -18.909097832205759 -63.124359380383794 0 0 0 0 103.00342380221991 -44.871446265188524 0 -44.871446265188524 -62.370122721118776 0 0 0 0 119.35620068433127 -60.837272439082085 0 -60.837272439082085 -48.146513150749797 0 0 0 0 207.01371827780531 27.512238414874901 0 27.512238414874901 -98.993808943411523 0 0 0 0 112.69794621543406 -18.917991996090677 0 -18.917991996090677 -119.85090896694328 0 0 0 0 49.03777035841631 -37.715850841958854 0 -37.715850841958854 -120.49963348374013 0 0 0 0 87.623109632200794 24.358708681223447 0 24.358708681223447 -100.84725244154379 0 0 0 0 15.226172222020978 61.675947643880136 0 61.675947643880136 -88.062518630481463 0 0 0 0 69.829549739602953 19.226352822056469 0 19.226352822056469 -101.62532762927049 0 0 0 0 73.296388923568884 29.950391744822923 0 29.950391744822923 -73.290803992968904 0 0 0 0 95.306161325599533 18.181113471258868 0 18.181113471258868 -96.397488657025406 0 0 0 0 103.07142581531298 60.777635570341999 0 60.777635570341999 -63.694403178887569 0 0 0 0 90.464768108275166 45.052902758501432 0 45.052902758501432 -80.471401407952271 0 0 0 0 106.53338624512526 68.665856127626 0 68.665856127626 -105.71255047000614 0 0 0 0 167.69008112340452 25.049574568817206 0 25.049574568817206 -61.393139808658816 0 0 0 0 228.55272518946003 81.820066645742372 0 81.820066645742372 -8.6867595151438763 0 0 0 0 92.949676429634565 78.117916758018282 0 78.117916758018282 -13.798829908404514 0 0 0 0 152.23243621027905 17.658437175159065 0 17.658437175159065 32.879046653677051 0 0 0 0 170.49737504758741 36.878156706380651 0 36.878156706380651 -18.731094380903414 0 0 0 0 533.31697572016128 198.37718919248755 0 198.37718919248755 116.37432958834711 0 0 0 0 387.12508313088983 -273.33753766716444 0 -273.33753766716444 111.86511996440549 0 0 0 0 315.91118483473019 -102.4967617841848 0 -102.4967617841848 -42.530939880952246 0 0 0 0 65.374304885532183 -134.70423957770254 0 -134.70423957770254 52.285237801546828 0 0 0 0 64.591642714221223 -107.07780313261429 0 -107.07780313261429 61.393844942863325 0 0 0 0 -43.222216510625003 63.258047768297956 0 63.258047768297956 -25.169576874805671 0 0 0 0 -69.826055223482399 23.301983819906809 0 23.301983819906809 212.10605553760024 0 0 0 0 9.6586327752520447 -62.779267321589487 0 -62.779267321589487 27.187298690615989 0 0 0 0 105.98405759862021 57.256296520618548 0 57.256296520618548 -73.250067928717726 0 0 0 0 130.20239732001573 223.46748781949589 0 223.46748781949589 248.32361885181581 0 0 0 0 106.74490095091232 47.832970347602071 0 47.832970347602071 26.125200819424208 0 0 0 0 35.894215999422158 -11.116906172276686 0 -11.116906172276686 5.1109525390611452 0 0 0 0 46.580590167679475 12.905490096600715 0 12.905490096600715 -19.499959424074831 0 0 0 0 16.533867482768251 11.315758893828871 0 11.315758893828871 1.0838974793848966 0 0 0 0 15.802454770129152 -2.3320030000579983 0 -2.3320030000579983 2.0811283298622882 0 0 0 0 6.5571588886677432 2.8264805029564535 0 2.8264805029564535 2.3398258058603414 0 0 0 0 23.061534546005895 11.117562467992366 0 11.117562467992366 -0.96704288776556613 0 0 0 0 45.485217818996716 2.7708895046635007 0 2.7708895046635007 -22.455291491440221 0 0 0 0 -27.174828550132588 37.906956017160752 0 37.906956017160752 -5.0777665980681377 0 0 0 0 12.513873452859116 9.3064899785151738 0 9.3064899785151738 0.074174796720399172 0 0 0 0 -0.95413469096162373 6.8634645914235781 0 6.8634645914235781 3.7111249735982326 0 0 0 0 -0.73500161597080194 1.1608222752650583 0 1.1608222752650583 1.8647093087281092 0 0 0 0 78.83564323214523 -12.099250175221187 0 -12.099250175221187 9.7529874476240366 0 0 0 0 -31.432098441145172 -241.81058131668999 0 -241.81058131668999 -150.07623881554537 0 0 0 0 31.691568644948347 -99.825988868665036 0 -99.825988868665036 72.074267881222113 0 0 0 0 214.22529332635168 -111.71762821345965 0 -111.71762821345965 -10.15669146253731 0 0 0 0 -84.279464263004229 116.48875967561384 0 116.48875967561384 -74.136331106542457 0 0 0 0 1.9793855396579971 1.5202188696150642 0 1.5202188696150642 -1.508897304948519 0 0 0 0 1.1257440465829944 1.2972195439449976 0 1.2972195439449976 -0.013357162897019492 0 0 0 0 24.287960833058605 40.672692988296603 0 40.672692988296603 56.308224665642683 0 0 0 0 6.9953055574078462 41.654068238777882 0 41.654068238777882 -63.728557640887715 0 0 0 0 -75.458989492755791 85.539585809341816 0 85.539585809341816 -53.974640756453482 0 0 0 0 -74.268516125821407 108.00265688314698 0 108.00265688314698 -46.924141996645631 0 0 0 0 39.992164877632604 104.59920874252566 0 104.59920874252566 -82.06793339550768 0 0 0 0 12.486210599636252 61.64306590908609 0 61.64306590908609 -94.017671054267794 0 0 0 0 -91.813297183249233 50.979578105735527 0 50.979578105735527 -88.043356641038315 0 0 0 0 -296.93727624657731 220.36522309744566 0 220.36522309744566 -55.693842801411847 0 0 0 0 -5.8826231140628806 144.30938404433334 0 144.30938404433334 -186.13397694444848 0 0 0 0 70.705510921288806 44.0925507177285 0 44.0925507177285 -64.915701944644638 0 0 0 0 24.725678362192411 114.91376184907017 0 114.91376184907017 -101.38375902692496 0 0 0 0 -7.769769004691625 30.231490520216539 0 30.231490520216539 -20.945608496444038 0 0 0 0 59.259004201361677 77.882490925431284 0 77.882490925431284 130.08461092836751 0 0 0 0 54.560472253702756 50.216265969613232 0 50.216265969613232 -21.847486306130122 0 0 0 0 14.942199344259279 8.1732415632068296 0 8.1732415632068296 84.150196565051829 0 0 0 0 42.724528054808616 -26.712052076687769 0 -26.712052076687769 45.320991673129356 0 0 0 0 19.138337839656742 -39.993524888462161 0 -39.993524888462161 141.17368049544802 0 0 0 0 3.1292678835307015 34.77467686242835 0 34.77467686242835 -70.021165588382701 0 0 0 0 -55.61602937765565 90.197030336769785 0 90.197030336769785 -6.9003621973442932 0 0 0 0 1.1611225096344242 9.5307402193858337 0 9.5307402193858337 37.992761511760364 0 0 0 0 22.5715858498952 36.028788496960715 0 36.028788496960715 -41.068179911388825 0 0 0 0 4.8392088339655857 66.30784101146358 0 66.30784101146358 -34.977692893933636 0 0 0 0 9.8840446782014624 41.131437648993824 0 41.131437648993824 -43.711559305355877 0 0 0 0 -11.852052244874358 47.46754267086817 0 47.46754267086817 -46.832899972006089 0 0 0 0 -44.888462515005813 71.989230538280026 0 71.989230538280026 -47.456778117762951 0 0 0 0 -13.131349530238367 57.820133629069005 0 57.820133629069005 -91.664253466403352 0 0 0 0 -18.982449857394386 60.396229066832348 0 60.396229066832348 -42.784179509506558 0 0 0 0 234.14795993846565 168.7135524929713 0 168.7135524929713 -204.75801341467923 0 0 0 0 330.65578654113051 -23.941672695266789 0 -23.941672695266789 -144.14061501363722 0 0 0 0 0.092656599155432673 0.39117294063628805 0 0.39117294063628805 -0.1658723498901189 0 0 0 0 67.45644306903705 116.2257489475669 0 116.2257489475669 -65.91333040724021 0 0 0 0 188.06256820125418 83.438501024158995 0 83.438501024158995 -230.432370175291 0 0 0 0 -184.31095943718537 -12.095357037088888 0 -12.095357037088888 -81.523563365520999 0 0 0 0 -51.217193401193072 122.83278703626206 0 122.83278703626206 -162.50890604226424 0 0 0 0 -56.775784675504838 93.472507503304371 0 93.472507503304371 -102.17588281751705 0 0 0 0 6.410426669708265 1.4512826269658561 0 1.4512826269658561 -1.4489259093602005 0 0 0 0 -25.387028112465487 -28.375729703919205 0 -28.375729703919205 -192.70599835294524 0 0 0 0 -42.665890752010455 67.209244505100742 0 67.209244505100742 -74.003213812495176 0 0 0 0 -169.81050552360102 73.84605759045553 0 73.84605759045553 -72.681423548287967 0 0 0 0 -74.229740138971465 74.425322144333109 0 74.425322144333109 -42.910215570595938 0 0 0 0 -66.767828510319305 94.305495623678269 0 94.305495623678269 -100.46697413993752 0 0 0 0 57.290556289568485 -27.202061759022854 0 -27.202061759022854 12.927388530625876 0 0 0 0 99.286047751789738 -51.4726446337786 0 -51.4726446337786 25.745597309482491 0 0 0 0 111.58129513883614 -11.41789474982221 0 -11.41789474982221 2.2378187634340065 0 0 0 0 46.915153129178179 4.4744385024220605 0 4.4744385024220605 8.7379627800673916 0 0 0 0 63.518441108928528 -14.330762253908915 0 -14.330762253908915 26.377481302279193 0 0 0 0 61.523707026291959 -22.781233072344321 0 -22.781233072344321 -4.2954805931030933 0 0 0 0 65.078189679203206 -3.8995013817093422 0 -3.8995013817093422 -2.6253918031673038 0 0 0 0 75.123276970931329 -17.624646387314897 0 -17.624646387314897 -22.924237978158999 0 0 0 0 90.134569776075296 -19.684623300596968 0 -19.684623300596968 -20.550357270090899 0 0 0 0 3.5893237869834138 -0.89794105125675827 0 -0.89794105125675827 0.031199864171712832 0 0 0 0 6.521813396326138 4.2593438785077993 0 4.2593438785077993 2.7998012724915391 0 0 0 0 81.091593726501742 -38.56319156661084 0 -38.56319156661084 -1.1973228089191252 0 0 0 0 17.424082948366049 -3.9265472194776976 0 -3.9265472194776976 9.7639671099609586 0 0 0 0 53.208052439618768 -1.5348918474342099 0 -1.5348918474342099 -2.5226532190454236 0 0 0 0 84.742231126707338 -5.8697823616043934 0 -5.8697823616043934 -11.843412842466932 0 0 0 0 1379.0174956170376 139.20505511017745 0 139.20505511017745 140.26386869054204 0 0 0 0 66.558465244641411 15.679610403960396 0 15.679610403960396 -48.195351100103458 0 0 0 0 40.791958981033531 -15.112193130751621 0 -15.112193130751621 20.866163895108912 0 0 0 0 12.573579300196798 8.8517607506109925 0 8.8517607506109925 -0.45088641173424548 0 0 0 0 23.745064849734408 0.66084870476084134 0 0.66084870476084134 -1.4659796448863709 0 0 0 0 34.831043772501289 15.921155738315974 0 15.921155738315974 -9.8382496824060581 0 0 0 0 40.495110400588601 -4.4910168388760212 0 -4.4910168388760212 9.6409671565388635 0 0 0 0 51.334092122400762 -15.420108984266335 0 -15.420108984266335 7.3752231370890513 0 0 0 0 39.880209015143919 3.7589217399363406 0 3.7589217399363406 -5.7732147915894529 0 0 0 0 23.388918574040872 -4.1266194726285903 0 -4.1266194726285903 -3.1694309271988459 0 0 0 0 58.155237566539654 -0.11589224669205578 0 -0.11589224669205578 -24.177622409684773 0 0 0 0 64.924818953462818 -13.573251365676697 0 -13.573251365676697 -5.1718206254818142 0 0 0 0 68.600977708103528 -1.5220782184272821 0 -1.5220782184272821 -25.342516501348655 0 0 0 0 40.957629770917329 8.8453257349109915 0 8.8453257349109915 1.4542513538652297 0 0 0 0 74.057341696901858 -9.6239960207276454 0 -9.6239960207276454 -48.53437971793528 0 0 0 0 -151.51602046327935 -19.970010526869981 0 -19.970010526869981 268.77985768078491 0 0 0 0 54.923973415599903 -18.830489224819758 0 -18.830489224819758 -24.224110688783185 0 0 0 0 225.30056806007815 286.98812760398221 0 286.98812760398221 -3.349343460150294 0 0 0 0 142.4799957985033 144.80451320852399 0 144.80451320852399 30.777007280760017 0 0 0 0 123.30000332534291 258.66745367083524 0 258.66745367083524 146.41164716978597 0 0 0 0 8.0998382477373916 -2.6933581130793796 0 -2.6933581130793796 1.0941733838203795 0 0 0 0 45.207825140949353 2.470268798987945 0 2.470268798987945 12.05608510336765 0 0 0 0 11.998107564154981 -0.17410355030771107 0 -0.17410355030771107 2.5911865617716137 0 0 0 0 695.63989947917617 -1151.7388043520707 0 -1151.7388043520707 -356.98296692838085 0 0 0 0 47.724143790836024 4.3618217283450349 0 4.3618217283450349 -18.182655161792354 0 0 0 0 8.3095948463378591 2.8330511168860539 0 2.8330511168860539 -5.277901633282454 0 0 0 0 24.878068209223873 5.6444115924972138 0 5.6444115924972138 -4.1006654948366545 0 0 0 0 14.76395729962271 3.2238374848850988 0 3.2238374848850988 -1.4506187495924454 0 0 0 0 33.405479092700382 -1.6775279321624694 0 -1.6775279321624694 -4.9141528042040594 0 0 0 0 170.8955942551911 -237.88477184481951 0 -237.88477184481951 -163.26006777440415 0 0 0 0 24.090661143727957 -6.4264852775728061 0 -6.4264852775728061 1.3176761471351843 0 0 0 0 154.45406622281916 -32.003793211282755 0 -32.003793211282755 -189.33530253907907 0 0 0 0 -49.042489515088164 -215.32338496486182 0 -215.32338496486182 85.628456244911376 0 0 0 0 24.689543494404944 5.4165635205283031 0 5.4165635205283031 1.0823309748712062 0 0 0 0 22.314777139403304 -247.67324675809368 0 -247.67324675809368 162.87119620076567 0 0 0 0 -58.014132200153654 -49.955662884346339 0 -49.955662884346339 49.641310299247152 0 0 0 0 25.794609259783556 39.707772880814161 0 39.707772880814161 -42.207665186921076 0 0 0 0 141.63755924626366 2.3107378697278023 0 2.3107378697278023 252.98412617150234 0 0 0 0 72.818372046680452 4.6056076496724927 0 4.6056076496724927 -29.072730064577399 0 0 0 0 17.950435714103151 27.751832662762013 0 27.751832662762013 5.3911546964793615 0 0 0 0 126.09083241420012 41.786294355141536 0 41.786294355141536 4.3091312037604439 0 0 0 0 51.54997911195278 115.84768271558931 0 115.84768271558931 90.16443891087556 0 0 0 0 132.06773350233379 -60.994082549817108 0 -60.994082549817108 -70.079380404516996 0 0 0 0 243.14191107041916 116.84066195743071 0 116.84066195743071 -40.278691339293118 0 0 0 0 544.06224628456039 8.6579599714891629 0 8.6579599714891629 -63.843377485633482 0 0 0 0 -12.394466592455501 -276.49690744258288 0 -276.49690744258288 134.91147900508258 0 0 0 0 760.14713494641546 -87.235250630783867 0 -87.235250630783867 27.960145474308774 0 0 0 0 -0.73661101641093296 0.15993473624643073 0 0.15993473624643073 0.84940504985672138 0 0 0 0 -111.72222731436523 -446.37950921941308 0 -446.37950921941308 365.61285036909749 0 0 0 0 209.73927468006877 267.57114478332824 0 267.57114478332824 117.43079813141685 0 0 0 0 179.6592080959781 -394.01985234012614 0 -394.01985234012614 523.8165090254322 0 0 0 0 8.4596847567895281 1.1370690157026999 0 1.1370690157026999 0.35400691723221467 0 0 0 0 159.19171023456875 189.20285348033372 0 189.20285348033372 122.06384606401662 0 0 0 0 25.838497976596045 -13.762693375776252 0 -13.762693375776252 7.8777573887280141 0 0 0 0 55.043694517375116 -12.052804190757797 0 -12.052804190757797 -19.554629592951187 0 0 0 0 28.329371685591333 -8.5640512938170765 0 -8.5640512938170765 4.4551330440591848 0 0 0 0 26.285413920362771 124.50208205780996 0 124.50208205780996 117.60014109418351 0 0 0 0 -16.821715308786224 -209.27823544152284 0 -209.27823544152284 -116.93226236431565 0 0 0 0 -265.05718291961693 -25.627001305703061 0 -25.627001305703061 59.191112206030994 0 0 0 0 15.440243012177648 -1.1339653477758276 0 -1.1339653477758276 -0.70489093396124503 0 0 0 0 -66.164497386747826 -17.364598899195244 0 -17.364598899195244 55.037235291159504 0 0 0 0 26.375732277607312 0.99264810457793828 0 0.99264810457793828 -60.655553386363636 0 0 0 0 -8.8038769335835241 -49.808235982071665 0 -49.808235982071665 -19.621190596819602 0 0 0 0 -6.0810533266994753 -0.96998319915655884 0 -0.96998319915655884 4.860224250624924 0 0 0 0 3.563996440385381 19.462752004717345 0 19.462752004717345 44.463525038759741 0 0 0 0 -3.17751666145314 1.6421187811038855 0 1.6421187811038855 1.4280798592534012 0 0 0 0 -228.19243797158197 18.819777114946191 0 18.819777114946191 78.888320921779268 0 0 0 0 -9.9352636282383173 80.997865450382619 0 80.997865450382619 27.491776765002868 0 0 0 0 34.37446461109721 61.939553893596035 0 61.939553893596035 -47.440604204761485 0 0 0 0 36.7538934832628 49.737397733222664 0 49.737397733222664 -40.485648652019691 0 0 0 0 12.459629178527393 -2.5395760017676707 0 -2.5395760017676707 4.5173483398194065 0 0 0 0 0.35518832884099538 3.8305882483455953 0 3.8305882483455953 -2.5235759352356633 0 0 0 0 36.909634380669559 47.786221859389734 0 47.786221859389734 -26.993687370041471 0 0 0 0 145.6388181087932 112.23547250249965 0 112.23547250249965 -5.9046468086284563 0 0 0 0 188.20875040873943 -4.1224763417199028 0 -4.1224763417199028 97.962834604665488 0 0 0 0 -144.69870369745695 220.54006903150349 0 220.54006903150349 179.59506531411171 0 0 0 0 220.39656142218882 213.79554352273146 0 213.79554352273146 2.2161236019783246 0 0 0 0 -13.016583436260589 118.86412690082523 0 118.86412690082523 -35.700355380127803 0 0 0 0 45.742274379463197 -45.970197551348178 0 -45.970197551348178 -164.1695173944907 0 0 0 0 56.558626206940971 113.84602219777739 0 113.84602219777739 -78.410411844959526 0 0 0 0 48.987846303747574 73.937108882243407 0 73.937108882243407 -142.93523616502415 0 0 0 0 237.25227022793661 33.775053054584532 0 33.775053054584532 -247.05770778600288 0 0 0 0 36.105296459480641 -8.9584670482542617 0 -8.9584670482542617 1.7627532052001746 0 0 0 0 197.62919288753983 -78.798482867014627 0 -78.798482867014627 -350.8944718874082 0 0 0 0 54.048750163416116 -102.00493269896793 0 -102.00493269896793 -122.59691263866512 0 0 0 0 12.157253424668852 9.9138765759857961 0 9.9138765759857961 13.839704318886334 0 0 0 0 38.78694421298394 -80.795904862651554 0 -80.795904862651554 -12.266630936494494 0 0 0 0 6.1652853393907208 -20.18035416534849 0 -20.18035416534849 -3.7521459616522748 0 0 0 0 5.5032537925517317 1.2277691661265635 0 1.2277691661265635 -33.559748957072088 0 0 0 0 -1.6429745521497843 -0.99486254505004901 0 -0.99486254505004901 -1.1017981763028017 0 0 0 0 25.386730799286852 -105.46920228562487 0 -105.46920228562487 84.29638023981795 0 0 0 0 34.337934134047828 -11.739161726343809 0 -11.739161726343809 -5.3136887696680333 0 0 0 0 20.088101762676416 -9.056650880035825 0 -9.056650880035825 2.2506078073244375 0 0 0 0 22.521093141040495 -7.4485576283632184 0 -7.4485576283632184 -0.48442424687757324 0 0 0 0 20.016136048310727 -6.9430811500744767 0 -6.9430811500744767 -1.3869774120507827 0 0 0 0 20.425216449873915 -6.1382919600781634 0 -6.1382919600781634 -2.4671989807866339 0 0 0 0 38.319668645268393 2.3338232558839991 0 2.3338232558839991 8.5557213121473978 0 0 0 0 20.123523185326398 -4.5103874450279777 0 -4.5103874450279777 -1.8953258477926109 0 0 0 0 29.015083350168339 -3.4586564301709828 0 -3.4586564301709828 -3.4885134861265663 0 0 0 0 30.130524644297111 -6.9547600460350623 0 -6.9547600460350623 -6.9275371337030265 0 0 0 0 44.230876666411646 -8.7074846029579476 0 -8.7074846029579476 0.83162299216284175 0 0 0 0 21.128758118782571 -10.76249154043785 0 -10.76249154043785 7.3680628599698821 0 0 0 0 2.0616485613306068 -6.5245978911578524 0 -6.5245978911578524 -0.60689269855526096 0 0 0 0 67.300078946282156 25.278598368837493 0 25.278598368837493 -159.79552480974453 0 0 0 0 39.245923965871043 -2.0368529224164149 0 -2.0368529224164149 -86.464001694367937 0 0 0 0 21.898493220336604 -6.2864527465102356 0 -6.2864527465102356 6.9120841435396869 0 0 0 0 36.547633681277148 -15.872801529320668 0 -15.872801529320668 -6.8934180383876082 0 0 0 0 4.7386765472034078 -1.9548053671045107 0 -1.9548053671045107 -1.2594627798082705 0 0 0 0 27.383735970134694 -4.9408384980185929 0 -4.9408384980185929 -4.8442997496567841 0 0 0 0 37.85158540948396 -2.5921618918687273 0 -2.5921618918687273 -11.132945398192533 0 0 0 0 28.038547032099814 -13.760257113471425 0 -13.760257113471425 -0.13001880626916318 0 0 0 0 47.30275581999922 -10.259161008660612 0 -10.259161008660612 -13.574092850755619 0 0 0 0 -0.30103679282711937 0.26150221867019496 0 0.26150221867019496 -0.84854895024478871 0 0 0 0 8.4009753208520124 24.760221853206303 0 24.760221853206303 0.60044692790279441 0 0 0 0 14.560844192630611 -28.420869486160711 0 -28.420869486160711 -3.7646363580615798 0 0 0 0 47.449730107899086 -19.08437085613923 0 -19.08437085613923 -33.788455617274849 0 0 0 0 78.547138208985416 8.617113424830336 0 8.617113424830336 -2.8238870020579725 0 0 0 0 44.067182923075507 -21.866810803414978 0 -21.866810803414978 52.598750941353956 0 0 0 0 1.3269213944840885 -27.123366882537766 0 -27.123366882537766 -14.194425371775651 0 0 0 0 -17.150500997490553 20.910329718585899 0 20.910329718585899 -3.0815452075544272 0 0 0 0 -0.77948121349891153 5.2649815446328603 0 5.2649815446328603 7.8433379744237754 0 0 0 0 12.581577681496128 -26.320159630822332 0 -26.320159630822332 -5.5034937122586598 0 0 0 0 21.183841973609105 -8.0971916384177689 0 -8.0971916384177689 0.99662749886510937 0 0 0 0 24.399472285223965 -14.264984831231232 0 -14.264984831231232 8.4974515784992946 0 0 0 0 43.36977144188495 20.460823161777171 0 20.460823161777171 23.848209798079552 0 0 0 0 58.752704086315134 7.0204770271661801 0 7.0204770271661801 28.993783317463908 0 0 0 0 118.16891224157553 28.526995767918606 0 28.526995767918606 12.536290228058988 0 0 0 0 51.311645683479242 30.652291097560294 0 30.652291097560294 21.049075180393629 0 0 0 0 55.294238567053981 3.7585568130850788 0 3.7585568130850788 0.97668686718134268 0 0 0 0 -0.028888624475861491 -0.67870183108765048 0 -0.67870183108765048 -0.48769956846236528 0 0 0 0 54.720209288593651 58.35097159772306 0 58.35097159772306 -64.56604116359631 0 0 0 0 141.18272779732615 2.7148700473089775 0 2.7148700473089775 -39.537557171974413 0 0 0 0 215.10506666810943 -166.23379031683123 0 -166.23379031683123 169.010870347506 0 0 0 0 147.3797017896668 -21.109759723348589 0 -21.109759723348589 51.692499810046684 0 0 0 0 248.19355111039476 39.779911844206254 0 39.779911844206254 74.385994369869422 0 0 0 0 324.59136691281992 -92.196458626735534 0 -92.196458626735534 49.151485476228572 0 0 0 0 196.8508840918696 -50.718980329661179 0 -50.718980329661179 48.995524493983339 0 0 0 0 217.42666925122649 16.879378875481279 0 16.879378875481279 5.0052032445341865 0 0 0 0 125.4095332506763 7.5915882486289092 0 7.5915882486289092 31.323177748347007 0 0 0 0 160.40944541319914 12.183126384494244 0 12.183126384494244 16.134119064994593 0 0 0 0 160.80103128228433 -9.1938151994537449 0 -9.1938151994537449 64.362367101517975 0 0 0 0 169.87917581456441 -1.294477616159952 0 -1.294477616159952 229.23649075209687 0 0 0 0 173.14913318292565 -35.413719783285615 0 -35.413719783285615 43.511604788509885 0 0 0 0 352.58798556772854 -4.1342602796230494 0 -4.1342602796230494 22.890514795047295 0 0 0 0 112.47072316761296 -113.60635891570018 0 -113.60635891570018 76.140631480083584 0 0 0 0 159.36384336644733 111.8765322767963 0 111.8765322767963 149.12492773941767 0 0 0 0 336.89022335458776 0.77720434462469257 0 0.77720434462469257 7.3811480822773774 0 0 0 0 137.33699555123894 -34.881880830235559 0 -34.881880830235559 1.5347053517499489 0 0 0 0 159.98265962390542 94.192737702270051 0 94.192737702270051 6.7408469203378445 0 0 0 0 110.09886300681319 -150.49228150486624 0 -150.49228150486624 145.4184756454124 0 0 0 0 212.13342080256189 -147.96772779543926 0 -147.96772779543926 39.941694327934783 0 0 0 0 -106.71480814037841 -192.83278833693407 0 -192.83278833693407 44.816786554047667 0 0 0 0 76.967752418429882 21.51655106577482 0 21.51655106577482 -46.914910297085953 0 0 0 0 1.466821492357278 -1.1451896620769464 0 -1.1451896620769464 0.33679580956636457 0 0 0 0 86.211683233612348 -28.997545171831689 0 -28.997545171831689 -92.103688534741877 0 0 0 0 100.22568628870613 41.191566269686746 0 41.191566269686746 -46.193162896894819 0 0 0 0 51.30536972425125 13.059396364616532 0 13.059396364616532 -60.64537286649454 0 0 0 0 51.901667952720345 2.4615304011920216 0 2.4615304011920216 -17.750221063932258 0 0 0 0 2.1956678626219919 -2.9095168615792399 0 -2.9095168615792399 1.8028506344841562 0 0 0 0 228.23126066018995 180.05708913056071 0 180.05708913056071 -185.32632177850087 0 0 0 0 252.17679056456745 64.745173207361461 0 64.745173207361461 -156.3318448345276 0 0 0 0 -3.7952974410363822 -55.726820046480952 0 -55.726820046480952 -64.821550368419594 0 0 0 0 59.284380855077416 -13.63448426625763 0 -13.63448426625763 -73.686325094043468 0 0 0 0 220.63264358714514 58.181972782019329 0 58.181972782019329 -67.590274775380749 0 0 0 0 -32.432271044056051 2.5494211776129987 0 2.5494211776129987 -39.416671749168472 0 0 0 0 140.14283123614678 -96.148596619476507 0 -96.148596619476507 7.7856455302071481 0 0 0 0 32.998875820485296 -26.943115318027338 0 -26.943115318027338 98.686838322008953 0 0 0 0 214.06040745023438 -93.598529475512919 0 -93.598529475512919 122.66374673357905 0 0 0 0 503.6917526833563 98.254269452992844 0 98.254269452992844 30.555329796398382 0 0 0 0 195.36568652043343 38.499742053375087 0 38.499742053375087 39.596821023057601 0 0 0 0 
</DataArray>
<DataArray type="Float64" Name="cross_section_updated" format="ascii">
1 1 1 0.01031248491587038 1 1 0.010107402358054872 1 1 1 1 1 0.0099951985752167564 0.010012300391251776 1 1 1 1 0.010858462887328953 0.0099805959376034255 1 1 0.010327807595447814 1 0.0099942056530932279 1 1 1 1 1 1 1 1 1 1 1 1 1 1 1 1 1 0.010040451346368929 1 1 1 1 1 1 0.011120052066405681 1 1 0.01118170707781721 1 1 1 1 0.010030080633713568 1 1 1 1 1 1 1 1 0.0099537570559764393 1 1 0.01110630426002418 0.011649433006899253 1 1 1 0.010058889838002905 0.012853999326095357 1 1 0.01026834506011969 1 1 1 1 1 1 0.010104891000171855 1 1 1 1 1 1 1 1 1 0.010124167518728177 1 1 0.010251190294113472 1 1 1 1 1 1 1 1 1 0.010124155375421322 1 1 1 1 1 1 1 1 1 0.010005959121791912 1 1 1 1 1 1 1 1 1 1 1 1 0.010050554116132378 1 1 1 1 1 0.010370066621833159 1 0.010040662621909812 1 1 1 1 1 1 0.010001220656181812 1 1 0.0099987305137140756 1 1 0.0099901471903223842 0.010053712321206769 1 1 1 1 0.010005948267018122 1 1 1 0.010001245019112114 1 1 1 1 1 0.010022685187397892 1 1 1 1 1 1 0.010003334876111439 1 0.010013703426237348 1 1 1 1 1 1 1 1 1 1 1 0.01019388743057693 1 1 1 1 1 1 1 1 1 0.010558348540743077 1 1 1 1 1 1 1 0.010177956934323494 1 1 1 1 1 0.0099664455770745695 1 0.010313465802353913 1 1 1 0.009994320623115182 1 1 1 1 1 0.0099633628199522623 1 1 1 0.010214616374541406 1 1 1 1 1 1 0.010160945026506206 1 1 1 1 1 1 0.01033463510428035 1 1 1 1 1 1 1 1 1 1 1 1 1 1 1 1 1 1 1 1 1 1 1 1 1 1 1 1 1 1 1 0.010266495371413572 1 1 1 1 1 1 1 1 0.010005709879239712 1 1 0.010302462814812445 1 1 1 1 1 0.013700120665562738 1 1 0.011220576960308272 0.010776256551301541 0.012634943619836681 0.0080939231431146133 1 1 1 1 1 1 1 1 1 0.011266527809040467 1 1 1 1 1 1 1 1 1 1 1 1 1 1 1 1 0.010043961279243716 1 1 1 1 0.01305492754575902 0.010885515628121878 1 1 1 1 1 0.0099364165684663955 0.013461410083896076 1 1 0.010239430785552164 1 1 1 1 0.0099640064647486277 1 1 0.010006941697221751 0.010369854001941835 1 1 1 1 0.009960216744410437 1 0.010941173409298195 1 1 1 1 1 1 0.0099810227219939499 1 1 1 1 1 1 1 1 1 1 1 0.010214396977197102 1 1 1 1 1 1 0.010086893762511366 1 1 1 1 1 1 1 1 0.010448444962727357 1 1 1 1 0.0093889911767252587 1 1 1 1 1 1 1 1 1 1 1 1 1 1 1 1 1 1 1 0.012563397009027512 1 1 1 1 1 1 1 1 1 1 1 1 1 1 1 1 1 1 1 1 1 1 1 1 1 1 1 1 1 1 1 1 1 1 1 1 1 1 1 1 1 1 1 1 1 1 1 1 1 1 1 1 1 1 1 1 1 1 1 1 1 1 1 1 1 1 1 0.01018526715401463 1 0.010972303586472838 1 1 0.013849834950707844 1 1 1 1 1 1 1 1 1 1 1 0.0094867139216746367 1 1 1 1 1 1 1 1 1 1 0.010297840820020564 1 1 0.01028380554937244 1 1 1 0.010041038408454892 1 0.01122225129429795 0.0099988450264525876 1 1 0.011973335229685625 1 1 1 1 1 1 1 1 1 1 1 1 1 1 1 1 1 1 0.010001108930434845 1 1 1 1 1 1 1 1 1 1 1 1 0.0098941272457429893 1 1 1 1 1 0.011810538513350156 1 1 1 1 1 1 0.01146764639953439 1 1 1 1 1 1 1 1 1 1 1 1 1 1 1 0.010147708600805634 1 1 1 1 0.010760010386557176 1 1 1 0.011716989641157 1 1 1 1 1 1 1 1 1 1 1 1 0.010790883972229567 1 1 1 1 1 1 1 0.010280865041068461 1 1 0.0096996968326550914 1 1 1 1 1 1 1 1 1 1 1 1 1 1 1 1 1 1 1 1 1 0.010280447409740967 1 1 1 1 1 0.0094046018549847656 1 1 1 1 1 1 1 1 1 0.010996590641669378 1 1 1 1 1 1 1 1 0.011276309164846459 1 1 0.010658878483669358 1 1 0.01048546911955657 1 1 1 1 1 1 1 1 1 1 1 1 1 1 1 1 1 1 1 0.0099840595876689395 1 1 1 1 1 1 1 1 0.010998895100237877 0.011099408019626996 1 1 1 0.011514560512719801 1 1 1 1 0.0099951976345543214 1 1 1 1 1 0.0098457347368100401 1 1 1 1 1 1 1 1 1 0.010094067310806764 1 1 1 1 1 1 0.010067237269120011 1 1 1 0.01151185229159303 1 1 1 0.010373797644676736 0.010334243531164123 1 1 1 0.010848631691511632 1 1 1 1 1 1 1 0.010839663261330778 1 1 1 1 1 0.012079279542383588 1 0.014355951809508369 1 1 0.010110249795041933 1 1 1 0.010046505663923686 1 1 1 1 0.01075004544875798 1 0.014084211055655625 1 1 1 1 1 1 1 0.010286421252830063 1 1 1 0.0099324626209763844 1 1 1 1 1 1 1 1 1 1 1 1 0.010048175311430464 1 1 1 1 1 1 1 1 1 0.01000210780272192 1 1 1 0.01031556806302786 0.010103758637093556 1 1 0.010127377367291758 0.0098964465990159928 1 0.01030840216874452 1 1 1 1 1 1 1 1 1 1 1 1 1 1 1 1 1 1 1 1 1 1 1 1 1 1 1 1 1 1 1 1 0.01340691903377777 1 1 0.010020620258611333 1 1 1 0.01054686992560817 1 1 1 1 1 1 1 1 1 1 0.012543162290279306 1 1 1 1 1 1 1 1 1 0.010158722629632961 1 1 1 1 0.010419171302411063 1 1 1 1 1 1 1 1 1 1 1 1 1 1 1 1 1 0.011533497255455449 1 1 1 1 1 1 1 1 1 1 1 0.01277841931626705 1 1 1 1 1 0.010054339785246051 0.013548845950458441 1 1 0.01221685471533648 1 1 1 1 1 1 1 0.010753876121785771 1 1 1 1 0.010661329544885696 1 0.009951463812650569 1 1 1 1 1 1 0.010264325607878006 1 1 1 0.010227507818979679 1 1 1 1 1 1 1 1 1 1 1 1 1 1 1 1 1 1 0.010845182369480436 1 0.010678968308584103 1 1 1 1 0.011292309552627526 1 0.010955671530510818 1 0.010225869603152719 1 1 0.010117276766732037 1 1 1 0.01058896628880221 1 1 1 1 1 1 1 1 1 1 1 1 1 1 1 0.010221747084238035 1 1 1 0.011203386202242607 1 1 1 1 1 1 1 1 1 1 1 1 1 1 1 0.010277770741147016 1 1 1 1 1 1 1 1 1 1 1 1 1 1 0.010802814021964818 1 1 1 1 1 1 1 1 1 1 1 1 1 1 1 1 1 1 1 1 1 1 1 1 1 1 1 1 1 1 1 1 1 1 1 1 1 1 1 1 1 1 1 1 1 1 1 1 0.010349688592007397 1 1 1 1 1 1 0.01011575644056149 1 0.011143657356732612 0.010471454537554622 1 1 1 1 1 1 1 1 1 1 1 1 1 1 1 1 1 1 1 1 1 1 1 1 1 1 1 1 1 1 1 1 1 0.013800568449456235 1 1 0.014040699283377948 1 1 1 1 1 1 1 1 1 1 1 1 1 0.0099032053192706984 1 1 1 1 0.012799294655848713 1 1 1 1 0.0096367964281237461 1 1 0.0090252277666711036 1 1 1 0.012502989952180967 1 0.010031463781588475 1 1 1 1 1 1 1 1 1 1 1 0.013776603048196017 1 1 1 1 1 1 0.010414936923128174 1 1 1 0.011072343430349154 1 1 1 0.01104091333293386 1 1 1 1 1 1 1 1 1 1 1 1 1 1 1 1 1 1 1 1 0.012405455224492819 1 1 1 1 1 0.0098996406170571271 0.012001752750799195 1 1 1 0.012288571332090333 1 1 1 1 0.012191864704906052 0.009722268573629185 1 1 1 1 0.009914333276401642 1 1 1 1 1 1 1 1 0.011163913496739264 1 1 1 1 1 1 1 1 1 1 0.01301970752325577 1 1 0.014178191131352016 1 1 1 1 1 1 1 1 0.0097227769465859943 1 1 1 0.0094276819689156667 1 1 1 1 1 1 1 1 1 1 1 1 1 1 1 1 1 0.010379159960492282 1 1 1 1 1 1 1 1 1 1 1 1 1 1 1 1 1 0.010189088292604042 1 1 1 1 1 1 0.0099901699295932254 1 1 1 1 1 1 1 1 1 1 1 1 1 0.010072278481037634 1 1 1 1 0.01011586822268187 1 1 1 1 0.0099460726895988297 1 1 1 1 1 1 1 1 1 1 1 1 1 0.010115842667561204 1 1 1 1 1 0.0097720758412290047 1 1 1 1 1 1 1 1 1 1 1 1 1 1 0.010239263407025563 1 1 1 1 1 1 1 1 1 1 1 0.010069537616214826 1 1 1 1 1 0.010186347427781236 1 1 0.0099835896658319462 1 1 1 1 1 1 1 0.0099934197362387227 1 1 0.01005417169668771 1 1 1 1 1 1 1 1 0.0098294683279050686 1 1 1 1 1 1 1 1 1 1 1 1 1 1 1 1 1 1 1 1 0.0094804041032554992 1 1 1 1 1 1 1 1 1 1 1 0.0091442709138585855 1 1 0.00912657342035679 1 1 1 1 1 1 1 1 1 1 0.0091646894297445335 1 1 1 0.0099988718913457866 1 1 1 1 1 0.012342798706828377 1 1 1 1 1 1 1 1 1 1 0.013402711390445731 0.0099126057942635383 1 1 1 1 1 1 1 1 1 1 1 1 1 1 1 1 1 1 1 1 1 1 1 1 1 0.012176801885464734 1 0.011819490495335398 1 1 1 1 1 1 1 0.010434289285065025 0.0097473553311611706 1 0.010061877386090531 1 1 1 1 1 1 1 1 1 1 1 1 1 1 1 1 1 1 1 1 1 1 1 1 0.0091108481379100249 1 1 1 1 1 1 1 1 1 1 0.011418584505422746 1 0.010987010628932653 1 1 1 1 0.0087223465055420307 1 1 1 0.01004774989791707 1 1 0.010590590566571282 1 0.012938828856228464 1 0.009737463187849087 1 1 0.0090098687614465472 1 0.01090810133840288 0.011790682846315306 1 1 0.010136311179925014 0.011921320641773875 0.010501721356928426 0.0080959825028043223 1 0.010606381679666222 1 1 0.011616779418777657 0.011482297531316672 1 0.011142776225842085 0.01065464599571315 1 1 0.011613021943386892 1 1 0.0099220348201319933 1 1 1 0.012080995625016293 1 0.0098636338418024092 1 1 1 1 1 0.011311706256483811 1 1 1 1 0.011848196649491861 1 1 1 0.012115408422325755 1 0.010015378514730054 1 0.011488487661423703 1 1 1 1 0.011806940474991902 1 1 1 0.012875023192446862 1 1 1 1 0.012002351432658317 1 1 1 1 1 1 1 1 1 1 1 1 0.011665395303483025 1 1 1 1 1 1 1 1 1 1 1 1 1 1 0.010196354861179075 1 0.0099236148407896158 1 1 1 1 0.010601330568622147 1 1 1 0.010078551568194122 1 1 1 0.010006442333227627 1 1 1 1 1 1 1 1 1 1 1 1 1 1 1 1 1 1 1 1 1 1 0.010056796375820971 1 0.010003823424741334 1 1 0.011135018448898488 1 1 0.011163697790430669 1 1 0.0094990478261340761 1 1 1 1 1 1 0.0098076660781190907 1 1 0.010597442255895899 1 1 1 1 0.010115776884241222 1 1 0.0097253022298551418 1 0.010071815839635479 1 1 1 1 1 0.010690876301524635 1 0.0098258085248547448 0.010462207195287905 1 1 1 1 1 1 1 1 1 1 0.010169242259934215 1 1 1 0.011710458303260963 1 0.012418534244216088 1 1 1 0.011682950182170016 1 1 1 1 1 1 1 0.011559012901963046 1 0.012526575139548281 1 1 1 1 0.011377005006082099 1 0.011058077306643248 1 1 0.012564279859419493 1 1 1 1 1 1 1 1 0.012973747787667604 1 1 1 1 1 0.010141559519506738 1 1 1 1 1 1 1 1 1 0.013083295944028774 1 1 1 0.010518268378380848 1 1 1 1 1 0.010334176562075125 1 1 1 1 1 1 1 1 1 1 1 1 1 1 1 0.010485726861325713 1 1 0.012554947665934305 1 0.01062589641078463 0.010919858523351573 1 1 0.011910830200851819 1 1 1 1 1 1 1 1 1 0.0094342580804474795 1 0.012586941896929457 1 0.010013294650612566 1 1 1 1 1 1 1 1 1 0.012294258958417421 1 1 0.012149224188077505 1 1 1 1 1 0.01053909201752562 1 1 1 1 0.01196088649974833 1 1 0.011127068574342286 1 1 1 1 0.0098676365282564828 0.010664281496366623 1 1 0.012016626922531245 1 1 1 1 0.010200360403475458 0.012187357612373984 1 1 1 1 1 1 1 1 1 0.010291827869814569 1 1 1 0.010046932938451335 1 0.011692836336848854 1 1 1 1 1 0.010253093786386776 1 1 1 1 1 1 1 1 1 1 1 1 1 1 1 1 1 0.010113635474369756 1 1 0.010136684591337632 1 1 1 1 1 1 1 1 1 1 0.010299569748531667 1 1 1 1 1 0.01102268399257954 0.010782906603262079 1 1 1 1 1 1 1 1 0.01032751652130557 1 1 1 1 1 1 1 1 1 1 1 1 1 1 0.011174415418467027 1 1 1 1 1 0.010004370941004998 0.012133694706941756 1 1 1 1 1 1 1 1 1 1 1 1 1 1 1 1 1 1 1 1 1 1 1 1 1 1 1 1 1 1 1 1 1 1 1 1 1 1 1 1 1 1 1 1 1 1 1 1 1 1 1 0.009739173147112987 1 1 1 1 1 1 1 1 1 1 1 1 1 1 0.010214029882939547 0.010503429123295381 1 1 1 0.014058134872729583 1 1 1 0.012105741960148389 0.011938168895192707 1 1 0.0089512749427328956 0.010586429742421509 1 1 1 1 1 1 1 1 1 1 1 1 1 1 1 1 1 1 1 1 1 1 1 1 1 1 1 1 1 1 1 1 1 1 1 1 1 1 1 1 1 1 1 1 1 1 1 1 1 1 1 1 1 0.0098336530908602997 1 1 0.010108132334740859 1 1 1 0.010032409418704927 1 1 1 0.01171716685863124 1 1 1 0.010005280324773347 1 1 1 1 1 1 1 0.010177551397069154 1 1 1 0.0087402312021489671 1 0.0094656354461316837 0.0095342305817516862 0.0096042523807021978 0.010002206925246435 1 1 1 1 1 1 1 1 1 1 1 1 1 1 1 1 1 1 1 1 0.010070793333680389 1 1 1 1 1 1 1 1 1 0.011664248801415865 0.011203406359693305 1 0.010309481013562818 1 1 1 1 0.012434600610801365 1 1 1 1 1 1 1 1 1 0.011930026391614116 1 0.0095814738607077551 1 1 1 1 0.011780652859764325 1 1 0.010017379536774791 1 1 1 1 1 0.0097128309030937564 1 1 1 0.0094674782379916729 0.010555811176303175 0.011213128787661879 1 1 0.011751994934684994 1 1 0.010046064355642398 1 1 1 0.01150692103136328 1 1 0.010441534438745494 1 1 1 1 1 0.01016328344144856 0.0114869802700683 1 0.011724596467988572 0.010116071152221438 1 1 1 1 1 1 0.010488267502138717 1 1 0.010366728094047777 1 1 1 1 1 1 1 1 1 1 1 1 1 1 1 1 1 1 1 1 1 1 0.0099911468737237177 0.010066807343263345 0.011370045150705584 1 1 1 1 1 0.011392996127267033 1 1 1 1 1 1 1 1 1 1 0.010173690077774142 1 1 1 1 1 1 1 1 1 1 1 0.01013777968451539 1 1 1 1 1 1 1 1 0.010202946611715898 1 1 1 1 1 1 0.0099943836685462781 1 1 0.010698999964952962 1 0.01006188435415567 1 1 1 0.010617665837906531 0.010066616964047453 1 1 1 1 0.010147826281466293 1 1 0.010049948871558873 1 1 1 1 1 1 1 1 0.010035543101514277 1 1 1 1 1 1 1 1 1 1 1 1 1 0.012937945665777635 1 1 1 1 1 1 1 1 1 1 1 1 1 1 1 1 0.010777722855771237 1 1 1 1 1 1 0.011043331394221548 1 0.01000103278490435 1 1 1 1 1 1 1 1 0.010143090420723375 1 1 1 1 1 1 0.010023961522027587 0.010332978444703234 1 1 1 1 1 1 1 0.0104953389263087 0.010071976375523425 1 1 1 1 1 1 1 1 0.010013273988815108 1 1 1 1 1 1 1 1 1 1 1 0.010071235654529366 1 1 1 1 1 1 1 1 1 1 1 1 1 1 1 1 1 0.01008120931741884 1 1 1 1 1 1 1 1 1 0.0108440250103042 1 1 0.01050786282555711 1 0.0099779214223607703 1 1 1 1 1 1 0.010655397226554579 0.0098024668655211644 1 1 0.010107306610646386 1 1 1 1 1 1 1 1 0.010939329965602984 1 0.010391551836432542 1 1 1 1 1 1 1 1 1 1 0.013287967840682145 1 1 1 0.010259181004163564 1 1 1 0.013119132840030558 1 1 1 1 0.011035322819539275 1 1 1 1 1 1 1 1 0.010004013061908614 1 1 0.0099287929712423076 1 1 1 0.010397680852710919 1 1 1 1 0.010926458162533851 1 1 1 1 1 0.010308552039661512 1 1 1 1 1 0.010003495847823732 1 1 1 1 1 1 1 1 1 1 1 0.013057253775821134 1 1 0.010043159548653865 1 1 1 1 0.012291894592253733 0.010141938803471988 1 0.010332064117540313 1 1 0.0098839790075582069 1 1 1 1 1 1 0.011915266962110017 1 1 1 1 1 1 1 1 1 1 1 1 1 0.010599554901312935 1 1 0.010002221780558023 1 1 1 1 1 1 1 0.010405012697971344 1 1 1 1 1 1 1 1 1 1 1 0.010001669052960325 0.011303525256949061 1 1 1 0.011461818298019791 1 1 1 1 1 1 1 1 1 1 0.010948616647301086 1 1 1 0.010336942934356842 1 1 1 1 1 1 1 1 0.013898149698665284 1 1 1 1 1 1 1 1 0.010010203795635031 1 0.0098645705210221903 1 1 1 1 0.010889222666469481 1 1 0.010047040253672881 1 1 0.01078991035637757 1 1 1 1 1 1 1 0.014160734292549411 1 1 1 0.014125194734324022 1 1 1 1 1 1 1 1 1 1 0.010792911962940452 1 0.013960945117531435 1 1 0.0097641811885235928 1 0.012467632227907839 0.011575376338559665 1 1 1 1 1 0.0099447679693702995 1 1 1 0.010291232390183142 0.0098349740869634016 1 1 1 1 1 1 1 1 1 1 1 1 1 1 1 0.010147374662532082 1 1 1 1 0.0099794535400470029 1 1 1 0.0099899465669696184 1 1 1 1 1 1 1 0.010008290547273774 1 1 1 1 0.012757769165367952 1 1 1 0.012736905764529819 1 1 1 1 0.0099998866734028399 1 0.009993309050188505 1 1 1 0.010738432094233686 0.012606466786735214 0.011241769684675797 1 1 0.010025961950600277 1 1 1 0.010021473433147462 1 0.011494703048126014 0.011094371957868379 1 1 1 1 0.012597193218492996 1 1 1 1 1 0.010144810737120648 1 1 1 1 1 1 1 1 1 1 1 0.011018666026526885 1 1 1 0.010444158550953807 1 1 1 1 1 1 1 0.010000482732758362 1 1 1 1 1 1 1 1 1 1 1 1 1 1 1 1 1 1 1 1 1 1 1 1 1 1 1 1 1 1 1 1 1 1 1 1 1 0.011156057611773827 1 0.012140120026148265 0.0099999618749646996 1 1 1 1 1 1 1 1 1 1 1 1 1 1 1 1 1 1 1 1 0.01000942504608158 1 1 1 1 0.011241624924891941 1 1 1 1 1 1 1 1 1 1 1 1 1 1 1 1 1 1 1 0.011535132598839225 1 1 1 1 1 1 1 1 0.011385654167802454 1 1 0.010367880793417971 1 0.010361368178358015 1 1 0.010522580713205984 1 0.010612697464493153 1 0.010404044711051176 1 1 0.01007680358220725 1 1 1 0.012003671753793074 0.010002155761037444 0.011120957283335267 1 1 1 0.010002508312822948 1 1 0.010008565208443908 1 0.01308835590840788 1 1 1 1 1 0.010035039643357129 1 1 1 1 1 1 1 0.011937574309038178 1 1 1 0.010690816425249789 1 1 1 1 1 1 1 0.011848010171398535 1 1 1 0.010509003084486398 1 0.012111689219902829 1 1 1 1 1 1 1 1 1 0.012894418662982882 1 1 1 1 1 1 1 1 1 1 1 1 1 1 1 1 1 1 1 1 1 1 1 1 1 1 1 1 1 1 1 1 1 1 1 1 1 0.0099716221205493789 1 1 1 0.0099054511023176257 1 1 1 1 1 1 0.011229032186231816 0.0099858235867464479 1 0.0103753124279119 1 0.010476550853623791 1 1 0.012192202135791577 1 1 1 1 0.010319537626165351 0.010865361427424723 0.011377275999710288 1 1 1 1 1 1 1 1 1 1 1 0.010790077284291249 0.010743887546847505 1 1 1 1 1 0.010278634871801678 0.010697921652909094 1 0.010011168554913115 1 0.010759703014148686 1 1 0.010373616440370395 1 1 1 1 0.010291946247934877 0.010008963167812562 1 1 0.011845097384135951 0.011741950562742741 1 1 0.010219763432731527 0.012328548729813774 1 1 0.011807272935567398 1 0.010701195193387303 1 1 1 1 1 1 1 1 1 1 1 1 1 0.010001232319844029 1 0.011428921670469893 1 0.012880673762870115 1 1 0.011539695266900296 1 1 1 1 1 1 0.0099352732820193936 1 1 1 1 1 1 1 1 1 1 1 1 1 1 1 0.010026000181734645 1 1 1 1 1 1 1 0.01083801128553692 1 1 0.01267162760304541 1 1 0.011293848799046748 0.01134873343163228 1 1 1 1 0.010047268217091124 1 1 1 1 1 1 1 1 1 1 1 1 1 1 1 1 1 1 1 0.015898252615866786 1 1 1 1 0.012282354175929378 1 1 0.010077914196863283 0.010004463345666178 1 0.011203503803202971 1 1 1 1 1 1 0.010135282722014432 1 1 0.010046600241410505 1 1 1 1 1 1 1 0.011011551196028183 1 1 0.010026081973653712 1 0.010063161745838238 1 1 1 1 1 1 1 1 1 0.011290885024226427 1 1 0.010174181819820476 1 1 1 1 1 0.010181675301182467 1 1 1 1 1 1 1 1 1 1 1 1 1 1 1 1 1 1 1 1 1 1 0.01015891836446021 0.01005230744858881 1 1 1 1 1 0.011965186315540098 1 1 1 1 0.01163933665494637 1 1 1 1 1 1 0.010115296445709736 1 1 1 1 1 1 1 1 0.010780591034331511 1 1 1 0.0099711034803381809 1 1 0.0099995623332851686 1 1 1 1 1 0.011090947064653259 1 0.011479429098552187 1 1 0.010284495097802894 1 1 1 1 1 1 1 1 0.010231612642182527 1 1 1 1 0.011844039727290499 1 1 1 1 1 1 1 1 0.012968559859453822 1 1 1 1 1 1 0.010104743369032205 1 1 1 0.010000319357704141 1 1 1 1 1 1 1 1 1 1 1 1 0.010232941518268073 1 1 1 1 1 0.0099631152355749777 1 1 1 1 1 1 1 1 1 1 1 1 1 1 1 1 1 1 1 1 1 1 1 1 1 1 1 1 1 1 1 0.010147124224246087 0.010629637457634188 1 1 1 1 1 1 1 1 1 1 1 1 1 1 1 1 1 1 0.011539884691656985 1 1 1 0.013848789133631433 1 1 1 1 0.01236505177256025 0.01008488009861791 1 1 1 1 0.0099300730739594386 1 0.010339886783256338 1 1 1 1 0.010003164847242471 1 1 1 0.014288336786089826 1 1 1 1 1 1 0.010104898425067437 1 1 0.012309204288950408 1 1 0.013396451062493549 1 1 1 1 1 1 1 1 1 0.010858401525449365 1 1 1 1 0.010966031325778567 1 1 1 0.0099759503844328041 1 1 1 1 1 0.010742147847594858 1 1 1 1 1 0.010572142884294578 1 1 1 1 0.010794357130375831 1 1 1 1 1 1 1 1 1 1 0.010767093187861499 1 1 1 1 0.010299858096952018 1 1 1 0.010461071092102252 1 1 1 1 1 1 1 1 1 1 0.010565729222970683 1 1 1 0.01134624512301439 0.0099633556309486389 1 1 1 1 1 1 1 1 1 1 1 0.010714234402646308 1 1 1 0.010736615443206511 1 1 1 0.01053109193605143 1 1 1 1 1 0.010544265534953049 1 1 0.010148823408398249 1 1 1 1 1 1 1 1 1 1 1 1 1 1 1 1 0.01000340597319177 1 0.0099769731255634764 1 1 1 1 1 0.0099880321087901028 1 1 1 1 1 1 1 1 1 0.0099486036563039212 1 1 1 1 1 1 0.010733160946980104 1 1 1 1 1 1 1 0.010285486918083677 1 1 1 1 1 0.010426946107633315 1 0.01010297829715052 1 0.011058963647858244 1 1 0.0097574305900337312 1 1 1 1 1 0.010718088789561016 0.011308900877356514 1 0.011080480589049129 1 1 0.010240486414185566 0.0099093931558908721 1 1 1 1 1 1 1 0.010994825638080335 1 1 1 1 1 1 1 1 1 1 1 1 1 1 1 1 1 0.011508287061869071 1 1 1 0.010162066195438376 1 0.010227126710686582 1 1 1 1 0.010075526607625047 1 1 1 1 0.010390759623893062 1 1 1 1 0.01019417010232186 1 1 0.010281432723412132 1 1 1 1 1 1 1 1 1 1 1 1 0.010126667372674078 1 1 1 1 1 1 1 0.010039967219285059 1 1 1 1 0.010016804869268692 1 1 1 1 1 1 1 1 1 1 1 1 1 1 1 1 1 1 0.010062818093925379 1 1 1 1 1 0.010358620184104409 1 1 1 1 0.01367587119484095 0.013719905597323317 1 1 1 1 1 0.011102388307809003 1 1 0.0099443803382699703 1 1 0.013503899060865765 1 1 1 1 1 1 1 1 1 1 1 1 1 1 0.0099839895175150087 1 1 1 1 1 1 1 0.017071924230669007 1 1 1 1 1 1 1 0.012438883923821895 1 0.012048959732496829 1 0.013650500418653086 1 1 1 1 0.0088898932619585237 1 0.0098595008500151678 1 1 1 0.014391294038759054 1 1 1 0.010025447862382629 1 1 1 0.012777879226405565 1 1 1 1 1 0.016636353797545481 1 1 1 0.015874472601125046 1 1 1 1 1 0.0099347386047900881 1 1 1 0.010836171563470016 1 1 1 1 1 1 0.010301827215170308 1 1 0.010353734147608762 1 1 0.00954808864643957 1 1 1 0.010802752170471819 1 1 1 1 1 1 1 1 1 0.010067613256449202 1 1 1 0.0099832606397814681 1 1 0.010378226073251094 1 1 1 1 1 1 1 1 1 0.010019429789700999 1 1 1 1 1 1 1 1 1 1 0.014932621898052497 1 0.0099851138311816048 1 1 1 0.010023367592607645 1 1 0.010020341444190959 1 1 1 1 1 1 1 1 1 1 1 1 0.013793572449573008 1 1 0.012598724549906602 1 1 1 1 1 1 1 1 1 1 1 1 1 1 1 1 0.011010423198427642 1 1 1 1 1 1 1 1 1 1 1 1 1 1 0.011125068511967217 1 1 1 0.011435271015748701 1 1 1 1 1 1 0.01033417947654691 1 1 1 1 0.010689815347006712 1 1 1 1 1 1 1 1 1 1 1 0.0096030510019258688 1 1 1 1 1 1 1 1 1 1 1 1 1 1 1 0.011065096888308781 1 1 1 1 1 1 0.010768844446960878 1 1 1 0.010536076234385731 1 1 0.011303502629702415 1 1 1 1 0.012723768828518269 1 1 1 1 1 1 1 1 1 1 1 1 0.012904527492941201 1 1 1 1 1 1 0.0098595310655377362 0.013716371125059617 1 0.0098906141759306163 1 1 1 1 1 1 1 1 1 1 1 1 1 1 1 1 0.010910926974267883 1 1 1 0.012267983428084845 1 1 1 1 1 1 1 1 1 0.011402810986355321 1 1 1 1 1 1 1 1 1 1 0.0111152223674836 1 1 1 1 0.010461064100080904 1 1 1 1 1 1 1 1 1 1 1 1 1 0.010266960446723136 1 1 1 1 1 1 0.0098123160525040616 1 1 1 1 1 1 1 1 1 1 1 1 1 1 0.010066850980752403 1 0.01013739066134777 1 1 1 1 1 1 1 1 1 0.0093177857628721807 1 1 1 1 1 1 1 1 1 1 1 1 1 0.0099630408621930074 1 1 1 1 0.013436636605478888 0.012812079226176672 1 1 1 1 1 0.014506519340399619 1 1 1 1 1 1 1 1 1 1 1 0.01020581641993744 1 0.013050638491693056 1 1 1 1 0.010546356352514033 0.010025238443153018 1 1 1 1 1 0.0099565984682313067 1 1 0.010074599240450167 0.0099990673540849666 1 0.010070539680595366 0.008693860605442711 1 1 1 1 1 1 1 1 1 1 1 1 1 1 1 1 1 1 1 1 1 1 0.010576140924214999 1 1 1 1 1 1 1 0.0099952903727380856 1 1 1 1 1 0.011080190674452093 1 1 0.010327506579225041 0.010373717208673224 1 0.010342578316551597 1 1 1 1 1 1 0.010138765191281606 1 1 1 1 1 1 1 1 1 1 1 1 1 1 1 1 1 1 1 1 1 1 1 1 1 1 1 1 1 0.010264363235962524 1 1 1 1 1 1 1 1 0.0100690036054806 1 1 1 1 1 1 1 1 1 1 1 1 1 1 1 1 1 0.010538783125686891 1 1 1 1 1 1 0.010398628197996364 1 1 1 1 1 1 1 1 1 1 1 1 1 1 1 1 1 1 1 1 1 0.010746214044458323 1 1 1 0.010268439723253331 1 1 1 1 1 1 1 0.010631083444132506 1 1 1 1 1 1 1 0.010630300335792767 1 1 1 1 1 1 1 1 1 1 1 1 1 1 1 1 1 1 1 1 1 1 1 1 1 1 1 0.010367706858769874 1 1 1 1 1 1 1 1 1 1 1 1 1 1 1 0.010450664963564614 1 1 1 1 1 1 1 1 0.010267656614913592 1 0.010216431295681396 1 1 1 1 1 0.010274419889724367 1 1 1 1 1 1 1 1 1 1 1 1 1 1 1 1 1 1 0.010501194114606354 1 1 0.0095933726393738466 1 1 1 1 1 0.01099608003221839 1 1 1 1 0.0087126796090265315 0.012765771911992376 1 1 1 1 1 1 1 1 1 0.0099352875522478405 1 1 0.01068292400185354 1 1 1 1 1 1 1 1 1 1 1 1 1 1 1 1 1 0.010460514687692055 1 1 1 1 1 1 1 0.0097506823421766343 1 1 1 1 0.0091753143800344297 1 1 1 1 1 1 1 1 1 1 1 1 1 1 1 1 1 1 1 1 0.010145297544608391 1 1 1 1 0.01101066333871574 1 1 1 1 1 1 0.012290038055663196 1 1 1 1 1 1 1 1 1 1 1 1 1 1 1 1 1 1 1 1 1 1 1 1 1 1 1 1 1 1 1 1 1 1 1 1 1 1 1 1 1 1 1 1 1 1 1 1 1 0.010264084825045065 0.010050154656991991 1 1 1 1 0.010562991610032383 1 1 1 1 0.010079012192272254 1 1 1 1 1 1 1 1 1 1 1 1 1 1 1 1 0.01008148620562776 1 1 1 1 1 1 0.010882237770295474 1 1 1 1 1 0.010037924818929523 1 1 1 1 1 1 1 1 1 1 1 1 1 1 1 1 1 1 1 0.010062773292693561 1 1 1 1 1 1 1 1 1 1 1 1 1 1 1 1 0.010746478076047006 1 1 0.0095650429178354424 0.010178901639800057 1 1 1 1 0.010009119345865769 0.01029630337441172 0.010182294305134405 1 1 1 1 1 1 1 1 1 1 1 1 1 1 1 1 1 1 0.010443736116958029 1 1 0.010146532391785059 1 1 1 1 1 1 1 1 1 0.010221816142174284 1 1 1 1 1 1 0.010424480841440188 1 1 1 0.01047889129807813 0.010338573691076059 0.010412334733267718 1 1 0.010415239288768547 1 1 0.011369883139408236 1 1 1 1 1 1 1 1 0.010020505658986042 1 1 1 1 0.010103380182655042 0.010120122000954128 1 0.010001974799127542 1 1 1 1 1 1 1 1 1 0.010229616849894999 1 1 1 0.010043597654933994 1 1 0.010942346227571832 0.010075628239565679 1 1 0.010967163250287884 1 1 1 1 0.011812137118066087 1 1 1 1 1 1 1 1 1 1 1 1 1 1 1 1 1 1 0.010952739603817459 1 1 1 1 1 1 1 1 1 1 0.0099729911681751948 1 1 0.010192202868493502 1 1 1 1 1 1 0.010088853290376419 1 1 1 1 1 1 1 1 1 1 1 1 0.0099886478059659951 1 1 1 0.0096663425986445242 1 1 1 1 1 1 1 1 1 1 1 1 0.009296126649922444 1 1 1 1 0.0099653205735201512 1 1 0.011202931399274751 0.011835303986014244 1 1 1 1 1 1 1 1 1 1 1 1 1 1 1 1 1 1 1 1 1 1 1 1 1 1 1 0.010000843386256481 1 1 0.0099465167482200058 1 1 1 1 1 1 1 1 1 1 1 1 1 1 1 1 1 1 1 1 1 1 1 1 0.011849916632502476 1 1 1 1 1 1 1 1 1 1 0.010101254040599868 1 1 1 1 1 0.010066182950245972 0.010000311961131712 1 1 1 0.0092305539359319386 1 1 1 1 1 1 0.010277306123703299 0.011881424962931965 1 0.010089898541826786 1 1 1 1 1 0.012264909663969282 1 1 1 1 1 1 1 1 1 1 1 1 1 1 1 1 1 1 0.011282486441858721 0.010470595776711271 1 1 1 1 0.010780398593129058 1 1 1 1 1 1 1 1 1 1 1 1 0.010005893908039833 1 0.010036372065157458 0.011985927201410737 1 1 1 1 1 1 0.010774189662691135 1 1 1 1 1 0.010673485615348411 0.010549274190346633 1 1 0.01024920171878883 1 1 1 0.01047749441520059 1 1 1 1 1 1 0.010159417799310093 1 0.010011826906777373 1 1 0.010018521791814903 1 0.010121597805425344 1 1 1 0.0099977174550168208 1 1 1 0.010092826150728224 1 1 1 1 1 1 1 1 1 1 1 1 1 1 0.010019096258279592 0.010093348672034208 1 1 1 1 1 1 1 1 1 1 1 1 1 1 1 1 1 0.010077898367544042 1 1 1 1 1 1 1 0.01015923060516595 1 1 1 1 1 1 1 1 1 1 1 1 1 1 1 1 1 1 1 1 1 1 1 1 1 1 1 1 1 1 1 1 1 1 1 1 1 1 1 1 1 1 1 1 1 1 1 0.011206805476836763 1 0.010937936621678714 1 1 1 1 0.010370867263644161 1 1 1 1 1 1 1 1 1 1 1 1 1 1 0.011230653640404003 1 1 1 0.010989545719598157 1 1 1 1 1 1 1 1 1 1 1 1 1 1 1 1 1 1 1 1 0.010267716894853956 1 1 1 1 1 1 1 1 1 1 1 1 1 1 1 1 0.010291592985869699 1 1 1 1 1 1 1 1 1 1 0.0099508204111226645 1 1 1 1 0.01000061384656757 1 1 1 0.010286979131159366 1 0.010148986092622219 1 0.010042820794166345 0.010081505363881593 1 1 0.010298286673352889 1 1 1 1 1 1 1 1 1 1 1 1 1 1 1 1 1 1 1 1 1 1 1 1 0.010164695895008248 1 1 1 1 1 1 0.010011637798683526 1 0.010268749555282106 0.010118940740792472 1 1 1 1 1 1 0.010104590433531674 1 1 1 1 1 1 1 0.010111736081881904 1 1 1 1 1 1 1 1 1 1 1 1 1 1 1 1 1 1 1 1 1 1 1 1 1 1 1 1 0.010125807332974331 0.010223895520463945 1 1 1 1 1 1 1 1 1 1 1 1 1 1 1 1 1 1 1 1 1 1 1 1 1 1 1 1 1 1 1 1 1 1 1 1 1 1 1 0.01007397606910296 1 1 1 1 0.0097801840200628914 1 1 0.0099404878565973985 1 1 1 1 1 1 1 1 1 1 1 1 1 1 1 1 1 1 1 1 1 1 1 1 1 1 1 1 1 1 1 1 1 1 0.0098853292810426336 1 1 1 1 1 1 1 1 1 1 1 1 1 1 1 1 1 1 1 0.010260997586410209 1 1 1 1 1 1 0.0098545179347828554 1 1 1 1 1 1 1 1 1 1 1 1 0.010238714619110217 1 1 1 1 1 1 1 1 1 1 0.0096624700870282 1 1 1 1 1 1 1 1 0.010362453607459719 1 1 1 1 1 1 1 1 1 1 1 1 1 1 1 1 1 1 1 1 1 1 1 1 1 1 1 1 1 1 1 1 1 1 1 1 1 1 1 1 1 1 1 1 1 1 1 1 1 0.0095246593142797285 1 1 1 1 1 1 1 1 1 1 1 1 1 1 1 1 1 1 1 1 1 1 0.010034670801935104 1 0.010052721775269715 1 1 1 1 1 1 1 1 1 1 1 1 1 1 1 1 1 1 1 1 1 1 1 1 1 1 1 1 1 1 1 1 1 1 1 1 1 1 1 1 1 1 1 1 1 1 1 1 1 1 1 1 1 1 1 0.0092550070080158094 1 1 1 1 1 1 1 1 1 1 1 1 1 1 1 1 1 1 1 1 1 1 0.011205083063542622 1 1 1 1 1 1 1 1 1 1 1 1 1 1 1 1 1 1 1 1 1 1 1 1 1 1 1 1 1 1 1 1 1 0.010035558448860865 0.0088110704828902077 1 1 1 1 1 1 1 1 1 1 1 1 1 1 1 1 0.011415823179482032 1 1 1 1 1 1 1 1 1 0.011242745596872657 1 0.010002212037249145 1 1 1 1 1 1 1 0.010536692754310772 0.0095685991972904796 0.010054048013803156 1 1 0.010223266421100816 1 0.011005757595069825 1 1 1 1 1 1 1 0.0099401633858113066 1 1 1 0.0098245333716485313 1 1 1 1 0.0095089523226494117 1 0.010000117268020935 1 0.0097930913967045098 1 1 1 0.0098594114371990966 1 1 1 1 1 1 1 1 1 1 1 1 1 1 1 1 0.010876615875399741 1 1 0.010110928666418943 1 1 1 1 1 0.0096902388342296614 1 1 1 1 1 0.010986804950394943 1 1 0.0099850943133439653 1 1 1 1 1 1 1 1 1 1 1 1 0.01025517215339181 0.010871415470414513 1 1 1 1 1 1 0.010085798075143346 1 1 1 1 1 1 1 1 1 1 1 1 0.010256246078264055 1 1 1 0.01068750800130878 1 1 1 1 0.011018822511602482 0.0099675625256510809 1 1 0.010171954133734317 1 1 1 1 1 1 1 1 1 1 1 1 1 1 0.010125533916095431 1 1 1 0.010001756582242317 1 1 1 1 1 1 0.0099990906247799539 0.0099939615398943939 0.010189250898851839 1 1 0.011052134168329654 1 1 1 0.0098826608430124738 0.0099979210604268405 1 1 1 1 1 0.010778948587571125 1 1 1 1 1 1 0.010484212066075393 1 1 1 1 1 1 1 1 1 0.010330367932979239 1 1 1 1 0.010807665366992698 1 1 1 1 1 1 1 1 1 1 0.010301541355426793 0.010318401279676917 1 1 1 0.010532829332646159 1 0.010360708132339393 1 1 1 1 1 1 1 1 1 1 1 1 1 1 1 1 1 1 1 1 0.010196184560769558 1 1 1 1 0.010424517293386415 1 1 1 0.010192619080205693 1 1 1 1 1 1 1 1 1 1 1 1 0.010879293792342995 0.010390653741177565 1 1 1 1 1 1 1 1 1 1 1 1 1 1 1 1 1 1 1 1 1 1 1 1 1 1 1 0.010162321008560706 1 1 1 1 0.010401996358329536 1 1 1 1 1 1 1 1 1 1 1 1 1 1 1 1 1 1 1 1 1 1 1 1 1 1 1 1 1 1 1 1 1 1 1 1 1 1 1 1 1 1 1 1 1 1 1 1 1 1 1 0.012470609425199779 1 1 1 1 1 1 1 1 0.012006302798343508 1 1 1 1 1 1 1 1 1 1 1 1 1 1 1 1 1 1 1 1 1 1 1 1 1 1 1 1 1 1 1 1 1 1 1 1 1 1 1 1 1 0.0096771643792040139 1 1 1 1 1 0.0090145766859515714 1 1 1 1 1 1 1 0.014672941798912096 1 1 1 1 1 1 0.01536448410323325 1 1 1 1 1 1 1 1 1 0.0096896750983267669 0.014646158590355264 1 1 1 1 1 0.0081575052543631128 1 1 1 1 1 1 1 1 1 1 1 1 1 1 1 1 1 1 1 1 1 1 0.010808055480800494 1 0.012356636995546396 1 1 1 1 1 1 1 1 1 1 1 1 1 1 1 1 1 1 1 1 1 1 1 1 1 1 1 1 1 1 1 1 1 1 1 1 1 1 1 1 1 1 1 1 1 1 1 0.010262947717248991 1 1 1 0.013671476270879447 1 1 1 1 1 1 1 1 1 1 1 1 1 1 1 1 1 1 1 1 1 1 1 1 1 1 1 1 1 1 1 1 1 1 1 1 1 1 1 1 1 1 1 1 1 1 1 1 1 1 1 1 1 1 1 1 1 1 1 1 1 1 1 1 1 1 0.010163654769437319 1 1 1 1 0.010608324933267119 1 1 1 1 1 1 1 1 1 1 1 1 1 1 1 1 1 1 1 1 1 1 1 1 1 1 1 1 1 1 0.010273603463680461 1 1 1 1 1 1 1 1 1 1 0.011196683569110077 1 0.013615285484231705 1 1 0.010060834595753028 1 1 0.012221365617098216 1 1 1 1 0.010068535083240071 1 0.01234119968539465 0.009999248981354552 1 1 1 0.011650635688830513 0.010013691265971486 1 1 1 1 1 1 1 0.009925925469778234 1 0.0099892080857960745 1 1 1 1 1 1 1 0.010407913766492178 0.011195707838290899 0.011715369739268294 1 1 1 1 1 0.010594477378341453 1 1 1 1 0.01080631154668512 1 1 1 1 1 1 1 1 1 1 1 1 1 1 1 0.010403613129707752 1 1 1 1 1 1 1 1 1 0.0099591408108768969 1 1 0.012530259528808478 1 0.012397018333804353 1 1 0.010041613988021838 1 1 1 1 0.0095302867044426351 1 1 0.012049416755376022 1 1 1 1 1 0.011707921545652488 0.010969146470359206 1 1 1 0.0090721065823359901 1 0.0099925082637552474 1 1 1 1 1 1 1 1 1 1 1 0.010299420440674979 1 1 1 0.010827185530645593 1 1 1 1 1 1 1 1 1 0.0096085934617627881 1 1 1 1 0.0092511038317374013 1 1 1 1 0.0096922061683577202 1 1 0.0095532448039045686 1 1 1 1 1 1 1 1 1 0.011332435597520172 0.010247881296101505 1 1 1 1 1 1 0.011387809840827663 1 1 1 1 0.010019912748627745 0.010341403231192753 0.010039182022764048 1 1 1 0.010793983414251697 1 1 0.010509573377885797 1 1 1 1 1 1 1 1 1 1 1 0.0118730240058065 1 0.010603588685061944 1 1 1 0.0099765166459439419 1 0.010033070436936504 0.010689133155969567 1 1 1 1 1 1 1 1 1 1 1 1 1 1 0.0084024136174325713 1 0.011800046104289285 1 1 1 0.0098226664511059224 1 1 1 0.010434207978341868 1 1 1 1 0.011155034980807813 0.010002170880649206 0.010512719426326686 0.010198145788725757 1 1 1 1 1 1 1 1 1 0.010050521127051548 1 1 0.010041247537463232 1 1 1 1 1 1 1 1 0.010685573511166009 1 1 1 1 1 1 1 1 1 1 1 1 1 1 1 1 1 1 1 1 1 1 1 1 0.010636829765573494 1 1 1 1 0.010159280829245871 1 1 1 1 1 0.010483457050884774 1 1 1 1 1 1 1 1 1 0.011206153699330725 1 1 1 1 0.0096667373284596448 1 1 1 1 1 1 1 1 1 1 1 1 1 1 1 0.010390830242259846 1 1 0.010517008269026493 1 1 1 0.010907838511286339 1 1 1 1 1 1 1 1 1 1 1 1 1 1 1 1 1 0.010286502925929517 1 1 0.010446569667579755 1 1 1 1 1 1 1 0.010925066817184123 0.010172121200306769 1 1 1 0.010604904205606433 1 1 1 1 0.010887346786350463 1 1 1 1 0.012603294796013206 1 1 1 1 1 1 0.0090505255041192344 1 1 1 1 1 1 1 1 1 0.0085490844151126875 1 1 1 1 1 1 1 0.011583467501563936 1 0.010224055252328564 1 0.010005427481147645 1 1 1 1 1 0.01080195825637674 1 1 1 1 0.013651071485365256 1 1 1 1 1 1 1 1 1 1 1 1 1 1 1 1 1 0.010120754929036703 1 0.011930250528231202 1 1 1 1 1 1 0.011585927344617266 1 1 1 0.0096985359838678703 1 1 1 1 1 1 1 1 1 1 1 1 1 1 1 1 1 1 1 1 1 1 1 1 1 1 1 1 1 1 1 1 1 1 0.0099436038771064644 1 1 1 1 1 1 1 1 1 1 1 1 1 1 1 1 1 1 1 1 1 1 1 1 1 1 1 0.0099754644028266937 1 1 1 1 1 1 1 1 1 1 1 1 1 1 1 1 1 1 1 1 1 1 1 1 1 1 1 1 1 1 1 1 1 1 1 1 1 1 1 1 1 0.010543463750210345 1 1 1 1 1 1 1 1 0.0099987641371664278 1 1 0.01000930580620436 1 1 1 1 1 1 1 1 1 1 1 1 1 1 1 1 1 1 0.011790725957664793 1 1 0.01003250342942221 1 1 1 1 1 1 1 0.011395409713353248 1 1 1 0.01092326180981857 1 1 1 1 1 1 1 1 1 1 1 1 1 1 1 1 1 0.010333939128734954 1 1 1 0.0094433889640192052 1 0.013823433446672074 1 1 1 1 0.0091520063226126908 1 1 1 1 1 1 1 1 1 1 1 1 0.013372990966454886 1 1 0.0099387204454609891 1 0.013694270282807701 1 1 1 1 1 1 0.011306155061594306 1 0.010897755949537947 1 1 0.010351988614554126 1 1 1 1 1 1 1 1 1 1 1 1 1 1 1 1 1 1 1 1 1 1 1 1 1 0.010051948486786689 1 1 1 1 1 1 1 1 1 1 1 0.010971369122167608 1 1 1 1 1 1 1 1 1 1 1 1 1 1 1 1 1 1 0.0099850958824200583 1 1 0.010095347525551496 1 1 1 1 1 1 1 1 1 1 1 0.0099127957621368973 1 1 1 0.010352451559829914 1 1 1 1 1 1 1 1 1 1 1 1 1 1 1 1 1 1 1 1 0.011925443129948013 1 1 0.010749128395376457 1 1 1 1 1 1 1 1 0.010979035773501481 1 1 1 1 1 1 1 1 1 1 1 1 0.011870674552143332 1 1 0.012095060528246455 1 1 1 1 1 0.012993954139015829 1 0.010752990130170191 1 1 1 1 1 1 1 1 1 1 1 1 1 1 1 1 1 0.01055114964273582 1 1 1 1 1 1 1 0.010189518412354166 1 0.0081794822684301514 1 1 1 1 1 1 0.010040004145748519 1 0.010116862741177974 1 1 0.0085202120893292654 1 1 1 1 0.011734043510452128 0.012119520345575029 1 1 0.014015938104037064 0.0087856614797503195 1 0.0091476353819688536 0.011027041811846699 0.011730578710013623 1 1 0.010523277171352385 1 1 0.0097644709911482146 1 1 1 1 1 1 0.013920441985400673 0.0092473410841839923 1 1 1 1 1 1 1 1 1 1 0.0094087930422271197 1 1 1 1 1 1 1 1 1 1 1 1 1 1 1 1 1 1 1 1 1 1 1 1 1 1 1 1 1 1 1 1 1 1 1 0.009635429790293866 1 1 1 1 1 1 0.010330105695253545 1 1 1 0.0099312886749978041 1 1 1 1 1 1 1 1 1 1 1 0.010043512863682432 1 1 1 1 1 1 1 1 0.0097325804775923157 1 1 1 1 1 1 1 1 1 0.010088220555060735 1 0.009982889817129012 1 1 1 1 1 1 1 1 1 0.0091530611088416376 1 1 1 1 1 1 1 1 1 1 1 1 1 0.018221598942242616 1 1 0.010013353713315486 1 0.013040292588578167 1 1 1 1 0.01234319158389309 1 1 1 1 0.010308846245438805 1 1 1 1 1 1 1 1 1 1 1 1 1 1 1 1 0.010780793907730221 0.010631842186827318 1 1 1 1 1 1 1 1 1 1 1 1 1 1 1 1 1 1 0.017890715067990729 1 1 1 1 1 1 1 1 1 0.010292555222032979 1 1 1 1 0.016558684755489477 1 1 1 1 1 1 1 1 0.010671552542739783 1 1 0.012825095117436253 1 0.011330812415517203 1 1 0.013276094499329906 1 1 0.010023866012022818 1 1 1 1 1 0.010268928388565071 1 1 1 1 1 1 1 1 1 1 1 1 1 1 1 1 1 1 1 1 1 1 1 1 1 1 1 0.010470140461004312 1 1 1 1 0.011207016869288218 1 1 1 1 1 1 1 1 1 1 1 1 1 1 1 1 1 1 1 1 1 1 1 1 1 1 1 1 1 1 1 1 1 1 0.010826278784770542 1 1 1 1 1 1 0.011896632450160628 0.010718798664199019 1 1 1 1 1 1 1 1 0.012403015370032138 0.011048903152070922 1 1 1 1 1 1 1 1 1 1 0.013069619855241958 1 1 1 1 1 1 1 1 1 1 1 1 1 1 1 1 1 1 1 1 1 1 1 1 1 1 1 1 1 1 1 1 1 1 1 1 1 1 1 1 1 1 1 1 1 1 1 1 1 1 1 1 1 0.010593035536302069 1 0.011513191457178114 1 1 0.011912035023537196 1 1 1 1 1 0.0100270442377717 0.01069509128653881 1 1 0.0097927907163049069 1 1 1 0.0099575076381345912 1 1 0.0099202774292533134 1 1 0.010284722939466806 1 1 0.0099635659949376659 1 1 1 1 1 1 1 1 1 1 1 0.0099753041630543538 1 0.010391268975683677 1 1 0.010811549114929804 1 1 1 1 1 0.011096736315887774 1 1 1 1 0.010054721818423351 1 0.0099988224972052883 0.0099855247556391094 1 1 1 0.010344665577192855 1 1 0.0099510259197145672 1 1 0.010002955259736216 1 1 1 1 0.0098513506198790214 1 1 1 0.010241544096308853 1 1 1 1 1 1 1 1 1 1 1 0.010444847284904524 1 1 1 1 0.0098516494180819619 1 1 1 1 1 1 1 0.0099036259429852759 1 0.0098587964031384753 1 1 1 1 1 1 1 1 1 1 1 1 1 1 1 0.0099667099131402221 1 1 1 1 1 1 1 1 1 1 1 1 1 0.0099169853566249289 1 0.010030277560138986 1 0.010207908239444938 0.0099073452821043292 1 1 1 1 1 1 1 1 1 0.011181419937659207 1 0.01030838951462049 1 1 1 1 1 0.013252108313654729 1 1 1 0.010052174022522221 1 1 1 1 1 1 1 1 1 0.010137545573237212 1 1 1 0.010040886851869258 1 1 1 1 1 1 1 1 1 1 1 1 1 1 0.010754934471275474 1 1 1 1 0.012443929611854358 1 0.010020517672181012 1 0.010477713760888062 1 1 1 1 1 0.011241432088937086 1 1 1 1 1 1 0.010551310697206504 1 1 0.012120043789114188 1 1 0.011464227775886539 1 1 0.010586204292712635 1 1 1 1 1 1 1 0.010690121391730581 1 1 1 1 1 1 1 0.010050134101683969 1 1 1 0.010140631570427158 1 1 1 0.010029616429502959 1 1 1 1 1 1 1 1 1 1 1 1 1 1 1 1 1 1 1 0.0085790032287847914 1 0.0099703052468502317 1 0.013589892324311697 1 1 1 0.010100672730376212 1 1 0.010738166046976525 0.0099974336348803844 1 0.010976837467221596 0.011512585868273565 1 1 1 0.011548079473080139 1 1 1 1 1 1 1 1 1 1 1 1 1 1 1 1 1 0.0099778075770941849 1 0.011997292137415742 1 1 0.011391706148775224 1 0.0099765251828462086 0.011866413818088214 1 0.010015067061246779 1 1 1 1 1 1 1 1 1 1 1 1 1 1 1 1 1 1 1 1 1 1 1 1 1 1 1 1 1 1 1 1 1 1 1 1 1 1 1 1 1 1 1 0.0097143079487989892 0.0099512980435097678 1 1 1 0.010056478416971871 1 1 1 1 0.010004174695838483 0.010236425072480774 1 1 1 0.012410226326029023 1 1 1 1 0.009365274686717882 1 1 1 1 1 1 1 1 1 1 1 1 1 1 1 1 1 1 1 1 1 1 1 1 1 1 1 1 0.010042856734147777 1 1 0.013114316336615882 1 1 1 1 1 1 1 1 1 1 1 1 1 1 1 1 1 1 1 1 1 1 1 1 1 1 0.010248568620851746 1 1 1 0.0099324458180175771 1 1 1 0.010178981875972505 1 1 1 0.0095821440606100334 0.0088988104273653758 1 1 1 0.0093075001970538435 1 1 0.010841493300837135 1 1 1 1 0.0094655465769824913 1 0.0099954545230704402 1 0.01036643091968123 0.0095466127943598933 1 1 1 1 1 1 1 1 1 1 1 0.011991156476436697 1 1 0.010100295444466728 0.012418996609134167 1 1 1 1 0.011126571432287777 1 1 1 0.0093442025643918937 0.010696396007247444 0.010561103637682943 1 0.010794464012260325 1 0.010258031288716093 1 1 0.011151108634492042 1 1 0.0093830386530999142 1 0.010360361593148697 1 1 0.0099701093915363012 1 1 1 0.0097004690334411281 1 0.010032768685368208 1 1 1 1 1 1 0.010231510573334957 1 0.0096201098942125425 1 1 0.0099662725358196577 1 0.01010053390671586 1 0.0099886393674526053 1 1 1 0.010742395224176448 1 1 1 1 1 1 1 0.010329284668886796 1 1 1 1 1 1 1 1 1 1 1 1 1 0.010654462932038132 1 1 1 1 0.010512065565383089 1 1 1 1 1 1 1 1 0.010712675531347264 1 1 1 1 1 1 1 0.0099823429233569586 1 0.010841952974375617 1 1 1 1 1 1 1 1 1 1 1 1 1 1 1 1 1 1 1 1 1 1 0.01008446681506419 1 0.01048314770821812 0.010050549728700299 1 1 1 1 1 1 1 1 1 1 1 1 0.01051439907879596 1 1 0.010184316487623662 1 1 1 1 1 1 1 1 1 1 1 0.010748432949108763 1 0.010418350357936465 1 1 1 1 1 1 1 1 1 1 1 1 1 1 1 1 1 1 1 1 1 1 1 1 0.010062429867377756 1 1 1 1 0.010120367336538663 1 1 0.012348247885339936 1 1 1 1 1 1 1 1 1 1 1 1 1 0.011426624001607034 1 1 1 1 1 1 1 0.011143961211409805 1 1 1 1 1 0.011197133501510357 0.011624566287602224 1 1 0.010068816526676518 1 0.0099807002758326852 1 0.010010752596080651 1 0.010495503111674699 1 1 1 1 1 0.012400929462168801 1 1 1 0.011992726012304068 1 1 1 0.0098630268423238934 1 1 1 1 1 1 1 1 1 1 1 1 0.010125452570129582 1 1 1 0.012272861609805065 1 1 0.011900686293084502 1 0.010372867949322895 1 1 0.010462440527865781 0.012870618674237741 1 1 1 1 1 1 1 1 1 1 1 1 1 1 1 1 1 1 1 1 1 0.0098001129765185133 1 1 1 0.0093526345405438947 1 0.0097510543667550433 1 1 0.009524068798885189 0.0092045449482596256 1 1 1 0.01342295475413067 1 1 0.010734898082581453 1 1 1 1 1 1 1 1 1 1 0.010759807315380784 1 0.010038715484943461 1 1 1 1 1 1 1 0.011044228724679712 1 1 1 1 1 1 0.011817259494055243 1 0.011437114558492178 1 1 1 1 1 1 1 1 1 1 0.010130063240972887 0.01364353352638201 1 1 1 1 1 0.012816163021518197 1 1 1 1 1 1 1 0.010228644050961386 1 1 1 1 0.010332378949697685 1 1 1 1 1 1 1 1 1 1 1 1 1 1 1 1 1 1 1 1 1 1 1 1 1 1 1 1 1 1 0.010331189083683618 1 1 1 1 0.010306302643554735 1 1 0.010446471903808789 1 1 1 1 1 1 0.010054984796596191 1 1 1 1 1 1 1 1 1 1 1 1 1 1 0.01013549427430567 0.010199123953291129 1 1 1 1 1 1 1 1 1 1 1 1 1 1 1 1 1 1 1 1 1 1 1 1 1 1 1 1 1 1 1 1 1 1 1 1 1 0.010161615489294343 1 1 1 1 1 1 1 0.01010717869026361 1 0.0099997966173744034 0.010087029935372801 1 1 1 1 0.0099996643314467521 1 1 1 0.0095421648221263294 1 1 1 1 0.01031773041417209 1 1 1 1 1 1 0.01010083340726659 1 1 1 0.010133695037915976 1 1 1 1 1 1 1 1 1 1 1 1 1 1 1 1 1 1 1 1 1 0.010003859801191462 1 1 0.010041351761869963 1 1 1 1 1 1 1 1 1 1 1 1 0.012402544195700319 1 1 1 1 0.0099324162298180339 1 1 1 1 1 1 1 1 1 0.010540155833026813 1 1 1 1 1 1 1 1 1 1 1 0.010265558449316294 1 1 1 1 1 1 1 1 1 1 1 1 1 1 1 0.010190866264999708 1 1 1 1 1 0.010504182699963387 1 1 1 1 1 1 1 1 1 1 0.01008176438874542 1 1 1 1 1 1 1 1 1 1 1 1 1 1 0.010005118176541844 1 1 1 1 1 1 1 1 1 1 1 1 1 1 1 1 1 1 0.010079562605932284 1 1 1 1 1 1 0.010005120147830598 1 1 1 1 1 1 1 1 0.0099972779644205267 1 1 1 1 1 0.0099207159755933978 1 1 1 0.0099898874211377022 1 1 0.0099776595809887587 1 1 1 1 1 0.010000285865872569 0.010080921955327445 1 1 1 1 1 1 1 0.010000383511761956 1 1 1 1 1 1 0.010342904360154174 1 0.009999408599022647 1 1 0.010041398631081574 1 1 1 1 1 1 1 1 1 1 1 0.010345219433542916 1 1 1 1 0.010055881889369763 1 0.010322029764303754 1 0.010016970435023767 1 1 1 1 1 1 1 1 1 1 1 1 1 1 1 1 1 1 1 1 1 1 1 1 0.01067288629575781 1 1 1 1 1 1 1 0.010075266430060015 1 1 1 1 1 1 1 1 1 0.01023862425064709 1 1 1 1 1 0.010231971160773472 1 1 1 1 1 1 1 1 1 0.010161185802109696 1 1 1 1 1 1 1 1 1 1 1 1 1 1 0.0099872819927217249 1 1 1 1 0.0097937188940225954 1 1 0.010494452466227624 1 1 1 1 1 0.010844297353642328 1 1 1 1 1 1 1 1 1 1 0.010352496098883749 1 1 1 1 1 1 1 1 1 1 1 0.0091263712488737873 1 0.01130476880481881 1 1 0.010022057779637461 1 1 0.01136735172198694 1 1 1 1 0.010049473097286866 1 1 0.011458634979938331 1 1 1 0.0099972250775682385 0.010277879717333519 0.011829669508508407 1 1 1 1 1 1 1 1 1 0.011551832107626175 1 1 1 1 0.0099576635085670204 1 1 1 1 0.0096696479856333596 1 1 1 1 1 1 1 1 1 0.010751092119967238 1 1 1 0.013221812810048831 1 1 1 1 1 1 1 1 0.012652079659672903 1 1 0.010113617103239709 1 1 1 1 1 1 1 1 1 1 1 1 1 1 1 1 1 1 1 1 1 1 0.012097667090096811 1 0.010156494554993976 1 1 1 1 1 1 1 1 1 0.01148565845755427 1 1 1 1 1 1 1 1 1 0.010521657282001847 1 1 1 0.010251644719924841 0.012007232524644376 1 1 1 1 1 0.011346548852365374 1 0.011526448055651773 1 1 1 1 0.010182154886764012 1 1 0.010111150006270995 1 1 1 1 1 1 1 1 1 1 0.01145182175419669 1 1 1 1 0.011188298386270456 1 1 0.010456874805365212 1 1 1 0.011425908684971326 1 1 0.011174681936711452 1 0.014806974568279629 1 1 1 1 0.014243679848336261 1 1 1 1 1 1 1 1 1 0.010223239233819036 1 1 0.013548888283262287 1 1 1 0.01057973941844702 1 1 1 1 1 1 1 1 1 1 1 1 1 1 0.011712081976450579 1 1 1 1 1 1 1 1 1 1 0.012677349296574622 1 1 1 1 1 1 1 1 1 1 1 1 1 0.010359078858148752 1 1 1 1 1 0.010131226374420958 1 0.010012159998433696 1 1 1 1 1 1 0.011045505586617035 1 1 1 1 1 1 0.012241712816065236 1 1 0.012628649139009913 1 1 1 1 1 1 1 1 1 1 1 0.01054501098925107 1 1 1 1 1 1 1 0.010006452278327131 1 1 1 1 1 1 0.012383994812216258 1 1 1 1 1 1 0.011560634944734647 1 1 1 1 1 1 0.0099985891922144618 1 1 1 1 0.010379691227835774 0.011423889594226881 1 1 1 1 1 1 1 1 1 1 0.0095619740727961346 1 1 0.0097162120259726998 1 1 1 1 1 0.0098952792269915574 1 1 1 1 1 1 1 1 1 0.0099571632856931633 1 1 1 1 0.0099129878797060891 1 1 1 1 1 1 1 1 1 0.010141853713759839 1 1 1 0.011757785400860933 1 1 1 1 1 1 1 1 1 1 1 1 1 1 1 1 1 1 1 0.010063308653849126 1 1 1 1 1 1 0.010029017756333899 1 1 1 1 1 1 1 1 1 1 1 1 1 1 1 1 1 1 0.009999902620286362 1 1 0.0099558245940129294 1 1 1 1 1 1 1 1 1 1 1 1 1 1 1 1 1 1 1 1 1 1 1 1 1 1 1 0.010001027369855101 1 1 1 1 1 1 1 1 1 1 1 0.01001903543803186 1 1 1 1 1 1 1 0.010007107438614387 1 1 0.010009958969873556 1 1 1 1 1 1 0.010034863790082046 0.010022369471946504 1 1 1 1 1 1 1 1 1 1 1 1 0.010015780380546525 1 1 1 0.01007654127146485 1 1 1 1 0.010061172114248047 1 1 1 1 1 1 1 1 1 1 1 1 1 1 1 1 1 1 0.010019494632865247 1 1 1 1 1 1 1 1 1 1 1 1 1 1 1 1 1 1 1 1 1 1 1 1 1 1 1 1 1 1 1 1 1 1 1 1 1 1 1 1 1 1 1 1 1 1 1 1 1 1 1 1 1 1 1 1 1 1 1 1 1 1 1 0.010991356101148516 1 1 1 1 1 1 1 1 1 1 1 1 1 1 1 1 1 1 0.009992977521985847 1 1 1 1 0.0097861293459327054 1 0.010064117554051306 1 1 1 1 1 1 1 1 1 1 1 0.012312466884748309 1 0.012803949352771753 1 1 1 0.010552067304252902 1 0.011399817694004281 1 1 1 1 1 1 1 1 1 1 0.010703040891243111 1 1 1 1 1 1 0.010866529958224005 1 1 1 1 1 0.014569252750895843 0.012577977537531969 1 1 1 1 1 1 1 1 0.010265039969750676 1 0.010099193704889098 1 1 1 1 1 1 1 1 0.009483564853160268 1 1 0.0091225454315760693 1 1 0.014622831400983399 1 1 1 1 0.014552079070459488 1 1 0.013615577284773753 1 1 1 0.011447103805278818 0.012971315509800411 1 0.0095966226030712708 1 1 0.010316904105804619 1 1 1 1 1 1 1 1 1 1 1 1 1 1 0.011038788578194942 0.012707472657516282 1 1 1 0.010316768522771446 1 1 1 1 1 1 0.010040148342280692 1 1 0.010685120862954037 0.012781755984767502 1 1 1 0.0094974876183151168 0.010994781189717747 1 1 1 1 1 1 0.010194655010769415 1 1 0.0099081171823329761 1 1 1 1 1 1 1 1 1 1 1 1 0.010440906764198959 1 0.010449893777678236 1 1 1 1 1 0.010070434887874352 1 1 1 1 0.01020364202424869 1 1 1 1 1 1 1 0.011382850458318749 1 0.0098735749946232652 1 1 1 1 1 1 1 1 1 0.010778224270522902 0.010026063061674851 1 1 1 0.010265406441704971 1 1 1 1 1 1 1 1 1 1 1 1 1 1 1 1 1 1 1 1 1 1 1 1 1 1 0.010520670753111975 0.011055362157494225 0.011725886023122831 1 1 1 1 0.010016053473674189 1 1 1 1 0.012435248449040343 1 1 0.010189216555310845 1 1 1 0.012386181380402511 1 1 1 0.011997834317176518 1 1 1 0.010120096597010278 1 0.012183287248108483 0.010710502383027285 1 1 1 1 1 1 1 1 1 1 1 0.01200102917729523 1 1 1 1 1 0.013001582490538182 1 1 0.010366103344771548 1 0.010102368821486409 1 1 1 0.012069951907098827 0.0099963781017917315 1 1 1 1 1 1 1 1 1 1 1 1 1 1 1 0.010071603956989866 1 1 1 1 1 0.010116228508800814 1 1 1 0.012683610332825741 1 1 1 1 1 0.012635841180477541 0.009849332285582886 1 1 1 1 1 1 1 1 1 0.0099380325147946143 1 1 0.010007768135506349 1 1 1 1 0.0094513759240375268 1 1 0.010100879435187773 1 0.010002168344799176 1 0.012224744130582658 1 1 1 1 1 1 1 1 1 1 1 1 1 1 0.010268244882615997 1 1 1 1 1 1 1 1 1 1 1 1 0.01217063032558416 1 1 1 1 0.012368608644537774 1 1 0.01138017865558167 0.010300516018711733 0.0091501703173089803 0.010001970651216685 1 1 1 1 1 1 0.010996303447428028 1 1 1 0.0097583368613527594 1 1 1 0.010000169330932028 1 1 1 1 0.010200210426608219 0.010019954817615149 1 1 1 1 0.011981689103302252 1 1 1 0.012066348540950893 1 1 1 1 1 1 1 1 1 1 1 0.011544615817027818 0.012059888337587111 1 1 0.0099931723876851182 1 1 1 1 1 1 0.010274069511510307 1 1 1 1 1 0.010860975141775682 1 0.011116907220843228 0.013343735843815067 1 1 0.011891891950984437 1 1 0.012789948842446025 1 1 0.010697892844320336 1 1 1 1 0.012712709252991408 0.0099715600924313481 1 1 1 1 1 1 1 1 1 0.010240516315118393 1 1 1 1 1 0.010488831962918702 1 1 1 1 1 1 1 1 0.010397132916495891 1 1 1 1 1 1 1 0.011164952100573904 1 0.014047829160404257 1 1 0.00910301844510817 1 1 1 1 0.015259324413702719 1 1 0.015733328857716434 1 1 1 1 1 1 1 1 1 1 1 1 1 1 1 1 1 1 1 1 1 1 1 1 1 1 1 1 1 1 1 1 0.010026497084351268 1 1 1 1 1 1 1 1 1 1 1 1 1 1 1 1 0.010270821450432763 1 1 1 1 0.0099769813992384975 1 1 1 1 1 1 1 1 1 1 1 1 1 0.0097164843158210838 1 1 0.0098046909751612725 1 1 0.010323742158303419 1 1 1 1 1 0.010708907007953673 1 1 1 1 1 1 1 1 1 1 1 1 1 1 1 1 0.01008083745702382 1 1 1 0.0098452914211736627 1 1 1 1 1 1 1 1 1 1 1 0.011232752716247832 1 0.013859485153584872 0.013872399494009717 1 1 1 0.0099776101665769411 1 0.012247295321363379 1 1 0.0099769671939013444 1 1 1 1 1 1 1 1 1 0.012228068543677766 1 1 1 0.010837535052368227 1 1 0.010005601959805129 1 1 1 1 1 1 1 1 0.0099939698823726924 1 1 1 1 1 1 0.010776880671719809 1 1 1 1 1 1 1 1 1 0.0099939021003853518 1 1 1 1 1 1 0.0099883568929687357 1 1 1 1 1 1 0.011112237364278845 1 1 1 0.011618941704548736 1 1 1 0.011220472206492263 1 1 1 1 1 1 1 1 1 0.0099991495956035098 1 1 1 0.010004977721254339 1 1 1 1 1 1 1 1 1 1 1 1 1 1 1 1 1 1 1 0.010919617123694471 1 1 0.012391047672195975 1 1 1 1 1 1 1 1 1 1 1 1 1 1 1 1 1 1 1 1 1 1 1 1 1 1 1 1 1 1 0.012474915189816922 1 1 0.00998418894410367 1 1 1 1 1 1 1 1 1 1 1 0.010001010783518581 1 1 1 1 1 1 1 1 1 1 1 1 1 1 1 1 1 1 1 1 1 1 1 1 1 1 1 1 1 1 1 1 1 1 1 1 1 1 1 1 1 1 1 1 1 1 1 1 1 1 1 1 1 1 1 1 1 1 1 1 1 1 1 1 0.010061834557394792 1 1 1 1 1 0.010165184113292685 1 1 1 1 1 1 1 0.01000058095730018 1 1 1 1 1 1 1 1 1 1 1 1 1 1 1 1 1 1 0.010029896697745021 1 1 1 1 1 1 1 1 1 1 1 1 0.010443073027522865 1 1 1 0.01062320481645925 1 1 0.010923417303815356 0.010936032848211361 1 1 0.011278210673148716 1 1 1 1 1 1 1 1 1 1 1 1 1 1 1 1 1 0.011249189766552583 1 1 1 1 0.010596962212470968 1 1 1 1 1 1 1 1 1 1 1 1 1 1 1 1 1 1 1 1 0.012356930291772294 1 0.010488206440658008 1 1 1 1 1 1 0.010513094377962332 1 1 1 1 1 0.012647560467682357 1 1 0.012775235410116419 1 1 1 1 1 1 1 0.010201933712886095 1 1 1 1 0.010072275864588257 1 1 1 1 1 1 1 1 1 1 1 1 1 1 1 1 1 1 1 1 1 1 1 1 0.010990046496878406 1 1 1 1 1 1 1 1 1 1 1 1 1 1 0.011067314433917185 1 1 1 1 0.011045168401001441 1 1 0.010018610625101416 1 1 0.010335290293664933 1 1 1 1 1 1 1 1 1 1 1 1 1 1 1 1 1 0.010365805090484088 1 1 1 1 1 1 0.010004889135091597 1 0.0099595277223466349 1 1 1 1 1 1 1 1 0.010045859184859398 1 1 0.010117078897956183 1 1 1 1 1 0.010539802857741471 1 1 1 1 1 1 0.011057495449529471 0.010033208024417772 1 1 1 1 1 1 1 1 0.011614055531806991 1 1 1 0.0098773955966082305 0.0121519509221465 1 1 1 1 0.01150350108401072 0.010369973481054309 1 0.01051912082776812 1 1 1 0.010392329866773107 1 1 0.010636613803890577 1 1 1 1 1 1 1 0.010044711396867332 1 1 1 1 1 1 1 1 1 1 1 1 1 0.010093038296096386 1 1 1 0.010160441746796384 0.0101310745998207 1 1 1 1 1 1 1 1 1 1 1 1 1 1 1 1 1 1 1 1 1 1 1 1 1 1 1 1 1 1 1 1 1 1 1 0.010114320644017813 1 1 1 1 1 0.01012721536940253 1 1 1 1 1 1 1 1 1 1 1 0.010057859536089999 1 1 1 1 1 1 1 0.010632929142165192 1 1 1 0.0099993506189047839 1 0.0096215038390665975 1 0.010215241748810088 0.010880074951281085 1 0.010148857941304393 1 1 1 0.010057606122252049 1 1 1 1 1 0.010237086395136359 1 1 1 1 1 1 1 1 1 1 1 1 0.010115991968907816 1 1 1 1 1 1 0.010116997716200261 1 1 1 1 1 0.010339055880971761 1 1 1 1 0.010077208277825741 1 1 1 1 1 1 1 1 1 1 1 1 1 1 1 1 1 0.010078546650049241 1 1 0.010201967389513601 1 1 1 1 1 1 1 1 1 1 0.011052742280346918 1 1 1 0.011037100433983255 1 1 1 1 1 1 1 1 1 1 1 1 1 1 0.0099932566232826588 1 0.0093358887385106143 1 0.01000435043915365 1 0.01092331948175853 1 1 0.011237844035901149 1 0.010000152352079721 0.012847313190375215 1 0.0098079763887520838 1 0.010308534767577869 0.010306422157085769 1 1 1 0.012224705068896183 1 0.010083747705860565 1 1 1 1 1 0.010106477499675654 1 1 1 1 1 1 1 1 1 1 1 1 1 0.010266397060131275 1 1 1 0.010141676719309399 1 1 0.01019486141813249 1 1 1 1 1 0.010557678578536966 1 1 1 1 1 0.010201308910702306 1 1 1 1 1 1 1 1 1 1 1 1 1 1 1 1 1 1 1 1 1 1 1 1 1 1 1 1 1 1 0.010109940480925785 1 1 1 0.010270808022009113 1 1 1 1 1 1 1 1 0.0099342162319952867 1 1 1 0.010039708371309424 0.010664444981591083 1 1 1 1 1 1 1 1 1 0.010148432362024982 0.010864273604277989 1 1 1 1 1 0.011383208571603869 1 1 1 0.011084325261812187 1 1 1 1 1 1 1 1 0.011051310992802991 1 0.010005733559790331 1 1 0.011123424855864806 1 0.011187374017921442 1 1 1 0.011314491442635542 1 0.012245372810150994 1 0.011581190719855727 1 0.010436196405357331 1 1 0.010621112553059699 1 1 0.0098505736714205837 1 1 0.01057683040903816 0.01209769485451917 0.011890016987279317 1 1 1 1 1 1 1 1 1 1 1 0.010164799365617323 1 0.015146102162051806 1 1 1 1 1 0.0097961848485850385 1 1 0.0099325372181653798 1 1 1 1 0.014792648806026418 0.01291483509783692 1 1 0.0099947124284092241 1 1 0.010950644150197118 1 1 1 1 1 1 0.012480647181609489 1 1 0.010214751808225318 1 1 1 1 1 1 1 0.0098108291641335055 1 1 1 0.0099381522675032613 1 1 1 1 0.010025945034971456 1 1 1 1 1 1 1 1 1 1 1 1 1 1 1 1 1 1 1 1 1 1 1 1 1 1 1 1 1 1 1 1 1 1 1 1 1 0.011684893230341987 0.010758758457030095 0.01060792718578191 0.0118608408994302 1 1 1 0.010385217590065509 0.01002769102412014 1 1 1 1 1 0.0099843765148836944 0.010195881547351035 1 1 1 1 1 1 1 1 1 1 1 1 1 1 1 1 1 1 1 1 1 1 1 1 1 1 1 1 1 0.010011033580122595 1 1 1 1 1 0.009928045358143147 1 1 1 1 1 1 1 1 1 1 1 1 1 1 0.01002289992191948 0.010804082963750315 1 1 1 1 1 1 1 1 0.01043488501340582 1 1 1 1 1 1 1 1 0.014214899055436343 1 1 1 1 1 1 0.01089180632888209 1 0.010512684027167299 1 1 1 0.012522385351185716 0.010763165789180426 0.010625737912725492 1 0.012574805613739366 1 1 0.012548319808256915 1 1 1 1 1 1 1 1 1 1 1 1 1 0.010023555128346576 1 1 1 0.010828007045863274 1 1 1 0.012871936121379169 1 1 1 0.0099519416925156201 1 1 1 1 1 0.0098571307413077534 1 1 1 1 1 0.0094831801217920772 1 1 1 1 1 1 1 1 1 1 0.013828923019773922 1 1 1 1 1 1 0.0097659570668196145 1 1 0.012311795350730003 0.0098319010258615877 1 1 1 0.012099286436019579 0.011934310362276459 1 0.014586579173184613 1 0.0096177036706666091 1 1 1 1 0.0098235990397620241 1 1 1 1 0.0099416183838042013 1 1 1 1 1 1 1 1 1 1 1 1 1 1 1 1 0.0099320785943845646 1 1 1 1 1 1 1 1 1 1 1 1 1 1 1 1 1 1 1 1 1 1 1 0.010161948556590097 1 1 1 1 0.010443361185488623 1 1 1 1 1 1 1 1 1 1 1 
</DataArray>
</CellData>
</Piece>
</UnstructuredGrid>
</VTKFile>
